<?xml version="1.0"?>
<VTKFile type="UnstructuredGrid" version="0.1" byte_order="LittleEndian">
<UnstructuredGrid>
<Piece NumberOfPoints="30881" NumberOfCells="10862">
<Points>
<DataArray type="Float64" NumberOfComponents="3" format="ascii">
-0.49999999999999828 -0.48677703703187492 0 -0.5 -0.5 0 -0.48129281494584059 -0.49338851851593718 0 -0.5 -0.5 0 -0.48129281494584059 -0.49338851851593718 0 -0.46258562989168328 -0.5 0 -0.49999999999999828 -0.48677703703187492 0 -0.48129281494584059 -0.49338851851593718 0 -0.49999999999999828 -0.48677703703187492 0 -0.4824545428279598 -0.47451624516148783 0 -0.48129281494584059 -0.49338851851593718 0 -0.49999999999999828 -0.48677703703187492 0 -0.4824545428279598 -0.47451624516148783 0 -0.5 -0.46599539173150673 0 -0.4824545428279598 -0.47451624516148783 0 -0.46853075243710779 -0.48354990242643758 0 -0.46411508256092049 -0.46598235294430129 0 -0.4824545428279598 -0.47451624516148783 0 -0.48129281494584059 -0.49338851851593718 0 -0.46853075243710779 -0.48354990242643758 0 -0.48129281494584059 -0.49338851851593718 0 -0.46258562989168328 -0.5 0 -0.48129281494584059 -0.49338851851593718 0 -0.46258562989168328 -0.5 0 -0.46853075243710779 -0.48354990242643758 0 -0.46258562989168328 -0.5 0 -0.46853075243710779 -0.48354990242643758 0 -0.45147378687733691 -0.48362213557840178 0 -0.46853075243710779 -0.48354990242643758 0 -0.45147378687733691 -0.48362213557840178 0 -0.46411508256092049 -0.46598235294430129 0 -0.4457251648104853 -0.47020164095208389 0 -0.45147378687733691 -0.48362213557840178 0 -0.46411508256092049 -0.46598235294430129 0 -0.4457251648104853 -0.47020164095208389 0 -0.45147378687733691 -0.48362213557840178 0 -0.43513446131126993 -0.48199891714758791 0 -0.45147378687733691 -0.48362213557840178 0 -0.43275163025255442 -0.5 0 -0.43513446131126993 -0.48199891714758791 0 -0.46258562989168328 -0.5 0 -0.45147378687733691 -0.48362213557840178 0 -0.43275163025255442 -0.5 0 -0.4467190029717853 -0.45478934699519452 0 -0.4422915115958943 -0.43555510214664611 0 -0.43246707723660932 -0.44794326854796312 0 -0.4457251648104853 -0.47020164095208389 0 -0.4467190029717853 -0.45478934699519452 0 -0.46411508256092049 -0.46598235294430129 0 -0.4457251648104853 -0.47020164095208389 0 -0.4467190029717853 -0.45478934699519452 0 -0.43016578207734568 -0.46313500011938619 0 -0.4467190029717853 -0.45478934699519452 0 -0.46411508256092049 -0.46598235294430129 0 -0.47114575579794699 -0.4403844242888923 0 -0.4467190029717853 -0.45478934699519452 0 -0.47114575579794699 -0.4403844242888923 0 -0.4422915115958943 -0.43555510214664611 0 -0.47114575579794699 -0.4403844242888923 0 -0.4422915115958943 -0.43555510214664611 0 -0.46411508256092049 -0.46598235294430129 0 -0.47114575579794699 -0.4403844242888923 0 -0.48354307623736548 -0.45841843211146538 0 -0.4824545428279598 -0.47451624516148783 0 -0.46411508256092049 -0.46598235294430129 0 -0.48354307623736548 -0.45841843211146538 0 -0.4824545428279598 -0.47451624516148783 0 -0.48354307623736548 -0.45841843211146538 0 -0.5 -0.46599539173150673 0 -0.48354307623736548 -0.45841843211146538 0 -0.5 -0.46599539173150673 0 -0.49999999999999972 -0.44521374643113848 0 -0.47114575579794699 -0.4403844242888923 0 -0.49999999999999972 -0.44521374643113848 0 -0.47114575579794699 -0.4403844242888923 0 -0.49999999999999972 -0.44521374643113848 0 -0.48704432221743971 -0.42935617662229603 0 -0.47114575579794699 -0.4403844242888923 0 -0.48354307623736548 -0.45841843211146538 0 -0.49999999999999972 -0.44521374643113848 0 -0.49999999999999972 -0.44521374643113848 0 -0.48704432221743971 -0.42935617662229603 0 -0.5 -0.41591957503128979 0 -0.48704432221743971 -0.42935617662229603 0 -0.5 -0.41591957503128979 0 -0.47703153307181151 -0.41590696073786332 0 -0.5 -0.41591957503128979 0 -0.47703153307181151 -0.41590696073786332 0 -0.48817838912021821 -0.4022119694541284 0 -0.47114575579794699 -0.4403844242888923 0 -0.48704432221743971 -0.42935617662229603 0 -0.47703153307181151 -0.41590696073786332 0 -0.5 -0.38662540363144121 0 -0.47568202340906118 -0.39039593841591919 0 -0.4947615751445838 -0.37332156409002909 0 -0.47568202340906118 -0.39039593841591919 0 -0.4947615751445838 -0.37332156409002909 0 -0.5 -0.38662540363144121 0 -0.48817838912021821 -0.4022119694541284 0 -0.47568202340906118 -0.39039593841591919 0 -0.5 -0.41591957503128979 0 -0.5 -0.38662540363144121 0 -0.48817838912021821 -0.4022119694541284 0 -0.47703153307181151 -0.41590696073786332 0 -0.48817838912021821 -0.4022119694541284 0 -0.47568202340906118 -0.39039593841591919 0 -0.47703153307181151 -0.41590696073786332 0 -0.47568202340906118 -0.39039593841591919 0 -0.45660247167353862 -0.40747031274180939 0 -0.47568202340906118 -0.39039593841591919 0 -0.48030931097003587 -0.37191064435083931 0 -0.46669490250066459 -0.37481721741951951 0 -0.47568202340906118 -0.39039593841591919 0 -0.4947615751445838 -0.37332156409002909 0 -0.48030931097003587 -0.37191064435083931 0 -0.45332061783919553 -0.38729481725706361 0 -0.46669490250066459 -0.37481721741951951 0 -0.45095991715087752 -0.36968037302039969 0 -0.47568202340906118 -0.39039593841591919 0 -0.45332061783919553 -0.38729481725706361 0 -0.46669490250066459 -0.37481721741951951 0 -0.47568202340906118 -0.39039593841591919 0 -0.45660247167353862 -0.40747031274180939 0 -0.47568202340906118 -0.39039593841591919 0 -0.45332061783919553 -0.38729481725706361 0 -0.45660247167353862 -0.40747031274180939 0 -0.44332653075004852 -0.401690115615219 0 -0.44646247228389868 -0.41654464256061052 0 -0.42870657106664078 -0.39987574649354879 0 -0.45332061783919553 -0.38729481725706361 0 -0.44332653075004852 -0.401690115615219 0 -0.43479631603355468 -0.39077639303142497 0 -0.45332061783919553 -0.38729481725706361 0 -0.44332653075004852 -0.401690115615219 0 -0.45660247167353862 -0.40747031274180939 0 -0.45332061783919553 -0.38729481725706361 0 -0.43421362475025049 -0.37527491429266319 0 -0.43479631603355468 -0.39077639303142497 0 -0.45332061783919553 -0.38729481725706361 0 -0.43421362475025049 -0.37527491429266319 0 -0.45095991715087752 -0.36968037302039969 0 -0.47114575579794699 -0.4403844242888923 0 -0.45663439814062529 -0.42533932462455271 0 -0.4422915115958943 -0.43555510214664611 0 -0.47114575579794699 -0.4403844242888923 0 -0.47703153307181151 -0.41590696073786332 0 -0.45663439814062529 -0.42533932462455271 0 -0.45663439814062529 -0.42533932462455271 0 -0.45660247167353862 -0.40747031274180939 0 -0.44646247228389868 -0.41654464256061052 0 -0.47703153307181151 -0.41590696073786332 0 -0.45663439814062529 -0.42533932462455271 0 -0.45660247167353862 -0.40747031274180939 0 -0.44332653075004852 -0.401690115615219 0 -0.45660247167353862 -0.40747031274180939 0 -0.44646247228389868 -0.41654464256061052 0 -0.45660247167353862 -0.40747031274180939 0 -0.44646247228389868 -0.41654464256061052 0 -0.44646247228389868 -0.41654464256061052 0 -0.4375229199380159 -0.42454468706769971 0 -0.45663439814062529 -0.42533932462455271 0 -0.4375229199380159 -0.42454468706769971 0 -0.4422915115958943 -0.43555510214664611 0 -0.45663439814062529 -0.42533932462455271 0 -0.44646247228389868 -0.41654464256061052 0 -0.4375229199380159 -0.42454468706769971 0 -0.4375229199380159 -0.42454468706769971 0 -0.4422915115958943 -0.43555510214664611 0 -0.43077617074680319 -0.43406335077952207 0 -0.43077617074680319 -0.43406335077952207 0 -0.42550232634077589 -0.42345940056268039 0 -0.41950844772475421 -0.43888456563633732 0 -0.4375229199380159 -0.42454468706769971 0 -0.43077617074680319 -0.43406335077952207 0 -0.42550232634077589 -0.42345940056268039 0 -0.44646247228389868 -0.41654464256061052 0 -0.41657232816672918 -0.41306671883907142 0 -0.42870657106664078 -0.39987574649354879 0 -0.44646247228389868 -0.41654464256061052 0 -0.4375229199380159 -0.42454468706769971 0 -0.42550232634077589 -0.42345940056268039 0 -0.44646247228389868 -0.41654464256061052 0 -0.42550232634077589 -0.42345940056268039 0 -0.41657232816672918 -0.41306671883907142 0 -0.44646247228389868 -0.41654464256061052 0 -0.41657232816672918 -0.41306671883907142 0 -0.42550232634077589 -0.42345940056268039 0 -0.41657232816672918 -0.41306671883907142 0 -0.41333489101611293 -0.42699700567040988 0 -0.41657232816672918 -0.41306671883907142 0 -0.41333489101611293 -0.42699700567040988 0 -0.39893236021425188 -0.42931692235905211 0 -0.41333489101611293 -0.42699700567040988 0 -0.39893236021425188 -0.42931692235905211 0 -0.41950844772475421 -0.43888456563633732 0 -0.42550232634077589 -0.42345940056268039 0 -0.41333489101611293 -0.42699700567040988 0 -0.41950844772475421 -0.43888456563633732 0 -0.43421362475025049 -0.37527491429266319 0 -0.42478231784314502 -0.38643128255249681 0 -0.41656514696884139 -0.37636588688318029 0 -0.43421362475025049 -0.37527491429266319 0 -0.42478231784314502 -0.38643128255249681 0 -0.43479631603355468 -0.39077639303142497 0 -0.42478231784314502 -0.38643128255249681 0 -0.43479631603355468 -0.39077639303142497 0 -0.42870657106664078 -0.39987574649354879 0 -0.44332653075004852 -0.401690115615219 0 -0.43479631603355468 -0.39077639303142497 0 -0.42870657106664078 -0.39987574649354879 0 -0.41657232816672918 -0.41306671883907142 0 -0.40962993039643741 -0.3898634720616666 0 -0.3946356370269814 -0.39577424904278191 0 -0.42478231784314502 -0.38643128255249681 0 -0.42870657106664078 -0.39987574649354879 0 -0.40962993039643741 -0.3898634720616666 0 -0.41657232816672918 -0.41306671883907142 0 -0.42870657106664078 -0.39987574649354879 0 -0.40962993039643741 -0.3898634720616666 0 -0.42478231784314502 -0.38643128255249681 0 -0.40962993039643741 -0.3898634720616666 0 -0.41656514696884139 -0.37636588688318029 0 -0.40962993039643741 -0.3898634720616666 0 -0.41656514696884139 -0.37636588688318029 0 -0.40465459864295228 -0.37650109000307358 0 -0.39431275766669582 -0.38061373190328529 0 -0.40465459864295228 -0.37650109000307358 0 -0.3968495855878465 -0.36923685638487008 0 -0.40962993039643741 -0.3898634720616666 0 -0.39431275766669582 -0.38061373190328529 0 -0.40465459864295228 -0.37650109000307358 0 -0.40962993039643741 -0.3898634720616666 0 -0.39431275766669582 -0.38061373190328529 0 -0.3946356370269814 -0.39577424904278191 0 -0.3946356370269814 -0.39577424904278191 0 -0.38704143117499401 -0.40999023144455299 0 -0.37464038230528551 -0.396492613407532 0 -0.3946356370269814 -0.39577424904278191 0 -0.37522403377147279 -0.38060127254172499 0 -0.37464038230528551 -0.396492613407532 0 -0.39431275766669582 -0.38061373190328529 0 -0.3946356370269814 -0.39577424904278191 0 -0.37522403377147279 -0.38060127254172499 0 -0.39431275766669582 -0.38061373190328529 0 -0.37522403377147279 -0.38060127254172499 0 -0.38569326772338258 -0.37053454129240582 0 -0.41657232816672918 -0.41306671883907142 0 -0.39893236021425188 -0.42931692235905211 0 -0.38704143117499401 -0.40999023144455299 0 -0.41657232816672918 -0.41306671883907142 0 -0.3946356370269814 -0.39577424904278191 0 -0.38704143117499401 -0.40999023144455299 0 -0.41657232816672918 -0.41306671883907142 0 -0.38704143117499401 -0.40999023144455299 0 -0.38704143117499401 -0.40999023144455299 0 -0.38131756488089769 -0.42670085612339947 0 -0.36377437909963828 -0.41972983174959272 0 -0.38131756488089769 -0.42670085612339947 0 -0.38339996822118783 -0.44368928783448319 0 -0.36866352395763108 -0.4313760290561211 0 -0.39893236021425188 -0.42931692235905211 0 -0.38131756488089769 -0.42670085612339947 0 -0.38339996822118783 -0.44368928783448319 0 -0.39893236021425188 -0.42931692235905211 0 -0.38704143117499401 -0.40999023144455299 0 -0.38131756488089769 -0.42670085612339947 0 -0.38339996822118783 -0.44368928783448319 0 -0.40446438048225181 -0.45117017211807442 0 -0.3895931593355052 -0.46351353191466821 0 -0.39893236021425188 -0.42931692235905211 0 -0.38339996822118783 -0.44368928783448319 0 -0.40446438048225181 -0.45117017211807442 0 -0.40446438048225181 -0.45117017211807442 0 -0.3895931593355052 -0.46351353191466821 0 -0.40280611050484572 -0.47090640128894168 0 -0.38339996822118783 -0.44368928783448319 0 -0.3895931593355052 -0.46351353191466821 0 -0.37415472949075129 -0.45946062715310632 0 -0.3895931593355052 -0.46351353191466821 0 -0.38039451612360919 -0.47713749807852829 0 -0.37415472949075129 -0.45946062715310632 0 -0.38039451612360919 -0.47713749807852829 0 -0.39198476482648659 -0.49312537606366408 0 -0.39366244928105898 -0.47747566409097131 0 -0.3895931593355052 -0.46351353191466821 0 -0.38039451612360919 -0.47713749807852829 0 -0.39366244928105898 -0.47747566409097131 0 -0.39198476482648659 -0.49312537606366408 0 -0.37055643484088358 -0.49425936316784103 0 -0.39198476482648659 -0.49312537606366408 0 -0.40291763061342539 -0.5 0 -0.37308363097429631 -0.50000000000000244 0 -0.39198476482648659 -0.49312537606366408 0 -0.37055643484088358 -0.49425936316784103 0 -0.37308363097429631 -0.50000000000000244 0 -0.38039451612360919 -0.47713749807852829 0 -0.39198476482648659 -0.49312537606366408 0 -0.37055643484088358 -0.49425936316784103 0 -0.39198476482648659 -0.49312537606366408 0 -0.41341309481208982 -0.49199138895948757 0 -0.39198476482648659 -0.49312537606366408 0 -0.39366244928105898 -0.47747566409097131 0 -0.40353369561484831 -0.48269551310905429 0 -0.39198476482648659 -0.49312537606366408 0 -0.40291763061342539 -0.5 0 -0.41341309481208982 -0.49199138895948757 0 -0.39198476482648659 -0.49312537606366408 0 -0.40353369561484831 -0.48269551310905429 0 -0.41341309481208982 -0.49199138895948757 0 -0.3895931593355052 -0.46351353191466821 0 -0.39366244928105898 -0.47747566409097131 0 -0.40280611050484572 -0.47090640128894168 0 -0.39366244928105898 -0.47747566409097131 0 -0.40353369561484831 -0.48269551310905429 0 -0.40280611050484572 -0.47090640128894168 0 -0.40280611050484572 -0.47090640128894168 0 -0.41792735015940108 -0.47619959015896091 0 -0.41524515795200517 -0.46243146669528151 0 -0.40353369561484831 -0.48269551310905429 0 -0.41792735015940108 -0.47619959015896091 0 -0.41341309481208982 -0.49199138895948757 0 -0.40353369561484831 -0.48269551310905429 0 -0.40280611050484572 -0.47090640128894168 0 -0.41792735015940108 -0.47619959015896091 0 -0.41792735015940108 -0.47619959015896091 0 -0.41341309481208982 -0.49199138895948757 0 -0.42480663413382869 -0.48754747406650911 0 -0.40291763061342539 -0.5 0 -0.41341309481208982 -0.49199138895948757 0 -0.43275163025255442 -0.5 0 -0.41341309481208982 -0.49199138895948757 0 -0.42480663413382869 -0.48754747406650911 0 -0.43275163025255442 -0.5 0 -0.42480663413382869 -0.48754747406650911 0 -0.43275163025255442 -0.5 0 -0.43513446131126993 -0.48199891714758791 0 -0.4457251648104853 -0.47020164095208389 0 -0.43513446131126993 -0.48199891714758791 0 -0.43016578207734568 -0.46313500011938619 0 -0.41792735015940108 -0.47619959015896091 0 -0.43513446131126993 -0.48199891714758791 0 -0.43016578207734568 -0.46313500011938619 0 -0.41792735015940108 -0.47619959015896091 0 -0.42480663413382869 -0.48754747406650911 0 -0.43513446131126993 -0.48199891714758791 0 -0.4467190029717853 -0.45478934699519452 0 -0.43016578207734568 -0.46313500011938619 0 -0.43246707723660932 -0.44794326854796312 0 -0.43016578207734568 -0.46313500011938619 0 -0.42051073979218989 -0.45215097324273301 0 -0.41524515795200517 -0.46243146669528151 0 -0.43016578207734568 -0.46313500011938619 0 -0.43246707723660932 -0.44794326854796312 0 -0.42051073979218989 -0.45215097324273301 0 -0.4422915115958943 -0.43555510214664611 0 -0.43077617074680319 -0.43406335077952207 0 -0.43246707723660932 -0.44794326854796312 0 -0.43077617074680319 -0.43406335077952207 0 -0.43246707723660932 -0.44794326854796312 0 -0.41950844772475421 -0.43888456563633732 0 -0.43246707723660932 -0.44794326854796312 0 -0.42051073979218989 -0.45215097324273301 0 -0.41950844772475421 -0.43888456563633732 0 -0.39893236021425188 -0.42931692235905211 0 -0.40446438048225181 -0.45117017211807442 0 -0.41950844772475421 -0.43888456563633732 0 -0.40446438048225181 -0.45117017211807442 0 -0.42051073979218989 -0.45215097324273301 0 -0.41950844772475421 -0.43888456563633732 0 -0.40446438048225181 -0.45117017211807442 0 -0.42051073979218989 -0.45215097324273301 0 -0.41524515795200517 -0.46243146669528151 0 -0.40446438048225181 -0.45117017211807442 0 -0.40280611050484572 -0.47090640128894168 0 -0.41524515795200517 -0.46243146669528151 0 -0.41792735015940108 -0.47619959015896091 0 -0.43016578207734568 -0.46313500011938619 0 -0.41524515795200517 -0.46243146669528151 0 -0.45018232007011222 -0.256765034028549 0 -0.429874989515865 -0.26165756953837482 0 -0.43598079583492633 -0.24721882136819351 0 -0.45018232007011222 -0.256765034028549 0 -0.43765198640052377 -0.27443700488157741 0 -0.429874989515865 -0.26165756953837482 0 -0.45018232007011222 -0.256765034028549 0 -0.43598079583492633 -0.24721882136819351 0 -0.45139902778349827 -0.24711062934306771 0 -0.45018232007011222 -0.256765034028549 0 -0.43765198640052377 -0.27443700488157741 0 -0.46196722525855399 -0.27174391220054139 0 -0.43765198640052377 -0.27443700488157741 0 -0.46196722525855399 -0.27174391220054139 0 -0.4476129789611048 -0.29283803371489903 0 -0.46196722525855399 -0.27174391220054139 0 -0.48050148842732221 -0.25523221810557922 0 -0.46267023581878858 -0.24817136713935201 0 -0.45018232007011222 -0.256765034028549 0 -0.46196722525855399 -0.27174391220054139 0 -0.46267023581878858 -0.24817136713935201 0 -0.45018232007011222 -0.256765034028549 0 -0.46267023581878858 -0.24817136713935201 0 -0.45139902778349827 -0.24711062934306771 0 -0.48050148842732221 -0.25523221810557922 0 -0.5 -0.26944871803204617 0 -0.5 -0.2401545466321974 0 -0.48050148842732221 -0.25523221810557922 0 -0.5 -0.26944871803204617 0 -0.48245797385404121 -0.28063059353633901 0 -0.46196722525855399 -0.27174391220054139 0 -0.48050148842732221 -0.25523221810557922 0 -0.48245797385404121 -0.28063059353633901 0 -0.46196722525855399 -0.27174391220054139 0 -0.48245797385404121 -0.28063059353633901 0 -0.46937090116945868 -0.29821258941183898 0 -0.48245797385404121 -0.28063059353633901 0 -0.5 -0.29874288943189498 0 -0.46937090116945868 -0.29821258941183898 0 -0.5 -0.26944871803204617 0 -0.48245797385404121 -0.28063059353633901 0 -0.5 -0.29874288943189498 0 -0.5 -0.29874288943189498 0 -0.46937090116945868 -0.29821258941183898 0 -0.47623524987602139 -0.32201367690444971 0 -0.46937090116945868 -0.29821258941183898 0 -0.4476129789611048 -0.29283803371489903 0 -0.45018982867155483 -0.32180400573951162 0 -0.46196722525855399 -0.27174391220054139 0 -0.46937090116945868 -0.29821258941183898 0 -0.4476129789611048 -0.29283803371489903 0 -0.43765198640052377 -0.27443700488157741 0 -0.4476129789611048 -0.29283803371489903 0 -0.43236213870239748 -0.29002705800971151 0 -0.4476129789611048 -0.29283803371489903 0 -0.45018982867155483 -0.32180400573951162 0 -0.4314578060398388 -0.3048790663939604 0 -0.45018982867155483 -0.32180400573951162 0 -0.4314578060398388 -0.3048790663939604 0 -0.45018982867155483 -0.32180400573951162 0 -0.46157657978994598 -0.34139555482026068 0 -0.43521386225128428 -0.33802231259611382 0 -0.46157657978994598 -0.34139555482026068 0 -0.43521386225128428 -0.33802231259611382 0 -0.45018982867155483 -0.32180400573951162 0 -0.46157657978994598 -0.34139555482026068 0 -0.47623524987602139 -0.32201367690444971 0 -0.46937090116945868 -0.29821258941183898 0 -0.45018982867155483 -0.32180400573951162 0 -0.47623524987602139 -0.32201367690444971 0 -0.5 -0.29874288943189498 0 -0.47623524987602139 -0.32201367690444971 0 -0.5 -0.32803706083174372 0 -0.47623524987602139 -0.32201367690444971 0 -0.5 -0.32803706083174372 0 -0.48561656391384522 -0.34384835974822991 0 -0.5 -0.32803706083174372 0 -0.5 -0.35733123223159241 0 -0.48561656391384522 -0.34384835974822991 0 -0.46157657978994598 -0.34139555482026068 0 -0.47623524987602139 -0.32201367690444971 0 -0.48561656391384522 -0.34384835974822991 0 -0.46157657978994598 -0.34139555482026068 0 -0.47568148196104371 -0.35852722048879659 0 -0.48561656391384522 -0.34384835974822991 0 -0.47568148196104371 -0.35852722048879659 0 -0.48561656391384522 -0.34384835974822991 0 -0.48768886795130861 -0.36141736908419309 0 -0.5 -0.35733123223159241 0 -0.48561656391384522 -0.34384835974822991 0 -0.48768886795130861 -0.36141736908419309 0 -0.5 -0.35733123223159241 0 -0.4947615751445838 -0.37332156409002909 0 -0.48768886795130861 -0.36141736908419309 0 -0.5 -0.38662540363144121 0 -0.5 -0.35733123223159241 0 -0.4947615751445838 -0.37332156409002909 0 -0.4947615751445838 -0.37332156409002909 0 -0.48768886795130861 -0.36141736908419309 0 -0.48030931097003587 -0.37191064435083931 0 -0.47568148196104371 -0.35852722048879659 0 -0.48030931097003587 -0.37191064435083931 0 -0.46669490250066459 -0.37481721741951951 0 -0.47568148196104371 -0.35852722048879659 0 -0.48768886795130861 -0.36141736908419309 0 -0.48030931097003587 -0.37191064435083931 0 -0.46669490250066459 -0.37481721741951951 0 -0.45985290530711531 -0.35919053618658509 0 -0.45095991715087752 -0.36968037302039969 0 -0.47568148196104371 -0.35852722048879659 0 -0.46669490250066459 -0.37481721741951951 0 -0.45985290530711531 -0.35919053618658509 0 -0.46157657978994598 -0.34139555482026068 0 -0.47568148196104371 -0.35852722048879659 0 -0.45985290530711531 -0.35919053618658509 0 -0.46157657978994598 -0.34139555482026068 0 -0.45985290530711531 -0.35919053618658509 0 -0.44091292170358748 -0.35617636658334351 0 -0.46157657978994598 -0.34139555482026068 0 -0.44091292170358748 -0.35617636658334351 0 -0.43521386225128428 -0.33802231259611382 0 -0.43421362475025049 -0.37527491429266319 0 -0.44091292170358748 -0.35617636658334351 0 -0.45095991715087752 -0.36968037302039969 0 -0.45985290530711531 -0.35919053618658509 0 -0.44091292170358748 -0.35617636658334351 0 -0.45095991715087752 -0.36968037302039969 0 -0.43421362475025049 -0.37527491429266319 0 -0.41656514696884139 -0.37636588688318029 0 -0.42218579342164808 -0.36334977441807748 0 -0.43421362475025049 -0.37527491429266319 0 -0.44091292170358748 -0.35617636658334351 0 -0.42218579342164808 -0.36334977441807748 0 -0.44091292170358748 -0.35617636658334351 0 -0.42218579342164808 -0.36334977441807748 0 -0.42066840753926321 -0.34864312644900147 0 -0.44091292170358748 -0.35617636658334351 0 -0.42066840753926321 -0.34864312644900147 0 -0.43521386225128428 -0.33802231259611382 0 -0.42218579342164808 -0.36334977441807748 0 -0.42066840753926321 -0.34864312644900147 0 -0.40690054455725883 -0.35815659477868023 0 -0.40690054455725883 -0.35815659477868023 0 -0.40885114471262263 -0.334649070371968 0 -0.42066840753926321 -0.34864312644900147 0 -0.40690054455725883 -0.35815659477868023 0 -0.40885114471262263 -0.334649070371968 0 -0.42218579342164808 -0.36334977441807748 0 -0.40690054455725883 -0.35815659477868023 0 -0.40625971269279348 -0.36587953617857771 0 -0.40690054455725883 -0.35815659477868023 0 -0.40625971269279348 -0.36587953617857771 0 -0.41656514696884139 -0.37636588688318029 0 -0.42218579342164808 -0.36334977441807748 0 -0.40625971269279348 -0.36587953617857771 0 -0.42218579342164808 -0.36334977441807748 0 -0.40690054455725883 -0.35815659477868023 0 -0.41656514696884139 -0.37636588688318029 0 -0.40465459864295228 -0.37650109000307358 0 -0.40625971269279348 -0.36587953617857771 0 -0.40465459864295228 -0.37650109000307358 0 -0.40625971269279348 -0.36587953617857771 0 -0.3968495855878465 -0.36923685638487008 0 -0.40690054455725883 -0.35815659477868023 0 -0.40029228617445223 -0.36350286704594809 0 -0.3911593018599101 -0.36073848084166482 0 -0.40625971269279348 -0.36587953617857771 0 -0.40029228617445223 -0.36350286704594809 0 -0.3968495855878465 -0.36923685638487008 0 -0.40690054455725883 -0.35815659477868023 0 -0.40625971269279348 -0.36587953617857771 0 -0.40029228617445223 -0.36350286704594809 0 -0.3911593018599101 -0.36073848084166482 0 -0.3968495855878465 -0.36923685638487008 0 -0.38569326772338258 -0.37053454129240582 0 -0.40029228617445223 -0.36350286704594809 0 -0.3911593018599101 -0.36073848084166482 0 -0.3968495855878465 -0.36923685638487008 0 -0.39431275766669582 -0.38061373190328529 0 -0.3968495855878465 -0.36923685638487008 0 -0.38569326772338258 -0.37053454129240582 0 -0.3911593018599101 -0.36073848084166482 0 -0.38569326772338258 -0.37053454129240582 0 -0.37568472164775779 -0.36524225821647011 0 -0.37522403377147279 -0.38060127254172499 0 -0.38569326772338258 -0.37053454129240582 0 -0.37568472164775779 -0.36524225821647011 0 -0.3911593018599101 -0.36073848084166482 0 -0.37568472164775779 -0.36524225821647011 0 -0.38024887903539811 -0.3491016629308506 0 -0.40690054455725883 -0.35815659477868023 0 -0.3911593018599101 -0.36073848084166482 0 -0.38024887903539811 -0.3491016629308506 0 -0.40690054455725883 -0.35815659477868023 0 -0.38024887903539811 -0.3491016629308506 0 -0.39533213247953691 -0.34338662223350158 0 -0.40690054455725883 -0.35815659477868023 0 -0.39533213247953691 -0.34338662223350158 0 -0.40885114471262263 -0.334649070371968 0 -0.40690054455725883 -0.35815659477868023 0 -0.38024887903539811 -0.3491016629308506 0 -0.39533213247953691 -0.34338662223350158 0 -0.38532796161286798 -0.33163916085250739 0 -0.40885114471262263 -0.334649070371968 0 -0.38532796161286798 -0.33163916085250739 0 -0.40885114471262263 -0.334649070371968 0 -0.38024887903539811 -0.3491016629308506 0 -0.39533213247953691 -0.34338662223350158 0 -0.38532796161286798 -0.33163916085250739 0 -0.38024887903539811 -0.3491016629308506 0 -0.38532796161286798 -0.33163916085250739 0 -0.37024470816872912 -0.33735420154985679 0 -0.38532796161286798 -0.33163916085250739 0 -0.37601492727600683 -0.3197696392392384 0 -0.39293033406270472 -0.31505081143976649 0 -0.37601492727600683 -0.3197696392392384 0 -0.39293033406270472 -0.31505081143976649 0 -0.37651642550459341 -0.307078797330949 0 -0.38532796161286798 -0.33163916085250739 0 -0.39293033406270472 -0.31505081143976649 0 -0.40885114471262263 -0.334649070371968 0 -0.39293033406270472 -0.31505081143976649 0 -0.40885114471262263 -0.334649070371968 0 -0.41078846406037228 -0.3113015987101887 0 -0.40885114471262263 -0.334649070371968 0 -0.42554877913925399 -0.3223331804902434 0 -0.41078846406037228 -0.3113015987101887 0 -0.40885114471262263 -0.334649070371968 0 -0.41078846406037228 -0.3113015987101887 0 -0.42066840753926321 -0.34864312644900147 0 -0.40885114471262263 -0.334649070371968 0 -0.43521386225128428 -0.33802231259611382 0 -0.40885114471262263 -0.334649070371968 0 -0.43521386225128428 -0.33802231259611382 0 -0.40885114471262263 -0.334649070371968 0 -0.43521386225128428 -0.33802231259611382 0 -0.42554877913925399 -0.3223331804902434 0 -0.42554877913925399 -0.3223331804902434 0 -0.4314578060398388 -0.3048790663939604 0 -0.41078846406037228 -0.3113015987101887 0 -0.45018982867155483 -0.32180400573951162 0 -0.43521386225128428 -0.33802231259611382 0 -0.42554877913925399 -0.3223331804902434 0 -0.45018982867155483 -0.32180400573951162 0 -0.42554877913925399 -0.3223331804902434 0 -0.4314578060398388 -0.3048790663939604 0 -0.4476129789611048 -0.29283803371489903 0 -0.4314578060398388 -0.3048790663939604 0 -0.43236213870239748 -0.29002705800971151 0 -0.4314578060398388 -0.3048790663939604 0 -0.43236213870239748 -0.29002705800971151 0 -0.41272578340812272 -0.2879541270484095 0 -0.4314578060398388 -0.3048790663939604 0 -0.41272578340812272 -0.2879541270484095 0 -0.43765198640052377 -0.27443700488157741 0 -0.43236213870239748 -0.29002705800971151 0 -0.41272578340812272 -0.2879541270484095 0 -0.4314578060398388 -0.3048790663939604 0 -0.41272578340812272 -0.2879541270484095 0 -0.41078846406037228 -0.3113015987101887 0 -0.41272578340812272 -0.2879541270484095 0 -0.41078846406037228 -0.3113015987101887 0 -0.41272578340812272 -0.2879541270484095 0 -0.41078846406037228 -0.3113015987101887 0 -0.39233272698174793 -0.29435547039456872 0 -0.39293033406270472 -0.31505081143976649 0 -0.41078846406037228 -0.3113015987101887 0 -0.39233272698174793 -0.29435547039456872 0 -0.39293033406270472 -0.31505081143976649 0 -0.37651642550459341 -0.307078797330949 0 -0.39233272698174793 -0.29435547039456872 0 -0.39233272698174793 -0.29435547039456872 0 -0.39278725088820249 -0.26993907014966689 0 -0.37040839911066209 -0.28171057629616708 0 -0.37651642550459341 -0.307078797330949 0 -0.39233272698174793 -0.29435547039456872 0 -0.37040839911066209 -0.28171057629616708 0 -0.41272578340812272 -0.2879541270484095 0 -0.39233272698174793 -0.29435547039456872 0 -0.39278725088820249 -0.26993907014966689 0 -0.41272578340812272 -0.2879541270484095 0 -0.39278725088820249 -0.26993907014966689 0 -0.39278725088820249 -0.26993907014966689 0 -0.37040839911066209 -0.28171057629616708 0 -0.39278725088820249 -0.26993907014966689 0 -0.37533687834285862 -0.25417213976024849 0 -0.37040839911066209 -0.28171057629616708 0 -0.39278725088820249 -0.26993907014966689 0 -0.37533687834285862 -0.25417213976024849 0 -0.39826986996263802 -0.25360934065352753 0 -0.39278725088820249 -0.26993907014966689 0 -0.37533687834285862 -0.25417213976024849 0 -0.39278725088820249 -0.26993907014966689 0 -0.39826986996263802 -0.25360934065352753 0 -0.41519883225968468 -0.25815034790020708 0 -0.39278725088820249 -0.26993907014966689 0 -0.41519883225968468 -0.25815034790020708 0 -0.39826986996263802 -0.25360934065352753 0 -0.41519883225968468 -0.25815034790020708 0 -0.41615383063077721 -0.2466412503256647 0 -0.41519883225968468 -0.25815034790020708 0 -0.41615383063077721 -0.2466412503256647 0 -0.41272578340812272 -0.2879541270484095 0 -0.41519883225968468 -0.25815034790020708 0 -0.41272578340812272 -0.2879541270484095 0 -0.41519883225968468 -0.25815034790020708 0 -0.429874989515865 -0.26165756953837482 0 -0.41272578340812272 -0.2879541270484095 0 -0.39278725088820249 -0.26993907014966689 0 -0.41519883225968468 -0.25815034790020708 0 -0.43765198640052377 -0.27443700488157741 0 -0.41272578340812272 -0.2879541270484095 0 -0.429874989515865 -0.26165756953837482 0 -0.41519883225968468 -0.25815034790020708 0 -0.43598079583492633 -0.24721882136819351 0 -0.41519883225968468 -0.25815034790020708 0 -0.429874989515865 -0.26165756953837482 0 -0.43598079583492633 -0.24721882136819351 0 -0.41519883225968468 -0.25815034790020708 0 -0.43598079583492633 -0.24721882136819351 0 -0.41615383063077721 -0.2466412503256647 0 -0.31968345090478489 -0.25798973640781447 0 -0.33623326073948312 -0.25365348176558788 0 -0.32213598881581812 -0.2442700999577708 0 -0.31968345090478489 -0.25798973640781447 0 -0.31319680135340772 -0.27337899374224139 0 -0.30564385326437488 -0.26015983685037081 0 -0.31968345090478489 -0.25798973640781447 0 -0.31319680135340772 -0.27337899374224139 0 -0.33256675641106698 -0.27199424518209242 0 -0.31319680135340772 -0.27337899374224139 0 -0.33256675641106698 -0.27199424518209242 0 -0.3219330120753135 -0.28752383142540722 0 -0.33256675641106698 -0.27199424518209242 0 -0.33623326073948312 -0.25365348176558788 0 -0.35329637777243872 -0.26495799818728782 0 -0.31968345090478489 -0.25798973640781447 0 -0.33256675641106698 -0.27199424518209242 0 -0.33623326073948312 -0.25365348176558788 0 -0.33623326073948312 -0.25365348176558788 0 -0.35329637777243872 -0.26495799818728782 0 -0.35305879752332059 -0.24486073726717009 0 -0.37533687834285862 -0.25417213976024849 0 -0.35329637777243872 -0.26495799818728782 0 -0.35305879752332059 -0.24486073726717009 0 -0.37533687834285862 -0.25417213976024849 0 -0.35329637777243872 -0.26495799818728782 0 -0.37040839911066209 -0.28171057629616708 0 -0.35329637777243872 -0.26495799818728782 0 -0.34802954733312141 -0.29348208244266671 0 -0.37040839911066209 -0.28171057629616708 0 -0.33256675641106698 -0.27199424518209242 0 -0.35329637777243872 -0.26495799818728782 0 -0.34802954733312141 -0.29348208244266671 0 -0.34802954733312141 -0.29348208244266671 0 -0.37040839911066209 -0.28171057629616708 0 -0.37651642550459341 -0.307078797330949 0 -0.37040839911066209 -0.28171057629616708 0 -0.36249180620921062 -0.30132401124355712 0 -0.34802954733312141 -0.29348208244266671 0 -0.37040839911066209 -0.28171057629616708 0 -0.36249180620921062 -0.30132401124355712 0 -0.37651642550459341 -0.307078797330949 0 -0.36249180620921062 -0.30132401124355712 0 -0.36514172279026702 -0.314674684486903 0 -0.36249180620921062 -0.30132401124355712 0 -0.35217384865543538 -0.31302074178168637 0 -0.36514172279026702 -0.314674684486903 0 -0.34802954733312141 -0.29348208244266671 0 -0.33894022777705518 -0.31261958861733652 0 -0.35217384865543538 -0.31302074178168637 0 -0.34802954733312141 -0.29348208244266671 0 -0.36249180620921062 -0.30132401124355712 0 -0.35217384865543538 -0.31302074178168637 0 -0.34802954733312141 -0.29348208244266671 0 -0.32565069555558063 -0.30525358858916618 0 -0.33894022777705518 -0.31261958861733652 0 -0.34802954733312141 -0.29348208244266671 0 -0.32565069555558063 -0.30525358858916618 0 -0.32565069555558063 -0.30525358858916618 0 -0.32940773276489932 -0.31652548782855527 0 -0.33894022777705518 -0.31261958861733652 0 -0.33256675641106698 -0.27199424518209242 0 -0.34802954733312141 -0.29348208244266671 0 -0.3219330120753135 -0.28752383142540722 0 -0.34802954733312141 -0.29348208244266671 0 -0.3219330120753135 -0.28752383142540722 0 -0.32565069555558063 -0.30525358858916618 0 -0.3219330120753135 -0.28752383142540722 0 -0.31228269981280887 -0.29918463989613459 0 -0.30483638085835207 -0.28788342401786787 0 -0.31319680135340772 -0.27337899374224139 0 -0.3219330120753135 -0.28752383142540722 0 -0.30483638085835207 -0.28788342401786787 0 -0.32565069555558063 -0.30525358858916618 0 -0.30327184377803978 -0.31702509473566581 0 -0.31228269981280887 -0.29918463989613459 0 -0.3219330120753135 -0.28752383142540722 0 -0.32565069555558063 -0.30525358858916618 0 -0.31228269981280887 -0.29918463989613459 0 -0.32565069555558063 -0.30525358858916618 0 -0.30327184377803978 -0.31702509473566581 0 -0.31475841231360341 -0.32260943229412947 0 -0.32694554799167658 -0.33099179923519167 0 -0.33828159541335823 -0.32561934181358893 0 -0.32565069555558063 -0.30525358858916618 0 -0.31475841231360341 -0.32260943229412947 0 -0.30327184377803978 -0.31702509473566581 0 -0.31475841231360341 -0.32260943229412947 0 -0.33828159541335823 -0.32561934181358893 0 -0.32940773276489932 -0.31652548782855527 0 -0.32565069555558063 -0.30525358858916618 0 -0.31475841231360341 -0.32260943229412947 0 -0.32940773276489932 -0.31652548782855527 0 -0.31475841231360341 -0.32260943229412947 0 -0.33828159541335823 -0.32561934181358893 0 -0.31475841231360341 -0.32260943229412947 0 -0.31372637242327511 -0.33497634201883658 0 -0.32694554799167658 -0.33099179923519167 0 -0.32694554799167658 -0.33099179923519167 0 -0.32737612656656928 -0.35021722948502532 0 -0.3170311031704231 -0.34491623006635341 0 -0.31372637242327511 -0.33497634201883658 0 -0.32694554799167658 -0.33099179923519167 0 -0.3170311031704231 -0.34491623006635341 0 -0.31372637242327511 -0.33497634201883658 0 -0.3170311031704231 -0.34491623006635341 0 -0.30849554643820359 -0.34481279163420842 0 -0.32694554799167658 -0.33099179923519167 0 -0.33828159541335823 -0.32561934181358893 0 -0.35359721351353718 -0.34004673108302108 0 -0.32694554799167658 -0.33099179923519167 0 -0.35359721351353718 -0.34004673108302108 0 -0.33765025977867152 -0.34480892108230998 0 -0.32694554799167658 -0.33099179923519167 0 -0.35359721351353718 -0.34004673108302108 0 -0.32694554799167658 -0.33099179923519167 0 -0.33765025977867152 -0.34480892108230998 0 -0.32737612656656928 -0.35021722948502532 0 -0.33828159541335823 -0.32561934181358893 0 -0.32940773276489932 -0.31652548782855527 0 -0.33894022777705518 -0.31261958861733652 0 -0.33828159541335823 -0.32561934181358893 0 -0.33894022777705518 -0.31261958861733652 0 -0.35217384865543538 -0.31302074178168637 0 -0.33828159541335823 -0.32561934181358893 0 -0.3618047785131131 -0.32862925133304821 0 -0.33828159541335823 -0.32561934181358893 0 -0.35217384865543538 -0.31302074178168637 0 -0.3618047785131131 -0.32862925133304821 0 -0.38532796161286798 -0.33163916085250739 0 -0.37601492727600683 -0.3197696392392384 0 -0.3618047785131131 -0.32862925133304821 0 -0.35217384865543538 -0.31302074178168637 0 -0.36514172279026702 -0.314674684486903 0 -0.3618047785131131 -0.32862925133304821 0 -0.37601492727600683 -0.3197696392392384 0 -0.36514172279026702 -0.314674684486903 0 -0.3618047785131131 -0.32862925133304821 0 -0.37601492727600683 -0.3197696392392384 0 -0.37651642550459341 -0.307078797330949 0 -0.36514172279026702 -0.314674684486903 0 -0.38532796161286798 -0.33163916085250739 0 -0.37024470816872912 -0.33735420154985679 0 -0.3618047785131131 -0.32862925133304821 0 -0.37024470816872912 -0.33735420154985679 0 -0.3618047785131131 -0.32862925133304821 0 -0.35359721351353718 -0.34004673108302108 0 -0.38532796161286798 -0.33163916085250739 0 -0.3618047785131131 -0.32862925133304821 0 -0.38024887903539811 -0.3491016629308506 0 -0.37024470816872912 -0.33735420154985679 0 -0.35359721351353718 -0.34004673108302108 0 -0.33828159541335823 -0.32561934181358893 0 -0.3618047785131131 -0.32862925133304821 0 -0.35359721351353718 -0.34004673108302108 0 -0.35359721351353718 -0.34004673108302108 0 -0.36247207576052709 -0.35740109745143939 0 -0.34268215104290278 -0.35797992452600158 0 -0.35359721351353718 -0.34004673108302108 0 -0.34268215104290278 -0.35797992452600158 0 -0.33765025977867152 -0.34480892108230998 0 -0.37568472164775779 -0.36524225821647011 0 -0.38024887903539811 -0.3491016629308506 0 -0.36247207576052709 -0.35740109745143939 0 -0.38024887903539811 -0.3491016629308506 0 -0.35359721351353718 -0.34004673108302108 0 -0.36247207576052709 -0.35740109745143939 0 -0.38024887903539811 -0.3491016629308506 0 -0.35359721351353718 -0.34004673108302108 0 -0.37522403377147279 -0.38060127254172499 0 -0.37568472164775779 -0.36524225821647011 0 -0.35964608014779109 -0.37334112637938882 0 -0.37568472164775779 -0.36524225821647011 0 -0.36247207576052709 -0.35740109745143939 0 -0.35964608014779109 -0.37334112637938882 0 -0.36247207576052709 -0.35740109745143939 0 -0.35964608014779109 -0.37334112637938882 0 -0.34268215104290278 -0.35797992452600158 0 -0.35964608014779109 -0.37334112637938882 0 -0.34268215104290278 -0.35797992452600158 0 -0.34254000635277743 -0.38197763020755832 0 -0.34268215104290278 -0.35797992452600158 0 -0.32737612656656928 -0.35021722948502532 0 -0.32270418411731933 -0.37181077970513959 0 -0.34268215104290278 -0.35797992452600158 0 -0.32270418411731933 -0.37181077970513959 0 -0.34254000635277743 -0.38197763020755832 0 -0.34268215104290278 -0.35797992452600158 0 -0.34254000635277743 -0.38197763020755832 0 -0.34268215104290278 -0.35797992452600158 0 -0.33765025977867152 -0.34480892108230998 0 -0.32737612656656928 -0.35021722948502532 0 -0.32737612656656928 -0.35021722948502532 0 -0.31662274924076123 -0.35606216629487569 0 -0.32270418411731933 -0.37181077970513959 0 -0.32737612656656928 -0.35021722948502532 0 -0.3170311031704231 -0.34491623006635341 0 -0.31662274924076123 -0.35606216629487569 0 -0.3170311031704231 -0.34491623006635341 0 -0.31662274924076123 -0.35606216629487569 0 -0.30902027636205309 -0.35243705172998302 0 -0.31662274924076123 -0.35606216629487569 0 -0.32270418411731933 -0.37181077970513959 0 -0.30796050174877349 -0.36016317053514468 0 -0.32270418411731933 -0.37181077970513959 0 -0.29719619905707523 -0.36594012765828582 0 -0.30796050174877349 -0.36016317053514468 0 -0.32270418411731933 -0.37181077970513959 0 -0.29719619905707523 -0.36594012765828582 0 -0.3103864423796594 -0.37828470113645102 0 -0.32270418411731933 -0.37181077970513959 0 -0.29719619905707523 -0.36594012765828582 0 -0.29719619905707523 -0.36594012765828582 0 -0.29943295026653399 -0.35953932364306618 0 -0.30796050174877349 -0.36016317053514468 0 -0.29719619905707523 -0.36594012765828582 0 -0.29584447723995128 -0.37444813956539807 0 -0.3103864423796594 -0.37828470113645102 0 -0.31662274924076123 -0.35606216629487569 0 -0.30796050174877349 -0.36016317053514468 0 -0.30902027636205309 -0.35243705172998302 0 -0.30796050174877349 -0.36016317053514468 0 -0.30902027636205309 -0.35243705172998302 0 -0.30278665144889838 -0.35518957417951802 0 -0.3170311031704231 -0.34491623006635341 0 -0.30902027636205309 -0.35243705172998302 0 -0.30849554643820359 -0.34481279163420842 0 -0.30902027636205309 -0.35243705172998302 0 -0.30849554643820359 -0.34481279163420842 0 -0.30076474035813339 -0.34759465108555682 0 -0.30849554643820359 -0.34481279163420842 0 -0.30076474035813339 -0.34759465108555682 0 -0.30398917998114899 -0.33934800480643368 0 -0.30902027636205309 -0.35243705172998302 0 -0.30076474035813339 -0.34759465108555682 0 -0.30278665144889838 -0.35518957417951802 0 -0.29943295026653399 -0.35953932364306618 0 -0.30796050174877349 -0.36016317053514468 0 -0.30278665144889838 -0.35518957417951802 0 -0.30076474035813339 -0.34759465108555682 0 -0.30278665144889838 -0.35518957417951802 0 -0.29719830368448108 -0.35301728683459582 0 -0.29943295026653399 -0.35953932364306618 0 -0.30278665144889838 -0.35518957417951802 0 -0.29719830368448108 -0.35301728683459582 0 -0.29943295026653399 -0.35953932364306618 0 -0.29719830368448108 -0.35301728683459582 0 -0.29016743694869812 -0.35649807524262711 0 -0.29016743694869812 -0.35649807524262711 0 -0.28284547851944208 -0.35047845284871731 0 -0.27168821399683141 -0.36006947561143121 0 -0.29719830368448108 -0.35301728683459582 0 -0.29016743694869812 -0.35649807524262711 0 -0.2925915294609488 -0.34919256188026188 0 -0.2925915294609488 -0.34919256188026188 0 -0.28611540962297188 -0.3426453659285974 0 -0.29619358151489988 -0.34015641309103278 0 -0.30076474035813339 -0.34759465108555682 0 -0.29719830368448108 -0.35301728683459582 0 -0.2925915294609488 -0.34919256188026188 0 -0.30076474035813339 -0.34759465108555682 0 -0.2925915294609488 -0.34919256188026188 0 -0.29619358151489988 -0.34015641309103278 0 -0.2925915294609488 -0.34919256188026188 0 -0.28284547851944208 -0.35047845284871731 0 -0.28611540962297188 -0.3426453659285974 0 -0.28284547851944208 -0.35047845284871731 0 -0.27676447355633299 -0.3457480812413124 0 -0.28611540962297188 -0.3426453659285974 0 -0.29016743694869812 -0.35649807524262711 0 -0.2925915294609488 -0.34919256188026188 0 -0.28284547851944208 -0.35047845284871731 0 -0.29202770366946113 -0.36668513997228358 0 -0.27168821399683141 -0.36006947561143121 0 -0.28307956849111848 -0.3828068929804474 0 -0.29719619905707523 -0.36594012765828582 0 -0.27168821399683141 -0.36006947561143121 0 -0.29202770366946113 -0.36668513997228358 0 -0.28307956849111848 -0.3828068929804474 0 -0.29202770366946113 -0.36668513997228358 0 -0.29584447723995128 -0.37444813956539807 0 -0.28307956849111848 -0.3828068929804474 0 -0.29719619905707523 -0.36594012765828582 0 -0.29016743694869812 -0.35649807524262711 0 -0.27168821399683141 -0.36006947561143121 0 -0.29719619905707523 -0.36594012765828582 0 -0.29202770366946113 -0.36668513997228358 0 -0.27168821399683141 -0.36006947561143121 0 -0.29719619905707523 -0.36594012765828582 0 -0.29943295026653399 -0.35953932364306618 0 -0.29016743694869812 -0.35649807524262711 0 -0.29719619905707523 -0.36594012765828582 0 -0.29202770366946113 -0.36668513997228358 0 -0.29584447723995128 -0.37444813956539807 0 -0.27168821399683141 -0.36006947561143121 0 -0.28307956849111848 -0.3828068929804474 0 -0.27168821399683141 -0.36006947561143121 0 -0.28307956849111848 -0.3828068929804474 0 -0.26050234447883253 -0.38027693877573482 0 -0.27168821399683141 -0.36006947561143121 0 -0.25721723303835431 -0.36623646057876708 0 -0.26050234447883253 -0.38027693877573482 0 -0.27168821399683141 -0.36006947561143121 0 -0.25721723303835431 -0.36623646057876708 0 -0.24850069890613241 -0.35473287875334369 0 -0.25721723303835431 -0.36623646057876708 0 -0.24817767477162081 -0.36986654917455902 0 -0.24850069890613241 -0.35473287875334369 0 -0.25721723303835431 -0.36623646057876708 0 -0.26050234447883253 -0.38027693877573482 0 -0.24817767477162081 -0.36986654917455902 0 -0.27168821399683141 -0.36006947561143121 0 -0.25445926970156468 -0.34270101061729968 0 -0.24850069890613241 -0.35473287875334369 0 -0.27168821399683141 -0.36006947561143121 0 -0.26120815563270988 -0.3391510272218049 0 -0.25445926970156468 -0.34270101061729968 0 -0.27168821399683141 -0.36006947561143121 0 -0.24850069890613241 -0.35473287875334369 0 -0.27168821399683141 -0.36006947561143121 0 -0.27676447355633299 -0.3457480812413124 0 -0.26120815563270988 -0.3391510272218049 0 -0.27168821399683141 -0.36006947561143121 0 -0.26120815563270988 -0.3391510272218049 0 -0.28284547851944208 -0.35047845284871731 0 -0.27168821399683141 -0.36006947561143121 0 -0.27676447355633299 -0.3457480812413124 0 -0.27676447355633299 -0.3457480812413124 0 -0.27858368134566353 -0.33798527866036399 0 -0.28611540962297188 -0.3426453659285974 0 -0.27676447355633299 -0.3457480812413124 0 -0.27858368134566353 -0.33798527866036399 0 -0.26120815563270988 -0.3391510272218049 0 -0.28089299200049878 -0.32879660088216478 0 -0.26120815563270988 -0.3391510272218049 0 -0.28089299200049878 -0.32879660088216478 0 -0.26120815563270988 -0.3391510272218049 0 -0.26730676106940449 -0.32685643845792262 0 -0.27858368134566353 -0.33798527866036399 0 -0.28089299200049878 -0.32879660088216478 0 -0.26120815563270988 -0.3391510272218049 0 -0.26120815563270988 -0.3391510272218049 0 -0.26057751607960811 -0.32279583566460812 0 -0.26730676106940449 -0.32685643845792262 0 -0.26120815563270988 -0.3391510272218049 0 -0.25273748935779161 -0.32224337373924072 0 -0.26120815563270988 -0.3391510272218049 0 -0.25207330520806498 -0.33378255792528982 0 -0.25273748935779161 -0.32224337373924072 0 -0.26120815563270988 -0.3391510272218049 0 -0.25445926970156468 -0.34270101061729968 0 -0.25207330520806498 -0.33378255792528982 0 -0.25445926970156468 -0.34270101061729968 0 -0.2460450098649074 -0.33743905859998191 0 -0.26120815563270988 -0.3391510272218049 0 -0.25207330520806498 -0.33378255792528982 0 -0.25445926970156468 -0.34270101061729968 0 -0.25273748935779161 -0.32224337373924072 0 -0.26050456352867191 -0.3149367065078193 0 -0.24426682308287331 -0.30533572025667649 0 -0.26120815563270988 -0.3391510272218049 0 -0.25273748935779161 -0.32224337373924072 0 -0.26057751607960811 -0.32279583566460812 0 -0.26057751607960811 -0.32279583566460812 0 -0.26050456352867191 -0.3149367065078193 0 -0.26730676106940449 -0.32685643845792262 0 -0.25273748935779161 -0.32224337373924072 0 -0.26057751607960811 -0.32279583566460812 0 -0.26050456352867191 -0.3149367065078193 0 -0.28089299200049878 -0.32879660088216478 0 -0.26050456352867191 -0.3149367065078193 0 -0.27445713665833338 -0.31633796571173628 0 -0.28089299200049878 -0.32879660088216478 0 -0.26050456352867191 -0.3149367065078193 0 -0.26050456352867191 -0.3149367065078193 0 -0.27445713665833338 -0.31633796571173628 0 -0.26793999894844561 -0.31004618489902153 0 -0.28089299200049878 -0.32879660088216478 0 -0.26050456352867191 -0.3149367065078193 0 -0.26730676106940449 -0.32685643845792262 0 -0.28089299200049878 -0.32879660088216478 0 -0.27445713665833338 -0.31633796571173628 0 -0.28125105682705043 -0.31976055402590231 0 -0.27445713665833338 -0.31633796571173628 0 -0.28252008875028978 -0.31254235777143202 0 -0.28125105682705043 -0.31976055402590231 0 -0.28252008875028978 -0.31254235777143202 0 -0.28823329624350208 -0.31711313423980658 0 -0.29327146190654751 -0.30876504511160502 0 -0.28089299200049878 -0.32879660088216478 0 -0.28823329624350208 -0.31711313423980658 0 -0.30327184377803978 -0.31702509473566581 0 -0.28089299200049878 -0.32879660088216478 0 -0.29457520052377689 -0.33013191680287202 0 -0.30327184377803978 -0.31702509473566581 0 -0.28089299200049878 -0.32879660088216478 0 -0.30327184377803978 -0.31702509473566581 0 -0.28252008875028978 -0.31254235777143202 0 -0.28125105682705043 -0.31976055402590231 0 -0.28823329624350208 -0.31711313423980658 0 -0.28823329624350208 -0.31711313423980658 0 -0.30327184377803978 -0.31702509473566581 0 -0.29327146190654751 -0.30876504511160502 0 -0.28089299200049878 -0.32879660088216478 0 -0.28125105682705043 -0.31976055402590231 0 -0.28823329624350208 -0.31711313423980658 0 -0.28089299200049878 -0.32879660088216478 0 -0.28793737591580382 -0.33358531802794061 0 -0.27858368134566353 -0.33798527866036399 0 -0.28089299200049878 -0.32879660088216478 0 -0.28793737591580382 -0.33358531802794061 0 -0.28089299200049878 -0.32879660088216478 0 -0.28793737591580382 -0.33358531802794061 0 -0.29457520052377689 -0.33013191680287202 0 -0.27858368134566353 -0.33798527866036399 0 -0.28793737591580382 -0.33358531802794061 0 -0.28611540962297188 -0.3426453659285974 0 -0.28793737591580382 -0.33358531802794061 0 -0.28611540962297188 -0.3426453659285974 0 -0.29619358151489988 -0.34015641309103278 0 -0.28793737591580382 -0.33358531802794061 0 -0.29619358151489988 -0.34015641309103278 0 -0.29457520052377689 -0.33013191680287202 0 -0.29619358151489988 -0.34015641309103278 0 -0.29457520052377689 -0.33013191680287202 0 -0.30458020940964259 -0.3310961572775562 0 -0.30076474035813339 -0.34759465108555682 0 -0.29619358151489988 -0.34015641309103278 0 -0.30398917998114899 -0.33934800480643368 0 -0.29619358151489988 -0.34015641309103278 0 -0.30458020940964259 -0.3310961572775562 0 -0.30398917998114899 -0.33934800480643368 0 -0.31372637242327511 -0.33497634201883658 0 -0.30849554643820359 -0.34481279163420842 0 -0.30398917998114899 -0.33934800480643368 0 -0.31475841231360341 -0.32260943229412947 0 -0.31372637242327511 -0.33497634201883658 0 -0.30458020940964259 -0.3310961572775562 0 -0.31372637242327511 -0.33497634201883658 0 -0.30458020940964259 -0.3310961572775562 0 -0.30398917998114899 -0.33934800480643368 0 -0.31475841231360341 -0.32260943229412947 0 -0.30458020940964259 -0.3310961572775562 0 -0.30327184377803978 -0.31702509473566581 0 -0.29457520052377689 -0.33013191680287202 0 -0.30458020940964259 -0.3310961572775562 0 -0.30327184377803978 -0.31702509473566581 0 -0.30327184377803978 -0.31702509473566581 0 -0.30068554560480582 -0.30112982209441241 0 -0.31228269981280887 -0.29918463989613459 0 -0.30327184377803978 -0.31702509473566581 0 -0.30068554560480582 -0.30112982209441241 0 -0.29327146190654751 -0.30876504511160502 0 -0.30068554560480582 -0.30112982209441241 0 -0.30483638085835207 -0.28788342401786787 0 -0.28888361246081401 -0.29493054457851903 0 -0.30068554560480582 -0.30112982209441241 0 -0.31228269981280887 -0.29918463989613459 0 -0.30483638085835207 -0.28788342401786787 0 -0.28888361246081401 -0.29493054457851903 0 -0.28078806465599399 -0.28300047521785149 0 -0.29451735460655398 -0.27472288856989607 0 -0.30483638085835207 -0.28788342401786787 0 -0.28888361246081401 -0.29493054457851903 0 -0.29451735460655398 -0.27472288856989607 0 -0.28888361246081401 -0.29493054457851903 0 -0.28295382644196537 -0.3038897035906043 0 -0.27388309143310768 -0.29511411685975181 0 -0.28888361246081401 -0.29493054457851903 0 -0.28295382644196537 -0.3038897035906043 0 -0.29327146190654751 -0.30876504511160502 0 -0.30068554560480582 -0.30112982209441241 0 -0.28888361246081401 -0.29493054457851903 0 -0.29327146190654751 -0.30876504511160502 0 -0.28252008875028978 -0.31254235777143202 0 -0.28295382644196537 -0.3038897035906043 0 -0.29327146190654751 -0.30876504511160502 0 -0.27445713665833338 -0.31633796571173628 0 -0.28252008875028978 -0.31254235777143202 0 -0.27524002690986649 -0.30828041126704497 0 -0.28252008875028978 -0.31254235777143202 0 -0.28295382644196537 -0.3038897035906043 0 -0.27524002690986649 -0.30828041126704497 0 -0.28295382644196537 -0.3038897035906043 0 -0.27524002690986649 -0.30828041126704497 0 -0.27388309143310768 -0.29511411685975181 0 -0.26808679199009749 -0.30362992927208171 0 -0.26252268864995981 -0.29761987486456531 0 -0.27388309143310768 -0.29511411685975181 0 -0.27524002690986649 -0.30828041126704497 0 -0.26808679199009749 -0.30362992927208171 0 -0.27388309143310768 -0.29511411685975181 0 -0.27445713665833338 -0.31633796571173628 0 -0.27524002690986649 -0.30828041126704497 0 -0.26793999894844561 -0.31004618489902153 0 -0.27524002690986649 -0.30828041126704497 0 -0.26808679199009749 -0.30362992927208171 0 -0.26793999894844561 -0.31004618489902153 0 -0.26808679199009749 -0.30362992927208171 0 -0.26793999894844561 -0.31004618489902153 0 -0.26278193746552841 -0.30551063084933561 0 -0.26050456352867191 -0.3149367065078193 0 -0.25485564421046719 -0.30132045870319019 0 -0.24011613505684479 -0.30107681213347393 0 -0.26050456352867191 -0.3149367065078193 0 -0.24011613505684479 -0.30107681213347393 0 -0.26050456352867191 -0.3149367065078193 0 -0.26278193746552841 -0.30551063084933561 0 -0.25485564421046719 -0.30132045870319019 0 -0.26050456352867191 -0.3149367065078193 0 -0.26793999894844561 -0.31004618489902153 0 -0.26278193746552841 -0.30551063084933561 0 -0.26278193746552841 -0.30551063084933561 0 -0.26252268864995981 -0.29761987486456531 0 -0.25485564421046719 -0.30132045870319019 0 -0.26252268864995981 -0.29761987486456531 0 -0.25485564421046719 -0.30132045870319019 0 -0.2567143935458242 -0.29223768812186002 0 -0.26808679199009749 -0.30362992927208171 0 -0.26278193746552841 -0.30551063084933561 0 -0.26252268864995981 -0.29761987486456531 0 -0.25608276685525683 -0.28295324223861612 0 -0.2567143935458242 -0.29223768812186002 0 -0.24732420154209239 -0.29033586459568173 0 -0.25485564421046719 -0.30132045870319019 0 -0.2567143935458242 -0.29223768812186002 0 -0.24732420154209239 -0.29033586459568173 0 -0.26252268864995981 -0.29761987486456531 0 -0.2567143935458242 -0.29223768812186002 0 -0.26350989061834318 -0.28909490770035701 0 -0.25608276685525683 -0.28295324223861612 0 -0.26350989061834318 -0.28909490770035701 0 -0.26907982973782107 -0.2804670883869903 0 -0.25608276685525683 -0.28295324223861612 0 -0.2567143935458242 -0.29223768812186002 0 -0.26350989061834318 -0.28909490770035701 0 -0.26350989061834318 -0.28909490770035701 0 -0.27388309143310768 -0.29511411685975181 0 -0.26907982973782107 -0.2804670883869903 0 -0.26252268864995981 -0.29761987486456531 0 -0.26350989061834318 -0.28909490770035701 0 -0.27388309143310768 -0.29511411685975181 0 -0.28888361246081401 -0.29493054457851903 0 -0.27388309143310768 -0.29511411685975181 0 -0.28078806465599399 -0.28300047521785149 0 -0.27388309143310768 -0.29511411685975181 0 -0.28078806465599399 -0.28300047521785149 0 -0.26907982973782107 -0.2804670883869903 0 -0.27772768471542669 -0.26767482265106679 0 -0.26907982973782107 -0.2804670883869903 0 -0.25958550566062261 -0.27102626557679149 0 -0.28078806465599399 -0.28300047521785149 0 -0.27772768471542669 -0.26767482265106679 0 -0.26907982973782107 -0.2804670883869903 0 -0.25608276685525683 -0.28295324223861612 0 -0.26907982973782107 -0.2804670883869903 0 -0.25958550566062261 -0.27102626557679149 0 -0.25608276685525683 -0.28295324223861612 0 -0.25958550566062261 -0.27102626557679149 0 -0.2444485511135471 -0.27534046621033159 0 -0.26398002587916253 -0.25656090854441049 0 -0.24465976002352091 -0.25387891845332877 0 -0.25992972331208369 -0.2410680052130979 0 -0.25958550566062261 -0.27102626557679149 0 -0.26398002587916253 -0.25656090854441049 0 -0.24465976002352091 -0.25387891845332877 0 -0.27772768471542669 -0.26767482265106679 0 -0.26398002587916253 -0.25656090854441049 0 -0.27722523139620658 -0.24922189107985179 0 -0.27772768471542669 -0.26767482265106679 0 -0.25958550566062261 -0.27102626557679149 0 -0.26398002587916253 -0.25656090854441049 0 -0.27772768471542669 -0.26767482265106679 0 -0.29131753467172561 -0.25675805269722002 0 -0.27722523139620658 -0.24922189107985179 0 -0.28078806465599399 -0.28300047521785149 0 -0.27772768471542669 -0.26767482265106679 0 -0.29451735460655398 -0.27472288856989607 0 -0.27772768471542669 -0.26767482265106679 0 -0.29131753467172561 -0.25675805269722002 0 -0.29451735460655398 -0.27472288856989607 0 -0.31319680135340772 -0.27337899374224139 0 -0.29451735460655398 -0.27472288856989607 0 -0.30564385326437488 -0.26015983685037081 0 -0.31319680135340772 -0.27337899374224139 0 -0.30483638085835207 -0.28788342401786787 0 -0.29451735460655398 -0.27472288856989607 0 -0.29131753467172561 -0.25675805269722002 0 -0.29451735460655398 -0.27472288856989607 0 -0.30564385326437488 -0.26015983685037081 0 -0.29131753467172561 -0.25675805269722002 0 -0.30564385326437488 -0.26015983685037081 0 -0.30769212114973271 -0.24578220261295139 0 -0.31968345090478489 -0.25798973640781447 0 -0.30564385326437488 -0.26015983685037081 0 -0.30769212114973271 -0.24578220261295139 0 -0.34207866423036198 -0.45986413066326443 0 -0.33141508850449702 -0.45187214799378478 0 -0.32594289259428999 -0.46085836632795257 0 -0.34207866423036198 -0.45986413066326443 0 -0.32594289259428999 -0.46085836632795257 0 -0.33264581849560632 -0.47431014716802089 0 -0.34207866423036198 -0.45986413066326443 0 -0.34225571697252682 -0.42997304157067162 0 -0.34207866423036198 -0.45986413066326443 0 -0.33358626016413989 -0.44229992863572659 0 -0.33141508850449702 -0.45187214799378478 0 -0.34207866423036198 -0.45986413066326443 0 -0.33358626016413989 -0.44229992863572659 0 -0.34225571697252682 -0.42997304157067162 0 -0.33358626016413989 -0.44229992863572659 0 -0.33141508850449702 -0.45187214799378478 0 -0.32300139100864811 -0.44723989508536771 0 -0.33358626016413989 -0.44229992863572659 0 -0.32300139100864811 -0.44723989508536771 0 -0.32413493920603592 -0.43586432580396972 0 -0.32300139100864811 -0.44723989508536771 0 -0.31385630152515048 -0.44199725430357722 0 -0.32413493920603592 -0.43586432580396972 0 -0.32300139100864811 -0.44723989508536771 0 -0.31385630152515048 -0.44199725430357722 0 -0.31044958537109257 -0.45255960714027171 0 -0.32594289259428999 -0.46085836632795257 0 -0.31333683559556219 -0.46686726284272168 0 -0.31044958537109257 -0.45255960714027171 0 -0.32594289259428999 -0.46085836632795257 0 -0.31333683559556219 -0.46686726284272168 0 -0.32224857144892449 -0.47649828689453749 0 -0.32300139100864811 -0.44723989508536771 0 -0.32594289259428999 -0.46085836632795257 0 -0.31044958537109257 -0.45255960714027171 0 -0.33141508850449702 -0.45187214799378478 0 -0.32300139100864811 -0.44723989508536771 0 -0.32594289259428999 -0.46085836632795257 0 -0.31333683559556219 -0.46686726284272168 0 -0.32224857144892449 -0.47649828689453749 0 -0.30503152439861497 -0.48190266549989857 0 -0.32224857144892449 -0.47649828689453749 0 -0.32279626626388608 -0.48781718170045291 0 -0.30503152439861497 -0.48190266549989857 0 -0.32594289259428999 -0.46085836632795257 0 -0.32224857144892449 -0.47649828689453749 0 -0.33264581849560632 -0.47431014716802089 0 -0.32224857144892449 -0.47649828689453749 0 -0.32279626626388608 -0.48781718170045291 0 -0.33105735271625752 -0.4845747321984929 0 -0.32006214434654462 -0.5 0 -0.32279626626388608 -0.48781718170045291 0 -0.30503152439861497 -0.48190266549989857 0 -0.32006214434654462 -0.5 0 -0.32279626626388608 -0.48781718170045291 0 -0.33558173840908911 -0.49611022390933512 0 -0.32006214434654462 -0.5 0 -0.33558173840908911 -0.49611022390933512 0 -0.34657288766042038 -0.5 0 -0.33558173840908911 -0.49611022390933512 0 -0.34190161148819742 -0.48975521975585701 0 -0.35306908662498632 -0.4951847935385878 0 -0.32279626626388608 -0.48781718170045291 0 -0.33558173840908911 -0.49611022390933512 0 -0.33105735271625752 -0.4845747321984929 0 -0.33558173840908911 -0.49611022390933512 0 -0.33105735271625752 -0.4845747321984929 0 -0.34190161148819742 -0.48975521975585701 0 -0.34207866423036198 -0.45986413066326443 0 -0.34190161148819742 -0.48975521975585701 0 -0.34207866423036198 -0.45986413066326443 0 -0.34190161148819742 -0.48975521975585701 0 -0.33264581849560632 -0.47431014716802089 0 -0.33105735271625752 -0.4845747321984929 0 -0.34190161148819742 -0.48975521975585701 0 -0.33264581849560632 -0.47431014716802089 0 -0.32224857144892449 -0.47649828689453749 0 -0.33105735271625752 -0.4845747321984929 0 -0.33264581849560632 -0.47431014716802089 0 -0.34190161148819742 -0.48975521975585701 0 -0.35001641252228072 -0.47142734906239081 0 -0.35328963507943428 -0.48328499015431992 0 -0.34207866423036198 -0.45986413066326443 0 -0.34190161148819742 -0.48975521975585701 0 -0.35001641252228072 -0.47142734906239081 0 -0.35328963507943428 -0.48328499015431992 0 -0.35950950469085041 -0.48638993404071668 0 -0.36112286221809747 -0.47283058930211808 0 -0.35001641252228072 -0.47142734906239081 0 -0.35328963507943428 -0.48328499015431992 0 -0.36112286221809747 -0.47283058930211808 0 -0.33558173840908911 -0.49611022390933512 0 -0.35306908662498632 -0.4951847935385878 0 -0.33558173840908911 -0.49611022390933512 0 -0.34657288766042038 -0.5 0 -0.35306908662498632 -0.4951847935385878 0 -0.34657288766042038 -0.5 0 -0.35306908662498632 -0.4951847935385878 0 -0.37308363097429631 -0.50000000000000244 0 -0.34190161148819742 -0.48975521975585701 0 -0.35328963507943428 -0.48328499015431992 0 -0.35306908662498632 -0.4951847935385878 0 -0.35328963507943428 -0.48328499015431992 0 -0.35306908662498632 -0.4951847935385878 0 -0.35950950469085041 -0.48638993404071668 0 -0.35306908662498632 -0.4951847935385878 0 -0.35950950469085041 -0.48638993404071668 0 -0.37055643484088358 -0.49425936316784103 0 -0.35306908662498632 -0.4951847935385878 0 -0.37055643484088358 -0.49425936316784103 0 -0.35950950469085041 -0.48638993404071668 0 -0.37055643484088358 -0.49425936316784103 0 -0.36112286221809747 -0.47283058930211808 0 -0.35306908662498632 -0.4951847935385878 0 -0.37055643484088358 -0.49425936316784103 0 -0.37308363097429631 -0.50000000000000244 0 -0.37055643484088358 -0.49425936316784103 0 -0.37308363097429631 -0.50000000000000244 0 -0.38039451612360919 -0.47713749807852829 0 -0.37055643484088358 -0.49425936316784103 0 -0.36112286221809747 -0.47283058930211808 0 -0.37055643484088358 -0.49425936316784103 0 -0.36112286221809747 -0.47283058930211808 0 -0.38039451612360919 -0.47713749807852829 0 -0.36112286221809747 -0.47283058930211808 0 -0.37415472949075129 -0.45946062715310632 0 -0.37415472949075129 -0.45946062715310632 0 -0.3629811744391212 -0.45722253899736259 0 -0.36406731613876331 -0.44506275929787698 0 -0.36112286221809747 -0.47283058930211808 0 -0.37415472949075129 -0.45946062715310632 0 -0.3629811744391212 -0.45722253899736259 0 -0.36112286221809747 -0.47283058930211808 0 -0.3629811744391212 -0.45722253899736259 0 -0.35168928959531232 -0.4514018154363949 0 -0.36112286221809747 -0.47283058930211808 0 -0.35168928959531232 -0.4514018154363949 0 -0.35001641252228072 -0.47142734906239081 0 -0.36112286221809747 -0.47283058930211808 0 -0.35168928959531232 -0.4514018154363949 0 -0.34207866423036198 -0.45986413066326443 0 -0.35001641252228072 -0.47142734906239081 0 -0.35168928959531232 -0.4514018154363949 0 -0.35168928959531232 -0.4514018154363949 0 -0.34225571697252682 -0.42997304157067162 0 -0.35168928959531232 -0.4514018154363949 0 -0.36406731613876331 -0.44506275929787698 0 -0.34225571697252682 -0.42997304157067162 0 -0.34207866423036198 -0.45986413066326443 0 -0.35168928959531232 -0.4514018154363949 0 -0.34225571697252682 -0.42997304157067162 0 -0.38339996822118783 -0.44368928783448319 0 -0.36406731613876331 -0.44506275929787698 0 -0.36866352395763108 -0.4313760290561211 0 -0.38339996822118783 -0.44368928783448319 0 -0.37415472949075129 -0.45946062715310632 0 -0.36406731613876331 -0.44506275929787698 0 -0.3629811744391212 -0.45722253899736259 0 -0.35168928959531232 -0.4514018154363949 0 -0.36406731613876331 -0.44506275929787698 0 -0.38131756488089769 -0.42670085612339947 0 -0.36866352395763108 -0.4313760290561211 0 -0.36377437909963828 -0.41972983174959272 0 -0.38704143117499401 -0.40999023144455299 0 -0.3575105341832589 -0.40691374405003478 0 -0.38704143117499401 -0.40999023144455299 0 -0.36377437909963828 -0.41972983174959272 0 -0.3575105341832589 -0.40691374405003478 0 -0.35062038894632092 -0.41624612172537079 0 -0.34239786166265201 -0.40597533588911489 0 -0.34225571697252682 -0.42997304157067162 0 -0.36377437909963828 -0.41972983174959272 0 -0.3575105341832589 -0.40691374405003478 0 -0.35062038894632092 -0.41624612172537079 0 -0.3575105341832589 -0.40691374405003478 0 -0.35062038894632092 -0.41624612172537079 0 -0.34239786166265201 -0.40597533588911489 0 -0.36406731613876331 -0.44506275929787698 0 -0.36866352395763108 -0.4313760290561211 0 -0.34225571697252682 -0.42997304157067162 0 -0.36866352395763108 -0.4313760290561211 0 -0.36377437909963828 -0.41972983174959272 0 -0.34225571697252682 -0.42997304157067162 0 -0.36377437909963828 -0.41972983174959272 0 -0.35062038894632092 -0.41624612172537079 0 -0.34225571697252682 -0.42997304157067162 0 -0.37522403377147279 -0.38060127254172499 0 -0.37464038230528551 -0.396492613407532 0 -0.35879027536972019 -0.3891835699585654 0 -0.37522403377147279 -0.38060127254172499 0 -0.35964608014779109 -0.37334112637938882 0 -0.35879027536972019 -0.3891835699585654 0 -0.38704143117499401 -0.40999023144455299 0 -0.3575105341832589 -0.40691374405003478 0 -0.37464038230528551 -0.396492613407532 0 -0.3575105341832589 -0.40691374405003478 0 -0.37464038230528551 -0.396492613407532 0 -0.35879027536972019 -0.3891835699585654 0 -0.3575105341832589 -0.40691374405003478 0 -0.35030966939210212 -0.39601257002631829 0 -0.35879027536972019 -0.3891835699585654 0 -0.35030966939210212 -0.39601257002631829 0 -0.34254000635277743 -0.38197763020755832 0 -0.34239786166265201 -0.40597533588911489 0 -0.3575105341832589 -0.40691374405003478 0 -0.35030966939210212 -0.39601257002631829 0 -0.34239786166265201 -0.40597533588911489 0 -0.35964608014779109 -0.37334112637938882 0 -0.35879027536972019 -0.3891835699585654 0 -0.34254000635277743 -0.38197763020755832 0 -0.35030966939210212 -0.39601257002631829 0 -0.35879027536972019 -0.3891835699585654 0 -0.34254000635277743 -0.38197763020755832 0 -0.32270418411731933 -0.37181077970513959 0 -0.34254000635277743 -0.38197763020755832 0 -0.32435131947256218 -0.38428518727128619 0 -0.34254000635277743 -0.38197763020755832 0 -0.33211028503505757 -0.39455092735479258 0 -0.32435131947256218 -0.38428518727128619 0 -0.34254000635277743 -0.38197763020755832 0 -0.33211028503505757 -0.39455092735479258 0 -0.34239786166265201 -0.40597533588911489 0 -0.34254000635277743 -0.38197763020755832 0 -0.34239786166265201 -0.40597533588911489 0 -0.33211028503505757 -0.39455092735479258 0 -0.32627218782356721 -0.40254155632103228 0 -0.33325599186729038 -0.40952977136485508 0 -0.33211028503505757 -0.39455092735479258 0 -0.34239786166265201 -0.40597533588911489 0 -0.33325599186729038 -0.40952977136485508 0 -0.32627218782356721 -0.40254155632103228 0 -0.31778611784491262 -0.39429551077659458 0 -0.31836523457261151 -0.40628576827473822 0 -0.31778611784491262 -0.39429551077659458 0 -0.31836523457261151 -0.40628576827473822 0 -0.30856762168503782 -0.40330407176644772 0 -0.33211028503505757 -0.39455092735479258 0 -0.32627218782356721 -0.40254155632103228 0 -0.31778611784491262 -0.39429551077659458 0 -0.33211028503505757 -0.39455092735479258 0 -0.31778611784491262 -0.39429551077659458 0 -0.32435131947256218 -0.38428518727128619 0 -0.31778611784491262 -0.39429551077659458 0 -0.32435131947256218 -0.38428518727128619 0 -0.3103864423796594 -0.37828470113645102 0 -0.32270418411731933 -0.37181077970513959 0 -0.32435131947256218 -0.38428518727128619 0 -0.3103864423796594 -0.37828470113645102 0 -0.34225571697252682 -0.42997304157067162 0 -0.32127707919304882 -0.42450406978857058 0 -0.32413493920603592 -0.43586432580396972 0 -0.33358626016413989 -0.44229992863572659 0 -0.34225571697252682 -0.42997304157067162 0 -0.32413493920603592 -0.43586432580396972 0 -0.34225571697252682 -0.42997304157067162 0 -0.32547848823970138 -0.41505510354763547 0 -0.32127707919304882 -0.42450406978857058 0 -0.34225571697252682 -0.42997304157067162 0 -0.33325599186729038 -0.40952977136485508 0 -0.34239786166265201 -0.40597533588911489 0 -0.34225571697252682 -0.42997304157067162 0 -0.34225571697252682 -0.42997304157067162 0 -0.33325599186729038 -0.40952977136485508 0 -0.32547848823970138 -0.41505510354763547 0 -0.34239786166265201 -0.40597533588911489 0 -0.34225571697252682 -0.42997304157067162 0 -0.33325599186729038 -0.40952977136485508 0 -0.32627218782356721 -0.40254155632103228 0 -0.33325599186729038 -0.40952977136485508 0 -0.32547848823970138 -0.41505510354763547 0 -0.32547848823970138 -0.41505510354763547 0 -0.3149711123139971 -0.41411215899080989 0 -0.32127707919304882 -0.42450406978857058 0 -0.32627218782356721 -0.40254155632103228 0 -0.32547848823970138 -0.41505510354763547 0 -0.31836523457261151 -0.40628576827473822 0 -0.32547848823970138 -0.41505510354763547 0 -0.31836523457261151 -0.40628576827473822 0 -0.3149711123139971 -0.41411215899080989 0 -0.31836523457261151 -0.40628576827473822 0 -0.3149711123139971 -0.41411215899080989 0 -0.30856762168503782 -0.40330407176644772 0 -0.3149711123139971 -0.41411215899080989 0 -0.32127707919304882 -0.42450406978857058 0 -0.31068047406536009 -0.42124040027518911 0 -0.32127707919304882 -0.42450406978857058 0 -0.31073004788055869 -0.43167813375356229 0 -0.31068047406536009 -0.42124040027518911 0 -0.32127707919304882 -0.42450406978857058 0 -0.32413493920603592 -0.43586432580396972 0 -0.31073004788055869 -0.43167813375356229 0 -0.31385630152515048 -0.44199725430357722 0 -0.32413493920603592 -0.43586432580396972 0 -0.31073004788055869 -0.43167813375356229 0 -0.31073004788055869 -0.43167813375356229 0 -0.29829421210859891 -0.43220714453990322 0 -0.30286215921622678 -0.44210958888768459 0 -0.31073004788055869 -0.43167813375356229 0 -0.29829421210859891 -0.43220714453990322 0 -0.30293836312512551 -0.42244552438862548 0 -0.29829421210859891 -0.43220714453990322 0 -0.30293836312512551 -0.42244552438862548 0 -0.29038846928103268 -0.42353273433611682 0 -0.31073004788055869 -0.43167813375356229 0 -0.30293836312512551 -0.42244552438862548 0 -0.31068047406536009 -0.42124040027518911 0 -0.3149711123139971 -0.41411215899080989 0 -0.31068047406536009 -0.42124040027518911 0 -0.30545777612822328 -0.41428354029227837 0 -0.30293836312512551 -0.42244552438862548 0 -0.31068047406536009 -0.42124040027518911 0 -0.30545777612822328 -0.41428354029227837 0 -0.3149711123139971 -0.41411215899080989 0 -0.30545777612822328 -0.41428354029227837 0 -0.30856762168503782 -0.40330407176644772 0 -0.30545777612822328 -0.41428354029227837 0 -0.30856762168503782 -0.40330407176644772 0 -0.30079847364115991 -0.40578130343003371 0 -0.30545777612822328 -0.41428354029227837 0 -0.2987732092282892 -0.41413177709842958 0 -0.30079847364115991 -0.40578130343003371 0 -0.30293836312512551 -0.42244552438862548 0 -0.2987732092282892 -0.41413177709842958 0 -0.29038846928103268 -0.42353273433611682 0 -0.30293836312512551 -0.42244552438862548 0 -0.2987732092282892 -0.41413177709842958 0 -0.30293836312512551 -0.42244552438862548 0 -0.30545777612822328 -0.41428354029227837 0 -0.2987732092282892 -0.41413177709842958 0 -0.30545777612822328 -0.41428354029227837 0 -0.2987732092282892 -0.41413177709842958 0 -0.2987732092282892 -0.41413177709842958 0 -0.29092638885970451 -0.39846933503943821 0 -0.2987732092282892 -0.41413177709842958 0 -0.28243901841779939 -0.41376093348156762 0 -0.29092638885970451 -0.39846933503943821 0 -0.2987732092282892 -0.41413177709842958 0 -0.28243901841779939 -0.41376093348156762 0 -0.29038846928103268 -0.42353273433611682 0 -0.2987732092282892 -0.41413177709842958 0 -0.28243901841779939 -0.41376093348156762 0 -0.28243901841779939 -0.41376093348156762 0 -0.29038846928103268 -0.42353273433611682 0 -0.27500508569675858 -0.42792788340523652 0 -0.29038846928103268 -0.42353273433611682 0 -0.27500508569675858 -0.42792788340523652 0 -0.28620792983366777 -0.44117103379144762 0 -0.29829421210859891 -0.43220714453990322 0 -0.29038846928103268 -0.42353273433611682 0 -0.28620792983366777 -0.44117103379144762 0 -0.31778611784491262 -0.39429551077659458 0 -0.3103864423796594 -0.37828470113645102 0 -0.30424293331838692 -0.39073887816822978 0 -0.29584447723995128 -0.37444813956539807 0 -0.29713407365637251 -0.38186722723828942 0 -0.3103864423796594 -0.37828470113645102 0 -0.29713407365637251 -0.38186722723828942 0 -0.30424293331838692 -0.39073887816822978 0 -0.29406976999373469 -0.38920344929064732 0 -0.29713407365637251 -0.38186722723828942 0 -0.3103864423796594 -0.37828470113645102 0 -0.30424293331838692 -0.39073887816822978 0 -0.29998863005712628 -0.39809616774203599 0 -0.30424293331838692 -0.39073887816822978 0 -0.30856762168503782 -0.40330407176644772 0 -0.29998863005712628 -0.39809616774203599 0 -0.30424293331838692 -0.39073887816822978 0 -0.29406976999373469 -0.38920344929064732 0 -0.31778611784491262 -0.39429551077659458 0 -0.30424293331838692 -0.39073887816822978 0 -0.30856762168503782 -0.40330407176644772 0 -0.29998863005712628 -0.39809616774203599 0 -0.30079847364115991 -0.40578130343003371 0 -0.29092638885970451 -0.39846933503943821 0 -0.29998863005712628 -0.39809616774203599 0 -0.30856762168503782 -0.40330407176644772 0 -0.30079847364115991 -0.40578130343003371 0 -0.2987732092282892 -0.41413177709842958 0 -0.30079847364115991 -0.40578130343003371 0 -0.29092638885970451 -0.39846933503943821 0 -0.29092638885970451 -0.39846933503943821 0 -0.28307956849111848 -0.3828068929804474 0 -0.29092638885970451 -0.39846933503943821 0 -0.28307956849111848 -0.3828068929804474 0 -0.27459219804921331 -0.39809849142257658 0 -0.28243901841779939 -0.41376093348156762 0 -0.29092638885970451 -0.39846933503943821 0 -0.27459219804921331 -0.39809849142257658 0 -0.29998863005712628 -0.39809616774203599 0 -0.29092638885970451 -0.39846933503943821 0 -0.29406976999373469 -0.38920344929064732 0 -0.29092638885970451 -0.39846933503943821 0 -0.29406976999373469 -0.38920344929064732 0 -0.28307956849111848 -0.3828068929804474 0 -0.29713407365637251 -0.38186722723828942 0 -0.29406976999373469 -0.38920344929064732 0 -0.28307956849111848 -0.3828068929804474 0 -0.29584447723995128 -0.37444813956539807 0 -0.29713407365637251 -0.38186722723828942 0 -0.28307956849111848 -0.3828068929804474 0 -0.28307956849111848 -0.3828068929804474 0 -0.27459219804921331 -0.39809849142257658 0 -0.26050234447883253 -0.38027693877573482 0 -0.28307956849111848 -0.3828068929804474 0 -0.27459219804921331 -0.39809849142257658 0 -0.27459219804921331 -0.39809849142257658 0 -0.26610482760730952 -0.4133900898647066 0 -0.27459219804921331 -0.39809849142257658 0 -0.26088670843651829 -0.40068536336094251 0 -0.26610482760730952 -0.4133900898647066 0 -0.26088670843651829 -0.40068536336094251 0 -0.26050234447883253 -0.38027693877573482 0 -0.2487824818667288 -0.3954643368039899 0 -0.27459219804921331 -0.39809849142257658 0 -0.26088670843651829 -0.40068536336094251 0 -0.26050234447883253 -0.38027693877573482 0 -0.26088670843651829 -0.40068536336094251 0 -0.24694430377570939 -0.41295507854145541 0 -0.2487824818667288 -0.3954643368039899 0 -0.27500508569675858 -0.42792788340523652 0 -0.25298523514652932 -0.43702750984159111 0 -0.27028712802556781 -0.44002206955302048 0 -0.27500508569675858 -0.42792788340523652 0 -0.27028712802556781 -0.44002206955302048 0 -0.28620792983366777 -0.44117103379144762 0 -0.28243901841779939 -0.41376093348156762 0 -0.27500508569675858 -0.42792788340523652 0 -0.26610482760730952 -0.4133900898647066 0 -0.28243901841779939 -0.41376093348156762 0 -0.27459219804921331 -0.39809849142257658 0 -0.26610482760730952 -0.4133900898647066 0 -0.28243901841779939 -0.41376093348156762 0 -0.26610482760730952 -0.4133900898647066 0 -0.26610482760730952 -0.4133900898647066 0 -0.24694430377570939 -0.41295507854145541 0 -0.26610482760730952 -0.4133900898647066 0 -0.25298523514652932 -0.43702750984159111 0 -0.24694430377570939 -0.41295507854145541 0 -0.26088670843651829 -0.40068536336094251 0 -0.26610482760730952 -0.4133900898647066 0 -0.24694430377570939 -0.41295507854145541 0 -0.27500508569675858 -0.42792788340523652 0 -0.26610482760730952 -0.4133900898647066 0 -0.25298523514652932 -0.43702750984159111 0 -0.26610482760730952 -0.4133900898647066 0 -0.25298523514652932 -0.43702750984159111 0 -0.25298523514652932 -0.43702750984159111 0 -0.25823473398406083 -0.46259190486934387 0 -0.27139768853026319 -0.45350369328431828 0 -0.25298523514652932 -0.43702750984159111 0 -0.27139768853026319 -0.45350369328431828 0 -0.27028712802556781 -0.44002206955302048 0 -0.25298523514652932 -0.43702750984159111 0 -0.25823473398406083 -0.46259190486934387 0 -0.2398656426857485 -0.46066492981847512 0 -0.27139768853026319 -0.45350369328431828 0 -0.28665438526504589 -0.45880473289459528 0 -0.27499686831673542 -0.4693274569635677 0 -0.25823473398406083 -0.46259190486934387 0 -0.27139768853026319 -0.45350369328431828 0 -0.27499686831673542 -0.4693274569635677 0 -0.27139768853026319 -0.45350369328431828 0 -0.27028712802556781 -0.44002206955302048 0 -0.28620792983366777 -0.44117103379144762 0 -0.28620792983366777 -0.44117103379144762 0 -0.29665932401628559 -0.4519210782245337 0 -0.28665438526504589 -0.45880473289459528 0 -0.28620792983366777 -0.44117103379144762 0 -0.29665932401628559 -0.4519210782245337 0 -0.30286215921622678 -0.44210958888768459 0 -0.27139768853026319 -0.45350369328431828 0 -0.28620792983366777 -0.44117103379144762 0 -0.28665438526504589 -0.45880473289459528 0 -0.29829421210859891 -0.43220714453990322 0 -0.28620792983366777 -0.44117103379144762 0 -0.30286215921622678 -0.44210958888768459 0 -0.28665438526504589 -0.45880473289459528 0 -0.28928475434474438 -0.47221518125428918 0 -0.27499686831673542 -0.4693274569635677 0 -0.28665438526504589 -0.45880473289459528 0 -0.30029558254474148 -0.46389675841394568 0 -0.28928475434474438 -0.47221518125428918 0 -0.29665932401628559 -0.4519210782245337 0 -0.28665438526504589 -0.45880473289459528 0 -0.30029558254474148 -0.46389675841394568 0 -0.29665932401628559 -0.4519210782245337 0 -0.30029558254474148 -0.46389675841394568 0 -0.31044958537109257 -0.45255960714027171 0 -0.31333683559556219 -0.46686726284272168 0 -0.30029558254474148 -0.46389675841394568 0 -0.31044958537109257 -0.45255960714027171 0 -0.31385630152515048 -0.44199725430357722 0 -0.31044958537109257 -0.45255960714027171 0 -0.30286215921622678 -0.44210958888768459 0 -0.31385630152515048 -0.44199725430357722 0 -0.31073004788055869 -0.43167813375356229 0 -0.30286215921622678 -0.44210958888768459 0 -0.29665932401628559 -0.4519210782245337 0 -0.31044958537109257 -0.45255960714027171 0 -0.30286215921622678 -0.44210958888768459 0 -0.32006214434654462 -0.5 0 -0.30503152439861497 -0.48190266549989857 0 -0.29355140103266869 -0.5 0 -0.30029558254474148 -0.46389675841394568 0 -0.30503152439861497 -0.48190266549989857 0 -0.28928475434474438 -0.47221518125428918 0 -0.31333683559556219 -0.46686726284272168 0 -0.30029558254474148 -0.46389675841394568 0 -0.30503152439861497 -0.48190266549989857 0 -0.30503152439861497 -0.48190266549989857 0 -0.28928475434474438 -0.47221518125428918 0 -0.27944541119858413 -0.48714429249943858 0 -0.30503152439861497 -0.48190266549989857 0 -0.29355140103266869 -0.5 0 -0.27944541119858413 -0.48714429249943858 0 -0.26704065771879287 -0.5 0 -0.27944541119858413 -0.48714429249943858 0 -0.26377894750559139 -0.4817410620592058 0 -0.29355140103266869 -0.5 0 -0.26704065771879287 -0.5 0 -0.27944541119858413 -0.48714429249943858 0 -0.27944541119858413 -0.48714429249943858 0 -0.27499686831673542 -0.4693274569635677 0 -0.26377894750559139 -0.4817410620592058 0 -0.28928475434474438 -0.47221518125428918 0 -0.27944541119858413 -0.48714429249943858 0 -0.27499686831673542 -0.4693274569635677 0 -0.25823473398406083 -0.46259190486934387 0 -0.27499686831673542 -0.4693274569635677 0 -0.26377894750559139 -0.4817410620592058 0 -0.25823473398406083 -0.46259190486934387 0 -0.26377894750559139 -0.4817410620592058 0 -0.24769273461092009 -0.47775775457152359 0 -0.26704065771879287 -0.5 0 -0.26377894750559139 -0.4817410620592058 0 -0.24052991440491719 -0.5 0 -0.26377894750559139 -0.4817410620592058 0 -0.24052991440491719 -0.5 0 -0.24769273461092009 -0.47775775457152359 0 -0.24052991440491719 -0.5 0 -0.24769273461092009 -0.47775775457152359 0 -0.2238647917587385 -0.47868470982513422 0 -0.24769273461092009 -0.47775775457152359 0 -0.2238647917587385 -0.47868470982513422 0 -0.2253613830811457 -0.45761053917550981 0 -0.24052991440491719 -0.5 0 -0.2238647917587385 -0.47868470982513422 0 -0.2140191710910414 -0.49999999999999972 0 -0.25298523514652932 -0.43702750984159111 0 -0.23591515519085041 -0.44398209369878189 0 -0.2398656426857485 -0.46066492981847512 0 -0.25298523514652932 -0.43702750984159111 0 -0.2398656426857485 -0.46066492981847512 0 -0.25823473398406083 -0.46259190486934387 0 -0.24769273461092009 -0.47775775457152359 0 -0.2398656426857485 -0.46066492981847512 0 -0.24769273461092009 -0.47775775457152359 0 -0.2398656426857485 -0.46066492981847512 0 -0.2253613830811457 -0.45761053917550981 0 -0.24769273461092009 -0.47775775457152359 0 -0.2253613830811457 -0.45761053917550981 0 -0.2238647917587385 -0.47868470982513422 0 -0.2253613830811457 -0.45761053917550981 0 -0.20999779143719291 -0.46083672605530768 0 -0.23591515519085041 -0.44398209369878189 0 -0.2398656426857485 -0.46066492981847512 0 -0.2253613830811457 -0.45761053917550981 0 -0.23591515519085041 -0.44398209369878189 0 -0.2253613830811457 -0.45761053917550981 0 -0.22549954629610269 -0.43500765649169948 0 -0.2253613830811457 -0.45761053917550981 0 -0.20999779143719291 -0.46083672605530768 0 -0.2030300315513712 -0.43746332377949593 0 -0.2253613830811457 -0.45761053917550981 0 -0.2030300315513712 -0.43746332377949593 0 -0.20999779143719291 -0.46083672605530768 0 -0.19715634076338631 -0.4518064782969281 0 -0.2030300315513712 -0.43746332377949593 0 -0.2253613830811457 -0.45761053917550981 0 -0.2030300315513712 -0.43746332377949593 0 -0.22549954629610269 -0.43500765649169948 0 -0.20999779143719291 -0.46083672605530768 0 -0.19715634076338631 -0.4518064782969281 0 -0.2055877559272139 -0.47590323914846377 0 -0.19715634076338631 -0.4518064782969281 0 -0.2055877559272139 -0.47590323914846377 0 -0.19179305986328829 -0.46711759196808689 0 -0.19715634076338631 -0.4518064782969281 0 -0.2055877559272139 -0.47590323914846377 0 -0.19179305986328829 -0.46711759196808689 0 -0.19715634076338631 -0.4518064782969281 0 -0.184822707974968 -0.45592422963236362 0 -0.19715634076338631 -0.4518064782969281 0 -0.2030300315513712 -0.43746332377949593 0 -0.18872492559955881 -0.42770971744539221 0 -0.19715634076338631 -0.4518064782969281 0 -0.18872492559955881 -0.42770971744539221 0 -0.19715634076338631 -0.4518064782969281 0 -0.1870173619903012 -0.44414077979923022 0 -0.18872492559955881 -0.42770971744539221 0 -0.19715634076338631 -0.4518064782969281 0 -0.184822707974968 -0.45592422963236362 0 -0.1870173619903012 -0.44414077979923022 0 -0.2140191710910414 -0.49999999999999972 0 -0.2055877559272139 -0.47590323914846377 0 -0.2140191710910414 -0.49999999999999972 0 -0.2055877559272139 -0.47590323914846377 0 -0.1915741566131953 -0.48274482478870012 0 -0.2238647917587385 -0.47868470982513422 0 -0.2140191710910414 -0.49999999999999972 0 -0.2055877559272139 -0.47590323914846377 0 -0.2238647917587385 -0.47868470982513422 0 -0.20999779143719291 -0.46083672605530768 0 -0.2055877559272139 -0.47590323914846377 0 -0.19179305986328829 -0.46711759196808689 0 -0.2055877559272139 -0.47590323914846377 0 -0.1915741566131953 -0.48274482478870012 0 -0.19179305986328829 -0.46711759196808689 0 -0.1915741566131953 -0.48274482478870012 0 -0.17982433803767831 -0.46920918797397909 0 -0.2140191710910414 -0.49999999999999972 0 -0.1915741566131953 -0.48274482478870012 0 -0.1841956238768391 -0.5 0 -0.1915741566131953 -0.48274482478870012 0 -0.1841956238768391 -0.5 0 -0.17247084166804699 -0.48396500267038112 0 -0.1841956238768391 -0.5 0 -0.17247084166804699 -0.48396500267038112 0 -0.15437207666263669 -0.50000000000000022 0 -0.15669106487963419 -0.47716915445828201 0 -0.17247084166804699 -0.48396500267038112 0 -0.15437207666263669 -0.50000000000000022 0 -0.15669106487963419 -0.47716915445828201 0 -0.17247084166804699 -0.48396500267038112 0 -0.1680230602922401 -0.4683158249620154 0 -0.17247084166804699 -0.48396500267038112 0 -0.17982433803767831 -0.46920918797397909 0 -0.1680230602922401 -0.4683158249620154 0 -0.1915741566131953 -0.48274482478870012 0 -0.17247084166804699 -0.48396500267038112 0 -0.17982433803767831 -0.46920918797397909 0 -0.19179305986328829 -0.46711759196808689 0 -0.17982433803767831 -0.46920918797397909 0 -0.184822707974968 -0.45592422963236362 0 -0.17982433803767831 -0.46920918797397909 0 -0.184822707974968 -0.45592422963236362 0 -0.17211900377920919 -0.45689747079087062 0 -0.17982433803767831 -0.46920918797397909 0 -0.17211900377920919 -0.45689747079087062 0 -0.1680230602922401 -0.4683158249620154 0 -0.1870173619903012 -0.44414077979923022 0 -0.17843006300647921 -0.44542980211747812 0 -0.1823118302108766 -0.43680876328769058 0 -0.184822707974968 -0.45592422963236362 0 -0.1870173619903012 -0.44414077979923022 0 -0.17843006300647921 -0.44542980211747812 0 -0.17211900377920919 -0.45689747079087062 0 -0.17843006300647921 -0.44542980211747812 0 -0.16919262628862339 -0.44362555979768409 0 -0.184822707974968 -0.45592422963236362 0 -0.17211900377920919 -0.45689747079087062 0 -0.17843006300647921 -0.44542980211747812 0 -0.17843006300647921 -0.44542980211747812 0 -0.16919262628862339 -0.44362555979768409 0 -0.17507497024716731 -0.42995475378866199 0 -0.1590100530966318 -0.45433830891656402 0 -0.148881704538534 -0.44296791951084241 0 -0.1613290413136293 -0.43150746337484569 0 -0.1590100530966318 -0.45433830891656402 0 -0.1613290413136293 -0.43150746337484569 0 -0.16919262628862339 -0.44362555979768409 0 -0.1590100530966318 -0.45433830891656402 0 -0.1613290413136293 -0.43150746337484569 0 -0.17211900377920919 -0.45689747079087062 0 -0.16919262628862339 -0.44362555979768409 0 -0.1590100530966318 -0.45433830891656402 0 -0.15669106487963419 -0.47716915445828201 0 -0.1680230602922401 -0.4683158249620154 0 -0.1590100530966318 -0.45433830891656402 0 -0.15669106487963419 -0.47716915445828201 0 -0.1590100530966318 -0.45433830891656402 0 -0.17211900377920919 -0.45689747079087062 0 -0.1680230602922401 -0.4683158249620154 0 -0.1590100530966318 -0.45433830891656402 0 -0.15669106487963419 -0.47716915445828201 0 -0.1590100530966318 -0.45433830891656402 0 -0.1472923250818238 -0.46077477567243558 0 -0.1590100530966318 -0.45433830891656402 0 -0.1472923250818238 -0.46077477567243558 0 -0.148881704538534 -0.44296791951084241 0 -0.1472923250818238 -0.46077477567243558 0 -0.148881704538534 -0.44296791951084241 0 -0.13194602454298601 -0.43962244526902572 0 -0.13194602454298601 -0.43962244526902572 0 -0.13077987840644981 -0.46069854066347632 0 -0.11615585050415531 -0.45102464773050138 0 -0.1472923250818238 -0.46077477567243558 0 -0.13194602454298601 -0.43962244526902572 0 -0.1472923250818238 -0.46077477567243558 0 -0.13077987840644981 -0.46069854066347632 0 -0.13742439756140509 -0.48004162281001828 0 -0.1472923250818238 -0.46077477567243558 0 -0.13194602454298601 -0.43962244526902572 0 -0.13077987840644981 -0.46069854066347632 0 -0.13742439756140509 -0.48004162281001828 0 -0.12108079434187891 -0.47202921183540031 0 -0.1206292342060253 -0.48641385964910883 0 -0.13077987840644981 -0.46069854066347632 0 -0.13742439756140509 -0.48004162281001828 0 -0.12108079434187891 -0.47202921183540031 0 -0.13742439756140509 -0.48004162281001828 0 -0.131118449396015 -0.5 0 -0.1206292342060253 -0.48641385964910883 0 -0.15669106487963419 -0.47716915445828201 0 -0.13742439756140509 -0.48004162281001828 0 -0.15437207666263669 -0.50000000000000022 0 -0.15669106487963419 -0.47716915445828201 0 -0.15437207666263669 -0.50000000000000022 0 -0.13742439756140509 -0.48004162281001828 0 -0.131118449396015 -0.5 0 -0.15437207666263669 -0.50000000000000022 0 -0.15669106487963419 -0.47716915445828201 0 -0.1472923250818238 -0.46077477567243558 0 -0.13742439756140509 -0.48004162281001828 0 -0.13678826443221431 -0.39755243580027871 0 -0.14931675495270949 -0.41057852288770358 0 -0.15761740849691311 -0.38818340141201402 0 -0.1369224961495438 -0.38192389563367207 0 -0.13678826443221431 -0.39755243580027871 0 -0.15761740849691311 -0.38818340141201402 0 -0.1369224961495438 -0.38192389563367207 0 -0.15761740849691311 -0.38818340141201402 0 -0.148308101659717 -0.36695316985008092 0 -0.1369224961495438 -0.38192389563367207 0 -0.12526638733901391 -0.39147447277512609 0 -0.13678826443221431 -0.39755243580027871 0 -0.1369224961495438 -0.38192389563367207 0 -0.1303219987982592 -0.3665496015062627 0 -0.12201267174342199 -0.37938718301114999 0 -0.1369224961495438 -0.38192389563367207 0 -0.12526638733901391 -0.39147447277512609 0 -0.12201267174342199 -0.37938718301114999 0 -0.12526638733901391 -0.39147447277512609 0 -0.13678826443221431 -0.39755243580027871 0 -0.12592730430259419 -0.40432488328170318 0 -0.13678826443221431 -0.39755243580027871 0 -0.12592730430259419 -0.40432488328170318 0 -0.1345256340888337 -0.41538851269275129 0 -0.13678826443221431 -0.39755243580027871 0 -0.1345256340888337 -0.41538851269275129 0 -0.14931675495270949 -0.41057852288770358 0 -0.12592730430259419 -0.40432488328170318 0 -0.1345256340888337 -0.41538851269275129 0 -0.1165997240041481 -0.41847011486561592 0 -0.13194602454298601 -0.43962244526902572 0 -0.1345256340888337 -0.41538851269275129 0 -0.14483107865759889 -0.42859660432134139 0 -0.13194602454298601 -0.43962244526902572 0 -0.1345256340888337 -0.41538851269275129 0 -0.1165997240041481 -0.41847011486561592 0 -0.148881704538534 -0.44296791951084241 0 -0.14483107865759889 -0.42859660432134139 0 -0.1613290413136293 -0.43150746337484569 0 -0.148881704538534 -0.44296791951084241 0 -0.13194602454298601 -0.43962244526902572 0 -0.14483107865759889 -0.42859660432134139 0 -0.14483107865759889 -0.42859660432134139 0 -0.14931675495270949 -0.41057852288770358 0 -0.1613290413136293 -0.43150746337484569 0 -0.1345256340888337 -0.41538851269275129 0 -0.14483107865759889 -0.42859660432134139 0 -0.14931675495270949 -0.41057852288770358 0 -0.16364802953062679 -0.40867661783312748 0 -0.1613290413136293 -0.43150746337484569 0 -0.14931675495270949 -0.41057852288770358 0 -0.16364802953062679 -0.40867661783312748 0 -0.1613290413136293 -0.43150746337484569 0 -0.16364802953062679 -0.40867661783312748 0 -0.1613290413136293 -0.43150746337484569 0 -0.17507497024716731 -0.42995475378866199 0 -0.16919262628862339 -0.44362555979768409 0 -0.1613290413136293 -0.43150746337484569 0 -0.17507497024716731 -0.42995475378866199 0 -0.1870173619903012 -0.44414077979923022 0 -0.1823118302108766 -0.43680876328769058 0 -0.18872492559955881 -0.42770971744539221 0 -0.17843006300647921 -0.44542980211747812 0 -0.17507497024716731 -0.42995475378866199 0 -0.1823118302108766 -0.43680876328769058 0 -0.17507497024716731 -0.42995475378866199 0 -0.1806986800215967 -0.4173161083834821 0 -0.18872492559955881 -0.42770971744539221 0 -0.17507497024716731 -0.42995475378866199 0 -0.1823118302108766 -0.43680876328769058 0 -0.18872492559955881 -0.42770971744539221 0 -0.1806986800215967 -0.4173161083834821 0 -0.18228064084688081 -0.39610998094782668 0 -0.19209360216251761 -0.40824625574224149 0 -0.16364802953062679 -0.40867661783312748 0 -0.17507497024716731 -0.42995475378866199 0 -0.1806986800215967 -0.4173161083834821 0 -0.16364802953062679 -0.40867661783312748 0 -0.1806986800215967 -0.4173161083834821 0 -0.18228064084688081 -0.39610998094782668 0 -0.16364802953062679 -0.40867661783312748 0 -0.18228064084688081 -0.39610998094782668 0 -0.15761740849691311 -0.38818340141201402 0 -0.14931675495270949 -0.41057852288770358 0 -0.16364802953062679 -0.40867661783312748 0 -0.15761740849691311 -0.38818340141201402 0 -0.15761740849691311 -0.38818340141201402 0 -0.183603859264966 -0.3766054584014627 0 -0.1661931572416451 -0.36889933283976362 0 -0.18228064084688081 -0.39610998094782668 0 -0.15761740849691311 -0.38818340141201402 0 -0.183603859264966 -0.3766054584014627 0 -0.18228064084688081 -0.39610998094782668 0 -0.183603859264966 -0.3766054584014627 0 -0.20216487974800659 -0.3829991661375407 0 -0.18228064084688081 -0.39610998094782668 0 -0.20343785588976751 -0.39944649130885712 0 -0.19209360216251761 -0.40824625574224149 0 -0.18228064084688081 -0.39610998094782668 0 -0.20216487974800659 -0.3829991661375407 0 -0.20343785588976751 -0.39944649130885712 0 -0.20343785588976751 -0.39944649130885712 0 -0.21350444502423929 -0.40864471589815532 0 -0.22035180610084079 -0.39356726900625483 0 -0.20216487974800659 -0.3829991661375407 0 -0.20343785588976751 -0.39944649130885712 0 -0.22035180610084079 -0.39356726900625483 0 -0.20216487974800659 -0.3829991661375407 0 -0.22035180610084079 -0.39356726900625483 0 -0.219169022554425 -0.37113875127287832 0 -0.1806986800215967 -0.4173161083834821 0 -0.2030300315513712 -0.43746332377949593 0 -0.18872492559955881 -0.42770971744539221 0 -0.1806986800215967 -0.4173161083834821 0 -0.2030300315513712 -0.43746332377949593 0 -0.2030300315513712 -0.43746332377949593 0 -0.19369636752838881 -0.41903658901391427 0 -0.2031687955665597 -0.42354741618771741 0 -0.1806986800215967 -0.4173161083834821 0 -0.2030300315513712 -0.43746332377949593 0 -0.19369636752838881 -0.41903658901391427 0 -0.19369636752838881 -0.41903658901391427 0 -0.20299923128825029 -0.41376529568937459 0 -0.2031687955665597 -0.42354741618771741 0 -0.1806986800215967 -0.4173161083834821 0 -0.19369636752838881 -0.41903658901391427 0 -0.19209360216251761 -0.40824625574224149 0 -0.19369636752838881 -0.41903658901391427 0 -0.19209360216251761 -0.40824625574224149 0 -0.20299923128825029 -0.41376529568937459 0 -0.20343785588976751 -0.39944649130885712 0 -0.19209360216251761 -0.40824625574224149 0 -0.20299923128825029 -0.41376529568937459 0 -0.20343785588976751 -0.39944649130885712 0 -0.20299923128825029 -0.41376529568937459 0 -0.21350444502423929 -0.40864471589815532 0 -0.21350444502423929 -0.40864471589815532 0 -0.21294955189822859 -0.42392445626808489 0 -0.2277837799441092 -0.41252006721820539 0 -0.20299923128825029 -0.41376529568937459 0 -0.2031687955665597 -0.42354741618771741 0 -0.21294955189822859 -0.42392445626808489 0 -0.20299923128825029 -0.41376529568937459 0 -0.21350444502423929 -0.40864471589815532 0 -0.21294955189822859 -0.42392445626808489 0 -0.2030300315513712 -0.43746332377949593 0 -0.21294955189822859 -0.42392445626808489 0 -0.22549954629610269 -0.43500765649169948 0 -0.2030300315513712 -0.43746332377949593 0 -0.2031687955665597 -0.42354741618771741 0 -0.21294955189822859 -0.42392445626808489 0 -0.23591515519085041 -0.44398209369878189 0 -0.22549954629610269 -0.43500765649169948 0 -0.23735783041644329 -0.42609093398936743 0 -0.22549954629610269 -0.43500765649169948 0 -0.2277837799441092 -0.41252006721820539 0 -0.23735783041644329 -0.42609093398936743 0 -0.21294955189822859 -0.42392445626808489 0 -0.22549954629610269 -0.43500765649169948 0 -0.2277837799441092 -0.41252006721820539 0 -0.2277837799441092 -0.41252006721820539 0 -0.24694430377570939 -0.41295507854145541 0 -0.2277837799441092 -0.41252006721820539 0 -0.24694430377570939 -0.41295507854145541 0 -0.23735783041644329 -0.42609093398936743 0 -0.2277837799441092 -0.41252006721820539 0 -0.24694430377570939 -0.41295507854145541 0 -0.2359891007147569 -0.39914414181493052 0 -0.25298523514652932 -0.43702750984159111 0 -0.24694430377570939 -0.41295507854145541 0 -0.23735783041644329 -0.42609093398936743 0 -0.25298523514652932 -0.43702750984159111 0 -0.23591515519085041 -0.44398209369878189 0 -0.23735783041644329 -0.42609093398936743 0 -0.22035180610084079 -0.39356726900625483 0 -0.23802591309349369 -0.38358476956933441 0 -0.219169022554425 -0.37113875127287832 0 -0.22035180610084079 -0.39356726900625483 0 -0.2359891007147569 -0.39914414181493052 0 -0.23802591309349369 -0.38358476956933441 0 -0.21350444502423929 -0.40864471589815532 0 -0.2277837799441092 -0.41252006721820539 0 -0.22035180610084079 -0.39356726900625483 0 -0.2277837799441092 -0.41252006721820539 0 -0.22035180610084079 -0.39356726900625483 0 -0.2359891007147569 -0.39914414181493052 0 -0.2359891007147569 -0.39914414181493052 0 -0.2487824818667288 -0.3954643368039899 0 -0.23802591309349369 -0.38358476956933441 0 -0.24694430377570939 -0.41295507854145541 0 -0.2359891007147569 -0.39914414181493052 0 -0.2487824818667288 -0.3954643368039899 0 -0.26050234447883253 -0.38027693877573482 0 -0.2487824818667288 -0.3954643368039899 0 -0.23802591309349369 -0.38358476956933441 0 -0.26050234447883253 -0.38027693877573482 0 -0.23802591309349369 -0.38358476956933441 0 -0.24817767477162081 -0.36986654917455902 0 -0.23802591309349369 -0.38358476956933441 0 -0.24817767477162081 -0.36986654917455902 0 -0.23583729862822109 -0.36574384613307409 0 -0.24817767477162081 -0.36986654917455902 0 -0.23583729862822109 -0.36574384613307409 0 -0.24850069890613241 -0.35473287875334369 0 -0.23583729862822109 -0.36574384613307409 0 -0.219169022554425 -0.37113875127287832 0 -0.22531318381543361 -0.34939628189525529 0 -0.23802591309349369 -0.38358476956933441 0 -0.23583729862822109 -0.36574384613307409 0 -0.219169022554425 -0.37113875127287832 0 -0.22531318381543361 -0.34939628189525529 0 -0.24850069890613241 -0.35473287875334369 0 -0.24219101746094579 -0.34438554910399921 0 -0.23583729862822109 -0.36574384613307409 0 -0.22531318381543361 -0.34939628189525529 0 -0.24850069890613241 -0.35473287875334369 0 -0.22531318381543361 -0.34939628189525529 0 -0.24850069890613241 -0.35473287875334369 0 -0.25445926970156468 -0.34270101061729968 0 -0.24850069890613241 -0.35473287875334369 0 -0.24219101746094579 -0.34438554910399921 0 -0.25445926970156468 -0.34270101061729968 0 -0.24219101746094579 -0.34438554910399921 0 -0.2460450098649074 -0.33743905859998191 0 -0.25207330520806498 -0.33378255792528982 0 -0.2460450098649074 -0.33743905859998191 0 -0.24306356592407591 -0.32787829483024122 0 -0.2348359590034956 -0.33686915078515089 0 -0.24306356592407591 -0.32787829483024122 0 -0.23163603200856511 -0.32708080208212859 0 -0.2460450098649074 -0.33743905859998191 0 -0.2348359590034956 -0.33686915078515089 0 -0.24306356592407591 -0.32787829483024122 0 -0.24219101746094579 -0.34438554910399921 0 -0.2460450098649074 -0.33743905859998191 0 -0.2348359590034956 -0.33686915078515089 0 -0.25273748935779161 -0.32224337373924072 0 -0.24326482791746179 -0.31394285089519419 0 -0.24426682308287331 -0.30533572025667649 0 -0.25273748935779161 -0.32224337373924072 0 -0.24426682308287331 -0.30533572025667649 0 -0.25273748935779161 -0.32224337373924072 0 -0.24326482791746179 -0.31394285089519419 0 -0.2440208243134171 -0.32058552998791068 0 -0.25273748935779161 -0.32224337373924072 0 -0.24306356592407591 -0.32787829483024122 0 -0.2440208243134171 -0.32058552998791068 0 -0.25207330520806498 -0.33378255792528982 0 -0.25273748935779161 -0.32224337373924072 0 -0.24306356592407591 -0.32787829483024122 0 -0.24306356592407591 -0.32787829483024122 0 -0.2440208243134171 -0.32058552998791068 0 -0.23701741405433899 -0.31827760048696663 0 -0.24306356592407591 -0.32787829483024122 0 -0.23701741405433899 -0.31827760048696663 0 -0.23163603200856511 -0.32708080208212859 0 -0.24326482791746179 -0.31394285089519419 0 -0.23701741405433899 -0.31827760048696663 0 -0.2384772558931193 -0.30928307653082621 0 -0.24326482791746179 -0.31394285089519419 0 -0.2440208243134171 -0.32058552998791068 0 -0.23701741405433899 -0.31827760048696663 0 -0.22244826701882919 -0.32070202864358233 0 -0.22802593536356699 -0.30882837184141948 0 -0.21110805984082151 -0.30983785689108939 0 -0.23701741405433899 -0.31827760048696663 0 -0.22244826701882919 -0.32070202864358233 0 -0.22802593536356699 -0.30882837184141948 0 -0.23701741405433899 -0.31827760048696663 0 -0.23163603200856511 -0.32708080208212859 0 -0.22244826701882919 -0.32070202864358233 0 -0.23163603200856511 -0.32708080208212859 0 -0.22244826701882919 -0.32070202864358233 0 -0.22079431421521131 -0.33353493235345111 0 -0.22531318381543361 -0.34939628189525529 0 -0.2348359590034956 -0.33686915078515089 0 -0.22079431421521131 -0.33353493235345111 0 -0.22531318381543361 -0.34939628189525529 0 -0.24219101746094579 -0.34438554910399921 0 -0.2348359590034956 -0.33686915078515089 0 -0.2348359590034956 -0.33686915078515089 0 -0.23163603200856511 -0.32708080208212859 0 -0.22079431421521131 -0.33353493235345111 0 -0.22079431421521131 -0.33353493235345111 0 -0.20839645480677241 -0.32403064402179738 0 -0.20212566872473489 -0.34405968503716688 0 -0.22531318381543361 -0.34939628189525529 0 -0.22079431421521131 -0.33353493235345111 0 -0.20212566872473489 -0.34405968503716688 0 -0.22244826701882919 -0.32070202864358233 0 -0.20839645480677241 -0.32403064402179738 0 -0.21110805984082151 -0.30983785689108939 0 -0.22244826701882919 -0.32070202864358233 0 -0.22079431421521131 -0.33353493235345111 0 -0.20839645480677241 -0.32403064402179738 0 -0.20839645480677241 -0.32403064402179738 0 -0.19575919956014079 -0.31702437624003538 0 -0.21110805984082151 -0.30983785689108939 0 -0.20839645480677241 -0.32403064402179738 0 -0.19575919956014079 -0.31702437624003538 0 -0.19562896033857519 -0.33020038185646122 0 -0.19575919956014079 -0.31702437624003538 0 -0.19562896033857519 -0.33020038185646122 0 -0.18477851095256179 -0.32477614194451959 0 -0.20212566872473489 -0.34405968503716688 0 -0.1789381536340362 -0.33872308817907848 0 -0.19562896033857519 -0.33020038185646122 0 -0.20212566872473489 -0.34405968503716688 0 -0.1789381536340362 -0.33872308817907848 0 -0.20839645480677241 -0.32403064402179738 0 -0.19562896033857519 -0.33020038185646122 0 -0.20212566872473489 -0.34405968503716688 0 -0.20212566872473489 -0.34405968503716688 0 -0.2037839996862793 -0.36234410805543599 0 -0.1863350517553729 -0.35962674217565882 0 -0.20212566872473489 -0.34405968503716688 0 -0.1863350517553729 -0.35962674217565882 0 -0.1789381536340362 -0.33872308817907848 0 -0.183603859264966 -0.3766054584014627 0 -0.20216487974800659 -0.3829991661375407 0 -0.2037839996862793 -0.36234410805543599 0 -0.183603859264966 -0.3766054584014627 0 -0.2037839996862793 -0.36234410805543599 0 -0.1863350517553729 -0.35962674217565882 0 -0.219169022554425 -0.37113875127287832 0 -0.22531318381543361 -0.34939628189525529 0 -0.2037839996862793 -0.36234410805543599 0 -0.20216487974800659 -0.3829991661375407 0 -0.219169022554425 -0.37113875127287832 0 -0.2037839996862793 -0.36234410805543599 0 -0.22531318381543361 -0.34939628189525529 0 -0.20212566872473489 -0.34405968503716688 0 -0.2037839996862793 -0.36234410805543599 0 -0.22531318381543361 -0.34939628189525529 0 -0.20212566872473489 -0.34405968503716688 0 -0.24465976002352091 -0.25387891845332877 0 -0.23199225124923151 -0.26692477658714647 0 -0.21854221021918649 -0.25236034283526498 0 -0.23199225124923151 -0.26692477658714647 0 -0.21864709985809599 -0.27150291036173302 0 -0.21854221021918649 -0.25236034283526498 0 -0.24465976002352091 -0.25387891845332877 0 -0.2444485511135471 -0.27534046621033159 0 -0.23199225124923151 -0.26692477658714647 0 -0.25958550566062261 -0.27102626557679149 0 -0.24465976002352091 -0.25387891845332877 0 -0.2444485511135471 -0.27534046621033159 0 -0.2444485511135471 -0.27534046621033159 0 -0.23199225124923151 -0.26692477658714647 0 -0.23366363503180709 -0.28154124507507411 0 -0.2197277065850177 -0.2872169177591285 0 -0.23366363503180709 -0.28154124507507411 0 -0.21864709985809599 -0.27150291036173302 0 -0.23199225124923151 -0.26692477658714647 0 -0.23366363503180709 -0.28154124507507411 0 -0.21864709985809599 -0.27150291036173302 0 -0.2197277065850177 -0.2872169177591285 0 -0.23366363503180709 -0.28154124507507411 0 -0.24011613505684479 -0.30107681213347393 0 -0.2197277065850177 -0.2872169177591285 0 -0.24011613505684479 -0.30107681213347393 0 -0.2197277065850177 -0.2872169177591285 0 -0.24011613505684479 -0.30107681213347393 0 -0.2201073871300871 -0.30044142834658671 0 -0.2444485511135471 -0.27534046621033159 0 -0.23366363503180709 -0.28154124507507411 0 -0.24732420154209239 -0.29033586459568173 0 -0.23366363503180709 -0.28154124507507411 0 -0.24732420154209239 -0.29033586459568173 0 -0.24011613505684479 -0.30107681213347393 0 -0.25608276685525683 -0.28295324223861612 0 -0.2444485511135471 -0.27534046621033159 0 -0.24732420154209239 -0.29033586459568173 0 -0.26050456352867191 -0.3149367065078193 0 -0.24011613505684479 -0.30107681213347393 0 -0.24426682308287331 -0.30533572025667649 0 -0.25485564421046719 -0.30132045870319019 0 -0.24732420154209239 -0.29033586459568173 0 -0.24011613505684479 -0.30107681213347393 0 -0.24011613505684479 -0.30107681213347393 0 -0.2384772558931193 -0.30928307653082621 0 -0.22802593536356699 -0.30882837184141948 0 -0.24326482791746179 -0.31394285089519419 0 -0.24426682308287331 -0.30533572025667649 0 -0.2384772558931193 -0.30928307653082621 0 -0.24011613505684479 -0.30107681213347393 0 -0.24426682308287331 -0.30533572025667649 0 -0.2384772558931193 -0.30928307653082621 0 -0.23701741405433899 -0.31827760048696663 0 -0.2384772558931193 -0.30928307653082621 0 -0.22802593536356699 -0.30882837184141948 0 -0.22802593536356699 -0.30882837184141948 0 -0.2201073871300871 -0.30044142834658671 0 -0.21110805984082151 -0.30983785689108939 0 -0.24011613505684479 -0.30107681213347393 0 -0.22802593536356699 -0.30882837184141948 0 -0.2201073871300871 -0.30044142834658671 0 -0.2201073871300871 -0.30044142834658671 0 -0.21110805984082151 -0.30983785689108939 0 -0.20155909880418441 -0.29524718310782239 0 -0.21110805984082151 -0.30983785689108939 0 -0.2000775247532616 -0.30687463122530689 0 -0.20155909880418441 -0.29524718310782239 0 -0.19575919956014079 -0.31702437624003538 0 -0.21110805984082151 -0.30983785689108939 0 -0.2000775247532616 -0.30687463122530689 0 -0.18961770926909149 -0.30481471110084102 0 -0.20155909880418441 -0.29524718310782239 0 -0.1798976030385912 -0.29461474791537873 0 -0.19575919956014079 -0.31702437624003538 0 -0.2000775247532616 -0.30687463122530689 0 -0.18961770926909149 -0.30481471110084102 0 -0.19575919956014079 -0.31702437624003538 0 -0.18961770926909149 -0.30481471110084102 0 -0.1803928959391416 -0.31521744924658562 0 -0.2000775247532616 -0.30687463122530689 0 -0.18961770926909149 -0.30481471110084102 0 -0.20155909880418441 -0.29524718310782239 0 -0.19933927811319041 -0.27335702338478318 0 -0.1798976030385912 -0.29461474791537873 0 -0.20155909880418441 -0.29524718310782239 0 -0.19933927811319041 -0.27335702338478318 0 -0.1798976030385912 -0.29461474791537873 0 -0.2197277065850177 -0.2872169177591285 0 -0.20155909880418441 -0.29524718310782239 0 -0.19933927811319041 -0.27335702338478318 0 -0.2197277065850177 -0.2872169177591285 0 -0.2201073871300871 -0.30044142834658671 0 -0.20155909880418441 -0.29524718310782239 0 -0.21864709985809599 -0.27150291036173302 0 -0.19933927811319041 -0.27335702338478318 0 -0.21854221021918649 -0.25236034283526498 0 -0.2197277065850177 -0.2872169177591285 0 -0.21864709985809599 -0.27150291036173302 0 -0.19933927811319041 -0.27335702338478318 0 -0.2197277065850177 -0.2872169177591285 0 -0.19933927811319041 -0.27335702338478318 0 -0.19672455084482071 -0.27157955221738023 0 -0.19563648814007639 -0.2627950405098789 0 -0.1773613401945949 -0.28300380337564962 0 -0.19672455084482071 -0.27157955221738023 0 -0.19933927811319041 -0.27335702338478318 0 -0.1773613401945949 -0.28300380337564962 0 -0.19672455084482071 -0.27157955221738023 0 -0.19933927811319041 -0.27335702338478318 0 -0.19563648814007639 -0.2627950405098789 0 -0.19672455084482071 -0.27157955221738023 0 -0.19933927811319041 -0.27335702338478318 0 -0.19933927811319041 -0.27335702338478318 0 -0.19563648814007639 -0.2627950405098789 0 -0.2024770003035091 -0.25628481747185139 0 -0.19563648814007639 -0.2627950405098789 0 -0.19160736129165659 -0.25262396586623759 0 -0.18182513936558051 -0.25739227955256888 0 -0.19563648814007639 -0.2627950405098789 0 -0.19160736129165659 -0.25262396586623759 0 -0.2024770003035091 -0.25628481747185139 0 -0.19160736129165659 -0.25262396586623759 0 -0.2024770003035091 -0.25628481747185139 0 -0.19988453840298659 -0.24176205441804 0 -0.19933927811319041 -0.27335702338478318 0 -0.2024770003035091 -0.25628481747185139 0 -0.21854221021918649 -0.25236034283526498 0 -0.2024770003035091 -0.25628481747185139 0 -0.21854221021918649 -0.25236034283526498 0 -0.19988453840298659 -0.24176205441804 0 -0.19933927811319041 -0.27335702338478318 0 -0.21854221021918649 -0.25236034283526498 0 -0.16270034237907721 -0.26451024010365409 0 -0.1689202540561075 -0.25519621835756329 0 -0.15263230708737521 -0.24356194903458239 0 -0.16270034237907721 -0.26451024010365409 0 -0.15585924966824549 -0.27338725763800159 0 -0.15263230708737521 -0.24356194903458239 0 -0.16270034237907721 -0.26451024010365409 0 -0.1689202540561075 -0.25519621835756329 0 -0.17291740387759841 -0.2648938158906885 0 -0.1689202540561075 -0.25519621835756329 0 -0.18182513936558051 -0.25739227955256888 0 -0.1745260775709061 -0.24562280720632229 0 -0.19160736129165659 -0.25262396586623759 0 -0.18182513936558051 -0.25739227955256888 0 -0.1745260775709061 -0.24562280720632229 0 -0.19563648814007639 -0.2627950405098789 0 -0.18182513936558051 -0.25739227955256888 0 -0.18269465011250469 -0.26841637399603913 0 -0.1689202540561075 -0.25519621835756329 0 -0.18182513936558051 -0.25739227955256888 0 -0.17291740387759841 -0.2648938158906885 0 -0.18182513936558051 -0.25739227955256888 0 -0.17291740387759841 -0.2648938158906885 0 -0.18269465011250469 -0.26841637399603913 0 -0.19563648814007639 -0.2627950405098789 0 -0.18269465011250469 -0.26841637399603913 0 -0.1773613401945949 -0.28300380337564962 0 -0.17291740387759841 -0.2648938158906885 0 -0.17526212336935321 -0.27297056277525461 0 -0.1680750992927145 -0.27556825783864097 0 -0.19563648814007639 -0.2627950405098789 0 -0.1773613401945949 -0.28300380337564962 0 -0.17291740387759841 -0.2648938158906885 0 -0.17526212336935321 -0.27297056277525461 0 -0.18269465011250469 -0.26841637399603913 0 -0.17526212336935321 -0.27297056277525461 0 -0.18269465011250469 -0.26841637399603913 0 -0.1773613401945949 -0.28300380337564962 0 -0.17526212336935321 -0.27297056277525461 0 -0.1680750992927145 -0.27556825783864097 0 -0.1773613401945949 -0.28300380337564962 0 -0.1680750992927145 -0.27556825783864097 0 -0.1682011228878135 -0.28257539269247411 0 -0.1773613401945949 -0.28300380337564962 0 -0.1680750992927145 -0.27556825783864097 0 -0.1622412594804854 -0.28273310688964581 0 -0.1682011228878135 -0.28257539269247411 0 -0.16270034237907721 -0.26451024010365409 0 -0.17291740387759841 -0.2648938158906885 0 -0.1680750992927145 -0.27556825783864097 0 -0.16270034237907721 -0.26451024010365409 0 -0.1680750992927145 -0.27556825783864097 0 -0.16179622859894191 -0.27503335760685149 0 -0.16270034237907721 -0.26451024010365409 0 -0.16179622859894191 -0.27503335760685149 0 -0.15585924966824549 -0.27338725763800159 0 -0.16179622859894191 -0.27503335760685149 0 -0.1622412594804854 -0.28273310688964581 0 -0.15585924966824549 -0.27338725763800159 0 -0.1680750992927145 -0.27556825783864097 0 -0.16179622859894191 -0.27503335760685149 0 -0.1622412594804854 -0.28273310688964581 0 -0.1622412594804854 -0.28273310688964581 0 -0.16512679258345911 -0.28899640266596011 0 -0.15908619224911419 -0.30321256624142101 0 -0.1622412594804854 -0.28273310688964581 0 -0.15908619224911419 -0.30321256624142101 0 -0.15585924966824549 -0.27338725763800159 0 -0.15908619224911419 -0.30321256624142101 0 -0.15585924966824549 -0.27338725763800159 0 -0.16512679258345911 -0.28899640266596011 0 -0.1773613401945949 -0.28300380337564962 0 -0.15908619224911419 -0.30321256624142101 0 -0.1773613401945949 -0.28300380337564962 0 -0.15908619224911419 -0.30321256624142101 0 -0.16512679258345911 -0.28899640266596011 0 -0.1682011228878135 -0.28257539269247411 0 -0.1773613401945949 -0.28300380337564962 0 -0.1622412594804854 -0.28273310688964581 0 -0.16512679258345911 -0.28899640266596011 0 -0.1682011228878135 -0.28257539269247411 0 -0.1773613401945949 -0.28300380337564962 0 -0.1798976030385912 -0.29461474791537873 0 -0.15908619224911419 -0.30321256624142101 0 -0.19933927811319041 -0.27335702338478318 0 -0.1773613401945949 -0.28300380337564962 0 -0.1798976030385912 -0.29461474791537873 0 -0.1798976030385912 -0.29461474791537873 0 -0.17759103405270391 -0.30762984517719472 0 -0.16045592796399111 -0.3158724724459735 0 -0.18961770926909149 -0.30481471110084102 0 -0.1798976030385912 -0.29461474791537873 0 -0.17759103405270391 -0.30762984517719472 0 -0.18961770926909149 -0.30481471110084102 0 -0.17759103405270391 -0.30762984517719472 0 -0.1803928959391416 -0.31521744924658562 0 -0.1798976030385912 -0.29461474791537873 0 -0.16045592796399111 -0.3158724724459735 0 -0.1798976030385912 -0.29461474791537873 0 -0.15908619224911419 -0.30321256624142101 0 -0.16045592796399111 -0.3158724724459735 0 -0.15908619224911419 -0.30321256624142101 0 -0.16045592796399111 -0.3158724724459735 0 -0.1471380549162328 -0.30532142906175452 0 -0.14032160831301491 -0.30752887986621158 0 -0.14130665940473261 -0.32287327510069419 0 -0.15908619224911419 -0.30321256624142101 0 -0.1471380549162328 -0.30532142906175452 0 -0.14130665940473261 -0.32287327510069419 0 -0.15908619224911419 -0.30321256624142101 0 -0.1471380549162328 -0.30532142906175452 0 -0.1510678287434867 -0.29559461902651829 0 -0.14390798587081549 -0.29739780507392732 0 -0.1471380549162328 -0.30532142906175452 0 -0.1510678287434867 -0.29559461902651829 0 -0.14390798587081549 -0.29739780507392732 0 -0.1471380549162328 -0.30532142906175452 0 -0.14032160831301491 -0.30752887986621158 0 -0.14032160831301491 -0.30752887986621158 0 -0.13439128381467691 -0.29991683468539793 0 -0.13033731665847181 -0.31286393971371201 0 -0.13439128381467691 -0.29991683468539793 0 -0.13033731665847181 -0.31286393971371201 0 -0.12304085188452731 -0.29931348820209958 0 -0.14390798587081549 -0.29739780507392732 0 -0.14032160831301491 -0.30752887986621158 0 -0.13439128381467691 -0.29991683468539793 0 -0.14390798587081549 -0.29739780507392732 0 -0.13439128381467691 -0.29991683468539793 0 -0.14011095662501261 -0.28947786809128212 0 -0.13439128381467691 -0.29991683468539793 0 -0.14011095662501261 -0.28947786809128212 0 -0.12994370463312691 -0.28995419054763111 0 -0.13439128381467691 -0.29991683468539793 0 -0.12994370463312691 -0.28995419054763111 0 -0.12304085188452731 -0.29931348820209958 0 -0.12994370463312691 -0.28995419054763111 0 -0.13687965345326569 -0.27993872332247433 0 -0.1257911728949061 -0.280427018304516 0 -0.12994370463312691 -0.28995419054763111 0 -0.1257911728949061 -0.280427018304516 0 -0.1194571486541455 -0.28746452468861589 0 -0.14011095662501261 -0.28947786809128212 0 -0.12994370463312691 -0.28995419054763111 0 -0.13687965345326569 -0.27993872332247433 0 -0.15908619224911419 -0.30321256624142101 0 -0.15162645984294551 -0.28670064183700439 0 -0.15585924966824549 -0.27338725763800159 0 -0.14011095662501261 -0.28947786809128212 0 -0.1458827091329962 -0.28225219708249882 0 -0.13687965345326569 -0.27993872332247433 0 -0.15908619224911419 -0.30321256624142101 0 -0.1510678287434867 -0.29559461902651829 0 -0.15162645984294551 -0.28670064183700439 0 -0.1458827091329962 -0.28225219708249882 0 -0.1468811506158991 -0.28912565090950809 0 -0.15162645984294551 -0.28670064183700439 0 -0.14011095662501261 -0.28947786809128212 0 -0.1458827091329962 -0.28225219708249882 0 -0.1468811506158991 -0.28912565090950809 0 -0.14390798587081549 -0.29739780507392732 0 -0.1468811506158991 -0.28912565090950809 0 -0.1510678287434867 -0.29559461902651829 0 -0.14390798587081549 -0.29739780507392732 0 -0.14011095662501261 -0.28947786809128212 0 -0.1468811506158991 -0.28912565090950809 0 -0.1468811506158991 -0.28912565090950809 0 -0.1510678287434867 -0.29559461902651829 0 -0.15162645984294551 -0.28670064183700439 0 -0.1458827091329962 -0.28225219708249882 0 -0.15162645984294551 -0.28670064183700439 0 -0.15098162864793119 -0.27663156012407891 0 -0.15162645984294551 -0.28670064183700439 0 -0.15098162864793119 -0.27663156012407891 0 -0.15585924966824549 -0.27338725763800159 0 -0.15098162864793119 -0.27663156012407891 0 -0.1522527558101047 -0.27366235468835692 0 -0.14903370440966179 -0.27344637702894548 0 -0.15098162864793119 -0.27663156012407891 0 -0.1522527558101047 -0.27366235468835692 0 -0.15585924966824549 -0.27338725763800159 0 -0.14903370440966179 -0.27344637702894548 0 -0.1531364405145805 -0.27118422396240138 0 -0.14385763015454139 -0.26954128824380802 0 -0.1522527558101047 -0.27366235468835692 0 -0.15585924966824549 -0.27338725763800159 0 -0.1531364405145805 -0.27118422396240138 0 -0.1522527558101047 -0.27366235468835692 0 -0.14903370440966179 -0.27344637702894548 0 -0.1531364405145805 -0.27118422396240138 0 -0.14903370440966179 -0.27344637702894548 0 -0.14385763015454139 -0.26954128824380802 0 -0.1442805510697899 -0.27562940435382949 0 -0.14385763015454139 -0.26954128824380802 0 -0.1442805510697899 -0.27562940435382949 0 -0.13835653564694769 -0.27242798417408381 0 -0.1458827091329962 -0.28225219708249882 0 -0.1442805510697899 -0.27562940435382949 0 -0.13687965345326569 -0.27993872332247433 0 -0.15098162864793119 -0.27663156012407891 0 -0.14903370440966179 -0.27344637702894548 0 -0.1442805510697899 -0.27562940435382949 0 -0.1458827091329962 -0.28225219708249882 0 -0.15098162864793119 -0.27663156012407891 0 -0.1442805510697899 -0.27562940435382949 0 -0.13687965345326569 -0.27993872332247433 0 -0.12970248462840331 -0.2717774759070859 0 -0.13835653564694769 -0.27242798417408381 0 -0.1442805510697899 -0.27562940435382949 0 -0.13687965345326569 -0.27993872332247433 0 -0.13835653564694769 -0.27242798417408381 0 -0.13687965345326569 -0.27993872332247433 0 -0.1257911728949061 -0.280427018304516 0 -0.12970248462840331 -0.2717774759070859 0 -0.12970248462840331 -0.2717774759070859 0 -0.13570208279224111 -0.26528350045903498 0 -0.12855037573501921 -0.26115248962005239 0 -0.14385763015454139 -0.26954128824380802 0 -0.13835653564694769 -0.27242798417408381 0 -0.13570208279224111 -0.26528350045903498 0 -0.12970248462840331 -0.2717774759070859 0 -0.13835653564694769 -0.27242798417408381 0 -0.13570208279224111 -0.26528350045903498 0 -0.13570208279224111 -0.26528350045903498 0 -0.12855037573501921 -0.26115248962005239 0 -0.1377523016625678 -0.25581657194563601 0 -0.14385763015454139 -0.26954128824380802 0 -0.13570208279224111 -0.26528350045903498 0 -0.1377523016625678 -0.25581657194563601 0 -0.12855037573501921 -0.26115248962005239 0 -0.1377523016625678 -0.25581657194563601 0 -0.1223681628105569 -0.24044891992886891 0 -0.1531364405145805 -0.27118422396240138 0 -0.1377523016625678 -0.25581657194563601 0 -0.15263230708737521 -0.24356194903458239 0 -0.15585924966824549 -0.27338725763800159 0 -0.1531364405145805 -0.27118422396240138 0 -0.15263230708737521 -0.24356194903458239 0 -0.15585924966824549 -0.27338725763800159 0 -0.15263230708737521 -0.24356194903458239 0 -0.1531364405145805 -0.27118422396240138 0 -0.1377523016625678 -0.25581657194563601 0 -0.1531364405145805 -0.27118422396240138 0 -0.14385763015454139 -0.26954128824380802 0 -0.1377523016625678 -0.25581657194563601 0 -0.1661931572416451 -0.36889933283976362 0 -0.1633245426028184 -0.34238590264286861 0 -0.15433175674287769 -0.35458729317269139 0 -0.1661931572416451 -0.36889933283976362 0 -0.1633245426028184 -0.34238590264286861 0 -0.1661931572416451 -0.36889933283976362 0 -0.17388048196752651 -0.3522733272046466 0 -0.1633245426028184 -0.34238590264286861 0 -0.1661931572416451 -0.36889933283976362 0 -0.15433175674287769 -0.35458729317269139 0 -0.148308101659717 -0.36695316985008092 0 -0.15761740849691311 -0.38818340141201402 0 -0.1661931572416451 -0.36889933283976362 0 -0.148308101659717 -0.36695316985008092 0 -0.183603859264966 -0.3766054584014627 0 -0.1661931572416451 -0.36889933283976362 0 -0.1863350517553729 -0.35962674217565882 0 -0.1661931572416451 -0.36889933283976362 0 -0.1863350517553729 -0.35962674217565882 0 -0.17388048196752651 -0.3522733272046466 0 -0.1863350517553729 -0.35962674217565882 0 -0.17388048196752651 -0.3522733272046466 0 -0.1789381536340362 -0.33872308817907848 0 -0.17388048196752651 -0.3522733272046466 0 -0.1789381536340362 -0.33872308817907848 0 -0.1633245426028184 -0.34238590264286861 0 -0.19562896033857519 -0.33020038185646122 0 -0.1789381536340362 -0.33872308817907848 0 -0.18477851095256179 -0.32477614194451959 0 -0.1789381536340362 -0.33872308817907848 0 -0.18477851095256179 -0.32477614194451959 0 -0.1735479853981102 -0.32728394705986258 0 -0.1789381536340362 -0.33872308817907848 0 -0.1735479853981102 -0.32728394705986258 0 -0.1633245426028184 -0.34238590264286861 0 -0.17759103405270391 -0.30762984517719472 0 -0.1803928959391416 -0.31521744924658562 0 -0.16045592796399111 -0.3158724724459735 0 -0.19575919956014079 -0.31702437624003538 0 -0.1803928959391416 -0.31521744924658562 0 -0.18477851095256179 -0.32477614194451959 0 -0.1803928959391416 -0.31521744924658562 0 -0.18477851095256179 -0.32477614194451959 0 -0.1735479853981102 -0.32728394705986258 0 -0.1803928959391416 -0.31521744924658562 0 -0.1735479853981102 -0.32728394705986258 0 -0.16045592796399111 -0.3158724724459735 0 -0.1735479853981102 -0.32728394705986258 0 -0.16045592796399111 -0.3158724724459735 0 -0.1633245426028184 -0.34238590264286861 0 -0.16045592796399111 -0.3158724724459735 0 -0.1633245426028184 -0.34238590264286861 0 -0.1476770575246594 -0.3298450188736391 0 -0.16045592796399111 -0.3158724724459735 0 -0.1633245426028184 -0.34238590264286861 0 -0.1633245426028184 -0.34238590264286861 0 -0.15030263560259111 -0.34285112818916452 0 -0.1476770575246594 -0.3298450188736391 0 -0.1476770575246594 -0.3298450188736391 0 -0.14130665940473261 -0.32287327510069419 0 -0.13989838249203351 -0.33226752099114382 0 -0.1476770575246594 -0.3298450188736391 0 -0.14096893258994439 -0.33934882548262568 0 -0.13989838249203351 -0.33226752099114382 0 -0.15030263560259111 -0.34285112818916452 0 -0.1476770575246594 -0.3298450188736391 0 -0.14096893258994439 -0.33934882548262568 0 -0.15908619224911419 -0.30321256624142101 0 -0.14130665940473261 -0.32287327510069419 0 -0.16045592796399111 -0.3158724724459735 0 -0.1476770575246594 -0.3298450188736391 0 -0.14130665940473261 -0.32287327510069419 0 -0.15908619224911419 -0.30321256624142101 0 -0.16045592796399111 -0.3158724724459735 0 -0.14130665940473261 -0.32287327510069419 0 -0.16045592796399111 -0.3158724724459735 0 -0.1476770575246594 -0.3298450188736391 0 -0.14130665940473261 -0.32287327510069419 0 -0.12766342535057629 -0.32481504462803062 0 -0.13033731665847181 -0.31286393971371201 0 -0.14032160831301491 -0.30752887986621158 0 -0.14130665940473261 -0.32287327510069419 0 -0.13033731665847181 -0.31286393971371201 0 -0.14130665940473261 -0.32287327510069419 0 -0.12766342535057629 -0.32481504462803062 0 -0.12902917457320359 -0.33644978787578289 0 -0.12766342535057629 -0.32481504462803062 0 -0.12902917457320359 -0.33644978787578289 0 -0.123033176677132 -0.34308019655903149 0 -0.14096893258994439 -0.33934882548262568 0 -0.12902917457320359 -0.33644978787578289 0 -0.13366226850604379 -0.34759248760944123 0 -0.14096893258994439 -0.33934882548262568 0 -0.13989838249203351 -0.33226752099114382 0 -0.12902917457320359 -0.33644978787578289 0 -0.14130665940473261 -0.32287327510069419 0 -0.12902917457320359 -0.33644978787578289 0 -0.14130665940473261 -0.32287327510069419 0 -0.13989838249203351 -0.33226752099114382 0 -0.12902917457320359 -0.33644978787578289 0 -0.12902917457320359 -0.33644978787578289 0 -0.123033176677132 -0.34308019655903149 0 -0.12902917457320359 -0.33644978787578289 0 -0.13366226850604379 -0.34759248760944123 0 -0.123033176677132 -0.34308019655903149 0 -0.13366226850604379 -0.34759248760944123 0 -0.1303219987982592 -0.3665496015062627 0 -0.123033176677132 -0.34308019655903149 0 -0.1303219987982592 -0.3665496015062627 0 -0.123033176677132 -0.34308019655903149 0 -0.13366226850604379 -0.34759248760944123 0 -0.1435303466076166 -0.35184693234157938 0 -0.1303219987982592 -0.3665496015062627 0 -0.14096893258994439 -0.33934882548262568 0 -0.13366226850604379 -0.34759248760944123 0 -0.1435303466076166 -0.35184693234157938 0 -0.15030263560259111 -0.34285112818916452 0 -0.14096893258994439 -0.33934882548262568 0 -0.1435303466076166 -0.35184693234157938 0 -0.1435303466076166 -0.35184693234157938 0 -0.15433175674287769 -0.35458729317269139 0 -0.148308101659717 -0.36695316985008092 0 -0.1633245426028184 -0.34238590264286861 0 -0.15030263560259111 -0.34285112818916452 0 -0.15433175674287769 -0.35458729317269139 0 -0.15030263560259111 -0.34285112818916452 0 -0.1435303466076166 -0.35184693234157938 0 -0.15433175674287769 -0.35458729317269139 0 -0.1435303466076166 -0.35184693234157938 0 -0.148308101659717 -0.36695316985008092 0 -0.1303219987982592 -0.3665496015062627 0 -0.1369224961495438 -0.38192389563367207 0 -0.148308101659717 -0.36695316985008092 0 -0.1303219987982592 -0.3665496015062627 0 -0.1303219987982592 -0.3665496015062627 0 -0.1159926709000937 -0.36685414663024191 0 -0.11895596668836859 -0.34683008488337108 0 -0.1303219987982592 -0.3665496015062627 0 -0.1159926709000937 -0.36685414663024191 0 -0.12201267174342199 -0.37938718301114999 0 -0.1024060606807759 -0.36205135125861898 0 -0.1016559479587178 -0.38500202459504551 0 -0.1159926709000937 -0.36685414663024191 0 -0.1024060606807759 -0.36205135125861898 0 -0.1094440337948836 -0.37923577087639421 0 -0.1024060606807759 -0.36205135125861898 0 -0.1016559479587178 -0.38500202459504551 0 -0.095426438310298192 -0.37780241062099151 0 -0.1024060606807759 -0.36205135125861898 0 -0.090139611558562177 -0.37333304007799939 0 -0.095426438310298192 -0.37780241062099151 0 -0.1024060606807759 -0.36205135125861898 0 -0.093943439343664059 -0.36410026383479388 0 -0.090139611558562177 -0.37333304007799939 0 -0.1024060606807759 -0.36205135125861898 0 -0.093943439343664059 -0.36410026383479388 0 -0.095626283443773746 -0.35612124291623848 0 -0.1024060606807759 -0.36205135125861898 0 -0.090139611558562177 -0.37333304007799939 0 -0.1024060606807759 -0.36205135125861898 0 -0.1029439411344124 -0.34559419992324319 0 -0.1024060606807759 -0.36205135125861898 0 -0.1029439411344124 -0.34559419992324319 0 -0.11895596668836859 -0.34683008488337108 0 -0.1024060606807759 -0.36205135125861898 0 -0.095626283443773746 -0.35612124291623848 0 -0.1029439411344124 -0.34559419992324319 0 -0.095626283443773746 -0.35612124291623848 0 -0.1029439411344124 -0.34559419992324319 0 -0.093212578299404075 -0.34130700998995739 0 -0.1159926709000937 -0.36685414663024191 0 -0.1024060606807759 -0.36205135125861898 0 -0.11895596668836859 -0.34683008488337108 0 -0.1024060606807759 -0.36205135125861898 0 -0.11895596668836859 -0.34683008488337108 0 -0.1303219987982592 -0.3665496015062627 0 -0.11895596668836859 -0.34683008488337108 0 -0.123033176677132 -0.34308019655903149 0 -0.1029439411344124 -0.34559419992324319 0 -0.11895596668836859 -0.34683008488337108 0 -0.123033176677132 -0.34308019655903149 0 -0.11895596668836859 -0.34683008488337108 0 -0.123033176677132 -0.34308019655903149 0 -0.1029439411344124 -0.34559419992324319 0 -0.1137910684918501 -0.33520612369310882 0 -0.123033176677132 -0.34308019655903149 0 -0.123033176677132 -0.34308019655903149 0 -0.1159692764993048 -0.31568518943543378 0 -0.1137910684918501 -0.33520612369310882 0 -0.123033176677132 -0.34308019655903149 0 -0.1159692764993048 -0.31568518943543378 0 -0.12766342535057629 -0.32481504462803062 0 -0.123033176677132 -0.34308019655903149 0 -0.1159692764993048 -0.31568518943543378 0 -0.1137910684918501 -0.33520612369310882 0 -0.1159692764993048 -0.31568518943543378 0 -0.1034818215880495 -0.3291370485878673 0 -0.12766342535057629 -0.32481504462803062 0 -0.13033731665847181 -0.31286393971371201 0 -0.1159692764993048 -0.31568518943543378 0 -0.1159692764993048 -0.31568518943543378 0 -0.10079975883819629 -0.31506063040533638 0 -0.1034818215880495 -0.3291370485878673 0 -0.10079975883819629 -0.31506063040533638 0 -0.093212578299404075 -0.34130700998995739 0 -0.10079975883819629 -0.31506063040533638 0 -0.093212578299404075 -0.34130700998995739 0 -0.087373844159168004 -0.3291061545470132 0 -0.10079975883819629 -0.31506063040533638 0 -0.1034818215880495 -0.3291370485878673 0 -0.093212578299404075 -0.34130700998995739 0 -0.1029439411344124 -0.34559419992324319 0 -0.1034818215880495 -0.3291370485878673 0 -0.1029439411344124 -0.34559419992324319 0 -0.1034818215880495 -0.3291370485878673 0 -0.093212578299404075 -0.34130700998995739 0 -0.1029439411344124 -0.34559419992324319 0 -0.1137910684918501 -0.33520612369310882 0 -0.1034818215880495 -0.3291370485878673 0 -0.093212578299404075 -0.34130700998995739 0 -0.087373844159168004 -0.3291061545470132 0 -0.080908772255243899 -0.33898270124258217 0 -0.087373844159168004 -0.3291061545470132 0 -0.080908772255243899 -0.33898270124258217 0 -0.077490532230771417 -0.32991328235931511 0 -0.093212578299404075 -0.34130700998995739 0 -0.080908772255243899 -0.33898270124258217 0 -0.080378844364046895 -0.35001101873094542 0 -0.10079975883819629 -0.31506063040533638 0 -0.085305929108392881 -0.31951846990187233 0 -0.091873739319295072 -0.31122357941036211 0 -0.10079975883819629 -0.31506063040533638 0 -0.087373844159168004 -0.3291061545470132 0 -0.085305929108392881 -0.31951846990187233 0 -0.085305929108392881 -0.31951846990187233 0 -0.076805788315873161 -0.32077910918615782 0 -0.077490532230771417 -0.32991328235931511 0 -0.087373844159168004 -0.3291061545470132 0 -0.085305929108392881 -0.31951846990187233 0 -0.077490532230771417 -0.32991328235931511 0 -0.085305929108392881 -0.31951846990187233 0 -0.076805788315873161 -0.32077910918615782 0 -0.078544889372492196 -0.31002595631180607 0 -0.085305929108392881 -0.31951846990187233 0 -0.091873739319295072 -0.31122357941036211 0 -0.078544889372492196 -0.31002595631180607 0 -0.066882954587322394 -0.32486941793266988 0 -0.078544889372492196 -0.31002595631180607 0 -0.05424539878688571 -0.319762651601179 0 -0.078544889372492196 -0.31002595631180607 0 -0.05424539878688571 -0.319762651601179 0 -0.076805788315873161 -0.32077910918615782 0 -0.066882954587322394 -0.32486941793266988 0 -0.078544889372492196 -0.31002595631180607 0 -0.076805788315873161 -0.32077910918615782 0 -0.066882954587322394 -0.32486941793266988 0 -0.077490532230771417 -0.32991328235931511 0 -0.066882954587322394 -0.32486941793266988 0 -0.070160141916437824 -0.34098238217286791 0 -0.054527031800802053 -0.34042178362413461 0 -0.066882954587322394 -0.32486941793266988 0 -0.077490532230771417 -0.32991328235931511 0 -0.070160141916437824 -0.34098238217286791 0 -0.080908772255243899 -0.33898270124258217 0 -0.077490532230771417 -0.32991328235931511 0 -0.070160141916437824 -0.34098238217286791 0 -0.080908772255243899 -0.33898270124258217 0 -0.070160141916437824 -0.34098238217286791 0 -0.080378844364046895 -0.35001101873094542 0 -0.070160141916437824 -0.34098238217286791 0 -0.066522813126512412 -0.35680227137673098 0 -0.054527031800802053 -0.34042178362413461 0 -0.070160141916437824 -0.34098238217286791 0 -0.066522813126512412 -0.35680227137673098 0 -0.080378844364046895 -0.35001101873094542 0 -0.066522813126512412 -0.35680227137673098 0 -0.076582500297099523 -0.36039923154202719 0 -0.080378844364046895 -0.35001101873094542 0 -0.066522813126512412 -0.35680227137673098 0 -0.073802945937226916 -0.36723024648585417 0 -0.058387822440418388 -0.36975607908058028 0 -0.073802945937226916 -0.36723024648585417 0 -0.058387822440418388 -0.36975607908058028 0 -0.08170780991661282 -0.38109255286014232 0 -0.066522813126512412 -0.35680227137673098 0 -0.073802945937226916 -0.36723024648585417 0 -0.076582500297099523 -0.36039923154202719 0 -0.073802945937226916 -0.36723024648585417 0 -0.076582500297099523 -0.36039923154202719 0 -0.085625397760611066 -0.36755338957457828 0 -0.085625397760611066 -0.36755338957457828 0 -0.087954911787112483 -0.37534235041220648 0 -0.08170780991661282 -0.38109255286014232 0 -0.073802945937226916 -0.36723024648585417 0 -0.085625397760611066 -0.36755338957457828 0 -0.08170780991661282 -0.38109255286014232 0 -0.085625397760611066 -0.36755338957457828 0 -0.08170780991661282 -0.38109255286014232 0 -0.093943439343664059 -0.36410026383479388 0 -0.085625397760611066 -0.36755338957457828 0 -0.090139611558562177 -0.37333304007799939 0 -0.093943439343664059 -0.36410026383479388 0 -0.090139611558562177 -0.37333304007799939 0 -0.085625397760611066 -0.36755338957457828 0 -0.090139611558562177 -0.37333304007799939 0 -0.087954911787112483 -0.37534235041220648 0 -0.085625397760611066 -0.36755338957457828 0 -0.087954911787112483 -0.37534235041220648 0 -0.090139611558562177 -0.37333304007799939 0 -0.087954911787112483 -0.37534235041220648 0 -0.093943439343664059 -0.36410026383479388 0 -0.095626283443773746 -0.35612124291623848 0 -0.085625397760611066 -0.36755338957457828 0 -0.093212578299404075 -0.34130700998995739 0 -0.085625397760611066 -0.36755338957457828 0 -0.076582500297099523 -0.36039923154202719 0 -0.085625397760611066 -0.36755338957457828 0 -0.080378844364046895 -0.35001101873094542 0 -0.093212578299404075 -0.34130700998995739 0 -0.085625397760611066 -0.36755338957457828 0 -0.080378844364046895 -0.35001101873094542 0 -0.085625397760611066 -0.36755338957457828 0 -0.080378844364046895 -0.35001101873094542 0 -0.095626283443773746 -0.35612124291623848 0 -0.093212578299404075 -0.34130700998995739 0 -0.085625397760611066 -0.36755338957457828 0 -0.10474757541744149 -0.26087495970427582 0 -0.090174700483665673 -0.26498018187443112 0 -0.1005321994236209 -0.2431127607729493 0 -0.10474757541744149 -0.26087495970427582 0 -0.11757885349586771 -0.25701660664448461 0 -0.1005321994236209 -0.2431127607729493 0 -0.12855037573501921 -0.26115248962005239 0 -0.11757885349586771 -0.25701660664448461 0 -0.1127895441811773 -0.27358429336009982 0 -0.12855037573501921 -0.26115248962005239 0 -0.11757885349586771 -0.25701660664448461 0 -0.1223681628105569 -0.24044891992886891 0 -0.10474757541744149 -0.26087495970427582 0 -0.11757885349586771 -0.25701660664448461 0 -0.1127895441811773 -0.27358429336009982 0 -0.11757885349586771 -0.25701660664448461 0 -0.1127895441811773 -0.27358429336009982 0 -0.1257911728949061 -0.280427018304516 0 -0.12970248462840331 -0.2717774759070859 0 -0.1127895441811773 -0.27358429336009982 0 -0.12855037573501921 -0.26115248962005239 0 -0.1127895441811773 -0.27358429336009982 0 -0.12970248462840331 -0.2717774759070859 0 -0.12855037573501921 -0.26115248962005239 0 -0.1127895441811773 -0.27358429336009982 0 -0.1257911728949061 -0.280427018304516 0 -0.1127895441811773 -0.27358429336009982 0 -0.1194571486541455 -0.28746452468861589 0 -0.1127895441811773 -0.27358429336009982 0 -0.1083869393769897 -0.28881425082071571 0 -0.1127895441811773 -0.27358429336009982 0 -0.093274829049746905 -0.28897707944045958 0 -0.090174700483665673 -0.26498018187443112 0 -0.10474757541744149 -0.26087495970427582 0 -0.1127895441811773 -0.27358429336009982 0 -0.090174700483665673 -0.26498018187443112 0 -0.1127895441811773 -0.27358429336009982 0 -0.1067008731150054 -0.28283902414649681 0 -0.093274829049746905 -0.28897707944045958 0 -0.1127895441811773 -0.27358429336009982 0 -0.093274829049746905 -0.28897707944045958 0 -0.1083869393769897 -0.28881425082071571 0 -0.102844379958099 -0.30028926102243358 0 -0.093274829049746905 -0.28897707944045958 0 -0.1127895441811773 -0.27358429336009982 0 -0.1083869393769897 -0.28881425082071571 0 -0.1067008731150054 -0.28283902414649681 0 -0.1083869393769897 -0.28881425082071571 0 -0.1067008731150054 -0.28283902414649681 0 -0.1083869393769897 -0.28881425082071571 0 -0.1067008731150054 -0.28283902414649681 0 -0.093274829049746905 -0.28897707944045958 0 -0.1127895441811773 -0.27358429336009982 0 -0.1083869393769897 -0.28881425082071571 0 -0.1194571486541455 -0.28746452468861589 0 -0.12994370463312691 -0.28995419054763111 0 -0.1194571486541455 -0.28746452468861589 0 -0.12304085188452731 -0.29931348820209958 0 -0.1083869393769897 -0.28881425082071571 0 -0.1194571486541455 -0.28746452468861589 0 -0.12304085188452731 -0.29931348820209958 0 -0.1159692764993048 -0.31568518943543378 0 -0.1083869393769897 -0.28881425082071571 0 -0.12304085188452731 -0.29931348820209958 0 -0.1159692764993048 -0.31568518943543378 0 -0.1083869393769897 -0.28881425082071571 0 -0.13033731665847181 -0.31286393971371201 0 -0.1159692764993048 -0.31568518943543378 0 -0.12304085188452731 -0.29931348820209958 0 -0.1159692764993048 -0.31568518943543378 0 -0.10079975883819629 -0.31506063040533638 0 -0.1083869393769897 -0.28881425082071571 0 -0.10079975883819629 -0.31506063040533638 0 -0.1083869393769897 -0.28881425082071571 0 -0.10079975883819629 -0.31506063040533638 0 -0.1083869393769897 -0.28881425082071571 0 -0.102844379958099 -0.30028926102243358 0 -0.10079975883819629 -0.31506063040533638 0 -0.102844379958099 -0.30028926102243358 0 -0.091873739319295072 -0.31122357941036211 0 -0.078544889372492196 -0.31002595631180607 0 -0.073760113918316481 -0.30436986552081963 0 -0.093274829049746905 -0.28897707944045958 0 -0.102844379958099 -0.30028926102243358 0 -0.078544889372492196 -0.31002595631180607 0 -0.093274829049746905 -0.28897707944045958 0 -0.102844379958099 -0.30028926102243358 0 -0.091873739319295072 -0.31122357941036211 0 -0.078544889372492196 -0.31002595631180607 0 -0.102844379958099 -0.30028926102243358 0 -0.078544889372492196 -0.31002595631180607 0 -0.078544889372492196 -0.31002595631180607 0 -0.073760113918316481 -0.30436986552081963 0 -0.05424539878688571 -0.319762651601179 0 -0.073760113918316481 -0.30436986552081963 0 -0.05424539878688571 -0.319762651601179 0 -0.073760113918316481 -0.30436986552081963 0 -0.071188273097670243 -0.28513602236808322 0 -0.055748641784298267 -0.30178875706485681 0 -0.073760113918316481 -0.30436986552081963 0 -0.071188273097670243 -0.28513602236808322 0 -0.093274829049746905 -0.28897707944045958 0 -0.073760113918316481 -0.30436986552081963 0 -0.093274829049746905 -0.28897707944045958 0 -0.071188273097670243 -0.28513602236808322 0 -0.093274829049746905 -0.28897707944045958 0 -0.090174700483665673 -0.26498018187443112 0 -0.071188273097670243 -0.28513602236808322 0 -0.063484538676239377 -0.26413124226689111 0 -0.090174700483665673 -0.26498018187443112 0 -0.063484538676239377 -0.26413124226689111 0 -0.076282262678724011 -0.24169347649274159 0 -0.063484538676239377 -0.26413124226689111 0 -0.090174700483665673 -0.26498018187443112 0 -0.076282262678724011 -0.24169347649274159 0 -0.036942597034766073 -0.27265489088473938 0 -0.050686814673754729 -0.28656900804104057 0 -0.0185119813334658 -0.28327625011988139 0 -0.038581934025118947 -0.25114857380685968 0 -0.038334603868346327 -0.2604973367990705 0 -0.03064478186574425 -0.25326356670072259 0 -0.038334603868346327 -0.2604973367990705 0 -0.029413390480137139 -0.26518294325465769 0 -0.03064478186574425 -0.25326356670072259 0 -0.038334603868346327 -0.2604973367990705 0 -0.046517308340487992 -0.25474718453952289 0 -0.048289188575406587 -0.26955092917192058 0 -0.038581934025118947 -0.25114857380685968 0 -0.038334603868346327 -0.2604973367990705 0 -0.046517308340487992 -0.25474718453952289 0 -0.063484538676239377 -0.26413124226689111 0 -0.046517308340487992 -0.25474718453952289 0 -0.0567919256119837 -0.24387644547435741 0 -0.063484538676239377 -0.26413124226689111 0 -0.046517308340487992 -0.25474718453952289 0 -0.048289188575406587 -0.26955092917192058 0 -0.063484538676239377 -0.26413124226689111 0 -0.050686814673754729 -0.28656900804104057 0 -0.071188273097670243 -0.28513602236808322 0 -0.063484538676239377 -0.26413124226689111 0 -0.050686814673754729 -0.28656900804104057 0 -0.063484538676239377 -0.26413124226689111 0 -0.048289188575406587 -0.26955092917192058 0 -0.050686814673754729 -0.28656900804104057 0 -0.048289188575406587 -0.26955092917192058 0 -0.036942597034766073 -0.27265489088473938 0 -0.050686814673754729 -0.28656900804104057 0 -0.038334603868346327 -0.2604973367990705 0 -0.048289188575406587 -0.26955092917192058 0 -0.036942597034766073 -0.27265489088473938 0 -0.038334603868346327 -0.2604973367990705 0 -0.036942597034766073 -0.27265489088473938 0 -0.029413390480137139 -0.26518294325465769 0 -0.050686814673754729 -0.28656900804104057 0 -0.037889090671270123 -0.30900677381518998 0 -0.0185119813334658 -0.28327625011988139 0 -0.071188273097670243 -0.28513602236808322 0 -0.050686814673754729 -0.28656900804104057 0 -0.055748641784298267 -0.30178875706485681 0 -0.073760113918316481 -0.30436986552081963 0 -0.055748641784298267 -0.30178875706485681 0 -0.05424539878688571 -0.319762651601179 0 -0.055748641784298267 -0.30178875706485681 0 -0.037889090671270123 -0.30900677381518998 0 -0.05424539878688571 -0.319762651601179 0 -0.050686814673754729 -0.28656900804104057 0 -0.055748641784298267 -0.30178875706485681 0 -0.037889090671270123 -0.30900677381518998 0 -0.050686814673754729 -0.28656900804104057 0 -0.037889090671270123 -0.30900677381518998 0 -0.037889090671270123 -0.30900677381518998 0 -0.014390974368570029 -0.31032982847088841 0 -0.0185119813334658 -0.28327625011988139 0 -0.014390974368570029 -0.31032982847088841 0 0.001904989571353899 -0.32214434476741449 0 0.0019518825097332619 -0.30029273945570772 0 -0.014390974368570029 -0.31032982847088841 0 -0.0185119813334658 -0.28327625011988139 0 0.0019518825097332619 -0.30029273945570772 0 -0.0185119813334658 -0.28327625011988139 0 -0.0020851015340006161 -0.28052611142458661 0 0.0019518825097332619 -0.30029273945570772 0 -0.014390974368570029 -0.31032982847088841 0 -0.0185119813334658 -0.28327625011988139 0 -0.036942597034766073 -0.27265489088473938 0 -0.0185119813334658 -0.28327625011988139 0 -0.029413390480137139 -0.26518294325465769 0 -0.0185119813334658 -0.28327625011988139 0 -0.02263298829836323 -0.25622267176887481 0 -0.029413390480137139 -0.26518294325465769 0 -0.0185119813334658 -0.28327625011988139 0 -0.02263298829836323 -0.25622267176887481 0 -0.0185119813334658 -0.28327625011988139 0 -0.0093077836028632385 -0.27105033158696179 0 -0.02263298829836323 -0.25622267176887481 0 -0.0185119813334658 -0.28327625011988139 0 -0.0020851015340006161 -0.28052611142458661 0 -0.0093077836028632385 -0.27105033158696179 0 -0.0020851015340006161 -0.28052611142458661 0 -0.0093077836028632385 -0.27105033158696179 0 0.0055944649301708496 -0.26664830233551728 0 -0.014059514610042069 -0.25416210053859828 0 -0.02263298829836323 -0.25622267176887481 0 0.0055944649301708496 -0.26664830233551728 0 -0.0093077836028632385 -0.27105033158696179 0 -0.02263298829836323 -0.25622267176887481 0 0.0055944649301708496 -0.26664830233551728 0 -0.02263298829836323 -0.25622267176887481 0 0.0055944649301708496 -0.26664830233551728 0 -0.014059514610042069 -0.25416210053859828 0 -0.0080727856436109482 -0.2481099565327444 0 0.0055944649301708496 -0.26664830233551728 0 -0.014059514610042069 -0.25416210053859828 0 -0.01887874476148543 -0.24814250919209771 0 -0.0080727856436109482 -0.2481099565327444 0 -0.014059514610042069 -0.25416210053859828 0 -0.02263298829836323 -0.25622267176887481 0 -0.02285766608625657 -0.25474770747244752 0 -0.014059514610042069 -0.25416210053859828 0 -0.02285766608625657 -0.25474770747244752 0 -0.01887874476148543 -0.24814250919209771 0 -0.02285766608625657 -0.25474770747244752 0 -0.026067501294639708 -0.24850247980592871 0 -0.01887874476148543 -0.24814250919209771 0 -0.02263298829836323 -0.25622267176887481 0 -0.02285766608625657 -0.25474770747244752 0 -0.02263298829836323 -0.25622267176887481 0 -0.029413390480137139 -0.26518294325465769 0 -0.03064478186574425 -0.25326356670072259 0 -0.02263298829836323 -0.25622267176887481 0 -0.03064478186574425 -0.25326356670072259 0 -0.02263298829836323 -0.25622267176887481 0 -0.02285766608625657 -0.25474770747244752 0 -0.03064478186574425 -0.25326356670072259 0 -0.02285766608625657 -0.25474770747244752 0 -0.03064478186574425 -0.25326356670072259 0 -0.026067501294639708 -0.24850247980592871 0 -0.040780788735907937 -0.34809370153295588 0 -0.035070660285960877 -0.35841379707961513 0 -0.051335308585544609 -0.35442186843706669 0 -0.040780788735907937 -0.34809370153295588 0 -0.033802973987086503 -0.33588719504380232 0 -0.029167969020145641 -0.35132386348016093 0 -0.040780788735907937 -0.34809370153295588 0 -0.035070660285960877 -0.35841379707961513 0 -0.029167969020145641 -0.35132386348016093 0 -0.035070660285960877 -0.35841379707961513 0 -0.040000350022935588 -0.37213681664196291 0 -0.021437446366364531 -0.36359117576668931 0 -0.035070660285960877 -0.35841379707961513 0 -0.058387822440418388 -0.36975607908058028 0 -0.035070660285960877 -0.35841379707961513 0 -0.040000350022935588 -0.37213681664196291 0 -0.058387822440418388 -0.36975607908058028 0 -0.040000350022935588 -0.37213681664196291 0 -0.058387822440418388 -0.36975607908058028 0 -0.058563253679506787 -0.38068245751723601 0 -0.035070660285960877 -0.35841379707961513 0 -0.058387822440418388 -0.36975607908058028 0 -0.051335308585544609 -0.35442186843706669 0 -0.066522813126512412 -0.35680227137673098 0 -0.058387822440418388 -0.36975607908058028 0 -0.051335308585544609 -0.35442186843706669 0 -0.066522813126512412 -0.35680227137673098 0 -0.051335308585544609 -0.35442186843706669 0 -0.054527031800802053 -0.34042178362413461 0 -0.040780788735907937 -0.34809370153295588 0 -0.051335308585544609 -0.35442186843706669 0 -0.054527031800802053 -0.34042178362413461 0 -0.066882954587322394 -0.32486941793266988 0 -0.054527031800802053 -0.34042178362413461 0 -0.05424539878688571 -0.319762651601179 0 -0.054527031800802053 -0.34042178362413461 0 -0.05424539878688571 -0.319762651601179 0 -0.033802973987086503 -0.33588719504380232 0 -0.05424539878688571 -0.319762651601179 0 -0.039668382727836717 -0.32560359559526031 0 -0.05424539878688571 -0.319762651601179 0 -0.033802973987086503 -0.33588719504380232 0 -0.037889090671270123 -0.30900677381518998 0 -0.025091366668787349 -0.3314445395893405 0 -0.05424539878688571 -0.319762651601179 0 -0.039668382727836717 -0.32560359559526031 0 -0.033802973987086503 -0.33588719504380232 0 -0.037889090671270123 -0.30900677381518998 0 -0.05424539878688571 -0.319762651601179 0 -0.039668382727836717 -0.32560359559526031 0 -0.037889090671270123 -0.30900677381518998 0 -0.039668382727836717 -0.32560359559526031 0 -0.025091366668787349 -0.3314445395893405 0 -0.040780788735907937 -0.34809370153295588 0 -0.054527031800802053 -0.34042178362413461 0 -0.033802973987086503 -0.33588719504380232 0 -0.039668382727836717 -0.32560359559526031 0 -0.025091366668787349 -0.3314445395893405 0 -0.039668382727836717 -0.32560359559526031 0 -0.033802973987086503 -0.33588719504380232 0 -0.025091366668787349 -0.3314445395893405 0 -0.025091366668787349 -0.3314445395893405 0 -0.01336054918728761 -0.35201173848642592 0 -0.033802973987086503 -0.33588719504380232 0 -0.025091366668787349 -0.3314445395893405 0 -0.01336054918728761 -0.35201173848642592 0 -0.025091366668787349 -0.3314445395893405 0 -0.01532372128421448 -0.33535839064186268 0 -0.01336054918728761 -0.35201173848642592 0 -0.025091366668787349 -0.3314445395893405 0 -0.022734703789933738 -0.32728556430890232 0 -0.01532372128421448 -0.33535839064186268 0 -0.025091366668787349 -0.3314445395893405 0 -0.01532372128421448 -0.33535839064186268 0 -0.022734703789933738 -0.32728556430890232 0 -0.01532372128421448 -0.33535839064186268 0 -0.037889090671270123 -0.30900677381518998 0 -0.014390974368570029 -0.31032982847088841 0 -0.022734703789933738 -0.32728556430890232 0 -0.037889090671270123 -0.30900677381518998 0 -0.025091366668787349 -0.3314445395893405 0 -0.022734703789933738 -0.32728556430890232 0 -0.014390974368570029 -0.31032982847088841 0 -0.022734703789933738 -0.32728556430890232 0 -0.01532372128421448 -0.33535839064186268 0 -0.014390974368570029 -0.31032982847088841 0 -0.010269967403673339 -0.33738340682189533 0 -0.014390974368570029 -0.31032982847088841 0 -0.010269967403673339 -0.33738340682189533 0 -0.01532372128421448 -0.33535839064186268 0 -0.014390974368570029 -0.31032982847088841 0 -0.010269967403673339 -0.33738340682189533 0 0.001904989571353899 -0.32214434476741449 0 -0.010269967403673339 -0.33738340682189533 0 -0.0096343958099064687 -0.34155580596031437 0 0.0075807645751098419 -0.34453611388615663 0 -0.010269967403673339 -0.33738340682189533 0 0.0075807645751098419 -0.34453611388615663 0 -0.0096343958099064687 -0.34155580596031437 0 -0.01532372128421448 -0.33535839064186268 0 -0.01336054918728761 -0.35201173848642592 0 -0.010269967403673339 -0.33738340682189533 0 -0.0096343958099064687 -0.34155580596031437 0 -0.010269967403673339 -0.33738340682189533 0 -0.0096343958099064687 -0.34155580596031437 0 -0.01532372128421448 -0.33535839064186268 0 -0.0096343958099064687 -0.34155580596031437 0 -0.01532372128421448 -0.33535839064186268 0 -0.010269967403673339 -0.33738340682189533 0 -0.01532372128421448 -0.33535839064186268 0 -0.010269967403673339 -0.33738340682189533 0 0.0034794820758208261 -0.33361449123698089 0 0.001904989571353899 -0.32214434476741449 0 -0.0096343958099064687 -0.34155580596031437 0 -0.0070150904897389628 -0.35875101633193152 0 -0.0096343958099064687 -0.34155580596031437 0 -0.0070150904897389628 -0.35875101633193152 0 -0.01336054918728761 -0.35201173848642592 0 -0.0096343958099064687 -0.34155580596031437 0 -0.0070150904897389628 -0.35875101633193152 0 0.0099352179383349771 -0.36287309999936251 0 -0.033802973987086503 -0.33588719504380232 0 -0.01336054918728761 -0.35201173848642592 0 -0.029167969020145641 -0.35132386348016093 0 -0.01336054918728761 -0.35201173848642592 0 -0.029167969020145641 -0.35132386348016093 0 -0.021437446366364531 -0.36359117576668931 0 -0.033802973987086503 -0.33588719504380232 0 -0.01336054918728761 -0.35201173848642592 0 -0.035070660285960877 -0.35841379707961513 0 -0.029167969020145641 -0.35132386348016093 0 -0.021437446366364531 -0.36359117576668931 0 -0.040000350022935588 -0.37213681664196291 0 -0.021437446366364531 -0.36359117576668931 0 -0.02618172091304426 -0.37743656618445498 0 -0.021437446366364531 -0.36359117576668931 0 -0.002178803782163227 -0.37161627006544062 0 -0.02618172091304426 -0.37743656618445498 0 -0.040000350022935588 -0.37213681664196291 0 -0.021437446366364531 -0.36359117576668931 0 -0.01336054918728761 -0.35201173848642592 0 -0.021437446366364531 -0.36359117576668931 0 -0.002178803782163227 -0.37161627006544062 0 -0.01336054918728761 -0.35201173848642592 0 -0.002178803782163227 -0.37161627006544062 0 -0.0070150904897389628 -0.35875101633193152 0 -0.01336054918728761 -0.35201173848642592 0 -0.002178803782163227 -0.37161627006544062 0 -0.002178803782163227 -0.37161627006544062 0 -0.026336278995230201 -0.38905167830789189 0 -0.002178803782163227 -0.37161627006544062 0 -0.0066930742226519926 -0.39143820132839208 0 -0.026336278995230201 -0.38905167830789189 0 -0.0066930742226519926 -0.39143820132839208 0 -0.001728596279610697 -0.40597762003102339 0 -0.017737199096442072 -0.40073047040120602 0 -0.0066930742226519926 -0.39143820132839208 0 -0.017737199096442072 -0.40073047040120602 0 -0.026336278995230201 -0.38905167830789189 0 -0.017737199096442072 -0.40073047040120602 0 -0.026336278995230201 -0.38905167830789189 0 -0.033287388117186109 -0.40399871831440642 0 -0.002178803782163227 -0.37161627006544062 0 -0.026336278995230201 -0.38905167830789189 0 -0.02618172091304426 -0.37743656618445498 0 -0.026336278995230201 -0.38905167830789189 0 -0.02618172091304426 -0.37743656618445498 0 -0.033482850758781962 -0.383939184607547 0 -0.02618172091304426 -0.37743656618445498 0 -0.042372487296275553 -0.37905951185084519 0 -0.033482850758781962 -0.383939184607547 0 -0.02618172091304426 -0.37743656618445498 0 -0.042372487296275553 -0.37905951185084519 0 -0.040000350022935588 -0.37213681664196291 0 -0.02618172091304426 -0.37743656618445498 0 -0.042372487296275553 -0.37905951185084519 0 -0.042372487296275553 -0.37905951185084519 0 -0.039040915830577852 -0.39020898208699611 0 -0.049048127186911553 -0.38756594990863991 0 -0.042372487296275553 -0.37905951185084519 0 -0.039040915830577852 -0.39020898208699611 0 -0.033482850758781962 -0.383939184607547 0 -0.026336278995230201 -0.38905167830789189 0 -0.039040915830577852 -0.39020898208699611 0 -0.033482850758781962 -0.383939184607547 0 -0.026336278995230201 -0.38905167830789189 0 -0.050493754208297943 -0.40648708655034188 0 -0.039040915830577852 -0.39020898208699611 0 -0.048181286987745188 -0.3967611761759377 0 -0.050493754208297943 -0.40648708655034188 0 -0.026336278995230201 -0.38905167830789189 0 -0.039040915830577852 -0.39020898208699611 0 -0.050493754208297943 -0.40648708655034188 0 -0.026336278995230201 -0.38905167830789189 0 -0.033287388117186109 -0.40399871831440642 0 -0.050493754208297943 -0.40648708655034188 0 -0.039040915830577852 -0.39020898208699611 0 -0.048181286987745188 -0.3967611761759377 0 -0.049048127186911553 -0.38756594990863991 0 -0.048181286987745188 -0.3967611761759377 0 -0.055512870853615448 -0.39455951290216967 0 -0.049048127186911553 -0.38756594990863991 0 -0.055512870853615448 -0.39455951290216967 0 -0.052509649903146327 -0.40794203844841681 0 -0.074281153156084773 -0.38791836881244668 0 -0.048181286987745188 -0.3967611761759377 0 -0.055512870853615448 -0.39455951290216967 0 -0.050493754208297943 -0.40648708655034188 0 -0.055512870853615448 -0.39455951290216967 0 -0.052509649903146327 -0.40794203844841681 0 -0.050493754208297943 -0.40648708655034188 0 -0.048181286987745188 -0.3967611761759377 0 -0.050493754208297943 -0.40648708655034188 0 -0.040000350022935588 -0.37213681664196291 0 -0.042372487296275553 -0.37905951185084519 0 -0.058563253679506787 -0.38068245751723601 0 -0.042372487296275553 -0.37905951185084519 0 -0.058563253679506787 -0.38068245751723601 0 -0.040000350022935588 -0.37213681664196291 0 -0.058563253679506787 -0.38068245751723601 0 -0.042372487296275553 -0.37905951185084519 0 -0.058563253679506787 -0.38068245751723601 0 -0.049048127186911553 -0.38756594990863991 0 -0.055512870853615448 -0.39455951290216967 0 -0.058563253679506787 -0.38068245751723601 0 -0.049048127186911553 -0.38756594990863991 0 -0.055571169944573007 -0.4278419796903028 0 -0.060002998013559863 -0.44648162232419802 0 -0.069408814394604765 -0.42365151461769918 0 -0.055571169944573007 -0.4278419796903028 0 -0.060002998013559863 -0.44648162232419802 0 -0.055571169944573007 -0.4278419796903028 0 -0.04142135733128624 -0.43391233418184683 0 -0.048623679129421588 -0.44273110985945369 0 -0.055571169944573007 -0.4278419796903028 0 -0.059775586818595829 -0.41787661413097049 0 -0.069408814394604765 -0.42365151461769918 0 -0.055571169944573007 -0.4278419796903028 0 -0.059775586818595829 -0.41787661413097049 0 -0.052509649903146327 -0.40794203844841681 0 -0.055571169944573007 -0.4278419796903028 0 -0.052509649903146327 -0.40794203844841681 0 -0.038621424185474637 -0.4207153063468223 0 -0.055571169944573007 -0.4278419796903028 0 -0.052509649903146327 -0.40794203844841681 0 -0.052509649903146327 -0.40794203844841681 0 -0.070248957975066639 -0.42074520084202788 0 -0.059775586818595829 -0.41787661413097049 0 -0.052509649903146327 -0.40794203844841681 0 -0.070248957975066639 -0.42074520084202788 0 -0.052509649903146327 -0.40794203844841681 0 -0.050493754208297943 -0.40648708655034188 0 -0.041470954428671609 -0.41006675355118111 0 -0.052509649903146327 -0.40794203844841681 0 -0.050493754208297943 -0.40648708655034188 0 -0.052509649903146327 -0.40794203844841681 0 -0.038621424185474637 -0.4207153063468223 0 -0.033287388117186109 -0.40399871831440642 0 -0.050493754208297943 -0.40648708655034188 0 -0.041470954428671609 -0.41006675355118111 0 -0.052509649903146327 -0.40794203844841681 0 -0.041470954428671609 -0.41006675355118111 0 -0.038621424185474637 -0.4207153063468223 0 -0.033287388117186109 -0.40399871831440642 0 -0.041470954428671609 -0.41006675355118111 0 -0.027792962261932352 -0.41547375898907968 0 -0.041470954428671609 -0.41006675355118111 0 -0.038621424185474637 -0.4207153063468223 0 -0.027792962261932352 -0.41547375898907968 0 -0.055571169944573007 -0.4278419796903028 0 -0.038621424185474637 -0.4207153063468223 0 -0.04142135733128624 -0.43391233418184683 0 -0.038621424185474637 -0.4207153063468223 0 -0.026103506495360269 -0.43222827563723731 0 -0.038621424185474637 -0.4207153063468223 0 -0.04142135733128624 -0.43391233418184683 0 -0.026103506495360269 -0.43222827563723731 0 -0.04142135733128624 -0.43391233418184683 0 -0.026103506495360269 -0.43222827563723731 0 -0.035662081446574762 -0.44437129177822371 0 -0.026103506495360269 -0.43222827563723731 0 -0.027792962261932352 -0.41547375898907968 0 -0.009537301248459449 -0.42510302968362512 0 -0.026103506495360269 -0.43222827563723731 0 -0.009537301248459449 -0.42510302968362512 0 -0.019709463090837601 -0.44530454005801179 0 -0.038621424185474637 -0.4207153063468223 0 -0.026103506495360269 -0.43222827563723731 0 -0.027792962261932352 -0.41547375898907968 0 -0.017737199096442072 -0.40073047040120602 0 -0.027792962261932352 -0.41547375898907968 0 -0.009537301248459449 -0.42510302968362512 0 -0.017737199096442072 -0.40073047040120602 0 -0.033287388117186109 -0.40399871831440642 0 -0.027792962261932352 -0.41547375898907968 0 -0.001728596279610697 -0.40597762003102339 0 -0.017737199096442072 -0.40073047040120602 0 -0.009537301248459449 -0.42510302968362512 0 -0.017737199096442072 -0.40073047040120602 0 -0.009537301248459449 -0.42510302968362512 0 -0.001728596279610697 -0.40597762003102339 0 -0.009537301248459449 -0.42510302968362512 0 0.0082246319185010179 -0.41465428951275207 0 -0.009537301248459449 -0.42510302968362512 0 -0.0013374034004768371 -0.44947558896604423 0 -0.009537301248459449 -0.42510302968362512 0 -0.0013374034004768371 -0.44947558896604423 0 0.01039378864355619 -0.42848339288335913 0 -0.009537301248459449 -0.42510302968362512 0 -0.0013374034004768371 -0.44947558896604423 0 -0.019709463090837601 -0.44530454005801179 0 -0.0013374034004768371 -0.44947558896604423 0 -0.014612752260004851 -0.46155177919014362 0 -0.019709463090837601 -0.44530454005801179 0 -0.0013374034004768371 -0.44947558896604423 0 -0.014612752260004851 -0.46155177919014362 0 0.0068624944475057766 -0.47384814824846327 0 -0.014612752260004851 -0.46155177919014362 0 -0.028521420705905499 -0.4674310816654948 0 -0.030789477839635839 -0.45543267362212791 0 -0.014612752260004851 -0.46155177919014362 0 -0.030789477839635839 -0.45543267362212791 0 -0.019709463090837601 -0.44530454005801179 0 -0.030789477839635839 -0.45543267362212791 0 -0.019709463090837601 -0.44530454005801179 0 -0.035662081446574762 -0.44437129177822371 0 -0.026103506495360269 -0.43222827563723731 0 -0.019709463090837601 -0.44530454005801179 0 -0.035662081446574762 -0.44437129177822371 0 -0.015217900669161011 -0.5 0 -0.01418124297067914 -0.47781864258071971 0 0.0024053695883212941 -0.48891336768777249 0 -0.01418124297067914 -0.47781864258071971 0 0.0068624944475057766 -0.47384814824846327 0 0.0024053695883212941 -0.48891336768777249 0 -0.014612752260004851 -0.46155177919014362 0 -0.01418124297067914 -0.47781864258071971 0 0.0068624944475057766 -0.47384814824846327 0 -0.014612752260004851 -0.46155177919014362 0 -0.028521420705905499 -0.4674310816654948 0 -0.01418124297067914 -0.47781864258071971 0 -0.028521420705905499 -0.4674310816654948 0 -0.01418124297067914 -0.47781864258071971 0 -0.027752274071966478 -0.47742461628286209 0 -0.015217900669161011 -0.5 0 -0.027752274071966478 -0.47742461628286209 0 -0.038171784631523778 -0.48284131767108018 0 -0.015217900669161011 -0.5 0 -0.01418124297067914 -0.47781864258071971 0 -0.027752274071966478 -0.47742461628286209 0 -0.015217900669161011 -0.5 0 -0.043972809743024373 -0.5 0 -0.038171784631523778 -0.48284131767108018 0 -0.043972809743024373 -0.5 0 -0.038171784631523778 -0.48284131767108018 0 -0.049841179956411519 -0.48183723669954598 0 -0.038171784631523778 -0.48284131767108018 0 -0.048675315621036823 -0.47094071089761919 0 -0.038171784631523778 -0.48284131767108018 0 -0.048675315621036823 -0.47094071089761919 0 -0.049841179956411519 -0.48183723669954598 0 -0.027752274071966478 -0.47742461628286209 0 -0.038171784631523778 -0.48284131767108018 0 -0.038764373548703768 -0.47063519779216179 0 -0.028521420705905499 -0.4674310816654948 0 -0.027752274071966478 -0.47742461628286209 0 -0.038764373548703768 -0.47063519779216179 0 -0.038764373548703768 -0.47063519779216179 0 -0.048675315621036823 -0.47094071089761919 0 -0.045335619097383061 -0.46570514195792412 0 -0.038171784631523778 -0.48284131767108018 0 -0.038764373548703768 -0.47063519779216179 0 -0.048675315621036823 -0.47094071089761919 0 -0.048675315621036823 -0.47094071089761919 0 -0.055120034750126161 -0.47128965669693351 0 -0.049841179956411519 -0.48183723669954598 0 -0.048675315621036823 -0.47094071089761919 0 -0.055120034750126161 -0.47128965669693351 0 -0.057384894248553399 -0.46524593439390849 0 -0.055120034750126161 -0.47128965669693351 0 -0.059149819292987238 -0.47777467248794547 0 -0.064422500494955764 -0.4650694252783244 0 -0.059149819292987238 -0.47777467248794547 0 -0.049841179956411519 -0.48183723669954598 0 -0.058853327493046781 -0.48842932436532971 0 -0.055120034750126161 -0.47128965669693351 0 -0.059149819292987238 -0.47777467248794547 0 -0.049841179956411519 -0.48183723669954598 0 -0.059149819292987238 -0.47777467248794547 0 -0.058853327493046781 -0.48842932436532971 0 -0.068575109655922298 -0.48253471263916042 0 -0.043972809743024373 -0.5 0 -0.058853327493046781 -0.48842932436532971 0 -0.072727718816887776 -0.49999999999999672 0 -0.043972809743024373 -0.5 0 -0.049841179956411519 -0.48183723669954598 0 -0.058853327493046781 -0.48842932436532971 0 -0.045123684251444827 -0.45223268167437758 0 -0.035662081446574762 -0.44437129177822371 0 -0.048623679129421588 -0.44273110985945369 0 -0.04142135733128624 -0.43391233418184683 0 -0.035662081446574762 -0.44437129177822371 0 -0.048623679129421588 -0.44273110985945369 0 -0.030789477839635839 -0.45543267362212791 0 -0.045123684251444827 -0.45223268167437758 0 -0.035662081446574762 -0.44437129177822371 0 -0.030789477839635839 -0.45543267362212791 0 -0.045123684251444827 -0.45223268167437758 0 -0.04007978340352341 -0.46172459869688548 0 -0.028521420705905499 -0.4674310816654948 0 -0.030789477839635839 -0.45543267362212791 0 -0.04007978340352341 -0.46172459869688548 0 -0.028521420705905499 -0.4674310816654948 0 -0.038764373548703768 -0.47063519779216179 0 -0.04007978340352341 -0.46172459869688548 0 -0.038764373548703768 -0.47063519779216179 0 -0.04007978340352341 -0.46172459869688548 0 -0.045335619097383061 -0.46570514195792412 0 -0.04007978340352341 -0.46172459869688548 0 -0.045335619097383061 -0.46570514195792412 0 -0.047248161051959649 -0.4591011094540644 0 -0.045123684251444827 -0.45223268167437758 0 -0.04007978340352341 -0.46172459869688548 0 -0.047248161051959649 -0.4591011094540644 0 -0.045123684251444827 -0.45223268167437758 0 -0.050581796861615229 -0.45333412325219669 0 -0.047248161051959649 -0.4591011094540644 0 -0.050581796861615229 -0.45333412325219669 0 -0.047248161051959649 -0.4591011094540644 0 -0.051910461861691633 -0.46612409294888979 0 -0.051910461861691633 -0.46612409294888979 0 -0.05917884661055 -0.4590401041241583 0 -0.060002998013559863 -0.44648162232419802 0 -0.051910461861691633 -0.46612409294888979 0 -0.060002998013559863 -0.44648162232419802 0 -0.050581796861615229 -0.45333412325219669 0 -0.051910461861691633 -0.46612409294888979 0 -0.060002998013559863 -0.44648162232419802 0 -0.048675315621036823 -0.47094071089761919 0 -0.05917884661055 -0.4590401041241583 0 -0.048675315621036823 -0.47094071089761919 0 -0.051910461861691633 -0.46612409294888979 0 -0.05917884661055 -0.4590401041241583 0 -0.048675315621036823 -0.47094071089761919 0 -0.045335619097383061 -0.46570514195792412 0 -0.051910461861691633 -0.46612409294888979 0 -0.045335619097383061 -0.46570514195792412 0 -0.047248161051959649 -0.4591011094540644 0 -0.051910461861691633 -0.46612409294888979 0 -0.055120034750126161 -0.47128965669693351 0 -0.057384894248553399 -0.46524593439390849 0 -0.064422500494955764 -0.4650694252783244 0 -0.048675315621036823 -0.47094071089761919 0 -0.057384894248553399 -0.46524593439390849 0 -0.05917884661055 -0.4590401041241583 0 -0.057384894248553399 -0.46524593439390849 0 -0.05917884661055 -0.4590401041241583 0 -0.059237257045792073 -0.46090013765886428 0 -0.064422500494955764 -0.4650694252783244 0 -0.057384894248553399 -0.46524593439390849 0 -0.059237257045792073 -0.46090013765886428 0 -0.064422500494955764 -0.4650694252783244 0 -0.057384894248553399 -0.46524593439390849 0 -0.059237257045792073 -0.46090013765886428 0 -0.05917884661055 -0.4590401041241583 0 -0.059237257045792073 -0.46090013765886428 0 -0.062180371227510647 -0.45563934639583059 0 -0.064422500494955764 -0.4650694252783244 0 -0.059237257045792073 -0.46090013765886428 0 -0.05917884661055 -0.4590401041241583 0 -0.062180371227510647 -0.45563934639583059 0 -0.05917884661055 -0.4590401041241583 0 -0.062180371227510647 -0.45563934639583059 0 -0.05917884661055 -0.4590401041241583 0 -0.061269440441321127 -0.45180810022505591 0 -0.05917884661055 -0.4590401041241583 0 -0.062180371227510647 -0.45563934639583059 0 -0.061269440441321127 -0.45180810022505591 0 -0.062180371227510647 -0.45563934639583059 0 -0.061269440441321127 -0.45180810022505591 0 -0.055571169944573007 -0.4278419796903028 0 -0.060002998013559863 -0.44648162232419802 0 -0.048623679129421588 -0.44273110985945369 0 -0.05917884661055 -0.4590401041241583 0 -0.061269440441321127 -0.45180810022505591 0 -0.060002998013559863 -0.44648162232419802 0 -0.061269440441321127 -0.45180810022505591 0 -0.060002998013559863 -0.44648162232419802 0 -0.050581796861615229 -0.45333412325219669 0 -0.060002998013559863 -0.44648162232419802 0 -0.048623679129421588 -0.44273110985945369 0 -0.045123684251444827 -0.45223268167437758 0 -0.050581796861615229 -0.45333412325219669 0 -0.048623679129421588 -0.44273110985945369 0 -0.061269440441321127 -0.45180810022505591 0 -0.069408814394604765 -0.42365151461769918 0 -0.062180371227510647 -0.45563934639583059 0 -0.061269440441321127 -0.45180810022505591 0 -0.077098496045509793 -0.43873696019506903 0 -0.062180371227510647 -0.45563934639583059 0 -0.077098496045509793 -0.43873696019506903 0 -0.073769461018799692 -0.45951707792468061 0 -0.061269440441321127 -0.45180810022505591 0 -0.077098496045509793 -0.43873696019506903 0 -0.069408814394604765 -0.42365151461769918 0 -0.061269440441321127 -0.45180810022505591 0 -0.060002998013559863 -0.44648162232419802 0 -0.069408814394604765 -0.42365151461769918 0 -0.062180371227510647 -0.45563934639583059 0 -0.077098496045509793 -0.43873696019506903 0 -0.062180371227510647 -0.45563934639583059 0 -0.064422500494955764 -0.4650694252783244 0 -0.062180371227510647 -0.45563934639583059 0 -0.064422500494955764 -0.4650694252783244 0 -0.073769461018799692 -0.45951707792468061 0 -0.084521355142842869 -0.45759592347480388 0 -0.086143661312174283 -0.48253471263916248 0 -0.099165393688022629 -0.46120376842987459 0 -0.073769461018799692 -0.45951707792468061 0 -0.084521355142842869 -0.45759592347480388 0 -0.086143661312174283 -0.48253471263916248 0 -0.084521355142842869 -0.45759592347480388 0 -0.089624247433654214 -0.44685599598904568 0 -0.099165393688022629 -0.46120376842987459 0 -0.077098496045509793 -0.43873696019506903 0 -0.084521355142842869 -0.45759592347480388 0 -0.089624247433654214 -0.44685599598904568 0 -0.077098496045509793 -0.43873696019506903 0 -0.073769461018799692 -0.45951707792468061 0 -0.084521355142842869 -0.45759592347480388 0 -0.089624247433654214 -0.44685599598904568 0 -0.099878095611554862 -0.4393977270813314 0 -0.089545628933694749 -0.43673796215895883 0 -0.077098496045509793 -0.43873696019506903 0 -0.089624247433654214 -0.44685599598904568 0 -0.089545628933694749 -0.43673796215895883 0 -0.072727718816887776 -0.49999999999999672 0 -0.068575109655922298 -0.48253471263916042 0 -0.058853327493046781 -0.48842932436532971 0 -0.072727718816887776 -0.49999999999999672 0 -0.068575109655922298 -0.48253471263916042 0 -0.072727718816887776 -0.49999999999999672 0 -0.068575109655922298 -0.48253471263916042 0 -0.086143661312174283 -0.48253471263916248 0 -0.064422500494955764 -0.4650694252783244 0 -0.068575109655922298 -0.48253471263916042 0 -0.059149819292987238 -0.47777467248794547 0 -0.064422500494955764 -0.4650694252783244 0 -0.068575109655922298 -0.48253471263916042 0 -0.064422500494955764 -0.4650694252783244 0 -0.073769461018799692 -0.45951707792468061 0 -0.086143661312174283 -0.48253471263916248 0 -0.064422500494955764 -0.4650694252783244 0 -0.068575109655922298 -0.48253471263916042 0 -0.086143661312174283 -0.48253471263916248 0 -0.064422500494955764 -0.4650694252783244 0 -0.086143661312174283 -0.48253471263916248 0 -0.072727718816887776 -0.49999999999999672 0 -0.086143661312174283 -0.48253471263916248 0 -0.090296270473140428 -0.5 0 -0.086143661312174283 -0.48253471263916248 0 -0.090296270473140428 -0.5 0 -0.10786482212939311 -0.50000000000000011 0 -0.086143661312174283 -0.48253471263916248 0 -0.10786482212939311 -0.50000000000000011 0 -0.086143661312174283 -0.48253471263916248 0 -0.10786482212939311 -0.50000000000000011 0 -0.1056577076014347 -0.47999846360012538 0 -0.086143661312174283 -0.48253471263916248 0 -0.1056577076014347 -0.47999846360012538 0 -0.099165393688022629 -0.46120376842987459 0 -0.1056577076014347 -0.47999846360012538 0 -0.12108079434187891 -0.47202921183540031 0 -0.099165393688022629 -0.46120376842987459 0 -0.1056577076014347 -0.47999846360012538 0 -0.12108079434187891 -0.47202921183540031 0 -0.1206292342060253 -0.48641385964910883 0 -0.131118449396015 -0.5 0 -0.10786482212939311 -0.50000000000000011 0 -0.1206292342060253 -0.48641385964910883 0 -0.10786482212939311 -0.50000000000000011 0 -0.1056577076014347 -0.47999846360012538 0 -0.1206292342060253 -0.48641385964910883 0 -0.099878095611554862 -0.4393977270813314 0 -0.099165393688022629 -0.46120376842987459 0 -0.099878095611554862 -0.4393977270813314 0 -0.099165393688022629 -0.46120376842987459 0 -0.11615585050415531 -0.45102464773050138 0 -0.089624247433654214 -0.44685599598904568 0 -0.099878095611554862 -0.4393977270813314 0 -0.099165393688022629 -0.46120376842987459 0 -0.12108079434187891 -0.47202921183540031 0 -0.099165393688022629 -0.46120376842987459 0 -0.11615585050415531 -0.45102464773050138 0 -0.13077987840644981 -0.46069854066347632 0 -0.12108079434187891 -0.47202921183540031 0 -0.11615585050415531 -0.45102464773050138 0 -0.13194602454298601 -0.43962244526902572 0 -0.11615585050415531 -0.45102464773050138 0 -0.1129403580353462 -0.43280081863281078 0 -0.099878095611554862 -0.4393977270813314 0 -0.11615585050415531 -0.45102464773050138 0 -0.1129403580353462 -0.43280081863281078 0 -0.13194602454298601 -0.43962244526902572 0 -0.1165997240041481 -0.41847011486561592 0 -0.13194602454298601 -0.43962244526902572 0 -0.1129403580353462 -0.43280081863281078 0 -0.1165997240041481 -0.41847011486561592 0 -0.1129403580353462 -0.43280081863281078 0 -0.1079125428112538 -0.41892639524425412 0 -0.1165997240041481 -0.41847011486561592 0 -0.099878095611554862 -0.4393977270813314 0 -0.100590797535087 -0.41759168573278821 0 -0.092016620863508841 -0.4218345739943074 0 -0.099878095611554862 -0.4393977270813314 0 -0.089545628933694749 -0.43673796215895883 0 -0.092016620863508841 -0.4218345739943074 0 -0.099878095611554862 -0.4393977270813314 0 -0.1129403580353462 -0.43280081863281078 0 -0.10283731640903 -0.42510314405888588 0 -0.099878095611554862 -0.4393977270813314 0 -0.100590797535087 -0.41759168573278821 0 -0.099878095611554862 -0.4393977270813314 0 -0.10283731640903 -0.42510314405888588 0 -0.100590797535087 -0.41759168573278821 0 -0.1129403580353462 -0.43280081863281078 0 -0.10283731640903 -0.42510314405888588 0 -0.1079125428112538 -0.41892639524425412 0 -0.100590797535087 -0.41759168573278821 0 -0.1012534234653099 -0.39731778446220639 0 -0.1165997240041481 -0.41847011486561592 0 -0.1012534234653099 -0.39731778446220639 0 -0.100590797535087 -0.41759168573278821 0 -0.094499944748829334 -0.39722631626938482 0 -0.088610052547492879 -0.41006814396079783 0 -0.100590797535087 -0.41759168573278821 0 -0.1079125428112538 -0.41892639524425412 0 -0.1012534234653099 -0.39731778446220639 0 -0.100590797535087 -0.41759168573278821 0 -0.094499944748829334 -0.39722631626938482 0 -0.1079125428112538 -0.41892639524425412 0 -0.1165997240041481 -0.41847011486561592 0 -0.1012534234653099 -0.39731778446220639 0 -0.10283731640903 -0.42510314405888588 0 -0.100590797535087 -0.41759168573278821 0 -0.1079125428112538 -0.41892639524425412 0 -0.10283731640903 -0.42510314405888588 0 -0.100590797535087 -0.41759168573278821 0 -0.12592730430259419 -0.40432488328170318 0 -0.1165997240041481 -0.41847011486561592 0 -0.1152538145686829 -0.39895411709426332 0 -0.1165997240041481 -0.41847011486561592 0 -0.1152538145686829 -0.39895411709426332 0 -0.1012534234653099 -0.39731778446220639 0 -0.12526638733901391 -0.39147447277512609 0 -0.12592730430259419 -0.40432488328170318 0 -0.1152538145686829 -0.39895411709426332 0 -0.12526638733901391 -0.39147447277512609 0 -0.1152538145686829 -0.39895411709426332 0 -0.1147112201852714 -0.38836266809632891 0 -0.1152538145686829 -0.39895411709426332 0 -0.1147112201852714 -0.38836266809632891 0 -0.1077648281157602 -0.39377477908459929 0 -0.12526638733901391 -0.39147447277512609 0 -0.12201267174342199 -0.37938718301114999 0 -0.1147112201852714 -0.38836266809632891 0 -0.1147112201852714 -0.38836266809632891 0 -0.1094440337948836 -0.37923577087639421 0 -0.1073228884697877 -0.3875649225559597 0 -0.1147112201852714 -0.38836266809632891 0 -0.1073228884697877 -0.3875649225559597 0 -0.1077648281157602 -0.39377477908459929 0 -0.12201267174342199 -0.37938718301114999 0 -0.1147112201852714 -0.38836266809632891 0 -0.1094440337948836 -0.37923577087639421 0 -0.1159926709000937 -0.36685414663024191 0 -0.12201267174342199 -0.37938718301114999 0 -0.1094440337948836 -0.37923577087639421 0 -0.1024060606807759 -0.36205135125861898 0 -0.1094440337948836 -0.37923577087639421 0 -0.1016559479587178 -0.38500202459504551 0 -0.1094440337948836 -0.37923577087639421 0 -0.1016559479587178 -0.38500202459504551 0 -0.1073228884697877 -0.3875649225559597 0 -0.1016559479587178 -0.38500202459504551 0 -0.1014693111655476 -0.390712419775258 0 -0.1016559479587178 -0.38500202459504551 0 -0.1073228884697877 -0.3875649225559597 0 -0.1014693111655476 -0.390712419775258 0 -0.1016559479587178 -0.38500202459504551 0 -0.091585827134305964 -0.3839926061052007 0 -0.1016559479587178 -0.38500202459504551 0 -0.1014693111655476 -0.390712419775258 0 -0.093729726096669103 -0.3869476153003294 0 -0.1016559479587178 -0.38500202459504551 0 -0.091585827134305964 -0.3839926061052007 0 -0.093729726096669103 -0.3869476153003294 0 -0.1014693111655476 -0.390712419775258 0 -0.093729726096669103 -0.3869476153003294 0 -0.1016559479587178 -0.38500202459504551 0 -0.095426438310298192 -0.37780241062099151 0 -0.091585827134305964 -0.3839926061052007 0 -0.100590797535087 -0.41759168573278821 0 -0.1012534234653099 -0.39731778446220639 0 -0.099487365185966847 -0.39952233119993291 0 -0.100590797535087 -0.41759168573278821 0 -0.094499944748829334 -0.39722631626938482 0 -0.099487365185966847 -0.39952233119993291 0 -0.1152538145686829 -0.39895411709426332 0 -0.1077648281157602 -0.39377477908459929 0 -0.1012534234653099 -0.39731778446220639 0 -0.1073228884697877 -0.3875649225559597 0 -0.1077648281157602 -0.39377477908459929 0 -0.1014693111655476 -0.390712419775258 0 -0.1077648281157602 -0.39377477908459929 0 -0.1012534234653099 -0.39731778446220639 0 -0.1014693111655476 -0.390712419775258 0 -0.1077648281157602 -0.39377477908459929 0 -0.1014693111655476 -0.390712419775258 0 -0.1012534234653099 -0.39731778446220639 0 -0.094499944748829334 -0.39722631626938482 0 -0.099487365185966847 -0.39952233119993291 0 -0.1012534234653099 -0.39731778446220639 0 -0.094499944748829334 -0.39722631626938482 0 -0.093729726096669103 -0.3869476153003294 0 -0.1012534234653099 -0.39731778446220639 0 -0.1014693111655476 -0.390712419775258 0 -0.093729726096669103 -0.3869476153003294 0 -0.1012534234653099 -0.39731778446220639 0 -0.093729726096669103 -0.3869476153003294 0 -0.1012534234653099 -0.39731778446220639 0 -0.1014693111655476 -0.390712419775258 0 -0.094499944748829334 -0.39722631626938482 0 -0.099487365185966847 -0.39952233119993291 0 -0.094499944748829334 -0.39722631626938482 0 -0.085553154766675646 -0.40134027138503481 0 -0.088610052547492879 -0.41006814396079783 0 -0.094499944748829334 -0.39722631626938482 0 -0.082560309743270749 -0.39172977139542609 0 -0.085553154766675646 -0.40134027138503481 0 -0.094499944748829334 -0.39722631626938482 0 -0.082560309743270749 -0.39172977139542609 0 -0.091033556626635648 -0.38563610430902873 0 -0.094499944748829334 -0.39722631626938482 0 -0.082560309743270749 -0.39172977139542609 0 -0.094499944748829334 -0.39722631626938482 0 -0.091033556626635648 -0.38563610430902873 0 -0.082560309743270749 -0.39172977139542609 0 -0.079097438192195432 -0.39013559964190198 0 -0.074673198083630793 -0.40544040024196493 0 -0.082560309743270749 -0.39172977139542609 0 -0.079097438192195432 -0.39013559964190198 0 -0.082560309743270749 -0.39172977139542609 0 -0.076542312027108539 -0.406336853914531 0 -0.082560309743270749 -0.39172977139542609 0 -0.085553154766675646 -0.40134027138503481 0 -0.076542312027108539 -0.406336853914531 0 -0.085553154766675646 -0.40134027138503481 0 -0.076542312027108539 -0.406336853914531 0 -0.088610052547492879 -0.41006814396079783 0 -0.090139611558562177 -0.37333304007799939 0 -0.088525620654428705 -0.37725057202694517 0 -0.088525620654428705 -0.37725057202694517 0 -0.087954911787112483 -0.37534235041220648 0 -0.08170780991661282 -0.38109255286014232 0 -0.090139611558562177 -0.37333304007799939 0 -0.088525620654428705 -0.37725057202694517 0 -0.087954911787112483 -0.37534235041220648 0 -0.088525620654428705 -0.37725057202694517 0 -0.087954911787112483 -0.37534235041220648 0 -0.090139611558562177 -0.37333304007799939 0 -0.095426438310298192 -0.37780241062099151 0 -0.088525620654428705 -0.37725057202694517 0 -0.088525620654428705 -0.37725057202694517 0 -0.091585827134305964 -0.3839926061052007 0 -0.095426438310298192 -0.37780241062099151 0 -0.088525620654428705 -0.37725057202694517 0 -0.091585827134305964 -0.3839926061052007 0 -0.088525620654428705 -0.37725057202694517 0 -0.086634605294488312 -0.38349630075200858 0 -0.088525620654428705 -0.37725057202694517 0 -0.086634605294488312 -0.38349630075200858 0 -0.091585827134305964 -0.3839926061052007 0 -0.082560309743270749 -0.39172977139542609 0 -0.086634605294488312 -0.38349630075200858 0 -0.091033556626635648 -0.38563610430902873 0 -0.094499944748829334 -0.39722631626938482 0 -0.091033556626635648 -0.38563610430902873 0 -0.093729726096669103 -0.3869476153003294 0 -0.086634605294488312 -0.38349630075200858 0 -0.091585827134305964 -0.3839926061052007 0 -0.086634605294488312 -0.38349630075200858 0 -0.091033556626635648 -0.38563610430902873 0 -0.086634605294488312 -0.38349630075200858 0 -0.091585827134305964 -0.3839926061052007 0 -0.091033556626635648 -0.38563610430902873 0 -0.091585827134305964 -0.3839926061052007 0 -0.091033556626635648 -0.38563610430902873 0 -0.093729726096669103 -0.3869476153003294 0 -0.091033556626635648 -0.38563610430902873 0 -0.093729726096669103 -0.3869476153003294 0 -0.091585827134305964 -0.3839926061052007 0 -0.093729726096669103 -0.3869476153003294 0 -0.091585827134305964 -0.3839926061052007 0 -0.091033556626635648 -0.38563610430902873 0 -0.082560309743270749 -0.39172977139542609 0 -0.086634605294488312 -0.38349630075200858 0 -0.082560309743270749 -0.39172977139542609 0 -0.086634605294488312 -0.38349630075200858 0 -0.081174899406055781 -0.38294902548401538 0 -0.082560309743270749 -0.39172977139542609 0 -0.079097438192195432 -0.39013559964190198 0 -0.081174899406055781 -0.38294902548401538 0 -0.079097438192195432 -0.39013559964190198 0 -0.081174899406055781 -0.38294902548401538 0 -0.074281153156084773 -0.38791836881244668 0 -0.079097438192195432 -0.39013559964190198 0 -0.081174899406055781 -0.38294902548401538 0 -0.086634605294488312 -0.38349630075200858 0 -0.081174899406055781 -0.38294902548401538 0 -0.088525620654428705 -0.37725057202694517 0 -0.086634605294488312 -0.38349630075200858 0 -0.08170780991661282 -0.38109255286014232 0 -0.086634605294488312 -0.38349630075200858 0 -0.081174899406055781 -0.38294902548401538 0 -0.08170780991661282 -0.38109255286014232 0 -0.086634605294488312 -0.38349630075200858 0 -0.08170780991661282 -0.38109255286014232 0 -0.081174899406055781 -0.38294902548401538 0 -0.08170780991661282 -0.38109255286014232 0 -0.087954911787112483 -0.37534235041220648 0 -0.08170780991661282 -0.38109255286014232 0 -0.055512870853615448 -0.39455951290216967 0 -0.058563253679506787 -0.38068245751723601 0 -0.074281153156084773 -0.38791836881244668 0 -0.058563253679506787 -0.38068245751723601 0 -0.074281153156084773 -0.38791836881244668 0 -0.058387822440418388 -0.36975607908058028 0 -0.08170780991661282 -0.38109255286014232 0 -0.058387822440418388 -0.36975607908058028 0 -0.081174899406055781 -0.38294902548401538 0 -0.08170780991661282 -0.38109255286014232 0 -0.058563253679506787 -0.38068245751723601 0 -0.081174899406055781 -0.38294902548401538 0 -0.074281153156084773 -0.38791836881244668 0 -0.058563253679506787 -0.38068245751723601 0 -0.081174899406055781 -0.38294902548401538 0 -0.058387822440418388 -0.36975607908058028 0 -0.058563253679506787 -0.38068245751723601 0 -0.081174899406055781 -0.38294902548401538 0 -0.081174899406055781 -0.38294902548401538 0 -0.074281153156084773 -0.38791836881244668 0 -0.079097438192195432 -0.39013559964190198 0 -0.074281153156084773 -0.38791836881244668 0 -0.079097438192195432 -0.39013559964190198 0 -0.074281153156084773 -0.38791836881244668 0 -0.074673198083630793 -0.40544040024196493 0 -0.052509649903146327 -0.40794203844841681 0 -0.074281153156084773 -0.38791836881244668 0 -0.052509649903146327 -0.40794203844841681 0 -0.074281153156084773 -0.38791836881244668 0 -0.074673198083630793 -0.40544040024196493 0 -0.082560309743270749 -0.39172977139542609 0 -0.074673198083630793 -0.40544040024196493 0 -0.076542312027108539 -0.406336853914531 0 -0.079097438192195432 -0.39013559964190198 0 -0.074673198083630793 -0.40544040024196493 0 -0.052509649903146327 -0.40794203844841681 0 -0.074673198083630793 -0.40544040024196493 0 -0.070248957975066639 -0.42074520084202788 0 -0.076542312027108539 -0.406336853914531 0 -0.070248957975066639 -0.42074520084202788 0 -0.074673198083630793 -0.40544040024196493 0 -0.070248957975066639 -0.42074520084202788 0 -0.074673198083630793 -0.40544040024196493 0 -0.076542312027108539 -0.406336853914531 0 -0.070248957975066639 -0.42074520084202788 0 -0.070248957975066639 -0.42074520084202788 0 -0.077246521605040669 -0.42579562012280953 0 -0.078194253298280558 -0.41865647959270891 0 -0.076542312027108539 -0.406336853914531 0 -0.070248957975066639 -0.42074520084202788 0 -0.078194253298280558 -0.41865647959270891 0 -0.059775586818595829 -0.41787661413097049 0 -0.070248957975066639 -0.42074520084202788 0 -0.069408814394604765 -0.42365151461769918 0 -0.060002998013559863 -0.44648162232419802 0 -0.069408814394604765 -0.42365151461769918 0 -0.070248957975066639 -0.42074520084202788 0 -0.069408814394604765 -0.42365151461769918 0 -0.077098496045509793 -0.43873696019506903 0 -0.069408814394604765 -0.42365151461769918 0 -0.077246521605040669 -0.42579562012280953 0 -0.070248957975066639 -0.42074520084202788 0 -0.069408814394604765 -0.42365151461769918 0 -0.077246521605040669 -0.42579562012280953 0 -0.070248957975066639 -0.42074520084202788 0 -0.077246521605040669 -0.42579562012280953 0 -0.077246521605040669 -0.42579562012280953 0 -0.082943237868067593 -0.4239856173255338 0 -0.078194253298280558 -0.41865647959270891 0 -0.077098496045509793 -0.43873696019506903 0 -0.082943237868067593 -0.4239856173255338 0 -0.092016620863508841 -0.4218345739943074 0 -0.077098496045509793 -0.43873696019506903 0 -0.089545628933694749 -0.43673796215895883 0 -0.092016620863508841 -0.4218345739943074 0 -0.077098496045509793 -0.43873696019506903 0 -0.092016620863508841 -0.4218345739943074 0 -0.077098496045509793 -0.43873696019506903 0 -0.077246521605040669 -0.42579562012280953 0 -0.082943237868067593 -0.4239856173255338 0 -0.100590797535087 -0.41759168573278821 0 -0.092016620863508841 -0.4218345739943074 0 -0.088610052547492879 -0.41006814396079783 0 -0.082943237868067593 -0.4239856173255338 0 -0.092016620863508841 -0.4218345739943074 0 -0.083714880680240453 -0.41622037016703428 0 -0.092016620863508841 -0.4218345739943074 0 -0.088610052547492879 -0.41006814396079783 0 -0.083714880680240453 -0.41622037016703428 0 -0.076542312027108539 -0.406336853914531 0 -0.088610052547492879 -0.41006814396079783 0 -0.083714880680240453 -0.41622037016703428 0 -0.076542312027108539 -0.406336853914531 0 -0.078194253298280558 -0.41865647959270891 0 -0.083714880680240453 -0.41622037016703428 0 -0.082943237868067593 -0.4239856173255338 0 -0.078194253298280558 -0.41865647959270891 0 -0.083714880680240453 -0.41622037016703428 0 -0.081808777729522386 -0.083143660930833002 0 -0.073985000225153141 -0.099795971436559522 0 -0.085935801107842547 -0.09579043756499836 0 -0.081808777729522386 -0.083143660930833002 0 -0.085935801107842547 -0.09579043756499836 0 -0.094306078709463503 -0.087148618235937392 0 -0.081808777729522386 -0.083143660930833002 0 -0.094306078709463503 -0.087148618235937392 0 -0.095869533599057435 -0.074719864200214883 0 -0.081808777729522386 -0.083143660930833002 0 -0.087640100333796281 -0.066301869750421821 0 -0.076351800502585221 -0.068318825045574613 0 -0.081808777729522386 -0.083143660930833002 0 -0.087640100333796281 -0.066301869750421821 0 -0.095869533599057435 -0.074719864200214883 0 -0.087640100333796281 -0.066301869750421821 0 -0.095869533599057435 -0.074719864200214883 0 -0.097041901727127691 -0.062312633498474219 0 -0.087640100333796281 -0.066301869750421821 0 -0.076351800502585221 -0.068318825045574613 0 -0.079773765115028039 -0.057914828426178573 0 -0.081808777729522386 -0.083143660930833002 0 -0.076351800502585221 -0.068318825045574613 0 -0.068001603171865072 -0.074911341683796137 0 -0.068001603171865072 -0.074911341683796137 0 -0.065822825648978775 -0.060485584973140792 0 -0.05753372126900759 -0.073422836261521005 0 -0.076351800502585221 -0.068318825045574613 0 -0.068001603171865072 -0.074911341683796137 0 -0.065822825648978775 -0.060485584973140792 0 -0.068001603171865072 -0.074911341683796137 0 -0.066670257350634976 -0.085780572793309681 0 -0.05753372126900759 -0.073422836261521005 0 -0.081808777729522386 -0.083143660930833002 0 -0.066670257350634976 -0.085780572793309681 0 -0.073985000225153141 -0.099795971436559522 0 -0.081808777729522386 -0.083143660930833002 0 -0.068001603171865072 -0.074911341683796137 0 -0.066670257350634976 -0.085780572793309681 0 -0.066670257350634976 -0.085780572793309681 0 -0.073985000225153141 -0.099795971436559522 0 -0.05982498813170789 -0.10249801488187529 0 -0.073985000225153141 -0.099795971436559522 0 -0.065415314349395459 -0.11473522154729129 0 -0.05982498813170789 -0.10249801488187529 0 -0.073985000225153141 -0.099795971436559522 0 -0.065415314349395459 -0.11473522154729129 0 -0.07727601190464152 -0.1134926659633375 0 -0.065415314349395459 -0.11473522154729129 0 -0.060446148579459319 -0.1303024678998376 0 -0.071674103496310607 -0.1250344835198243 0 -0.07727601190464152 -0.1134926659633375 0 -0.082994471061899833 -0.1234246307735777 0 -0.071674103496310607 -0.1250344835198243 0 -0.065415314349395459 -0.11473522154729129 0 -0.07727601190464152 -0.1134926659633375 0 -0.071674103496310607 -0.1250344835198243 0 -0.07727601190464152 -0.1134926659633375 0 -0.082994471061899833 -0.1234246307735777 0 -0.08680817640523622 -0.1078855820033275 0 -0.082994471061899833 -0.1234246307735777 0 -0.08680817640523622 -0.1078855820033275 0 -0.095277368860953449 -0.1178446661751102 0 -0.082994471061899833 -0.1234246307735777 0 -0.095277368860953449 -0.1178446661751102 0 -0.095971306836852913 -0.13086642389395989 0 -0.085935801107842547 -0.09579043756499836 0 -0.08680817640523622 -0.1078855820033275 0 -0.1020424425883536 -0.1015565670732166 0 -0.073985000225153141 -0.099795971436559522 0 -0.085935801107842547 -0.09579043756499836 0 -0.08680817640523622 -0.1078855820033275 0 -0.073985000225153141 -0.099795971436559522 0 -0.07727601190464152 -0.1134926659633375 0 -0.08680817640523622 -0.1078855820033275 0 -0.085935801107842547 -0.09579043756499836 0 -0.1020424425883536 -0.1015565670732166 0 -0.094306078709463503 -0.087148618235937392 0 -0.08680817640523622 -0.1078855820033275 0 -0.1020424425883536 -0.1015565670732166 0 -0.095277368860953449 -0.1178446661751102 0 -0.1020424425883536 -0.1015565670732166 0 -0.095277368860953449 -0.1178446661751102 0 -0.1085913382140784 -0.11903379143832921 0 -0.095277368860953449 -0.1178446661751102 0 -0.1085913382140784 -0.11903379143832921 0 -0.095971306836852913 -0.13086642389395989 0 -0.1085913382140784 -0.11903379143832921 0 -0.11893842975153809 -0.10446969177473921 0 -0.12736410167423581 -0.1213878944680517 0 -0.1020424425883536 -0.1015565670732166 0 -0.11893842975153809 -0.10446969177473921 0 -0.1189291253072135 -0.086669643832799348 0 -0.1020424425883536 -0.1015565670732166 0 -0.1085913382140784 -0.11903379143832921 0 -0.11893842975153809 -0.10446969177473921 0 -0.1189291253072135 -0.086669643832799348 0 -0.1056068239719813 -0.08097964138995771 0 -0.1139735316209595 -0.069866863539540053 0 -0.1020424425883536 -0.1015565670732166 0 -0.1189291253072135 -0.086669643832799348 0 -0.1056068239719813 -0.08097964138995771 0 -0.1020424425883536 -0.1015565670732166 0 -0.1056068239719813 -0.08097964138995771 0 -0.094306078709463503 -0.087148618235937392 0 -0.1056068239719813 -0.08097964138995771 0 -0.094306078709463503 -0.087148618235937392 0 -0.095869533599057435 -0.074719864200214883 0 -0.095869533599057435 -0.074719864200214883 0 -0.1039382096783972 -0.069282752438140638 0 -0.097041901727127691 -0.062312633498474219 0 -0.1056068239719813 -0.08097964138995771 0 -0.1039382096783972 -0.069282752438140638 0 -0.1139735316209595 -0.069866863539540053 0 -0.1056068239719813 -0.08097964138995771 0 -0.095869533599057435 -0.074719864200214883 0 -0.1039382096783972 -0.069282752438140638 0 -0.1039382096783972 -0.069282752438140638 0 -0.097041901727127691 -0.062312633498474219 0 -0.1071992574728602 -0.058534759562516372 0 -0.1039382096783972 -0.069282752438140638 0 -0.1139735316209595 -0.069866863539540053 0 -0.1071992574728602 -0.058534759562516372 0 -0.1189291253072135 -0.086669643832799348 0 -0.1139735316209595 -0.069866863539540053 0 -0.12930964035960699 -0.069761515268982097 0 -0.1139735316209595 -0.069866863539540053 0 -0.1161384697585349 -0.056806249932135858 0 -0.12930964035960699 -0.069761515268982097 0 -0.1161384697585349 -0.056806249932135858 0 -0.1208541397454049 -0.045822468476665427 0 -0.12930964035960699 -0.069761515268982097 0 -0.1248214427799455 -0.0491876577223027 0 -0.1208541397454049 -0.045822468476665427 0 -0.12930964035960699 -0.069761515268982097 0 -0.1161384697585349 -0.056806249932135858 0 -0.10991932193075039 -0.048940588969216672 0 -0.1071992574728602 -0.058534759562516372 0 -0.1139735316209595 -0.069866863539540053 0 -0.1161384697585349 -0.056806249932135858 0 -0.1071992574728602 -0.058534759562516372 0 -0.1161384697585349 -0.056806249932135858 0 -0.10991932193075039 -0.048940588969216672 0 -0.1149357203506014 -0.047989794102068162 0 -0.1161384697585349 -0.056806249932135858 0 -0.1149357203506014 -0.047989794102068162 0 -0.1208541397454049 -0.045822468476665427 0 -0.1248214427799455 -0.0491876577223027 0 -0.1208541397454049 -0.045822468476665427 0 -0.1246368416492639 -0.024787675353444869 0 -0.1128309499677153 -0.040389869030254703 0 -0.10841128816168021 -0.033720593740292633 0 -0.11239863913120279 -0.021883421684348751 0 -0.1208541397454049 -0.045822468476665427 0 -0.11239863913120279 -0.021883421684348751 0 -0.1208541397454049 -0.045822468476665427 0 -0.1128309499677153 -0.040389869030254703 0 -0.11239863913120279 -0.021883421684348751 0 -0.1248214427799455 -0.0491876577223027 0 -0.1246368416492639 -0.024787675353444869 0 -0.1149357203506014 -0.047989794102068162 0 -0.1208541397454049 -0.045822468476665427 0 -0.1128309499677153 -0.040389869030254703 0 -0.10991932193075039 -0.048940588969216672 0 -0.1149357203506014 -0.047989794102068162 0 -0.1128309499677153 -0.040389869030254703 0 -0.10991932193075039 -0.048940588969216672 0 -0.1128309499677153 -0.040389869030254703 0 -0.1049963107845597 -0.040407454994133042 0 -0.10991932193075039 -0.048940588969216672 0 -0.1049963107845597 -0.040407454994133042 0 -0.1002598709818909 -0.049694841596422852 0 -0.1049963107845597 -0.040407454994133042 0 -0.10841128816168021 -0.033720593740292633 0 -0.1012581714839781 -0.029848849592015819 0 -0.1128309499677153 -0.040389869030254703 0 -0.1049963107845597 -0.040407454994133042 0 -0.10841128816168021 -0.033720593740292633 0 -0.097298262181343159 -0.039849987036595598 0 -0.1012581714839781 -0.029848849592015819 0 -0.091929659262116575 -0.033133953101480262 0 -0.1049963107845597 -0.040407454994133042 0 -0.097298262181343159 -0.039849987036595598 0 -0.1012581714839781 -0.029848849592015819 0 -0.1049963107845597 -0.040407454994133042 0 -0.097298262181343159 -0.039849987036595598 0 -0.1002598709818909 -0.049694841596422852 0 -0.097298262181343159 -0.039849987036595598 0 -0.1002598709818909 -0.049694841596422852 0 -0.087030839425688053 -0.044306376809862227 0 -0.1002598709818909 -0.049694841596422852 0 -0.097041901727127691 -0.062312633498474219 0 -0.1071992574728602 -0.058534759562516372 0 -0.1002598709818909 -0.049694841596422852 0 -0.097041901727127691 -0.062312633498474219 0 -0.090164156554830718 -0.055563028782557922 0 -0.10991932193075039 -0.048940588969216672 0 -0.1002598709818909 -0.049694841596422852 0 -0.1071992574728602 -0.058534759562516372 0 -0.1244522405185825 -0.00038769298458709092 0 -0.11239863913120279 -0.021883421684348751 0 -0.10394313851700079 0.0020556251079679459 0 -0.1244522405185825 -0.00038769298458709092 0 -0.1246368416492639 -0.024787675353444869 0 -0.1244522405185825 -0.00038769298458709092 0 -0.11239863913120279 -0.021883421684348751 0 -0.1246368416492639 -0.024787675353444869 0 -0.1208541397454049 -0.045822468476665427 0 -0.11239863913120279 -0.021883421684348751 0 -0.1246368416492639 -0.024787675353444869 0 -0.10841128816168021 -0.033720593740292633 0 -0.11239863913120279 -0.021883421684348751 0 -0.1012581714839781 -0.029848849592015819 0 -0.1012581714839781 -0.029848849592015819 0 -0.090677970328949406 -0.022917020247476879 0 -0.091929659262116575 -0.033133953101480262 0 -0.1012581714839781 -0.029848849592015819 0 -0.1001126671493681 -0.016491083843961009 0 -0.090677970328949406 -0.022917020247476879 0 -0.1001126671493681 -0.016491083843961009 0 -0.092285416285709382 -0.0098617528039315269 0 -0.090677970328949406 -0.022917020247476879 0 -0.11239863913120279 -0.021883421684348751 0 -0.1012581714839781 -0.029848849592015819 0 -0.1001126671493681 -0.016491083843961009 0 -0.1001126671493681 -0.016491083843961009 0 -0.092285416285709382 -0.0098617528039315269 0 -0.10394313851700079 0.0020556251079679459 0 -0.11239863913120279 -0.021883421684348751 0 -0.1001126671493681 -0.016491083843961009 0 -0.10394313851700079 0.0020556251079679459 0 -0.092285416285709382 -0.0098617528039315269 0 -0.10394313851700079 0.0020556251079679459 0 -0.085958893623968774 0.001514634656162053 0 -0.11239863913120279 -0.021883421684348751 0 -0.10394313851700079 0.0020556251079679459 0 -0.092285416285709382 -0.0098617528039315269 0 -0.077949881484559239 -0.01307625006729682 0 -0.085958893623968774 0.001514634656162053 0 -0.092285416285709382 -0.0098617528039315269 0 -0.090677970328949406 -0.022917020247476879 0 -0.077949881484559239 -0.01307625006729682 0 -0.090677970328949406 -0.022917020247476879 0 -0.073841780976804383 -0.025706854857452392 0 -0.077949881484559239 -0.01307625006729682 0 -0.090677970328949406 -0.022917020247476879 0 -0.073841780976804383 -0.025706854857452392 0 -0.082102255714859004 -0.034759692131612618 0 -0.090677970328949406 -0.022917020247476879 0 -0.091929659262116575 -0.033133953101480262 0 -0.082102255714859004 -0.034759692131612618 0 -0.073841780976804383 -0.025706854857452392 0 -0.077949881484559239 -0.01307625006729682 0 -0.060674527584339763 -0.015412449877807689 0 -0.073841780976804383 -0.025706854857452392 0 -0.060674527584339763 -0.015412449877807689 0 -0.060703590497751453 -0.03101491529774986 0 -0.077949881484559239 -0.01307625006729682 0 -0.085958893623968774 0.001514634656162053 0 -0.065648076432031049 0.00090955339710942099 0 -0.077949881484559239 -0.01307625006729682 0 -0.060674527584339763 -0.015412449877807689 0 -0.065648076432031049 0.00090955339710942099 0 -0.079773765115028039 -0.057914828426178573 0 -0.087030839425688053 -0.044306376809862227 0 -0.074827122987446398 -0.047817820925290022 0 -0.079773765115028039 -0.057914828426178573 0 -0.090164156554830718 -0.055563028782557922 0 -0.087030839425688053 -0.044306376809862227 0 -0.087640100333796281 -0.066301869750421821 0 -0.079773765115028039 -0.057914828426178573 0 -0.090164156554830718 -0.055563028782557922 0 -0.087640100333796281 -0.066301869750421821 0 -0.097041901727127691 -0.062312633498474219 0 -0.090164156554830718 -0.055563028782557922 0 -0.1002598709818909 -0.049694841596422852 0 -0.090164156554830718 -0.055563028782557922 0 -0.087030839425688053 -0.044306376809862227 0 -0.097298262181343159 -0.039849987036595598 0 -0.087030839425688053 -0.044306376809862227 0 -0.091929659262116575 -0.033133953101480262 0 -0.087030839425688053 -0.044306376809862227 0 -0.091929659262116575 -0.033133953101480262 0 -0.082102255714859004 -0.034759692131612618 0 -0.087030839425688053 -0.044306376809862227 0 -0.082102255714859004 -0.034759692131612618 0 -0.074827122987446398 -0.047817820925290022 0 -0.082102255714859004 -0.034759692131612618 0 -0.070942460250367517 -0.03706080152277047 0 -0.074827122987446398 -0.047817820925290022 0 -0.073841780976804383 -0.025706854857452392 0 -0.082102255714859004 -0.034759692131612618 0 -0.070942460250367517 -0.03706080152277047 0 -0.073841780976804383 -0.025706854857452392 0 -0.070942460250367517 -0.03706080152277047 0 -0.060703590497751453 -0.03101491529774986 0 -0.070942460250367517 -0.03706080152277047 0 -0.061850736208416378 -0.044087883634974623 0 -0.060703590497751453 -0.03101491529774986 0 -0.070942460250367517 -0.03706080152277047 0 -0.074827122987446398 -0.047817820925290022 0 -0.061850736208416378 -0.044087883634974623 0 -0.074827122987446398 -0.047817820925290022 0 -0.065822825648978775 -0.060485584973140792 0 -0.061850736208416378 -0.044087883634974623 0 -0.079773765115028039 -0.057914828426178573 0 -0.074827122987446398 -0.047817820925290022 0 -0.065822825648978775 -0.060485584973140792 0 -0.076351800502585221 -0.068318825045574613 0 -0.079773765115028039 -0.057914828426178573 0 -0.065822825648978775 -0.060485584973140792 0 -0.065822825648978775 -0.060485584973140792 0 -0.051906109188989122 -0.051634581827710108 0 -0.055146373663134192 -0.063188587977351315 0 -0.065822825648978775 -0.060485584973140792 0 -0.051906109188989122 -0.051634581827710108 0 -0.061850736208416378 -0.044087883634974623 0 -0.051906109188989122 -0.051634581827710108 0 -0.044968642856814678 -0.064628327886466996 0 -0.055146373663134192 -0.063188587977351315 0 -0.061850736208416378 -0.044087883634974623 0 -0.048286593140243993 -0.039377229684959138 0 -0.060703590497751453 -0.03101491529774986 0 -0.051906109188989122 -0.051634581827710108 0 -0.061850736208416378 -0.044087883634974623 0 -0.048286593140243993 -0.039377229684959138 0 -0.048286593140243993 -0.039377229684959138 0 -0.039642814346724391 -0.052475069278980747 0 -0.030584103036016622 -0.035608219704199993 0 -0.039642814346724391 -0.052475069278980747 0 -0.024435088609687641 -0.049746151716912712 0 -0.030584103036016622 -0.035608219704199993 0 -0.048286593140243993 -0.039377229684959138 0 -0.044331283213942488 -0.020119990811347448 0 -0.030584103036016622 -0.035608219704199993 0 -0.039642814346724391 -0.052475069278980747 0 -0.03034189778213453 -0.060014988360291517 0 -0.024435088609687641 -0.049746151716912712 0 -0.039642814346724391 -0.052475069278980747 0 -0.03034189778213453 -0.060014988360291517 0 -0.044968642856814678 -0.064628327886466996 0 -0.051906109188989122 -0.051634581827710108 0 -0.039642814346724391 -0.052475069278980747 0 -0.044968642856814678 -0.064628327886466996 0 -0.051906109188989122 -0.051634581827710108 0 -0.048286593140243993 -0.039377229684959138 0 -0.039642814346724391 -0.052475069278980747 0 -0.060674527584339763 -0.015412449877807689 0 -0.044331283213942488 -0.020119990811347448 0 -0.045118160941850949 -0.00049033847668307538 0 -0.060674527584339763 -0.015412449877807689 0 -0.045118160941850949 -0.00049033847668307538 0 -0.065648076432031049 0.00090955339710942099 0 -0.048286593140243993 -0.039377229684959138 0 -0.060703590497751453 -0.03101491529774986 0 -0.044331283213942488 -0.020119990811347448 0 -0.060674527584339763 -0.015412449877807689 0 -0.060703590497751453 -0.03101491529774986 0 -0.044331283213942488 -0.020119990811347448 0 -0.044331283213942488 -0.020119990811347448 0 -0.027025641752002061 -0.0079319500279313396 0 -0.030584103036016622 -0.035608219704199993 0 -0.044331283213942488 -0.020119990811347448 0 -0.045118160941850949 -0.00049033847668307538 0 -0.027025641752002061 -0.0079319500279313396 0 -0.027025641752002061 -0.0079319500279313396 0 -0.0118242871531395 -0.020545428430059291 0 -0.0091716063734174208 -0.003332990253060792 0 -0.027025641752002061 -0.0079319500279313396 0 -0.0091716063734174208 -0.003332990253060792 0 -0.01566814095190756 0.010235570601176981 0 -0.027025641752002061 -0.0079319500279313396 0 -0.0118242871531395 -0.020545428430059291 0 -0.030584103036016622 -0.035608219704199993 0 -0.0118242871531395 -0.020545428430059291 0 -0.030584103036016622 -0.035608219704199993 0 -0.0118242871531395 -0.020545428430059291 0 0.006935528729737548 -0.0054826371559186567 0 0.0027408304473846411 -0.028176541972939319 0 -0.0118242871531395 -0.020545428430059291 0 -0.01026660782967455 -0.041229232136501717 0 0.0027408304473846411 -0.028176541972939319 0 -0.0118242871531395 -0.020545428430059291 0 -0.0091716063734174208 -0.003332990253060792 0 0.006935528729737548 -0.0054826371559186567 0 -0.0118242871531395 -0.020545428430059291 0 0.006935528729737548 -0.0054826371559186567 0 -0.024435088609687641 -0.049746151716912712 0 -0.01026660782967455 -0.041229232136501717 0 -0.01499476028908407 -0.06055090283160456 0 -0.03034189778213453 -0.060014988360291517 0 -0.01499476028908407 -0.06055090283160456 0 -0.03034189778213453 -0.060014988360291517 0 -0.024435088609687641 -0.049746151716912712 0 -0.01499476028908407 -0.06055090283160456 0 -0.024435088609687641 -0.049746151716912712 0 -0.030584103036016622 -0.035608219704199993 0 -0.01026660782967455 -0.041229232136501717 0 -0.0118242871531395 -0.020545428430059291 0 -0.030584103036016622 -0.035608219704199993 0 -0.01026660782967455 -0.041229232136501717 0 -0.01026660782967455 -0.041229232136501717 0 0.0096258971738255473 -0.043108802377643002 0 0.00035237720396625368 -0.061086817302918282 0 -0.01026660782967455 -0.041229232136501717 0 -0.01499476028908407 -0.06055090283160456 0 0.00035237720396625368 -0.061086817302918282 0 -0.01499476028908407 -0.06055090283160456 0 0.00035237720396625368 -0.061086817302918282 0 -0.011408129540087309 -0.083886203777590068 0 0.0065051428120863272 -0.082127796022149757 0 0.00035237720396625368 -0.061086817302918282 0 -0.011408129540087309 -0.083886203777590068 0 0.00035237720396625368 -0.061086817302918282 0 -0.01499476028908407 -0.06055090283160456 0 -0.011408129540087309 -0.083886203777590068 0 0.00035237720396625368 -0.061086817302918282 0 -0.011408129540087309 -0.083886203777590068 0 0.001856719827670471 -0.098182337095309047 0 0.0065051428120863272 -0.082127796022149757 0 -0.011408129540087309 -0.083886203777590068 0 -0.03053113156520738 -0.089911417014305078 0 -0.02316863628414112 -0.10668559025226169 0 -0.011408129540087309 -0.083886203777590068 0 -0.03053113156520738 -0.089911417014305078 0 -0.026049830403481512 -0.075342802050597457 0 -0.01499476028908407 -0.06055090283160456 0 -0.011408129540087309 -0.083886203777590068 0 -0.026049830403481512 -0.075342802050597457 0 -0.03034189778213453 -0.060014988360291517 0 -0.01499476028908407 -0.06055090283160456 0 -0.026049830403481512 -0.075342802050597457 0 -0.03034189778213453 -0.060014988360291517 0 -0.026049830403481512 -0.075342802050597457 0 -0.041349905228919973 -0.078428718904655664 0 -0.03034189778213453 -0.060014988360291517 0 -0.044968642856814678 -0.064628327886466996 0 -0.041349905228919973 -0.078428718904655664 0 -0.03053113156520738 -0.089911417014305078 0 -0.026049830403481512 -0.075342802050597457 0 -0.041349905228919973 -0.078428718904655664 0 -0.03053113156520738 -0.089911417014305078 0 -0.041349905228919973 -0.078428718904655664 0 -0.047432501145458397 -0.097370211357339573 0 -0.041349905228919973 -0.078428718904655664 0 -0.053879666709155317 -0.08598560359304859 0 -0.05753372126900759 -0.073422836261521005 0 -0.041349905228919973 -0.078428718904655664 0 -0.053879666709155317 -0.08598560359304859 0 -0.047432501145458397 -0.097370211357339573 0 -0.066670257350634976 -0.085780572793309681 0 -0.053879666709155317 -0.08598560359304859 0 -0.05982498813170789 -0.10249801488187529 0 -0.066670257350634976 -0.085780572793309681 0 -0.053879666709155317 -0.08598560359304859 0 -0.05753372126900759 -0.073422836261521005 0 -0.044968642856814678 -0.064628327886466996 0 -0.041349905228919973 -0.078428718904655664 0 -0.05753372126900759 -0.073422836261521005 0 -0.065822825648978775 -0.060485584973140792 0 -0.05753372126900759 -0.073422836261521005 0 -0.055146373663134192 -0.063188587977351315 0 -0.044968642856814678 -0.064628327886466996 0 -0.05753372126900759 -0.073422836261521005 0 -0.055146373663134192 -0.063188587977351315 0 -0.065415314349395459 -0.11473522154729129 0 -0.048239208743362072 -0.1165718691901324 0 -0.05982498813170789 -0.10249801488187529 0 -0.065415314349395459 -0.11473522154729129 0 -0.048239208743362072 -0.1165718691901324 0 -0.060446148579459319 -0.1303024678998376 0 -0.048239208743362072 -0.1165718691901324 0 -0.05982498813170789 -0.10249801488187529 0 -0.047432501145458397 -0.097370211357339573 0 -0.053879666709155317 -0.08598560359304859 0 -0.05982498813170789 -0.10249801488187529 0 -0.047432501145458397 -0.097370211357339573 0 -0.048239208743362072 -0.1165718691901324 0 -0.047432501145458397 -0.097370211357339573 0 -0.02316863628414112 -0.10668559025226169 0 -0.03053113156520738 -0.089911417014305078 0 -0.047432501145458397 -0.097370211357339573 0 -0.02316863628414112 -0.10668559025226169 0 -0.048239208743362072 -0.1165718691901324 0 -0.02316863628414112 -0.10668559025226169 0 -0.029948833034415319 -0.13246817914486481 0 -0.02316863628414112 -0.10668559025226169 0 -0.01250087523651249 -0.12826546419306251 0 -0.029948833034415319 -0.13246817914486481 0 -0.011408129540087309 -0.083886203777590068 0 -0.02316863628414112 -0.10668559025226169 0 -0.02316863628414112 -0.10668559025226169 0 0.0015243557028834459 -0.11711868301268021 0 0.001856719827670471 -0.098182337095309047 0 -0.011408129540087309 -0.083886203777590068 0 -0.02316863628414112 -0.10668559025226169 0 0.001856719827670471 -0.098182337095309047 0 -0.02316863628414112 -0.10668559025226169 0 -0.01250087523651249 -0.12826546419306251 0 0.0015243557028834459 -0.11711868301268021 0 -0.01250087523651249 -0.12826546419306251 0 -0.013317386200938249 -0.14799664519887931 0 0.0088678229424013627 -0.13941235935176011 0 -0.01250087523651249 -0.12826546419306251 0 0.0088678229424013627 -0.13941235935176011 0 0.0015243557028834459 -0.11711868301268021 0 -0.01250087523651249 -0.12826546419306251 0 -0.029948833034415319 -0.13246817914486481 0 -0.013317386200938249 -0.14799664519887931 0 -0.013317386200938249 -0.14799664519887931 0 -0.035502595344277812 -0.15658093104599841 0 -0.029948833034415319 -0.13246817914486481 0 -0.013317386200938249 -0.14799664519887931 0 -0.035502595344277812 -0.15658093104599841 0 -0.013317386200938249 -0.14799664519887931 0 0.0088678229424013627 -0.13941235935176011 0 -0.013317386200938249 -0.14799664519887931 0 0.0027310736070901482 -0.15493719994590471 0 0.0088678229424013627 -0.13941235935176011 0 -0.013317386200938249 -0.14799664519887931 0 -0.0013673002328405961 -0.1767093328090546 0 0.0027310736070901482 -0.15493719994590471 0 -0.013317386200938249 -0.14799664519887931 0 -0.0013673002328405961 -0.1767093328090546 0 -0.029934926785222919 -0.1776443960910804 0 -0.0013673002328405961 -0.1767093328090546 0 -0.0217915143334447 -0.19785215020996011 0 -0.0013673002328405961 -0.1767093328090546 0 -0.029934926785222919 -0.1776443960910804 0 -0.0217915143334447 -0.19785215020996011 0 -0.013317386200938249 -0.14799664519887931 0 -0.029934926785222919 -0.1776443960910804 0 -0.035502595344277812 -0.15658093104599841 0 -0.035502595344277812 -0.15658093104599841 0 -0.057687804487617317 -0.16516521689311761 0 -0.029934926785222919 -0.1776443960910804 0 -0.035502595344277812 -0.15658093104599841 0 -0.057687804487617317 -0.16516521689311761 0 -0.029934926785222919 -0.1776443960910804 0 -0.048583433801033478 -0.18728911877980611 0 -0.034676635542126917 -0.191298641696723 0 -0.029934926785222919 -0.1776443960910804 0 -0.048583433801033478 -0.18728911877980611 0 -0.057687804487617317 -0.16516521689311761 0 -0.048583433801033478 -0.18728911877980611 0 -0.057687804487617317 -0.16516521689311761 0 -0.063770138428779252 -0.18079669395549949 0 -0.035502595344277812 -0.15658093104599841 0 -0.057687804487617317 -0.16516521689311761 0 -0.06059931965736505 -0.14742373122833671 0 -0.035502595344277812 -0.15658093104599841 0 -0.06059931965736505 -0.14742373122833671 0 -0.046947221071775923 -0.13666943570183401 0 -0.048239208743362072 -0.1165718691901324 0 -0.046947221071775923 -0.13666943570183401 0 -0.060446148579459319 -0.1303024678998376 0 -0.06059931965736505 -0.14742373122833671 0 -0.046947221071775923 -0.13666943570183401 0 -0.060446148579459319 -0.1303024678998376 0 -0.048239208743362072 -0.1165718691901324 0 -0.029948833034415319 -0.13246817914486481 0 -0.046947221071775923 -0.13666943570183401 0 -0.029948833034415319 -0.13246817914486481 0 -0.035502595344277812 -0.15658093104599841 0 -0.046947221071775923 -0.13666943570183401 0 -0.03064478186574425 -0.25326356670072259 0 -0.026067501294639708 -0.24850247980592871 0 -0.033387688564450117 -0.24425465961654741 0 -0.026067501294639708 -0.24850247980592871 0 -0.02456862519526215 -0.24210395604782819 0 -0.033387688564450117 -0.24425465961654741 0 -0.02974340118516787 -0.23585106297766359 0 -0.02456862519526215 -0.24210395604782819 0 -0.02062871475200042 -0.2320366992723622 0 -0.02974340118516787 -0.23585106297766359 0 -0.02456862519526215 -0.24210395604782819 0 -0.033387688564450117 -0.24425465961654741 0 -0.02456862519526215 -0.24210395604782819 0 -0.01660477195623393 -0.2403164687020414 0 -0.02062871475200042 -0.2320366992723622 0 -0.02456862519526215 -0.24210395604782819 0 -0.01660477195623393 -0.2403164687020414 0 -0.01887874476148543 -0.24814250919209771 0 -0.026067501294639708 -0.24850247980592871 0 -0.02456862519526215 -0.24210395604782819 0 -0.01887874476148543 -0.24814250919209771 0 -0.01660477195623393 -0.2403164687020414 0 -0.01887874476148543 -0.24814250919209771 0 -0.0080727856436109482 -0.2481099565327444 0 -0.0080727856436109482 -0.2481099565327444 0 -0.0084819670471955304 -0.2367225590632196 0 0.0055632338660241776 -0.24332209518663511 0 -0.01660477195623393 -0.2403164687020414 0 -0.0084819670471955304 -0.2367225590632196 0 -0.02062871475200042 -0.2320366992723622 0 -0.01660477195623393 -0.2403164687020414 0 -0.0080727856436109482 -0.2481099565327444 0 -0.0084819670471955304 -0.2367225590632196 0 -0.0084819670471955304 -0.2367225590632196 0 -0.0075276580997289226 -0.21896018305478171 0 0.0032521440618358652 -0.23009641691855939 0 -0.0084819670471955304 -0.2367225590632196 0 -0.0075276580997289226 -0.21896018305478171 0 -0.02062871475200042 -0.2320366992723622 0 -0.0075276580997289226 -0.21896018305478171 0 -0.02062871475200042 -0.2320366992723622 0 -0.024832472176938718 -0.21885173135413241 0 -0.02974340118516787 -0.23585106297766359 0 -0.02062871475200042 -0.2320366992723622 0 -0.031998745265470661 -0.22641465662269231 0 -0.02062871475200042 -0.2320366992723622 0 -0.024832472176938718 -0.21885173135413241 0 -0.031998745265470661 -0.22641465662269231 0 -0.0075276580997289226 -0.21896018305478171 0 -0.024832472176938718 -0.21885173135413241 0 -0.0217915143334447 -0.19785215020996011 0 -0.024832472176938718 -0.21885173135413241 0 -0.0217915143334447 -0.19785215020996011 0 -0.042215728434048867 -0.21899496761086559 0 -0.0075276580997289226 -0.21896018305478171 0 -0.0217915143334447 -0.19785215020996011 0 0.003555539334036632 -0.19934620758084881 0 -0.0013673002328405961 -0.1767093328090546 0 -0.0217915143334447 -0.19785215020996011 0 0.003555539334036632 -0.19934620758084881 0 -0.029934926785222919 -0.1776443960910804 0 -0.0217915143334447 -0.19785215020996011 0 -0.034676635542126917 -0.191298641696723 0 -0.0217915143334447 -0.19785215020996011 0 -0.034676635542126917 -0.191298641696723 0 -0.04224094911505525 -0.20168175555289891 0 -0.048583433801033478 -0.18728911877980611 0 -0.034676635542126917 -0.191298641696723 0 -0.04224094911505525 -0.20168175555289891 0 -0.048583433801033478 -0.18728911877980611 0 -0.058327232484387218 -0.2013044317948425 0 -0.063770138428779252 -0.18079669395549949 0 -0.048583433801033478 -0.18728911877980611 0 -0.04224094911505525 -0.20168175555289891 0 -0.058327232484387218 -0.2013044317948425 0 -0.058327232484387218 -0.2013044317948425 0 -0.04785115009529034 -0.21335122322519601 0 -0.065984069430329237 -0.21594808513783789 0 -0.04224094911505525 -0.20168175555289891 0 -0.058327232484387218 -0.2013044317948425 0 -0.04785115009529034 -0.21335122322519601 0 -0.04785115009529034 -0.21335122322519601 0 -0.065984069430329237 -0.21594808513783789 0 -0.04785115009529034 -0.21335122322519601 0 -0.050089297127046031 -0.22131182591420251 0 -0.065984069430329237 -0.21594808513783789 0 -0.0217915143334447 -0.19785215020996011 0 -0.042215728434048867 -0.21899496761086559 0 -0.0217915143334447 -0.19785215020996011 0 -0.04224094911505525 -0.20168175555289891 0 -0.042215728434048867 -0.21899496761086559 0 -0.04224094911505525 -0.20168175555289891 0 -0.04785115009529034 -0.21335122322519601 0 -0.042215728434048867 -0.21899496761086559 0 -0.04785115009529034 -0.21335122322519601 0 -0.042215728434048867 -0.21899496761086559 0 -0.050089297127046031 -0.22131182591420251 0 -0.024832472176938718 -0.21885173135413241 0 -0.031998745265470661 -0.22641465662269231 0 -0.042215728434048867 -0.21899496761086559 0 -0.031998745265470661 -0.22641465662269231 0 -0.042215728434048867 -0.21899496761086559 0 -0.041320068815934301 -0.22639292378782619 0 -0.031998745265470661 -0.22641465662269231 0 -0.041320068815934301 -0.22639292378782619 0 -0.038133232148655979 -0.23444534332888789 0 -0.02974340118516787 -0.23585106297766359 0 -0.031998745265470661 -0.22641465662269231 0 -0.038133232148655979 -0.23444534332888789 0 -0.041320068815934301 -0.22639292378782619 0 -0.052151212760384272 -0.22988480121754831 0 -0.038133232148655979 -0.23444534332888789 0 -0.042215728434048867 -0.21899496761086559 0 -0.041320068815934301 -0.22639292378782619 0 -0.050089297127046031 -0.22131182591420251 0 -0.041320068815934301 -0.22639292378782619 0 -0.050089297127046031 -0.22131182591420251 0 -0.052151212760384272 -0.22988480121754831 0 -0.0567919256119837 -0.24387644547435741 0 -0.065984069430329237 -0.21594808513783789 0 -0.050089297127046031 -0.22131182591420251 0 -0.052151212760384272 -0.22988480121754831 0 -0.065984069430329237 -0.21594808513783789 0 -0.052151212760384272 -0.22988480121754831 0 -0.0567919256119837 -0.24387644547435741 0 -0.065984069430329237 -0.21594808513783789 0 -0.052151212760384272 -0.22988480121754831 0 -0.0567919256119837 -0.24387644547435741 0 -0.045207486351244337 -0.24272005325013779 0 -0.046517308340487992 -0.25474718453952289 0 -0.0567919256119837 -0.24387644547435741 0 -0.045207486351244337 -0.24272005325013779 0 -0.038581934025118947 -0.25114857380685968 0 -0.046517308340487992 -0.25474718453952289 0 -0.045207486351244337 -0.24272005325013779 0 -0.052151212760384272 -0.22988480121754831 0 -0.045207486351244337 -0.24272005325013779 0 -0.038133232148655979 -0.23444534332888789 0 -0.02974340118516787 -0.23585106297766359 0 -0.038133232148655979 -0.23444534332888789 0 -0.033387688564450117 -0.24425465961654741 0 -0.045207486351244337 -0.24272005325013779 0 -0.038133232148655979 -0.23444534332888789 0 -0.033387688564450117 -0.24425465961654741 0 -0.038581934025118947 -0.25114857380685968 0 -0.03064478186574425 -0.25326356670072259 0 -0.033387688564450117 -0.24425465961654741 0 -0.038581934025118947 -0.25114857380685968 0 -0.045207486351244337 -0.24272005325013779 0 -0.033387688564450117 -0.24425465961654741 0 -0.076282262678724011 -0.24169347649274159 0 -0.094544528280961701 -0.23130979592197831 0 -0.1005321994236209 -0.2431127607729493 0 -0.090174700483665673 -0.26498018187443112 0 -0.076282262678724011 -0.24169347649274159 0 -0.1005321994236209 -0.2431127607729493 0 -0.063484538676239377 -0.26413124226689111 0 -0.0567919256119837 -0.24387644547435741 0 -0.076282262678724011 -0.24169347649274159 0 -0.0567919256119837 -0.24387644547435741 0 -0.076282262678724011 -0.24169347649274159 0 -0.076216545617433393 -0.2267874217425101 0 -0.0567919256119837 -0.24387644547435741 0 -0.076216545617433393 -0.2267874217425101 0 -0.065984069430329237 -0.21594808513783789 0 -0.076216545617433393 -0.2267874217425101 0 -0.089079986681209755 -0.21925571071859279 0 -0.065984069430329237 -0.21594808513783789 0 -0.076282262678724011 -0.24169347649274159 0 -0.076216545617433393 -0.2267874217425101 0 -0.089079986681209755 -0.21925571071859279 0 -0.076282262678724011 -0.24169347649274159 0 -0.089079986681209755 -0.21925571071859279 0 -0.076282262678724011 -0.24169347649274159 0 -0.089079986681209755 -0.21925571071859279 0 -0.094544528280961701 -0.23130979592197831 0 -0.089079986681209755 -0.21925571071859279 0 -0.087982693832912948 -0.20610030108417279 0 -0.065984069430329237 -0.21594808513783789 0 -0.089079986681209755 -0.21925571071859279 0 -0.091681034097487346 -0.21469539259619891 0 -0.087982693832912948 -0.20610030108417279 0 -0.089079986681209755 -0.21925571071859279 0 -0.091681034097487346 -0.21469539259619891 0 -0.089079986681209755 -0.21925571071859279 0 -0.065984069430329237 -0.21594808513783789 0 -0.058327232484387218 -0.2013044317948425 0 -0.065984069430329237 -0.21594808513783789 0 -0.072928541530643487 -0.1948487939390374 0 -0.065984069430329237 -0.21594808513783789 0 -0.072928541530643487 -0.1948487939390374 0 -0.087982693832912948 -0.20610030108417279 0 -0.065984069430329237 -0.21594808513783789 0 -0.072928541530643487 -0.1948487939390374 0 -0.058327232484387218 -0.2013044317948425 0 -0.072928541530643487 -0.1948487939390374 0 -0.063770138428779252 -0.18079669395549949 0 -0.087982693832912948 -0.20610030108417279 0 -0.072928541530643487 -0.1948487939390374 0 -0.088647710124579282 -0.1895137930351245 0 -0.087982693832912948 -0.20610030108417279 0 -0.088647710124579282 -0.1895137930351245 0 -0.098413722631135098 -0.19641739989264009 0 -0.088647710124579282 -0.1895137930351245 0 -0.098413722631135098 -0.19641739989264009 0 -0.1039428787252024 -0.18306303235069041 0 -0.087982693832912948 -0.20610030108417279 0 -0.098413722631135098 -0.19641739989264009 0 -0.1018219586260966 -0.2062222809526808 0 -0.098413722631135098 -0.19641739989264009 0 -0.10967337184688419 -0.19718759204053191 0 -0.1018219586260966 -0.2062222809526808 0 -0.098413722631135098 -0.19641739989264009 0 -0.10967337184688419 -0.19718759204053191 0 -0.1039428787252024 -0.18306303235069041 0 -0.1039428787252024 -0.18306303235069041 0 -0.1280127438194481 -0.19237656196114411 0 -0.10967337184688419 -0.19718759204053191 0 -0.1178174188303993 -0.20556040013348681 0 -0.1280127438194481 -0.19237656196114411 0 -0.10967337184688419 -0.19718759204053191 0 -0.1039428787252024 -0.18306303235069041 0 -0.1280127438194481 -0.19237656196114411 0 -0.10967337184688419 -0.19718759204053191 0 -0.10961342770230489 -0.21003706569406461 0 -0.1178174188303993 -0.20556040013348681 0 -0.1178174188303993 -0.20556040013348681 0 -0.1109550451866443 -0.21888036136960631 0 -0.13246178853905299 -0.20873151589840269 0 -0.1109550451866443 -0.21888036136960631 0 -0.13246178853905299 -0.20873151589840269 0 -0.1109550451866443 -0.21888036136960631 0 -0.12407830270498089 -0.22426790937284519 0 -0.13246178853905299 -0.20873151589840269 0 -0.10961342770230489 -0.21003706569406461 0 -0.1178174188303993 -0.20556040013348681 0 -0.1109550451866443 -0.21888036136960631 0 -0.10961342770230489 -0.21003706569406461 0 -0.103172625086798 -0.22127395363072039 0 -0.1109550451866443 -0.21888036136960631 0 -0.10961342770230489 -0.21003706569406461 0 -0.1018219586260966 -0.2062222809526808 0 -0.103172625086798 -0.22127395363072039 0 -0.10967337184688419 -0.19718759204053191 0 -0.10961342770230489 -0.21003706569406461 0 -0.1018219586260966 -0.2062222809526808 0 -0.091681034097487346 -0.21469539259619891 0 -0.087982693832912948 -0.20610030108417279 0 -0.103172625086798 -0.22127395363072039 0 -0.089079986681209755 -0.21925571071859279 0 -0.091681034097487346 -0.21469539259619891 0 -0.103172625086798 -0.22127395363072039 0 -0.087982693832912948 -0.20610030108417279 0 -0.103172625086798 -0.22127395363072039 0 -0.087982693832912948 -0.20610030108417279 0 -0.1018219586260966 -0.2062222809526808 0 -0.103172625086798 -0.22127395363072039 0 -0.094544528280961701 -0.23130979592197831 0 -0.103172625086798 -0.22127395363072039 0 -0.1005321994236209 -0.2431127607729493 0 -0.089079986681209755 -0.21925571071859279 0 -0.103172625086798 -0.22127395363072039 0 -0.089079986681209755 -0.21925571071859279 0 -0.094544528280961701 -0.23130979592197831 0 -0.103172625086798 -0.22127395363072039 0 -0.103172625086798 -0.22127395363072039 0 -0.1223681628105569 -0.24044891992886891 0 -0.103172625086798 -0.22127395363072039 0 -0.12407830270498089 -0.22426790937284519 0 -0.1238233973506119 -0.23541481827178831 0 -0.103172625086798 -0.22127395363072039 0 -0.1223681628105569 -0.24044891992886891 0 -0.1238233973506119 -0.23541481827178831 0 -0.103172625086798 -0.22127395363072039 0 -0.12407830270498089 -0.22426790937284519 0 -0.103172625086798 -0.22127395363072039 0 -0.1109550451866443 -0.21888036136960631 0 -0.12407830270498089 -0.22426790937284519 0 -0.11757885349586771 -0.25701660664448461 0 -0.1223681628105569 -0.24044891992886891 0 -0.1005321994236209 -0.2431127607729493 0 -0.11757885349586771 -0.25701660664448461 0 -0.1223681628105569 -0.24044891992886891 0 -0.1223681628105569 -0.24044891992886891 0 -0.1238233973506119 -0.23541481827178831 0 -0.103172625086798 -0.22127395363072039 0 -0.1223681628105569 -0.24044891992886891 0 -0.1005321994236209 -0.2431127607729493 0 -0.088441251280713618 -0.1477167476767523 0 -0.085474651021334253 -0.13655174303235951 0 -0.077236065216807342 -0.1460130695171887 0 -0.088441251280713618 -0.1477167476767523 0 -0.077236065216807342 -0.1460130695171887 0 -0.072985053953480025 -0.15595005707556001 0 -0.088441251280713618 -0.1477167476767523 0 -0.093538562727787294 -0.15940564464812701 0 -0.098894310772838973 -0.14952020789867901 0 -0.088441251280713618 -0.1477167476767523 0 -0.085474651021334253 -0.13655174303235951 0 -0.095252038160572317 -0.1406191133899993 0 -0.085474651021334253 -0.13655174303235951 0 -0.095971306836852913 -0.13086642389395989 0 -0.095252038160572317 -0.1406191133899993 0 -0.082994471061899833 -0.1234246307735777 0 -0.085474651021334253 -0.13655174303235951 0 -0.095971306836852913 -0.13086642389395989 0 -0.082994471061899833 -0.1234246307735777 0 -0.085474651021334253 -0.13655174303235951 0 -0.073596501371478315 -0.1364787996572045 0 -0.085474651021334253 -0.13655174303235951 0 -0.073596501371478315 -0.1364787996572045 0 -0.077236065216807342 -0.1460130695171887 0 -0.06059931965736505 -0.14742373122833671 0 -0.060446148579459319 -0.1303024678998376 0 -0.073596501371478315 -0.1364787996572045 0 -0.082994471061899833 -0.1234246307735777 0 -0.073596501371478315 -0.1364787996572045 0 -0.071674103496310607 -0.1250344835198243 0 -0.060446148579459319 -0.1303024678998376 0 -0.073596501371478315 -0.1364787996572045 0 -0.071674103496310607 -0.1250344835198243 0 -0.06059931965736505 -0.14742373122833671 0 -0.073596501371478315 -0.1364787996572045 0 -0.077236065216807342 -0.1460130695171887 0 -0.057687804487617317 -0.16516521689311761 0 -0.06059931965736505 -0.14742373122833671 0 -0.072985053953480025 -0.15595005707556001 0 -0.06059931965736505 -0.14742373122833671 0 -0.077236065216807342 -0.1460130695171887 0 -0.072985053953480025 -0.15595005707556001 0 -0.057687804487617317 -0.16516521689311761 0 -0.079873013630956835 -0.17374950274023659 0 -0.057687804487617317 -0.16516521689311761 0 -0.072985053953480025 -0.15595005707556001 0 -0.079873013630956835 -0.17374950274023659 0 -0.072928541530643487 -0.1948487939390374 0 -0.079873013630956835 -0.17374950274023659 0 -0.057687804487617317 -0.16516521689311761 0 -0.063770138428779252 -0.18079669395549949 0 -0.079873013630956835 -0.17374950274023659 0 -0.072928541530643487 -0.1948487939390374 0 -0.063770138428779252 -0.18079669395549949 0 -0.079873013630956835 -0.17374950274023659 0 -0.072928541530643487 -0.1948487939390374 0 -0.088647710124579282 -0.1895137930351245 0 -0.079873013630956835 -0.17374950274023659 0 -0.079873013630956835 -0.17374950274023659 0 -0.1039428787252024 -0.18306303235069041 0 -0.088647710124579282 -0.1895137930351245 0 -0.079873013630956835 -0.17374950274023659 0 -0.1039428787252024 -0.18306303235069041 0 -0.088441251280713618 -0.1477167476767523 0 -0.079873013630956835 -0.17374950274023659 0 -0.079873013630956835 -0.17374950274023659 0 -0.093538562727787294 -0.15940564464812701 0 -0.098088850166783578 -0.16700629557107341 0 -0.088441251280713618 -0.1477167476767523 0 -0.079873013630956835 -0.17374950274023659 0 -0.093538562727787294 -0.15940564464812701 0 -0.088441251280713618 -0.1477167476767523 0 -0.072985053953480025 -0.15595005707556001 0 -0.079873013630956835 -0.17374950274023659 0 -0.093538562727787294 -0.15940564464812701 0 -0.098088850166783578 -0.16700629557107341 0 -0.1023953877876435 -0.15903546935389351 0 -0.098088850166783578 -0.16700629557107341 0 -0.1039428787252024 -0.18306303235069041 0 -0.1119878388851908 -0.16231915977259129 0 -0.098088850166783578 -0.16700629557107341 0 -0.1023953877876435 -0.15903546935389351 0 -0.1119878388851908 -0.16231915977259129 0 -0.079873013630956835 -0.17374950274023659 0 -0.098088850166783578 -0.16700629557107341 0 -0.1039428787252024 -0.18306303235069041 0 -0.1039428787252024 -0.18306303235069041 0 -0.11859204859796291 -0.17560578940816099 0 -0.1119878388851908 -0.16231915977259129 0 -0.1039428787252024 -0.18306303235069041 0 -0.11859204859796291 -0.17560578940816099 0 -0.1280127438194481 -0.19237656196114411 0 -0.1023953877876435 -0.15903546935389351 0 -0.1119878388851908 -0.16231915977259129 0 -0.1169630623746598 -0.14907522687480429 0 -0.11859204859796291 -0.17560578940816099 0 -0.1119878388851908 -0.16231915977259129 0 -0.12588679133122799 -0.1624874708491951 0 -0.1119878388851908 -0.16231915977259129 0 -0.1169630623746598 -0.14907522687480429 0 -0.12588679133122799 -0.1624874708491951 0 -0.1119878388851908 -0.16231915977259129 0 -0.1169630623746598 -0.14907522687480429 0 -0.1023953877876435 -0.15903546935389351 0 -0.1169630623746598 -0.14907522687480429 0 -0.098894310772838973 -0.14952020789867901 0 -0.1169630623746598 -0.14907522687480429 0 -0.098894310772838973 -0.14952020789867901 0 -0.1169630623746598 -0.14907522687480429 0 -0.098894310772838973 -0.14952020789867901 0 -0.1074786708911218 -0.1384404444482458 0 -0.088441251280713618 -0.1477167476767523 0 -0.098894310772838973 -0.14952020789867901 0 -0.095252038160572317 -0.1406191133899993 0 -0.098894310772838973 -0.14952020789867901 0 -0.095252038160572317 -0.1406191133899993 0 -0.1074786708911218 -0.1384404444482458 0 -0.093538562727787294 -0.15940564464812701 0 -0.1023953877876435 -0.15903546935389351 0 -0.098894310772838973 -0.14952020789867901 0 -0.1085913382140784 -0.11903379143832921 0 -0.095971306836852913 -0.13086642389395989 0 -0.1074786708911218 -0.1384404444482458 0 -0.095971306836852913 -0.13086642389395989 0 -0.095252038160572317 -0.1406191133899993 0 -0.1074786708911218 -0.1384404444482458 0 -0.1085913382140784 -0.11903379143832921 0 -0.1074786708911218 -0.1384404444482458 0 -0.12736410167423581 -0.1213878944680517 0 -0.1169630623746598 -0.14907522687480429 0 -0.1074786708911218 -0.1384404444482458 0 -0.12736410167423581 -0.1213878944680517 0 -0.1169630623746598 -0.14907522687480429 0 -0.12736410167423581 -0.1213878944680517 0 -0.13746664940214659 -0.13470709103134659 0 -0.12736410167423581 -0.1213878944680517 0 -0.14737054533773081 -0.1208951937003558 0 -0.1169630623746598 -0.14907522687480429 0 -0.13746664940214659 -0.13470709103134659 0 -0.12736410167423581 -0.1213878944680517 0 -0.1569759497016511 -0.14808982533941309 0 -0.14737054533773081 -0.1208951937003558 0 -0.13746664940214659 -0.13470709103134659 0 -0.1569759497016511 -0.14808982533941309 0 -0.14737054533773081 -0.1208951937003558 0 -0.1369695060381555 -0.1485825261071109 0 -0.1526603788815559 -0.1573596194762775 0 -0.1569759497016511 -0.14808982533941309 0 -0.13746664940214659 -0.13470709103134659 0 -0.1369695060381555 -0.1485825261071109 0 -0.1569759497016511 -0.14808982533941309 0 -0.1369695060381555 -0.1485825261071109 0 -0.1569759497016511 -0.14808982533941309 0 -0.1169630623746598 -0.14907522687480429 0 -0.1369695060381555 -0.1485825261071109 0 -0.1169630623746598 -0.14907522687480429 0 -0.1369695060381555 -0.1485825261071109 0 -0.12588679133122799 -0.1624874708491951 0 -0.1169630623746598 -0.14907522687480429 0 -0.13746664940214659 -0.13470709103134659 0 -0.1369695060381555 -0.1485825261071109 0 -0.11859204859796291 -0.17560578940816099 0 -0.12588679133122799 -0.1624874708491951 0 -0.13147554750711021 -0.17522771154146191 0 -0.12588679133122799 -0.1624874708491951 0 -0.13147554750711021 -0.17522771154146191 0 -0.14107140235061469 -0.16358211752318311 0 -0.13147554750711021 -0.17522771154146191 0 -0.14520517551865919 -0.17294749126987599 0 -0.14107140235061469 -0.16358211752318311 0 -0.1369695060381555 -0.1485825261071109 0 -0.12588679133122799 -0.1624874708491951 0 -0.14107140235061469 -0.16358211752318311 0 -0.11859204859796291 -0.17560578940816099 0 -0.13147554750711021 -0.17522771154146191 0 -0.1280127438194481 -0.19237656196114411 0 -0.13147554750711021 -0.17522771154146191 0 -0.1398254013782112 -0.18365029146927231 0 -0.1280127438194481 -0.19237656196114411 0 -0.13147554750711021 -0.17522771154146191 0 -0.1398254013782112 -0.18365029146927231 0 -0.14520517551865919 -0.17294749126987599 0 -0.1398254013782112 -0.18365029146927231 0 -0.14820117369214661 -0.18035874543477601 0 -0.1498687104188495 -0.18767128888863599 0 -0.1398254013782112 -0.18365029146927231 0 -0.14820117369214661 -0.18035874543477601 0 -0.14520517551865919 -0.17294749126987599 0 -0.14820117369214661 -0.18035874543477601 0 -0.14520517551865919 -0.17294749126987599 0 -0.1568216795970071 -0.17538216601134321 0 -0.14820117369214661 -0.18035874543477601 0 -0.15608754076248521 -0.18190001438557629 0 -0.1568216795970071 -0.17538216601134321 0 -0.14520517551865919 -0.17294749126987599 0 -0.15263532751206779 -0.16758471640843459 0 -0.1568216795970071 -0.17538216601134321 0 -0.14820117369214661 -0.18035874543477601 0 -0.15608754076248521 -0.18190001438557629 0 -0.1498687104188495 -0.18767128888863599 0 -0.15608754076248521 -0.18190001438557629 0 -0.1607184616130248 -0.18728683910860641 0 -0.1498687104188495 -0.18767128888863599 0 -0.1369695060381555 -0.1485825261071109 0 -0.14107140235061469 -0.16358211752318311 0 -0.1526603788815559 -0.1573596194762775 0 -0.14520517551865919 -0.17294749126987599 0 -0.14107140235061469 -0.16358211752318311 0 -0.15263532751206779 -0.16758471640843459 0 -0.15263532751206779 -0.16758471640843459 0 -0.1526603788815559 -0.1573596194762775 0 -0.16142564196989831 -0.16655703171874039 0 -0.14107140235061469 -0.16358211752318311 0 -0.15263532751206779 -0.16758471640843459 0 -0.1526603788815559 -0.1573596194762775 0 -0.1526603788815559 -0.1573596194762775 0 -0.16142564196989831 -0.16655703171874039 0 -0.16326087804426159 -0.16588359066980229 0 -0.16326087804426159 -0.16588359066980229 0 -0.1569759497016511 -0.14808982533941309 0 -0.1526603788815559 -0.1573596194762775 0 -0.16326087804426159 -0.16588359066980229 0 -0.1569759497016511 -0.14808982533941309 0 -0.1594122663447772 -0.17133307891758459 0 -0.16142564196989831 -0.16655703171874039 0 -0.16676641630013581 -0.17580840153182001 0 -0.15263532751206779 -0.16758471640843459 0 -0.1594122663447772 -0.17133307891758459 0 -0.16142564196989831 -0.16655703171874039 0 -0.16142564196989831 -0.16655703171874039 0 -0.16326087804426159 -0.16588359066980229 0 -0.16676641630013581 -0.17580840153182001 0 -0.15263532751206779 -0.16758471640843459 0 -0.1594122663447772 -0.17133307891758459 0 -0.1568216795970071 -0.17538216601134321 0 -0.16142564196989831 -0.16655703171874039 0 -0.16326087804426159 -0.16588359066980229 0 -0.16326087804426159 -0.16588359066980229 0 -0.16676641630013581 -0.17580840153182001 0 -0.1783922457352059 -0.17293489930968209 0 -0.16326087804426159 -0.16588359066980229 0 -0.16676641630013581 -0.17580840153182001 0 -0.15608754076248521 -0.18190001438557629 0 -0.1607184616130248 -0.18728683910860641 0 -0.16676641630013581 -0.17580840153182001 0 -0.15608754076248521 -0.18190001438557629 0 -0.1568216795970071 -0.17538216601134321 0 -0.16676641630013581 -0.17580840153182001 0 -0.1594122663447772 -0.17133307891758459 0 -0.1568216795970071 -0.17538216601134321 0 -0.16676641630013581 -0.17580840153182001 0 -0.1607184616130248 -0.18728683910860641 0 -0.16676641630013581 -0.17580840153182001 0 -0.17547527524387041 -0.1884338249559952 0 -0.17547527524387041 -0.1884338249559952 0 -0.1969820185962792 -0.17828497948479149 0 -0.1783922457352059 -0.17293489930968209 0 -0.17547527524387041 -0.1884338249559952 0 -0.1969820185962792 -0.17828497948479149 0 -0.16676641630013581 -0.17580840153182001 0 -0.1783922457352059 -0.17293489930968209 0 -0.17547527524387041 -0.1884338249559952 0 -0.16326087804426159 -0.16588359066980229 0 -0.18947664049148261 -0.1562636999060015 0 -0.16326087804426159 -0.16588359066980229 0 -0.18633417632017751 -0.14736681724080919 0 -0.18947664049148261 -0.1562636999060015 0 -0.16326087804426159 -0.16588359066980229 0 -0.1783922457352059 -0.17293489930968209 0 -0.18947664049148261 -0.1562636999060015 0 -0.18633417632017751 -0.14736681724080919 0 -0.16621773075288121 -0.1295318635244681 0 -0.18400621351090571 -0.1217110611121094 0 -0.16621773075288121 -0.1295318635244681 0 -0.1569759497016511 -0.14808982533941309 0 -0.14737054533773081 -0.1208951937003558 0 -0.18633417632017751 -0.14736681724080919 0 -0.16621773075288121 -0.1295318635244681 0 -0.1569759497016511 -0.14808982533941309 0 -0.18633417632017751 -0.14736681724080919 0 -0.1569759497016511 -0.14808982533941309 0 -0.16326087804426159 -0.16588359066980229 0 -0.18633417632017751 -0.14736681724080919 0 -0.1569759497016511 -0.14808982533941309 0 -0.1377523016625678 -0.25581657194563601 0 -0.15263230708737521 -0.24356194903458239 0 -0.13476861079800859 -0.2391754021203874 0 -0.15263230708737521 -0.24356194903458239 0 -0.13476861079800859 -0.2391754021203874 0 -0.14055595197029169 -0.22979662500526149 0 -0.1377523016625678 -0.25581657194563601 0 -0.1223681628105569 -0.24044891992886891 0 -0.13476861079800859 -0.2391754021203874 0 -0.1377523016625678 -0.25581657194563601 0 -0.1223681628105569 -0.24044891992886891 0 -0.1238233973506119 -0.23541481827178831 0 -0.13476861079800859 -0.2391754021203874 0 -0.13139441447274411 -0.22962184130071481 0 -0.1223681628105569 -0.24044891992886891 0 -0.1238233973506119 -0.23541481827178831 0 -0.13476861079800859 -0.2391754021203874 0 -0.13476861079800859 -0.2391754021203874 0 -0.14055595197029169 -0.22979662500526149 0 -0.13139441447274411 -0.22962184130071481 0 -0.12407830270498089 -0.22426790937284519 0 -0.1238233973506119 -0.23541481827178831 0 -0.13139441447274411 -0.22962184130071481 0 -0.12407830270498089 -0.22426790937284519 0 -0.13139441447274411 -0.22962184130071481 0 -0.13441394179160859 -0.22010184774946731 0 -0.14055595197029169 -0.22979662500526149 0 -0.13139441447274411 -0.22962184130071481 0 -0.13441394179160859 -0.22010184774946731 0 -0.14055595197029169 -0.22979662500526149 0 -0.13441394179160859 -0.22010184774946731 0 -0.14940536450650499 -0.21373664043116339 0 -0.15263230708737521 -0.24356194903458239 0 -0.14940536450650499 -0.21373664043116339 0 -0.15263230708737521 -0.24356194903458239 0 -0.14940536450650499 -0.21373664043116339 0 -0.16621803193972459 -0.22739125443424221 0 -0.15263230708737521 -0.24356194903458239 0 -0.14055595197029169 -0.22979662500526149 0 -0.14940536450650499 -0.21373664043116339 0 -0.14940536450650499 -0.21373664043116339 0 -0.13246178853905299 -0.20873151589840269 0 -0.1539685318914617 -0.1985826704271989 0 -0.13246178853905299 -0.20873151589840269 0 -0.1539685318914617 -0.1985826704271989 0 -0.13441394179160859 -0.22010184774946731 0 -0.14940536450650499 -0.21373664043116339 0 -0.13246178853905299 -0.20873151589840269 0 -0.12407830270498089 -0.22426790937284519 0 -0.13441394179160859 -0.22010184774946731 0 -0.13246178853905299 -0.20873151589840269 0 -0.1178174188303993 -0.20556040013348681 0 -0.13246178853905299 -0.20873151589840269 0 -0.1280127438194481 -0.19237656196114411 0 -0.13246178853905299 -0.20873151589840269 0 -0.1280127438194481 -0.19237656196114411 0 -0.14041115317576749 -0.19424917250638599 0 -0.1398254013782112 -0.18365029146927231 0 -0.1280127438194481 -0.19237656196114411 0 -0.14041115317576749 -0.19424917250638599 0 -0.13246178853905299 -0.20873151589840269 0 -0.14041115317576749 -0.19424917250638599 0 -0.1539685318914617 -0.1985826704271989 0 -0.14041115317576749 -0.19424917250638599 0 -0.1539685318914617 -0.1985826704271989 0 -0.1498687104188495 -0.18767128888863599 0 -0.1398254013782112 -0.18365029146927231 0 -0.14041115317576749 -0.19424917250638599 0 -0.1498687104188495 -0.18767128888863599 0 -0.1607184616130248 -0.18728683910860641 0 -0.1539685318914617 -0.1985826704271989 0 -0.1498687104188495 -0.18767128888863599 0 -0.1607184616130248 -0.18728683910860641 0 -0.1539685318914617 -0.1985826704271989 0 -0.17547527524387041 -0.1884338249559952 0 -0.1539685318914617 -0.1985826704271989 0 -0.17547527524387041 -0.1884338249559952 0 -0.16825702714884239 -0.20885775366498019 0 -0.1539685318914617 -0.1985826704271989 0 -0.17547527524387041 -0.1884338249559952 0 -0.17547527524387041 -0.1884338249559952 0 -0.18277425339256639 -0.2026996383603622 0 -0.16825702714884239 -0.20885775366498019 0 -0.17547527524387041 -0.1884338249559952 0 -0.18277425339256639 -0.2026996383603622 0 -0.1902080517791363 -0.1917922864575213 0 -0.18277425339256639 -0.2026996383603622 0 -0.16825702714884239 -0.20885775366498019 0 -0.18626938338499441 -0.22517712183416291 0 -0.14940536450650499 -0.21373664043116339 0 -0.1539685318914617 -0.1985826704271989 0 -0.16825702714884239 -0.20885775366498019 0 -0.14940536450650499 -0.21373664043116339 0 -0.16825702714884239 -0.20885775366498019 0 -0.16621803193972459 -0.22739125443424221 0 -0.16825702714884239 -0.20885775366498019 0 -0.16621803193972459 -0.22739125443424221 0 -0.18626938338499441 -0.22517712183416291 0 -0.16621803193972459 -0.22739125443424221 0 -0.18626938338499441 -0.22517712183416291 0 -0.1745260775709061 -0.24562280720632229 0 -0.18626938338499441 -0.22517712183416291 0 -0.1745260775709061 -0.24562280720632229 0 -0.19988453840298659 -0.24176205441804 0 -0.18626938338499441 -0.22517712183416291 0 -0.1745260775709061 -0.24562280720632229 0 -0.15263230708737521 -0.24356194903458239 0 -0.16621803193972459 -0.22739125443424221 0 -0.1745260775709061 -0.24562280720632229 0 -0.1689202540561075 -0.25519621835756329 0 -0.15263230708737521 -0.24356194903458239 0 -0.1745260775709061 -0.24562280720632229 0 -0.21854221021918649 -0.25236034283526498 0 -0.19988453840298659 -0.24176205441804 0 -0.21493562756427159 -0.22243862284749449 0 -0.19160736129165659 -0.25262396586623759 0 -0.1745260775709061 -0.24562280720632229 0 -0.19988453840298659 -0.24176205441804 0 -0.18626938338499441 -0.22517712183416291 0 -0.19988453840298659 -0.24176205441804 0 -0.21493562756427159 -0.22243862284749449 0 -0.21493562756427159 -0.22243862284749449 0 -0.19801268919908249 -0.2047314364620034 0 -0.21541309520260529 -0.20113031717637361 0 -0.18626938338499441 -0.22517712183416291 0 -0.19801268919908249 -0.2047314364620034 0 -0.18277425339256639 -0.2026996383603622 0 -0.18626938338499441 -0.22517712183416291 0 -0.19801268919908249 -0.2047314364620034 0 -0.18626938338499441 -0.22517712183416291 0 -0.21493562756427159 -0.22243862284749449 0 -0.19801268919908249 -0.2047314364620034 0 -0.19801268919908249 -0.2047314364620034 0 -0.1902080517791363 -0.1917922864575213 0 -0.20975599501317069 -0.18428575108984399 0 -0.18277425339256639 -0.2026996383603622 0 -0.19801268919908249 -0.2047314364620034 0 -0.1902080517791363 -0.1917922864575213 0 -0.21541309520260529 -0.20113031717637361 0 -0.20975599501317069 -0.18428575108984399 0 -0.229896455205026 -0.18225842567294781 0 -0.19801268919908249 -0.2047314364620034 0 -0.21541309520260529 -0.20113031717637361 0 -0.20975599501317069 -0.18428575108984399 0 -0.19801268919908249 -0.2047314364620034 0 -0.20975599501317069 -0.18428575108984399 0 -0.21541309520260529 -0.20113031717637361 0 -0.23384346774119599 -0.2034651679104556 0 -0.229896455205026 -0.18225842567294781 0 -0.24262172765942899 -0.19089247064050549 0 -0.25644706280453389 -0.1995927939493197 0 -0.25029992488695979 -0.1782534950292988 0 -0.24262172765942899 -0.19089247064050549 0 -0.23384346774119599 -0.2034651679104556 0 -0.25644706280453389 -0.1995927939493197 0 -0.24262172765942899 -0.19089247064050549 0 -0.23384346774119599 -0.2034651679104556 0 -0.229896455205026 -0.18225842567294781 0 -0.23384346774119599 -0.2034651679104556 0 -0.2377451423251814 -0.23136366228574551 0 -0.25674041691710447 -0.22108212323078871 0 -0.23384346774119599 -0.2034651679104556 0 -0.25674041691710447 -0.22108212323078871 0 -0.25644706280453389 -0.1995927939493197 0 -0.21493562756427159 -0.22243862284749449 0 -0.21541309520260529 -0.20113031717637361 0 -0.23384346774119599 -0.2034651679104556 0 -0.21493562756427159 -0.22243862284749449 0 -0.23384346774119599 -0.2034651679104556 0 -0.2377451423251814 -0.23136366228574551 0 -0.24465976002352091 -0.25387891845332877 0 -0.2377451423251814 -0.23136366228574551 0 -0.25992972331208369 -0.2410680052130979 0 -0.24465976002352091 -0.25387891845332877 0 -0.21854221021918649 -0.25236034283526498 0 -0.2377451423251814 -0.23136366228574551 0 -0.21854221021918649 -0.25236034283526498 0 -0.21493562756427159 -0.22243862284749449 0 -0.2377451423251814 -0.23136366228574551 0 -0.21854221021918649 -0.25236034283526498 0 -0.2377451423251814 -0.23136366228574551 0 -0.21569240293870359 -0.1466438091422006 0 -0.18947664049148261 -0.1562636999060015 0 -0.2105647825198341 -0.15627799774793921 0 -0.2105647825198341 -0.15627799774793921 0 -0.22149930082725899 -0.1638400657176845 0 -0.22047208921520459 -0.14652609931143951 0 -0.21569240293870359 -0.1466438091422006 0 -0.2105647825198341 -0.15627799774793921 0 -0.22047208921520459 -0.14652609931143951 0 -0.21569240293870359 -0.1466438091422006 0 -0.22047208921520459 -0.14652609931143951 0 -0.20228853596836749 -0.13187567246267581 0 -0.2244809527826766 -0.1321180186971766 0 -0.2129261089666101 -0.1196792574727195 0 -0.21569240293870359 -0.1466438091422006 0 -0.20228853596836749 -0.13187567246267581 0 -0.2244809527826766 -0.1321180186971766 0 -0.18633417632017751 -0.14736681724080919 0 -0.20228853596836749 -0.13187567246267581 0 -0.18400621351090571 -0.1217110611121094 0 -0.21569240293870359 -0.1466438091422006 0 -0.18947664049148261 -0.1562636999060015 0 -0.18633417632017751 -0.14736681724080919 0 -0.21569240293870359 -0.1466438091422006 0 -0.18947664049148261 -0.1562636999060015 0 -0.18633417632017751 -0.14736681724080919 0 -0.21569240293870359 -0.1466438091422006 0 -0.18633417632017751 -0.14736681724080919 0 -0.21569240293870359 -0.1466438091422006 0 -0.20228853596836749 -0.13187567246267581 0 -0.1783922457352059 -0.17293489930968209 0 -0.18947664049148261 -0.1562636999060015 0 -0.1969820185962792 -0.17828497948479149 0 -0.18947664049148261 -0.1562636999060015 0 -0.1969820185962792 -0.17828497948479149 0 -0.20568347912652049 -0.16811631466237001 0 -0.18947664049148261 -0.1562636999060015 0 -0.20568347912652049 -0.16811631466237001 0 -0.2105647825198341 -0.15627799774793921 0 -0.1902080517791363 -0.1917922864575213 0 -0.1969820185962792 -0.17828497948479149 0 -0.20975599501317069 -0.18428575108984399 0 -0.17547527524387041 -0.1884338249559952 0 -0.1902080517791363 -0.1917922864575213 0 -0.1969820185962792 -0.17828497948479149 0 -0.20975599501317069 -0.18428575108984399 0 -0.22149930082725899 -0.1638400657176845 0 -0.20975599501317069 -0.18428575108984399 0 -0.20568347912652049 -0.16811631466237001 0 -0.22149930082725899 -0.1638400657176845 0 -0.1969820185962792 -0.17828497948479149 0 -0.20975599501317069 -0.18428575108984399 0 -0.20568347912652049 -0.16811631466237001 0 -0.20568347912652049 -0.16811631466237001 0 -0.2105647825198341 -0.15627799774793921 0 -0.22149930082725899 -0.1638400657176845 0 -0.22149930082725899 -0.1638400657176845 0 -0.2402834514435094 -0.1667894474332684 0 -0.2341322288468432 -0.15422277024092529 0 -0.22149930082725899 -0.1638400657176845 0 -0.229896455205026 -0.18225842567294781 0 -0.2402834514435094 -0.1667894474332684 0 -0.20975599501317069 -0.18428575108984399 0 -0.22149930082725899 -0.1638400657176845 0 -0.229896455205026 -0.18225842567294781 0 -0.229896455205026 -0.18225842567294781 0 -0.2402834514435094 -0.1667894474332684 0 -0.25029992488695979 -0.1782534950292988 0 -0.24262172765942899 -0.19089247064050549 0 -0.229896455205026 -0.18225842567294781 0 -0.25029992488695979 -0.1782534950292988 0 -0.2402834514435094 -0.1667894474332684 0 -0.25029992488695979 -0.1782534950292988 0 -0.25761979100978533 -0.16665415002795461 0 -0.2402834514435094 -0.1667894474332684 0 -0.24825300788518309 -0.1555077779107997 0 -0.25761979100978533 -0.16665415002795461 0 -0.2402834514435094 -0.1667894474332684 0 -0.24825300788518309 -0.1555077779107997 0 -0.2341322288468432 -0.15422277024092529 0 -0.24825300788518309 -0.1555077779107997 0 -0.2405789555143194 -0.1375116727892334 0 -0.25601133851015478 -0.1487044986697981 0 -0.24825300788518309 -0.1555077779107997 0 -0.2341322288468432 -0.15422277024092529 0 -0.2405789555143194 -0.1375116727892334 0 -0.21569240293870359 -0.1466438091422006 0 -0.22047208921520459 -0.14652609931143951 0 -0.2405789555143194 -0.1375116727892334 0 -0.22149930082725899 -0.1638400657176845 0 -0.2341322288468432 -0.15422277024092529 0 -0.22047208921520459 -0.14652609931143951 0 -0.21569240293870359 -0.1466438091422006 0 -0.2405789555143194 -0.1375116727892334 0 -0.2341322288468432 -0.15422277024092529 0 -0.22047208921520459 -0.14652609931143951 0 -0.2405789555143194 -0.1375116727892334 0 -0.21569240293870359 -0.1466438091422006 0 -0.2244809527826766 -0.1321180186971766 0 -0.2405789555143194 -0.1375116727892334 0 -0.2244809527826766 -0.1321180186971766 0 -0.2405789555143194 -0.1375116727892334 0 -0.23651179230599079 -0.1199754775459997 0 -0.2405789555143194 -0.1375116727892334 0 -0.23651179230599079 -0.1199754775459997 0 -0.25054446979338107 -0.12912519928877991 0 -0.23651179230599079 -0.1199754775459997 0 -0.24959534238117709 -0.1078054475449232 0 -0.26009747564537128 -0.1202716976192799 0 -0.23651179230599079 -0.1199754775459997 0 -0.26009747564537128 -0.1202716976192799 0 -0.23651179230599079 -0.1199754775459997 0 -0.26009747564537128 -0.1202716976192799 0 -0.25054446979338107 -0.12912519928877991 0 -0.23651179230599079 -0.1199754775459997 0 -0.24959534238117709 -0.1078054475449232 0 -0.23746734258601571 -0.1067534300414448 0 -0.24098124084432149 -0.095291905336151436 0 -0.23746734258601571 -0.1067534300414448 0 -0.22473934926471251 -0.1042306158888877 0 -0.24959534238117709 -0.1078054475449232 0 -0.24098124084432149 -0.095291905336151436 0 -0.25687551172258971 -0.095275519396915032 0 -0.24959534238117709 -0.1078054475449232 0 -0.24098124084432149 -0.095291905336151436 0 -0.23746734258601571 -0.1067534300414448 0 -0.22473934926471251 -0.1042306158888877 0 -0.22774604229393439 -0.087804120453188278 0 -0.20897213189474381 -0.093424031558921927 0 -0.24098124084432149 -0.095291905336151436 0 -0.22473934926471251 -0.1042306158888877 0 -0.22774604229393439 -0.087804120453188278 0 -0.2244809527826766 -0.1321180186971766 0 -0.23651179230599079 -0.1199754775459997 0 -0.2129261089666101 -0.1196792574727195 0 -0.23651179230599079 -0.1199754775459997 0 -0.2129261089666101 -0.1196792574727195 0 -0.23651179230599079 -0.1199754775459997 0 -0.23746734258601571 -0.1067534300414448 0 -0.22473934926471251 -0.1042306158888877 0 -0.23651179230599079 -0.1199754775459997 0 -0.22473934926471251 -0.1042306158888877 0 -0.2129261089666101 -0.1196792574727195 0 -0.2466384096447127 -0.069214282175018252 0 -0.23144064811545881 -0.071679072189906365 0 -0.24006258296416741 -0.059977364163272567 0 -0.2466384096447127 -0.069214282175018252 0 -0.23867713564867771 -0.0818228939715063 0 -0.25106785873748549 -0.083001848322642804 0 -0.2466384096447127 -0.069214282175018252 0 -0.23867713564867771 -0.0818228939715063 0 -0.23144064811545881 -0.071679072189906365 0 -0.24098124084432149 -0.095291905336151436 0 -0.25106785873748549 -0.083001848322642804 0 -0.25687551172258971 -0.095275519396915032 0 -0.24098124084432149 -0.095291905336151436 0 -0.23867713564867771 -0.0818228939715063 0 -0.25106785873748549 -0.083001848322642804 0 -0.24098124084432149 -0.095291905336151436 0 -0.23867713564867771 -0.0818228939715063 0 -0.22774604229393439 -0.087804120453188278 0 -0.22048160989483939 -0.080833284582646742 0 -0.22774604229393439 -0.087804120453188278 0 -0.23144064811545881 -0.071679072189906365 0 -0.23867713564867771 -0.0818228939715063 0 -0.22774604229393439 -0.087804120453188278 0 -0.23144064811545881 -0.071679072189906365 0 -0.22048160989483939 -0.080833284582646742 0 -0.22774604229393439 -0.087804120453188278 0 -0.20897213189474381 -0.093424031558921927 0 -0.23144064811545881 -0.071679072189906365 0 -0.2137676172752207 -0.070425914128570383 0 -0.21856310265569601 -0.047427796698218422 0 -0.22048160989483939 -0.080833284582646742 0 -0.23144064811545881 -0.071679072189906365 0 -0.2137676172752207 -0.070425914128570383 0 -0.23144064811545881 -0.071679072189906365 0 -0.23092663332862359 -0.057189961691847993 0 -0.24006258296416741 -0.059977364163272567 0 -0.20335705558913081 -0.063140738221072371 0 -0.2137676172752207 -0.070425914128570383 0 -0.20224544779007569 -0.076575791796341275 0 -0.2137676172752207 -0.070425914128570383 0 -0.20897213189474381 -0.093424031558921927 0 -0.20224544779007569 -0.076575791796341275 0 -0.2137676172752207 -0.070425914128570383 0 -0.20897213189474381 -0.093424031558921927 0 -0.22048160989483939 -0.080833284582646742 0 -0.2137676172752207 -0.070425914128570383 0 -0.20897213189474381 -0.093424031558921927 0 -0.20897213189474381 -0.093424031558921927 0 -0.18864483179057751 -0.079783658531738119 0 -0.20224544779007569 -0.076575791796341275 0 -0.20897213189474381 -0.093424031558921927 0 -0.18864483179057751 -0.079783658531738119 0 -0.1843208979706715 -0.098582101900239388 0 -0.20335705558913081 -0.063140738221072371 0 -0.18864483179057751 -0.079783658531738119 0 -0.20224544779007569 -0.076575791796341275 0 -0.20335705558913081 -0.063140738221072371 0 -0.18864483179057751 -0.079783658531738119 0 -0.20335705558913081 -0.063140738221072371 0 -0.18864483179057751 -0.079783658531738119 0 -0.18476368522970901 -0.060313507398174523 0 -0.22473934926471251 -0.1042306158888877 0 -0.2129261089666101 -0.1196792574727195 0 -0.1994025973422491 -0.10829052452779669 0 -0.20228853596836749 -0.13187567246267581 0 -0.2129261089666101 -0.1196792574727195 0 -0.1994025973422491 -0.10829052452779669 0 -0.22473934926471251 -0.1042306158888877 0 -0.20897213189474381 -0.093424031558921927 0 -0.1994025973422491 -0.10829052452779669 0 -0.20897213189474381 -0.093424031558921927 0 -0.1994025973422491 -0.10829052452779669 0 -0.1843208979706715 -0.098582101900239388 0 -0.20228853596836749 -0.13187567246267581 0 -0.1994025973422491 -0.10829052452779669 0 -0.18400621351090571 -0.1217110611121094 0 -0.1994025973422491 -0.10829052452779669 0 -0.18400621351090571 -0.1217110611121094 0 -0.1843208979706715 -0.098582101900239388 0 -0.16621773075288121 -0.1295318635244681 0 -0.18400621351090571 -0.1217110611121094 0 -0.16647442841019139 -0.11035058163789351 0 -0.18400621351090571 -0.1217110611121094 0 -0.16647442841019139 -0.11035058163789351 0 -0.1843208979706715 -0.098582101900239388 0 -0.16621773075288121 -0.1295318635244681 0 -0.16647442841019139 -0.11035058163789351 0 -0.14737054533773081 -0.1208951937003558 0 -0.16647442841019139 -0.11035058163789351 0 -0.16521255597131029 -0.094363556792246006 0 -0.15171862691764881 -0.097019712797942706 0 -0.16647442841019139 -0.11035058163789351 0 -0.16521255597131029 -0.094363556792246006 0 -0.1843208979706715 -0.098582101900239388 0 -0.16521255597131029 -0.094363556792246006 0 -0.1843208979706715 -0.098582101900239388 0 -0.1718657805157274 -0.077566403117392158 0 -0.18864483179057751 -0.079783658531738119 0 -0.1843208979706715 -0.098582101900239388 0 -0.1718657805157274 -0.077566403117392158 0 -0.18864483179057751 -0.079783658531738119 0 -0.1718657805157274 -0.077566403117392158 0 -0.18476368522970901 -0.060313507398174523 0 -0.1718657805157274 -0.077566403117392158 0 -0.16766997596840549 -0.055069670457126463 0 -0.18476368522970901 -0.060313507398174523 0 -0.1718657805157274 -0.077566403117392158 0 -0.1555984100513392 -0.067553704814911478 0 -0.16766997596840549 -0.055069670457126463 0 -0.1718657805157274 -0.077566403117392158 0 -0.15451520526235171 -0.083858215916353424 0 -0.1555984100513392 -0.067553704814911478 0 -0.16521255597131029 -0.094363556792246006 0 -0.1718657805157274 -0.077566403117392158 0 -0.15451520526235171 -0.083858215916353424 0 -0.16521255597131029 -0.094363556792246006 0 -0.15451520526235171 -0.083858215916353424 0 -0.15171862691764881 -0.097019712797942706 0 -0.15451520526235171 -0.083858215916353424 0 -0.14334301715898221 -0.074859018030624863 0 -0.13903100861317999 -0.090330850909877913 0 -0.15451520526235171 -0.083858215916353424 0 -0.13903100861317999 -0.090330850909877913 0 -0.15171862691764881 -0.097019712797942706 0 -0.1377651409738101 -0.093700562061298426 0 -0.13903100861317999 -0.090330850909877913 0 -0.15171862691764881 -0.097019712797942706 0 -0.15451520526235171 -0.083858215916353424 0 -0.1555984100513392 -0.067553704814911478 0 -0.14334301715898221 -0.074859018030624863 0 -0.1555984100513392 -0.067553704814911478 0 -0.14334301715898221 -0.074859018030624863 0 -0.13945189113323761 -0.059806177835795588 0 -0.14334301715898221 -0.074859018030624863 0 -0.12930964035960699 -0.069761515268982097 0 -0.13945189113323761 -0.059806177835795588 0 -0.12930964035960699 -0.069761515268982097 0 -0.1377651409738101 -0.093700562061298426 0 -0.12930964035960699 -0.069761515268982097 0 -0.1377651409738101 -0.093700562061298426 0 -0.13903100861317999 -0.090330850909877913 0 -0.1189291253072135 -0.086669643832799348 0 -0.12930964035960699 -0.069761515268982097 0 -0.1377651409738101 -0.093700562061298426 0 -0.14334301715898221 -0.074859018030624863 0 -0.12930964035960699 -0.069761515268982097 0 -0.13903100861317999 -0.090330850909877913 0 -0.1377651409738101 -0.093700562061298426 0 -0.13903100861317999 -0.090330850909877913 0 -0.11893842975153809 -0.10446969177473921 0 -0.1377651409738101 -0.093700562061298426 0 -0.12736410167423581 -0.1213878944680517 0 -0.1377651409738101 -0.093700562061298426 0 -0.12736410167423581 -0.1213878944680517 0 -0.11893842975153809 -0.10446969177473921 0 -0.1189291253072135 -0.086669643832799348 0 -0.1377651409738101 -0.093700562061298426 0 -0.1377651409738101 -0.093700562061298426 0 -0.12736410167423581 -0.1213878944680517 0 -0.14737054533773081 -0.1208951937003558 0 -0.16647442841019139 -0.11035058163789351 0 -0.14737054533773081 -0.1208951937003558 0 -0.15171862691764881 -0.097019712797942706 0 -0.1377651409738101 -0.093700562061298426 0 -0.14737054533773081 -0.1208951937003558 0 -0.15171862691764881 -0.097019712797942706 0 -0.1377651409738101 -0.093700562061298426 0 -0.14737054533773081 -0.1208951937003558 0 -0.14925834278157041 -0.027771983247297551 0 -0.15381676672243971 -0.0048344028756085976 0 -0.16158573310271521 -0.019122381719964599 0 -0.14925834278157041 -0.027771983247297551 0 -0.15381676672243971 -0.0048344028756085976 0 -0.14925834278157041 -0.027771983247297551 0 -0.13622810944285851 -0.025664644749336048 0 -0.13728148428220571 -0.03631729474545041 0 -0.15381676672243971 -0.0048344028756085976 0 -0.13373576905839379 -0.01378162565115138 0 -0.13796817939809339 -7.5853332940862265e-05 0 -0.14925834278157041 -0.027771983247297551 0 -0.15381676672243971 -0.0048344028756085976 0 -0.13373576905839379 -0.01378162565115138 0 -0.1244522405185825 -0.00038769298458709092 0 -0.1246368416492639 -0.024787675353444869 0 -0.13373576905839379 -0.01378162565115138 0 -0.1244522405185825 -0.00038769298458709092 0 -0.13373576905839379 -0.01378162565115138 0 -0.13796817939809339 -7.5853332940862265e-05 0 -0.1244522405185825 -0.00038769298458709092 0 -0.13373576905839379 -0.01378162565115138 0 -0.1246368416492639 -0.024787675353444869 0 -0.13373576905839379 -0.01378162565115138 0 -0.13622810944285851 -0.025664644749336048 0 -0.14925834278157041 -0.027771983247297551 0 -0.13373576905839379 -0.01378162565115138 0 -0.13622810944285851 -0.025664644749336048 0 -0.1246368416492639 -0.024787675353444869 0 -0.13622810944285851 -0.025664644749336048 0 -0.13728148428220571 -0.03631729474545041 0 -0.1248214427799455 -0.0491876577223027 0 -0.1246368416492639 -0.024787675353444869 0 -0.13067566527459321 -0.039597081228004503 0 -0.1246368416492639 -0.024787675353444869 0 -0.13067566527459321 -0.039597081228004503 0 -0.13728148428220571 -0.03631729474545041 0 -0.1248214427799455 -0.0491876577223027 0 -0.13067566527459321 -0.039597081228004503 0 -0.1359628923869578 -0.048095697090820053 0 -0.13067566527459321 -0.039597081228004503 0 -0.13728148428220571 -0.03631729474545041 0 -0.1359628923869578 -0.048095697090820053 0 -0.13728148428220571 -0.03631729474545041 0 -0.1359628923869578 -0.048095697090820053 0 -0.14767594406259391 -0.049379474087132447 0 -0.1248214427799455 -0.0491876577223027 0 -0.12930964035960699 -0.069761515268982097 0 -0.13945189113323761 -0.059806177835795588 0 -0.1208541397454049 -0.045822468476665427 0 -0.12930964035960699 -0.069761515268982097 0 -0.1248214427799455 -0.0491876577223027 0 -0.1359628923869578 -0.048095697090820053 0 -0.13945189113323761 -0.059806177835795588 0 -0.1555984100513392 -0.067553704814911478 0 -0.13945189113323761 -0.059806177835795588 0 -0.14767594406259391 -0.049379474087132447 0 -0.1359628923869578 -0.048095697090820053 0 -0.13945189113323761 -0.059806177835795588 0 -0.14767594406259391 -0.049379474087132447 0 -0.14925834278157041 -0.027771983247297551 0 -0.14767594406259391 -0.049379474087132447 0 -0.16346190388351911 -0.035477368974388322 0 -0.14925834278157041 -0.027771983247297551 0 -0.13728148428220571 -0.03631729474545041 0 -0.14767594406259391 -0.049379474087132447 0 -0.14767594406259391 -0.049379474087132447 0 -0.16346190388351911 -0.035477368974388322 0 -0.16766997596840549 -0.055069670457126463 0 -0.16346190388351911 -0.035477368974388322 0 -0.16766997596840549 -0.055069670457126463 0 -0.1792130821544009 -0.041655239440509813 0 -0.1555984100513392 -0.067553704814911478 0 -0.14767594406259391 -0.049379474087132447 0 -0.16766997596840549 -0.055069670457126463 0 -0.16766997596840549 -0.055069670457126463 0 -0.18476368522970901 -0.060313507398174523 0 -0.1792130821544009 -0.041655239440509813 0 -0.18476368522970901 -0.060313507398174523 0 -0.1792130821544009 -0.041655239440509813 0 -0.19607578221694649 -0.043845816873478577 0 -0.16346190388351911 -0.035477368974388322 0 -0.1792130821544009 -0.041655239440509813 0 -0.1747539590121796 -0.02148713112583673 0 -0.1792130821544009 -0.041655239440509813 0 -0.1747539590121796 -0.02148713112583673 0 -0.18874747204970219 -0.028974905836781941 0 -0.1747539590121796 -0.02148713112583673 0 -0.18814241231787171 -0.014961103822567131 0 -0.18874747204970219 -0.028974905836781941 0 -0.14925834278157041 -0.027771983247297551 0 -0.16346190388351911 -0.035477368974388322 0 -0.16158573310271521 -0.019122381719964599 0 -0.16346190388351911 -0.035477368974388322 0 -0.1747539590121796 -0.02148713112583673 0 -0.16158573310271521 -0.019122381719964599 0 -0.1747539590121796 -0.02148713112583673 0 -0.16158573310271521 -0.019122381719964599 0 -0.1670666400728934 -0.0075955490013497832 0 -0.15381676672243971 -0.0048344028756085976 0 -0.1670666400728934 -0.0075955490013497832 0 -0.16872927738725291 0.0066655648670224509 0 -0.15381676672243971 -0.0048344028756085976 0 -0.16158573310271521 -0.019122381719964599 0 -0.1670666400728934 -0.0075955490013497832 0 -0.1670666400728934 -0.0075955490013497832 0 -0.1785064095432054 -0.0066611219507198768 0 -0.16872927738725291 0.0066655648670224509 0 -0.1747539590121796 -0.02148713112583673 0 -0.1670666400728934 -0.0075955490013497832 0 -0.1785064095432054 -0.0066611219507198768 0 -0.1747539590121796 -0.02148713112583673 0 -0.1785064095432054 -0.0066611219507198768 0 -0.18814241231787171 -0.014961103822567131 0 -0.1785064095432054 -0.0066611219507198768 0 -0.18814241231787171 -0.014961103822567131 0 -0.193034969706537 0.00064734206737222756 0 -0.20555212454711219 -0.022925237921517471 0 -0.20993853639106591 -0.0035380738047605968 0 -0.193034969706537 0.00064734206737222756 0 -0.18814241231787171 -0.014961103822567131 0 -0.20555212454711219 -0.022925237921517471 0 -0.193034969706537 0.00064734206737222756 0 -0.20555212454711219 -0.022925237921517471 0 -0.193034969706537 0.00064734206737222756 0 -0.20993853639106591 -0.0035380738047605968 0 -0.193034969706537 0.00064734206737222756 0 -0.18814241231787171 -0.014961103822567131 0 -0.18874747204970219 -0.028974905836781941 0 -0.20555212454711219 -0.022925237921517471 0 -0.20555212454711219 -0.022925237921517471 0 -0.21630961893328751 -0.01519709454307171 0 -0.22290571171937651 -0.026601576769118469 0 -0.20993853639106591 -0.0035380738047605968 0 -0.22684210307559549 -0.0077234896768903086 0 -0.21568563774484731 0.0082874278720449449 0 -0.20993853639106591 -0.0035380738047605968 0 -0.21630961893328751 -0.01519709454307171 0 -0.22684210307559549 -0.0077234896768903086 0 -0.20555212454711219 -0.022925237921517471 0 -0.20993853639106591 -0.0035380738047605968 0 -0.21630961893328751 -0.01519709454307171 0 -0.20993853639106591 -0.0035380738047605968 0 -0.22684210307559549 -0.0077234896768903086 0 -0.20335705558913081 -0.063140738221072371 0 -0.18476368522970901 -0.060313507398174523 0 -0.19607578221694649 -0.043845816873478577 0 -0.1792130821544009 -0.041655239440509813 0 -0.18874747204970219 -0.028974905836781941 0 -0.19607578221694649 -0.043845816873478577 0 -0.18874747204970219 -0.028974905836781941 0 -0.20555212454711219 -0.022925237921517471 0 -0.19607578221694649 -0.043845816873478577 0 -0.20555212454711219 -0.022925237921517471 0 -0.21856310265569601 -0.047427796698218422 0 -0.20555212454711219 -0.022925237921517471 0 -0.21856310265569601 -0.047427796698218422 0 -0.21896932036315811 -0.045479663861346789 0 -0.20555212454711219 -0.022925237921517471 0 -0.19607578221694649 -0.043845816873478577 0 -0.21856310265569601 -0.047427796698218422 0 -0.20555212454711219 -0.022925237921517471 0 -0.21896932036315811 -0.045479663861346789 0 -0.22290571171937651 -0.026601576769118469 0 -0.2137676172752207 -0.070425914128570383 0 -0.21856310265569601 -0.047427796698218422 0 -0.20335705558913081 -0.063140738221072371 0 -0.2137676172752207 -0.070425914128570383 0 -0.21856310265569601 -0.047427796698218422 0 -0.20335705558913081 -0.063140738221072371 0 -0.19607578221694649 -0.043845816873478577 0 -0.21856310265569601 -0.047427796698218422 0 -0.20335705558913081 -0.063140738221072371 0 -0.21856310265569601 -0.047427796698218422 0 -0.23144064811545881 -0.071679072189906365 0 -0.21856310265569601 -0.047427796698218422 0 -0.23092663332862359 -0.057189961691847993 0 -0.23144064811545881 -0.071679072189906365 0 -0.21856310265569601 -0.047427796698218422 0 -0.21856310265569601 -0.047427796698218422 0 -0.23092663332862359 -0.057189961691847993 0 -0.22458774444026389 -0.046948698447319907 0 -0.23092663332862359 -0.057189961691847993 0 -0.2320274706224234 -0.04981915803055513 0 -0.23892230415514151 -0.050781370399802413 0 -0.23092663332862359 -0.057189961691847993 0 -0.22458774444026389 -0.046948698447319907 0 -0.2320274706224234 -0.04981915803055513 0 -0.21896932036315811 -0.045479663861346789 0 -0.2306307955349908 -0.032287844280089482 0 -0.22290571171937651 -0.026601576769118469 0 -0.21896932036315811 -0.045479663861346789 0 -0.22290571171937651 -0.026601576769118469 0 -0.22458774444026389 -0.046948698447319907 0 -0.2320274706224234 -0.04981915803055513 0 -0.23529860714157019 -0.041169280456794459 0 -0.22458774444026389 -0.046948698447319907 0 -0.2306307955349908 -0.032287844280089482 0 -0.23529860714157019 -0.041169280456794459 0 -0.22458774444026389 -0.046948698447319907 0 -0.21896932036315811 -0.045479663861346789 0 -0.2306307955349908 -0.032287844280089482 0 -0.21856310265569601 -0.047427796698218422 0 -0.22458774444026389 -0.046948698447319907 0 -0.21896932036315811 -0.045479663861346789 0 -0.21856310265569601 -0.047427796698218422 0 -0.21896932036315811 -0.045479663861346789 0 -0.21896932036315811 -0.045479663861346789 0 -0.2306307955349908 -0.032287844280089482 0 -0.2306307955349908 -0.032287844280089482 0 -0.23529860714157019 -0.041169280456794459 0 -0.241537864008738 -0.030171217790278881 0 -0.24798951326795751 -0.035882587373858313 0 -0.23529860714157019 -0.041169280456794459 0 -0.241537864008738 -0.030171217790278881 0 -0.24798951326795751 -0.035882587373858313 0 -0.24357205858261219 -0.044359355700093257 0 -0.23529860714157019 -0.041169280456794459 0 -0.24798951326795751 -0.035882587373858313 0 -0.24357205858261219 -0.044359355700093257 0 -0.25238491957690051 -0.051022134359787842 0 -0.24357205858261219 -0.044359355700093257 0 -0.23529860714157019 -0.041169280456794459 0 -0.23892230415514151 -0.050781370399802413 0 -0.2466384096447127 -0.069214282175018252 0 -0.24006258296416741 -0.059977364163272567 0 -0.25238491957690051 -0.051022134359787842 0 -0.2320274706224234 -0.04981915803055513 0 -0.23529860714157019 -0.041169280456794459 0 -0.23892230415514151 -0.050781370399802413 0 -0.23892230415514151 -0.050781370399802413 0 -0.24006258296416741 -0.059977364163272567 0 -0.25238491957690051 -0.051022134359787842 0 -0.24357205858261219 -0.044359355700093257 0 -0.23892230415514151 -0.050781370399802413 0 -0.25238491957690051 -0.051022134359787842 0 -0.23092663332862359 -0.057189961691847993 0 -0.23892230415514151 -0.050781370399802413 0 -0.24006258296416741 -0.059977364163272567 0 -0.21630961893328751 -0.01519709454307171 0 -0.22684210307559549 -0.0077234896768903086 0 -0.22290571171937651 -0.026601576769118469 0 -0.22684210307559549 -0.0077234896768903086 0 -0.22290571171937651 -0.026601576769118469 0 -0.23226271327452069 -0.02198020745377605 0 -0.22684210307559549 -0.0077234896768903086 0 -0.22290571171937651 -0.026601576769118469 0 -0.2306307955349908 -0.032287844280089482 0 -0.22290571171937651 -0.026601576769118469 0 -0.23226271327452069 -0.02198020745377605 0 -0.22684210307559549 -0.0077234896768903086 0 -0.23226271327452069 -0.02198020745377605 0 -0.24229227070682269 -0.019096024698831499 0 -0.2306307955349908 -0.032287844280089482 0 -0.241537864008738 -0.030171217790278881 0 -0.24229227070682269 -0.019096024698831499 0 -0.2306307955349908 -0.032287844280089482 0 -0.23226271327452069 -0.02198020745377605 0 -0.24229227070682269 -0.019096024698831499 0 -0.2306307955349908 -0.032287844280089482 0 -0.24229227070682269 -0.019096024698831499 0 -0.24798951326795751 -0.035882587373858313 0 -0.241537864008738 -0.030171217790278881 0 -0.25387676547985721 -0.02452441136234379 0 -0.241537864008738 -0.030171217790278881 0 -0.24229227070682269 -0.019096024698831499 0 -0.25387676547985721 -0.02452441136234379 0 -0.24229227070682269 -0.019096024698831499 0 -0.24826461013585729 -0.013027819984466921 0 -0.25387676547985721 -0.02452441136234379 0 -0.22684210307559549 -0.0077234896768903086 0 -0.24826461013585729 -0.013027819984466921 0 -0.24598119983726671 0.0037338506766126851 0 -0.22684210307559549 -0.0077234896768903086 0 -0.24229227070682269 -0.019096024698831499 0 -0.24826461013585729 -0.013027819984466921 0 -0.22684210307559549 -0.0077234896768903086 0 -0.24826461013585729 -0.013027819984466921 0 -0.24826461013585729 -0.013027819984466921 0 -0.26003022337954462 -0.0038093911555793728 0 -0.24598119983726671 0.0037338506766126851 0 -0.24826461013585729 -0.013027819984466921 0 -0.26003022337954462 -0.0038093911555793728 0 -0.26968711719611937 -0.018332150292041979 0 -0.24826461013585729 -0.013027819984466921 0 -0.26968711719611937 -0.018332150292041979 0 -0.25387676547985721 -0.02452441136234379 0 -0.26968711719611937 -0.018332150292041979 0 -0.26155562347943467 -0.037861138146123199 0 -0.24826461013585729 -0.013027819984466921 0 -0.25387676547985721 -0.02452441136234379 0 -0.26968711719611937 -0.018332150292041979 0 -0.26968711719611937 -0.018332150292041979 0 -0.28953187906397732 -0.034281883787379987 0 -0.27524211720584768 -0.038538427260779863 0 -0.26003022337954462 -0.0038093911555793728 0 -0.26968711719611937 -0.018332150292041979 0 -0.27433688946420332 -0.0007833753365484626 0 -0.26968711719611937 -0.018332150292041979 0 -0.27433688946420332 -0.0007833753365484626 0 -0.28631392786639209 -0.0070506759659385472 0 -0.28631392786639209 -0.0070506759659385472 0 -0.29653674479957171 -0.021015146411400301 0 -0.3025805037907468 -0.0027432771802810229 0 -0.28631392786639209 -0.0070506759659385472 0 -0.3025805037907468 -0.0027432771802810229 0 -0.28842838408131971 0.0076205693905790281 0 -0.27433688946420332 -0.0007833753365484626 0 -0.28631392786639209 -0.0070506759659385472 0 -0.28842838408131971 0.0076205693905790281 0 -0.26968711719611937 -0.018332150292041979 0 -0.28631392786639209 -0.0070506759659385472 0 -0.29653674479957171 -0.021015146411400301 0 -0.26968711719611937 -0.018332150292041979 0 -0.29653674479957171 -0.021015146411400301 0 -0.28953187906397732 -0.034281883787379987 0 -0.29653674479957171 -0.021015146411400301 0 -0.28953187906397732 -0.034281883787379987 0 -0.31718310516035308 -0.038172790333745737 0 -0.29653674479957171 -0.021015146411400301 0 -0.31459326366374579 -0.01532774276474733 0 -0.31718310516035308 -0.038172790333745737 0 -0.29653674479957171 -0.021015146411400301 0 -0.3025805037907468 -0.0027432771802810229 0 -0.31459326366374579 -0.01532774276474733 0 -0.30229462048881822 -0.056161209871372138 0 -0.29850594913894141 -0.055440370537233663 0 -0.30849544073550722 -0.074776909133231664 0 -0.30229462048881822 -0.056161209871372138 0 -0.29366820665513949 -0.048519954280836622 0 -0.31370341578724742 -0.051143824177853653 0 -0.30229462048881822 -0.056161209871372138 0 -0.29850594913894141 -0.055440370537233663 0 -0.29366820665513949 -0.048519954280836622 0 -0.30229462048881822 -0.056161209871372138 0 -0.31629816603535338 -0.060261719535131632 0 -0.30229462048881822 -0.056161209871372138 0 -0.31178497446605258 -0.064623658022855565 0 -0.31629816603535338 -0.060261719535131632 0 -0.30229462048881822 -0.056161209871372138 0 -0.31370341578724742 -0.051143824177853653 0 -0.31629816603535338 -0.060261719535131632 0 -0.29366820665513949 -0.048519954280836622 0 -0.31718310516035308 -0.038172790333745737 0 -0.29366820665513949 -0.048519954280836622 0 -0.31718310516035308 -0.038172790333745737 0 -0.31370341578724742 -0.051143824177853653 0 -0.28953187906397732 -0.034281883787379987 0 -0.29366820665513949 -0.048519954280836622 0 -0.31718310516035308 -0.038172790333745737 0 -0.28953187906397732 -0.034281883787379987 0 -0.29366820665513949 -0.048519954280836622 0 -0.27524211720584768 -0.038538427260779863 0 -0.29366820665513949 -0.048519954280836622 0 -0.27015330814992611 -0.058867118227927437 0 -0.29366820665513949 -0.048519954280836622 0 -0.28660483069534037 -0.061918496488246169 0 -0.27015330814992611 -0.058867118227927437 0 -0.29850594913894141 -0.055440370537233663 0 -0.28660483069534037 -0.061918496488246169 0 -0.29557893925590151 -0.069462416794053169 0 -0.29850594913894141 -0.055440370537233663 0 -0.29366820665513949 -0.048519954280836622 0 -0.28660483069534037 -0.061918496488246169 0 -0.29366820665513949 -0.048519954280836622 0 -0.27015330814992611 -0.058867118227927437 0 -0.27524211720584768 -0.038538427260779863 0 -0.26968711719611937 -0.018332150292041979 0 -0.27524211720584768 -0.038538427260779863 0 -0.26155562347943467 -0.037861138146123199 0 -0.27015330814992611 -0.058867118227927437 0 -0.27524211720584768 -0.038538427260779863 0 -0.26155562347943467 -0.037861138146123199 0 -0.24798951326795751 -0.035882587373858313 0 -0.26155562347943467 -0.037861138146123199 0 -0.25238491957690051 -0.051022134359787842 0 -0.24798951326795751 -0.035882587373858313 0 -0.25387676547985721 -0.02452441136234379 0 -0.26155562347943467 -0.037861138146123199 0 -0.27015330814992611 -0.058867118227927437 0 -0.26155562347943467 -0.037861138146123199 0 -0.25238491957690051 -0.051022134359787842 0 -0.2466384096447127 -0.069214282175018252 0 -0.27015330814992611 -0.058867118227927437 0 -0.25238491957690051 -0.051022134359787842 0 -0.2466384096447127 -0.069214282175018252 0 -0.27015330814992611 -0.058867118227927437 0 -0.26102584033089798 -0.073534373921212107 0 -0.2466384096447127 -0.069214282175018252 0 -0.27015330814992611 -0.058867118227927437 0 -0.2466384096447127 -0.069214282175018252 0 -0.26102584033089798 -0.073534373921212107 0 -0.25106785873748549 -0.083001848322642804 0 -0.25106785873748549 -0.083001848322642804 0 -0.26431637422662529 -0.083961298504163229 0 -0.25687551172258971 -0.095275519396915032 0 -0.26431637422662529 -0.083961298504163229 0 -0.25687551172258971 -0.095275519396915032 0 -0.26922948176741379 -0.094556007429682482 0 -0.26102584033089798 -0.073534373921212107 0 -0.25106785873748549 -0.083001848322642804 0 -0.26431637422662529 -0.083961298504163229 0 -0.26431637422662529 -0.083961298504163229 0 -0.27622487875609619 -0.085738752979791055 0 -0.27411142324960069 -0.07331497732508381 0 -0.26431637422662529 -0.083961298504163229 0 -0.27622487875609619 -0.085738752979791055 0 -0.26922948176741379 -0.094556007429682482 0 -0.27622487875609619 -0.085738752979791055 0 -0.26922948176741379 -0.094556007429682482 0 -0.28208733676033698 -0.099544680508420066 0 -0.27622487875609619 -0.085738752979791055 0 -0.27411142324960069 -0.07331497732508381 0 -0.28634330733871821 -0.075869823829162894 0 -0.28660483069534037 -0.061918496488246169 0 -0.27015330814992611 -0.058867118227927437 0 -0.27411142324960069 -0.07331497732508381 0 -0.27015330814992611 -0.058867118227927437 0 -0.26102584033089798 -0.073534373921212107 0 -0.27411142324960069 -0.07331497732508381 0 -0.26102584033089798 -0.073534373921212107 0 -0.26431637422662529 -0.083961298504163229 0 -0.27411142324960069 -0.07331497732508381 0 -0.24959534238117709 -0.1078054475449232 0 -0.26009747564537128 -0.1202716976192799 0 -0.26511094786836592 -0.1069062435210571 0 -0.24959534238117709 -0.1078054475449232 0 -0.26511094786836592 -0.1069062435210571 0 -0.25687551172258971 -0.095275519396915032 0 -0.26511094786836592 -0.1069062435210571 0 -0.25687551172258971 -0.095275519396915032 0 -0.26922948176741379 -0.094556007429682482 0 -0.26511094786836592 -0.1069062435210571 0 -0.27676276389741278 -0.11052104179975 0 -0.28208733676033698 -0.099544680508420066 0 -0.26511094786836592 -0.1069062435210571 0 -0.26922948176741379 -0.094556007429682482 0 -0.28208733676033698 -0.099544680508420066 0 -0.26511094786836592 -0.1069062435210571 0 -0.28208733676033698 -0.099544680508420066 0 -0.26009747564537128 -0.1202716976192799 0 -0.28368315898475188 -0.1205679176925603 0 -0.26697405985724948 -0.1304210152969853 0 -0.26009747564537128 -0.1202716976192799 0 -0.27676276389741278 -0.11052104179975 0 -0.28368315898475188 -0.1205679176925603 0 -0.26009747564537128 -0.1202716976192799 0 -0.28368315898475188 -0.1205679176925603 0 -0.26009747564537128 -0.1202716976192799 0 -0.26511094786836592 -0.1069062435210571 0 -0.27676276389741278 -0.11052104179975 0 -0.28368315898475188 -0.1205679176925603 0 -0.30807566230962469 -0.12087427087378499 0 -0.28368315898475188 -0.1205679176925603 0 -0.29137344231852969 -0.1063755175941712 0 -0.30807566230962469 -0.12087427087378499 0 -0.27676276389741278 -0.11052104179975 0 -0.28368315898475188 -0.1205679176925603 0 -0.29137344231852969 -0.1063755175941712 0 -0.28368315898475188 -0.1205679176925603 0 -0.29137344231852969 -0.1063755175941712 0 -0.29137344231852969 -0.1063755175941712 0 -0.28208733676033698 -0.099544680508420066 0 -0.29906372565230788 -0.092183117495782341 0 -0.28208733676033698 -0.099544680508420066 0 -0.29906372565230788 -0.092183117495782341 0 -0.27676276389741278 -0.11052104179975 0 -0.29137344231852969 -0.1063755175941712 0 -0.28208733676033698 -0.099544680508420066 0 -0.29137344231852969 -0.1063755175941712 0 -0.29906372565230788 -0.092183117495782341 0 -0.30690970986333499 -0.10413412755240679 0 -0.29906372565230788 -0.092183117495782341 0 -0.31411573014289268 -0.085656035662949492 0 -0.29137344231852969 -0.1063755175941712 0 -0.30690970986333499 -0.10413412755240679 0 -0.29906372565230788 -0.092183117495782341 0 -0.28368315898475188 -0.1205679176925603 0 -0.30807566230962469 -0.12087427087378499 0 -0.30140371581860798 -0.1292511186866305 0 -0.29137344231852969 -0.1063755175941712 0 -0.30690970986333499 -0.10413412755240679 0 -0.30807566230962469 -0.12087427087378499 0 -0.29557893925590151 -0.069462416794053169 0 -0.28634330733871821 -0.075869823829162894 0 -0.29528406594296941 -0.079953964946478426 0 -0.28660483069534037 -0.061918496488246169 0 -0.29557893925590151 -0.069462416794053169 0 -0.28634330733871821 -0.075869823829162894 0 -0.28660483069534037 -0.061918496488246169 0 -0.27411142324960069 -0.07331497732508381 0 -0.28634330733871821 -0.075869823829162894 0 -0.27622487875609619 -0.085738752979791055 0 -0.28634330733871821 -0.075869823829162894 0 -0.28693891673241251 -0.08747755748016231 0 -0.28208733676033698 -0.099544680508420066 0 -0.28693891673241251 -0.08747755748016231 0 -0.29906372565230788 -0.092183117495782341 0 -0.27622487875609619 -0.085738752979791055 0 -0.28208733676033698 -0.099544680508420066 0 -0.28693891673241251 -0.08747755748016231 0 -0.28693891673241251 -0.08747755748016231 0 -0.29528406594296941 -0.079953964946478426 0 -0.29906372565230788 -0.092183117495782341 0 -0.28634330733871821 -0.075869823829162894 0 -0.28693891673241251 -0.08747755748016231 0 -0.29528406594296941 -0.079953964946478426 0 -0.29528406594296941 -0.079953964946478426 0 -0.29906372565230788 -0.092183117495782341 0 -0.30849544073550722 -0.074776909133231664 0 -0.29906372565230788 -0.092183117495782341 0 -0.30849544073550722 -0.074776909133231664 0 -0.29906372565230788 -0.092183117495782341 0 -0.30849544073550722 -0.074776909133231664 0 -0.31411573014289268 -0.085656035662949492 0 -0.29906372565230788 -0.092183117495782341 0 -0.31411573014289268 -0.085656035662949492 0 -0.30849544073550722 -0.074776909133231664 0 -0.31411573014289268 -0.085656035662949492 0 -0.30229462048881822 -0.056161209871372138 0 -0.30849544073550722 -0.074776909133231664 0 -0.31178497446605258 -0.064623658022855565 0 -0.29850594913894141 -0.055440370537233663 0 -0.29557893925590151 -0.069462416794053169 0 -0.30849544073550722 -0.074776909133231664 0 -0.30849544073550722 -0.074776909133231664 0 -0.31286059459191501 -0.066721027791507209 0 -0.29850594913894141 -0.055440370537233663 0 -0.30849544073550722 -0.074776909133231664 0 -0.29557893925590151 -0.069462416794053169 0 -0.29528406594296941 -0.079953964946478426 0 -0.30849544073550722 -0.074776909133231664 0 -0.30849544073550722 -0.074776909133231664 0 -0.31178497446605258 -0.064623658022855565 0 -0.31286059459191501 -0.066721027791507209 0 -0.31178497446605258 -0.064623658022855565 0 -0.31286059459191501 -0.066721027791507209 0 -0.31286059459191501 -0.066721027791507209 0 -0.32103296817657878 -0.082656476452658639 0 -0.31286059459191501 -0.066721027791507209 0 -0.32103296817657878 -0.082656476452658639 0 -0.32352590008436471 -0.062378140209921912 0 -0.31178497446605258 -0.064623658022855565 0 -0.31286059459191501 -0.066721027791507209 0 -0.31629816603535338 -0.060261719535131632 0 -0.30849544073550722 -0.074776909133231664 0 -0.31286059459191501 -0.066721027791507209 0 -0.32103296817657878 -0.082656476452658639 0 -0.31286059459191501 -0.066721027791507209 0 -0.31629816603535338 -0.060261719535131632 0 -0.31286059459191501 -0.066721027791507209 0 -0.31629816603535338 -0.060261719535131632 0 -0.32352590008436471 -0.062378140209921912 0 -0.32103296817657878 -0.082656476452658639 0 -0.33093834944883532 -0.101971145942244 0 -0.30849544073550722 -0.074776909133231664 0 -0.31411573014289268 -0.085656035662949492 0 -0.32103296817657878 -0.082656476452658639 0 -0.31411573014289268 -0.085656035662949492 0 -0.32103296817657878 -0.082656476452658639 0 -0.32329194788869442 -0.1034183298589804 0 -0.31411573014289268 -0.085656035662949492 0 -0.32103296817657878 -0.082656476452658639 0 -0.32103296817657878 -0.082656476452658639 0 -0.33692687914299491 -0.089632102483736459 0 -0.33093834944883532 -0.101971145942244 0 -0.32103296817657878 -0.082656476452658639 0 -0.33692687914299491 -0.089632102483736459 0 -0.3453529791357649 -0.07211045902320197 0 -0.32103296817657878 -0.082656476452658639 0 -0.3453529791357649 -0.07211045902320197 0 -0.32352590008436471 -0.062378140209921912 0 -0.34475717967991132 -0.068595070548471249 0 -0.3453529791357649 -0.07211045902320197 0 -0.32352590008436471 -0.062378140209921912 0 -0.34475717967991132 -0.068595070548471249 0 -0.32352590008436471 -0.062378140209921912 0 -0.32103296817657878 -0.082656476452658639 0 -0.3453529791357649 -0.07211045902320197 0 -0.30807566230962469 -0.12087427087378499 0 -0.32329194788869442 -0.1034183298589804 0 -0.33246816563449738 -0.1211806240550105 0 -0.30807566230962469 -0.12087427087378499 0 -0.33246816563449738 -0.1211806240550105 0 -0.30807566230962469 -0.12087427087378499 0 -0.32007374605487132 -0.12494213909402439 0 -0.33246816563449738 -0.1211806240550105 0 -0.30690970986333499 -0.10413412755240679 0 -0.30807566230962469 -0.12087427087378499 0 -0.32329194788869442 -0.1034183298589804 0 -0.32329194788869442 -0.1034183298589804 0 -0.33246816563449738 -0.1211806240550105 0 -0.32007374605487132 -0.12494213909402439 0 -0.33441303965894859 -0.1249452932850653 0 -0.30690970986333499 -0.10413412755240679 0 -0.31411573014289268 -0.085656035662949492 0 -0.32329194788869442 -0.1034183298589804 0 -0.32103296817657878 -0.082656476452658639 0 -0.32329194788869442 -0.1034183298589804 0 -0.33093834944883532 -0.101971145942244 0 -0.31411573014289268 -0.085656035662949492 0 -0.32329194788869442 -0.1034183298589804 0 -0.32329194788869442 -0.1034183298589804 0 -0.33093834944883532 -0.101971145942244 0 -0.33246816563449738 -0.1211806240550105 0 -0.33692687914299491 -0.089632102483736459 0 -0.33093834944883532 -0.101971145942244 0 -0.35038321981080389 -0.10179032851684799 0 -0.33093834944883532 -0.101971145942244 0 -0.34773438721257438 -0.1121772477149196 0 -0.35038321981080389 -0.10179032851684799 0 -0.33093834944883532 -0.101971145942244 0 -0.3408437307210912 -0.1212858154318297 0 -0.33093834944883532 -0.101971145942244 0 -0.3408437307210912 -0.1212858154318297 0 -0.33246816563449738 -0.1211806240550105 0 -0.33093834944883532 -0.101971145942244 0 -0.3408437307210912 -0.1212858154318297 0 -0.34773438721257438 -0.1121772477149196 0 -0.34272140335036932 -0.124947120862287 0 -0.3408437307210912 -0.1212858154318297 0 -0.33441303965894859 -0.1249452932850653 0 -0.3408437307210912 -0.1212858154318297 0 -0.33246816563449738 -0.1211806240550105 0 -0.34272140335036932 -0.124947120862287 0 -0.33441303965894859 -0.1249452932850653 0 -0.34272140335036932 -0.124947120862287 0 -0.3408437307210912 -0.1212858154318297 0 -0.32007374605487132 -0.12494213909402439 0 -0.33441303965894859 -0.1249452932850653 0 -0.33246816563449738 -0.1211806240550105 0 -0.3408437307210912 -0.1212858154318297 0 -0.33441303965894859 -0.1249452932850653 0 -0.33246816563449738 -0.1211806240550105 0 -0.33441303965894859 -0.1249452932850653 0 -0.33246816563449738 -0.1211806240550105 0 -0.34272140335036932 -0.124947120862287 0 -0.35433435295871402 -0.1214552484327875 0 -0.36893450279197471 -0.1249528869149899 0 -0.34272140335036932 -0.124947120862287 0 -0.36893450279197471 -0.1249528869149899 0 -0.3408437307210912 -0.1212858154318297 0 -0.35433435295871402 -0.1214552484327875 0 -0.3408437307210912 -0.1212858154318297 0 -0.35433435295871402 -0.1214552484327875 0 -0.34773438721257438 -0.1121772477149196 0 -0.34272140335036932 -0.124947120862287 0 -0.3408437307210912 -0.1212858154318297 0 -0.35433435295871402 -0.1214552484327875 0 -0.35433435295871402 -0.1214552484327875 0 -0.34773438721257438 -0.1121772477149196 0 -0.3623387343604032 -0.1125517513480446 0 -0.34773438721257438 -0.1121772477149196 0 -0.35038321981080389 -0.10179032851684799 0 -0.3623387343604032 -0.1125517513480446 0 -0.37380044498630338 -0.100392191664622 0 -0.3623387343604032 -0.1125517513480446 0 -0.3789649235099295 -0.11270856972454819 0 -0.35038321981080389 -0.10179032851684799 0 -0.37380044498630338 -0.100392191664622 0 -0.36747037526515469 -0.088210616938563927 0 -0.35038321981080389 -0.10179032851684799 0 -0.37380044498630338 -0.100392191664622 0 -0.3623387343604032 -0.1125517513480446 0 -0.3623387343604032 -0.1125517513480446 0 -0.36893450279197471 -0.1249528869149899 0 -0.3789649235099295 -0.11270856972454819 0 -0.35433435295871402 -0.1214552484327875 0 -0.3623387343604032 -0.1125517513480446 0 -0.36893450279197471 -0.1249528869149899 0 -0.34995192587724822 -0.070116192960804249 0 -0.35645509357982358 -0.081628608772215283 0 -0.36843110820579178 -0.075527255856609146 0 -0.34995192587724822 -0.070116192960804249 0 -0.36608399240098949 -0.063120758007335118 0 -0.35494834161021771 -0.06194377696909157 0 -0.34995192587724822 -0.070116192960804249 0 -0.36843110820579178 -0.075527255856609146 0 -0.34995192587724822 -0.070116192960804249 0 -0.36608399240098949 -0.063120758007335118 0 -0.34995192587724822 -0.070116192960804249 0 -0.34475717967991132 -0.068595070548471249 0 -0.35494834161021771 -0.06194377696909157 0 -0.34995192587724822 -0.070116192960804249 0 -0.34475717967991132 -0.068595070548471249 0 -0.34995192587724822 -0.070116192960804249 0 -0.34475717967991132 -0.068595070548471249 0 -0.3453529791357649 -0.07211045902320197 0 -0.34995192587724822 -0.070116192960804249 0 -0.3453529791357649 -0.07211045902320197 0 -0.34995192587724822 -0.070116192960804249 0 -0.3453529791357649 -0.07211045902320197 0 -0.35645509357982358 -0.081628608772215283 0 -0.34475717967991132 -0.068595070548471249 0 -0.3453529791357649 -0.07211045902320197 0 -0.35038321981080389 -0.10179032851684799 0 -0.35645509357982358 -0.081628608772215283 0 -0.36747037526515469 -0.088210616938563927 0 -0.35038321981080389 -0.10179032851684799 0 -0.3453529791357649 -0.07211045902320197 0 -0.35645509357982358 -0.081628608772215283 0 -0.33692687914299491 -0.089632102483736459 0 -0.35038321981080389 -0.10179032851684799 0 -0.3453529791357649 -0.07211045902320197 0 -0.35038321981080389 -0.10179032851684799 0 -0.3453529791357649 -0.07211045902320197 0 -0.36747037526515469 -0.088210616938563927 0 -0.36843110820579178 -0.075527255856609146 0 -0.38691029053433551 -0.080938318752413793 0 -0.35645509357982358 -0.081628608772215283 0 -0.36747037526515469 -0.088210616938563927 0 -0.36843110820579178 -0.075527255856609146 0 -0.34995192587724822 -0.070116192960804249 0 -0.36843110820579178 -0.075527255856609146 0 -0.36608399240098949 -0.063120758007335118 0 -0.36843110820579178 -0.075527255856609146 0 -0.36608399240098949 -0.063120758007335118 0 -0.37978412082390189 -0.068029865631836883 0 -0.36608399240098949 -0.063120758007335118 0 -0.37085155020467431 -0.050438611479832557 0 -0.38221605892473098 -0.056125323053866277 0 -0.36608399240098949 -0.063120758007335118 0 -0.38221605892473098 -0.056125323053866277 0 -0.37085155020467431 -0.050438611479832557 0 -0.36177701350261748 -0.054750595911384127 0 -0.36329546327126672 -0.041142767418341691 0 -0.36608399240098949 -0.063120758007335118 0 -0.36177701350261748 -0.054750595911384127 0 -0.35494834161021771 -0.06194377696909157 0 -0.36608399240098949 -0.063120758007335118 0 -0.37085155020467431 -0.050438611479832557 0 -0.36177701350261748 -0.054750595911384127 0 -0.36177701350261748 -0.054750595911384127 0 -0.35494834161021771 -0.06194377696909157 0 -0.35217159659032232 -0.05313626741746251 0 -0.34475717967991132 -0.068595070548471249 0 -0.35217159659032232 -0.05313626741746251 0 -0.34008173660725832 -0.04100860914713586 0 -0.36177701350261748 -0.054750595911384127 0 -0.35217159659032232 -0.05313626741746251 0 -0.36329546327126672 -0.041142767418341691 0 -0.34475717967991132 -0.068595070548471249 0 -0.35494834161021771 -0.06194377696909157 0 -0.35217159659032232 -0.05313626741746251 0 -0.35217159659032232 -0.05313626741746251 0 -0.35233090603521772 -0.034345905606361089 0 -0.36329546327126672 -0.041142767418341691 0 -0.35217159659032232 -0.05313626741746251 0 -0.35233090603521772 -0.034345905606361089 0 -0.34008173660725832 -0.04100860914713586 0 -0.35233090603521772 -0.034345905606361089 0 -0.34677261788783459 -0.022263095799622792 0 -0.34008173660725832 -0.04100860914713586 0 -0.35233090603521772 -0.034345905606361089 0 -0.36329546327126672 -0.041142767418341691 0 -0.36125368123050811 -0.029816691131076791 0 -0.36329546327126672 -0.041142767418341691 0 -0.37015544225173291 -0.03012439130571171 0 -0.36125368123050811 -0.029816691131076791 0 -0.37085155020467431 -0.050438611479832557 0 -0.36329546327126672 -0.041142767418341691 0 -0.37439980638912518 -0.038891661293645137 0 -0.36329546327126672 -0.041142767418341691 0 -0.37439980638912518 -0.038891661293645137 0 -0.37015544225173291 -0.03012439130571171 0 -0.37439980638912518 -0.038891661293645137 0 -0.37015544225173291 -0.03012439130571171 0 -0.37866743010551202 -0.02906954498465647 0 -0.37015544225173291 -0.03012439130571171 0 -0.37402384376206249 -0.023759624541515059 0 -0.37866743010551202 -0.02906954498465647 0 -0.37015544225173291 -0.03012439130571171 0 -0.37402384376206249 -0.023759624541515059 0 -0.36652472594663232 -0.022500501643346649 0 -0.37402384376206249 -0.023759624541515059 0 -0.37465439862472261 -0.016787835852634068 0 -0.36652472594663232 -0.022500501643346649 0 -0.37465439862472261 -0.016787835852634068 0 -0.36652472594663232 -0.022500501643346649 0 -0.3596530522362773 -0.017262546391789129 0 -0.36652472594663232 -0.022500501643346649 0 -0.3596530522362773 -0.017262546391789129 0 -0.35649867437881472 -0.022585523222405649 0 -0.36652472594663232 -0.022500501643346649 0 -0.36125368123050811 -0.029816691131076791 0 -0.35649867437881472 -0.022585523222405649 0 -0.37015544225173291 -0.03012439130571171 0 -0.36652472594663232 -0.022500501643346649 0 -0.36125368123050811 -0.029816691131076791 0 -0.37465439862472261 -0.016787835852634068 0 -0.3596530522362773 -0.017262546391789129 0 -0.34857824671955512 -0.007874197240844389 0 -0.37465439862472261 -0.016787835852634068 0 -0.3597652811465577 -0.0058215117475868012 0 -0.34857824671955512 -0.007874197240844389 0 -0.37465439862472261 -0.016787835852634068 0 -0.34857824671955512 -0.007874197240844389 0 -0.37126952376897032 -0.00085078512189483576 0 -0.36867541047690239 -0.006920070417115203 0 -0.36494834593608783 -0.001298186014321303 0 -0.37126952376897032 -0.00085078512189483576 0 -0.37464851222799189 -0.0076089195940836872 0 -0.37774077980655368 -0.001289555558904682 0 -0.37126952376897032 -0.00085078512189483576 0 -0.37464851222799189 -0.0076089195940836872 0 -0.36867541047690239 -0.006920070417115203 0 -0.37465439862472261 -0.016787835852634068 0 -0.36867541047690239 -0.006920070417115203 0 -0.3597652811465577 -0.0058215117475868012 0 -0.37465439862472261 -0.016787835852634068 0 -0.37464851222799189 -0.0076089195940836872 0 -0.36867541047690239 -0.006920070417115203 0 -0.36867541047690239 -0.006920070417115203 0 -0.3597652811465577 -0.0058215117475868012 0 -0.36494834593608783 -0.001298186014321303 0 -0.3597652811465577 -0.0058215117475868012 0 -0.36494834593608783 -0.001298186014321303 0 -0.35900139338342918 0.0020097317905480609 0 -0.3597652811465577 -0.0058215117475868012 0 -0.35221409618436439 -0.0049109655465913588 0 -0.34857824671955512 -0.007874197240844389 0 -0.3597652811465577 -0.0058215117475868012 0 -0.35509488683577939 -0.0004162838960613095 0 -0.35900139338342918 0.0020097317905480609 0 -0.3597652811465577 -0.0058215117475868012 0 -0.35509488683577939 -0.0004162838960613095 0 -0.35221409618436439 -0.0049109655465913588 0 -0.3596530522362773 -0.017262546391789129 0 -0.34857824671955512 -0.007874197240844389 0 -0.35200921551166209 -0.0165646739997149 0 -0.34857824671955512 -0.007874197240844389 0 -0.34618108527798752 -0.01472783018749277 0 -0.35200921551166209 -0.0165646739997149 0 -0.35233090603521772 -0.034345905606361089 0 -0.36125368123050811 -0.029816691131076791 0 -0.35649867437881472 -0.022585523222405649 0 -0.35233090603521772 -0.034345905606361089 0 -0.35649867437881472 -0.022585523222405649 0 -0.34677261788783459 -0.022263095799622792 0 -0.35649867437881472 -0.022585523222405649 0 -0.35200921551166209 -0.0165646739997149 0 -0.34677261788783459 -0.022263095799622792 0 -0.3596530522362773 -0.017262546391789129 0 -0.35649867437881472 -0.022585523222405649 0 -0.35200921551166209 -0.0165646739997149 0 -0.34618108527798752 -0.01472783018749277 0 -0.35200921551166209 -0.0165646739997149 0 -0.34677261788783459 -0.022263095799622792 0 -0.33540629353460438 -0.01342214774580049 0 -0.31718310516035308 -0.038172790333745737 0 -0.34008173660725832 -0.04100860914713586 0 -0.33540629353460438 -0.01342214774580049 0 -0.34008173660725832 -0.04100860914713586 0 -0.34677261788783459 -0.022263095799622792 0 -0.33540629353460438 -0.01342214774580049 0 -0.34008173660725832 -0.04100860914713586 0 -0.34618108527798752 -0.01472783018749277 0 -0.34677261788783459 -0.022263095799622792 0 -0.33540629353460438 -0.01342214774580049 0 -0.33540629353460438 -0.01342214774580049 0 -0.3204068892458079 -0.0014125807301150939 0 -0.33073085046195078 0.01416431365553468 0 -0.34857824671955512 -0.007874197240844389 0 -0.33540629353460438 -0.01342214774580049 0 -0.33073085046195078 0.01416431365553468 0 -0.34857824671955512 -0.007874197240844389 0 -0.34618108527798752 -0.01472783018749277 0 -0.33540629353460438 -0.01342214774580049 0 -0.3025805037907468 -0.0027432771802810229 0 -0.31459326366374579 -0.01532774276474733 0 -0.3204068892458079 -0.0014125807301150939 0 -0.33540629353460438 -0.01342214774580049 0 -0.31459326366374579 -0.01532774276474733 0 -0.3204068892458079 -0.0014125807301150939 0 -0.33540629353460438 -0.01342214774580049 0 -0.31459326366374579 -0.01532774276474733 0 -0.31718310516035308 -0.038172790333745737 0 -0.31718310516035308 -0.038172790333745737 0 -0.3268834079531176 -0.05023453433316457 0 -0.34008173660725832 -0.04100860914713586 0 -0.31718310516035308 -0.038172790333745737 0 -0.31370341578724742 -0.051143824177853653 0 -0.3268834079531176 -0.05023453433316457 0 -0.31370341578724742 -0.051143824177853653 0 -0.31629816603535338 -0.060261719535131632 0 -0.32352590008436471 -0.062378140209921912 0 -0.31629816603535338 -0.060261719535131632 0 -0.32352590008436471 -0.062378140209921912 0 -0.32352590008436471 -0.062378140209921912 0 -0.3268834079531176 -0.05023453433316457 0 -0.33381205608116321 -0.055554088559673351 0 -0.31370341578724742 -0.051143824177853653 0 -0.32352590008436471 -0.062378140209921912 0 -0.3268834079531176 -0.05023453433316457 0 -0.34475717967991132 -0.068595070548471249 0 -0.32352590008436471 -0.062378140209921912 0 -0.33381205608116321 -0.055554088559673351 0 -0.34475717967991132 -0.068595070548471249 0 -0.33381205608116321 -0.055554088559673351 0 -0.34008173660725832 -0.04100860914713586 0 -0.3268834079531176 -0.05023453433316457 0 -0.33381205608116321 -0.055554088559673351 0 -0.34008173660725832 -0.04100860914713586 0 -0.34475717967991132 -0.068595070548471249 0 -0.34008173660725832 -0.04100860914713586 0 -0.29131753467172561 -0.25675805269722002 0 -0.30769212114973271 -0.24578220261295139 0 -0.29241592956139478 -0.23974284613727589 0 -0.30769212114973271 -0.24578220261295139 0 -0.30829656048542242 -0.23127198481015249 0 -0.29241592956139478 -0.23974284613727589 0 -0.30829656048542242 -0.23127198481015249 0 -0.29279532374442052 -0.2217612167757172 0 -0.3129652712195421 -0.2114706657937139 0 -0.30829656048542242 -0.23127198481015249 0 -0.29279532374442052 -0.2217612167757172 0 -0.29241592956139478 -0.23974284613727589 0 -0.29279532374442052 -0.2217612167757172 0 -0.29241592956139478 -0.23974284613727589 0 -0.27798049023744681 -0.23352671123603991 0 -0.29279532374442052 -0.2217612167757172 0 -0.27798049023744681 -0.23352671123603991 0 -0.27449661508218531 -0.21747639879007349 0 -0.29131753467172561 -0.25675805269722002 0 -0.29241592956139478 -0.23974284613727589 0 -0.27722523139620658 -0.24922189107985179 0 -0.29241592956139478 -0.23974284613727589 0 -0.27722523139620658 -0.24922189107985179 0 -0.27798049023744681 -0.23352671123603991 0 -0.27722523139620658 -0.24922189107985179 0 -0.25992972331208369 -0.2410680052130979 0 -0.27798049023744681 -0.23352671123603991 0 -0.26398002587916253 -0.25656090854441049 0 -0.27722523139620658 -0.24922189107985179 0 -0.25992972331208369 -0.2410680052130979 0 -0.25992972331208369 -0.2410680052130979 0 -0.25674041691710447 -0.22108212323078871 0 -0.27798049023744681 -0.23352671123603991 0 -0.2377451423251814 -0.23136366228574551 0 -0.25992972331208369 -0.2410680052130979 0 -0.25674041691710447 -0.22108212323078871 0 -0.25674041691710447 -0.22108212323078871 0 -0.27798049023744681 -0.23352671123603991 0 -0.27449661508218531 -0.21747639879007349 0 -0.27449661508218531 -0.21747639879007349 0 -0.25644706280453389 -0.1995927939493197 0 -0.27817485521465529 -0.19463925610534399 0 -0.27449661508218531 -0.21747639879007349 0 -0.27817485521465529 -0.19463925610534399 0 -0.25674041691710447 -0.22108212323078871 0 -0.27449661508218531 -0.21747639879007349 0 -0.25644706280453389 -0.1995927939493197 0 -0.25644706280453389 -0.1995927939493197 0 -0.27817485521465529 -0.19463925610534399 0 -0.26629571781906192 -0.18034234132084431 0 -0.27817485521465529 -0.19463925610534399 0 -0.29367807880863189 -0.20345752952089671 0 -0.29386082525749962 -0.1848532680646672 0 -0.27449661508218531 -0.21747639879007349 0 -0.27817485521465529 -0.19463925610534399 0 -0.29367807880863189 -0.20345752952089671 0 -0.29279532374442052 -0.2217612167757172 0 -0.27449661508218531 -0.21747639879007349 0 -0.29367807880863189 -0.20345752952089671 0 -0.29279532374442052 -0.2217612167757172 0 -0.29367807880863189 -0.20345752952089671 0 -0.3129652712195421 -0.2114706657937139 0 -0.29367807880863189 -0.20345752952089671 0 -0.30717411826112789 -0.1920401195635244 0 -0.29386082525749962 -0.1848532680646672 0 -0.29367807880863189 -0.20345752952089671 0 -0.30717411826112789 -0.1920401195635244 0 -0.3129652712195421 -0.2114706657937139 0 -0.30551265723832022 -0.17938492804960809 0 -0.29677214667513702 -0.1677956617280158 0 -0.29386082525749962 -0.1848532680646672 0 -0.30717411826112789 -0.1920401195635244 0 -0.30551265723832022 -0.17938492804960809 0 -0.29386082525749962 -0.1848532680646672 0 -0.30717411826112789 -0.1920401195635244 0 -0.30551265723832022 -0.17938492804960809 0 -0.31489114071409963 -0.18333745750317351 0 -0.30551265723832022 -0.17938492804960809 0 -0.31220508881165993 -0.16846949012138551 0 -0.29677214667513702 -0.1677956617280158 0 -0.30551265723832022 -0.17938492804960809 0 -0.31220508881165993 -0.16846949012138551 0 -0.31489114071409963 -0.18333745750317351 0 -0.31220508881165993 -0.16846949012138551 0 -0.2949530938874384 -0.15245549241185349 0 -0.31498630483336881 -0.15987728715749039 0 -0.31220508881165993 -0.16846949012138551 0 -0.2949530938874384 -0.15245549241185349 0 -0.31220508881165993 -0.16846949012138551 0 -0.29677214667513702 -0.1677956617280158 0 -0.2949530938874384 -0.15245549241185349 0 -0.28185309534712533 -0.17180211342061449 0 -0.28553133547959519 -0.14896497073588499 0 -0.29677214667513702 -0.1677956617280158 0 -0.28185309534712533 -0.17180211342061449 0 -0.2949530938874384 -0.15245549241185349 0 -0.28185309534712533 -0.17180211342061449 0 -0.28553133547959519 -0.14896497073588499 0 -0.2949530938874384 -0.15245549241185349 0 -0.27817485521465529 -0.19463925610534399 0 -0.28185309534712533 -0.17180211342061449 0 -0.29386082525749962 -0.1848532680646672 0 -0.29677214667513702 -0.1677956617280158 0 -0.28185309534712533 -0.17180211342061449 0 -0.29386082525749962 -0.1848532680646672 0 -0.27817485521465529 -0.19463925610534399 0 -0.28185309534712533 -0.17180211342061449 0 -0.27817485521465529 -0.19463925610534399 0 -0.28185309534712533 -0.17180211342061449 0 -0.26629571781906192 -0.18034234132084431 0 -0.26629571781906192 -0.18034234132084431 0 -0.25029992488695979 -0.1782534950292988 0 -0.25761979100978533 -0.16665415002795461 0 -0.25644706280453389 -0.1995927939493197 0 -0.26629571781906192 -0.18034234132084431 0 -0.25029992488695979 -0.1782534950292988 0 -0.26629571781906192 -0.18034234132084431 0 -0.25761979100978533 -0.16665415002795461 0 -0.26933386928146391 -0.16300442301689841 0 -0.24825300788518309 -0.1555077779107997 0 -0.25761979100978533 -0.16665415002795461 0 -0.26108146703715113 -0.15708396540124031 0 -0.25761979100978533 -0.16665415002795461 0 -0.26108146703715113 -0.15708396540124031 0 -0.26933386928146391 -0.16300442301689841 0 -0.28185309534712533 -0.17180211342061449 0 -0.27598770130958522 -0.15333886838191951 0 -0.28553133547959519 -0.14896497073588499 0 -0.28185309534712533 -0.17180211342061449 0 -0.26629571781906192 -0.18034234132084431 0 -0.26933386928146391 -0.16300442301689841 0 -0.26108146703715113 -0.15708396540124031 0 -0.26933386928146391 -0.16300442301689841 0 -0.26726071412102442 -0.15087550168963329 0 -0.28185309534712533 -0.17180211342061449 0 -0.26933386928146391 -0.16300442301689841 0 -0.27598770130958522 -0.15333886838191951 0 -0.27598770130958522 -0.15333886838191951 0 -0.271177428866754 -0.14364721368904659 0 -0.28553133547959519 -0.14896497073588499 0 -0.271177428866754 -0.14364721368904659 0 -0.28662611268527088 -0.1421678116724244 0 -0.28553133547959519 -0.14896497073588499 0 -0.271177428866754 -0.14364721368904659 0 -0.28553133547959519 -0.14896497073588499 0 -0.271177428866754 -0.14364721368904659 0 -0.26726071412102442 -0.15087550168963329 0 -0.25891484533836889 -0.13910423861407881 0 -0.271177428866754 -0.14364721368904659 0 -0.26726071412102442 -0.15087550168963329 0 -0.27598770130958522 -0.15333886838191951 0 -0.271177428866754 -0.14364721368904659 0 -0.26726071412102442 -0.15087550168963329 0 -0.26933386928146391 -0.16300442301689841 0 -0.27598770130958522 -0.15333886838191951 0 -0.26726071412102442 -0.15087550168963329 0 -0.2405789555143194 -0.1375116727892334 0 -0.25601133851015478 -0.1487044986697981 0 -0.25891484533836889 -0.13910423861407881 0 -0.26108146703715113 -0.15708396540124031 0 -0.26726071412102442 -0.15087550168963329 0 -0.25601133851015478 -0.1487044986697981 0 -0.271177428866754 -0.14364721368904659 0 -0.25891484533836889 -0.13910423861407881 0 -0.26726071412102442 -0.15087550168963329 0 -0.25601133851015478 -0.1487044986697981 0 -0.25891484533836889 -0.13910423861407881 0 -0.24825300788518309 -0.1555077779107997 0 -0.26108146703715113 -0.15708396540124031 0 -0.25601133851015478 -0.1487044986697981 0 -0.26009747564537128 -0.1202716976192799 0 -0.25054446979338107 -0.12912519928877991 0 -0.26697405985724948 -0.1304210152969853 0 -0.25054446979338107 -0.12912519928877991 0 -0.25891484533836889 -0.13910423861407881 0 -0.26697405985724948 -0.1304210152969853 0 -0.2405789555143194 -0.1375116727892334 0 -0.25054446979338107 -0.12912519928877991 0 -0.25891484533836889 -0.13910423861407881 0 -0.28368315898475188 -0.1205679176925603 0 -0.271177428866754 -0.14364721368904659 0 -0.26697405985724948 -0.1304210152969853 0 -0.28368315898475188 -0.1205679176925603 0 -0.271177428866754 -0.14364721368904659 0 -0.28514813781506088 -0.1345929107172644 0 -0.28368315898475188 -0.1205679176925603 0 -0.271177428866754 -0.14364721368904659 0 -0.271177428866754 -0.14364721368904659 0 -0.25891484533836889 -0.13910423861407881 0 -0.26697405985724948 -0.1304210152969853 0 -0.271177428866754 -0.14364721368904659 0 -0.28514813781506088 -0.1345929107172644 0 -0.28662611268527088 -0.1421678116724244 0 -0.28368315898475188 -0.1205679176925603 0 -0.29492821592448881 -0.13453805291007029 0 -0.28514813781506088 -0.1345929107172644 0 -0.28368315898475188 -0.1205679176925603 0 -0.29492821592448881 -0.13453805291007029 0 -0.30140371581860798 -0.1292511186866305 0 -0.29492821592448881 -0.13453805291007029 0 -0.2912775948780732 -0.1389862943003273 0 -0.28514813781506088 -0.1345929107172644 0 -0.29657756063899582 -0.140013172184488 0 -0.29492821592448881 -0.13453805291007029 0 -0.2912775948780732 -0.1389862943003273 0 -0.2912775948780732 -0.1389862943003273 0 -0.28514813781506088 -0.1345929107172644 0 -0.28662611268527088 -0.1421678116724244 0 -0.28662611268527088 -0.1421678116724244 0 -0.28553133547959519 -0.14896497073588499 0 -0.28662611268527088 -0.1421678116724244 0 -0.28553133547959519 -0.14896497073588499 0 -0.28937009998544028 -0.14621975116982991 0 -0.28553133547959519 -0.14896497073588499 0 -0.2922536480049423 -0.1499497578362777 0 -0.28937009998544028 -0.14621975116982991 0 -0.28553133547959519 -0.14896497073588499 0 -0.2922536480049423 -0.1499497578362777 0 -0.2949530938874384 -0.15245549241185349 0 -0.28553133547959519 -0.14896497073588499 0 -0.2949530938874384 -0.15245549241185349 0 -0.2922536480049423 -0.1499497578362777 0 -0.2949530938874384 -0.15245549241185349 0 -0.29617843115691228 -0.14802272380236281 0 -0.2922536480049423 -0.1499497578362777 0 -0.2949530938874384 -0.15245549241185349 0 -0.2912775948780732 -0.1389862943003273 0 -0.28662611268527088 -0.1421678116724244 0 -0.29310794732654949 -0.1436195240173895 0 -0.28662611268527088 -0.1421678116724244 0 -0.28937009998544028 -0.14621975116982991 0 -0.29310794732654949 -0.1436195240173895 0 -0.2922536480049423 -0.1499497578362777 0 -0.28937009998544028 -0.14621975116982991 0 -0.29310794732654949 -0.1436195240173895 0 -0.29617843115691228 -0.14802272380236281 0 -0.29310794732654949 -0.1436195240173895 0 -0.29956135480037449 -0.14472193576336759 0 -0.2922536480049423 -0.1499497578362777 0 -0.29617843115691228 -0.14802272380236281 0 -0.29310794732654949 -0.1436195240173895 0 -0.29657756063899582 -0.140013172184488 0 -0.2912775948780732 -0.1389862943003273 0 -0.29310794732654949 -0.1436195240173895 0 -0.29657756063899582 -0.140013172184488 0 -0.29310794732654949 -0.1436195240173895 0 -0.29956135480037449 -0.14472193576336759 0 -0.29956135480037449 -0.14472193576336759 0 -0.30554397810907652 -0.146919348525368 0 -0.30456114821214081 -0.13888567554976469 0 -0.2949530938874384 -0.15245549241185349 0 -0.30620642865757891 -0.15285211384445899 0 -0.31498630483336881 -0.15987728715749039 0 -0.2949530938874384 -0.15245549241185349 0 -0.31498630483336881 -0.15987728715749039 0 -0.29657756063899582 -0.140013172184488 0 -0.29956135480037449 -0.14472193576336759 0 -0.30456114821214081 -0.13888567554976469 0 -0.29617843115691228 -0.14802272380236281 0 -0.29956135480037449 -0.14472193576336759 0 -0.30052761464898298 -0.14908162957255741 0 -0.29956135480037449 -0.14472193576336759 0 -0.30052761464898298 -0.14908162957255741 0 -0.30554397810907652 -0.146919348525368 0 -0.2949530938874384 -0.15245549241185349 0 -0.30052761464898298 -0.14908162957255741 0 -0.30620642865757891 -0.15285211384445899 0 -0.2949530938874384 -0.15245549241185349 0 -0.29617843115691228 -0.14802272380236281 0 -0.30052761464898298 -0.14908162957255741 0 -0.30052761464898298 -0.14908162957255741 0 -0.30620642865757891 -0.15285211384445899 0 -0.30554397810907652 -0.146919348525368 0 -0.30620642865757891 -0.15285211384445899 0 -0.31211863317072019 -0.1538765410016501 0 -0.31498630483336881 -0.15987728715749039 0 -0.30620642865757891 -0.15285211384445899 0 -0.31071230574427161 -0.15022116190891349 0 -0.30554397810907652 -0.146919348525368 0 -0.30620642865757891 -0.15285211384445899 0 -0.31071230574427161 -0.15022116190891349 0 -0.31211863317072019 -0.1538765410016501 0 -0.31246836027323899 -0.14497521722301901 0 -0.31246708178415561 -0.13872402753426441 0 -0.30456114821214081 -0.13888567554976469 0 -0.30554397810907652 -0.146919348525368 0 -0.31246836027323899 -0.14497521722301901 0 -0.30456114821214081 -0.13888567554976469 0 -0.31071230574427161 -0.15022116190891349 0 -0.30554397810907652 -0.146919348525368 0 -0.31246836027323899 -0.14497521722301901 0 -0.30140371581860798 -0.1292511186866305 0 -0.30456114821214081 -0.13888567554976469 0 -0.31280589771709483 -0.13181614145056869 0 -0.31246708178415561 -0.13872402753426441 0 -0.30456114821214081 -0.13888567554976469 0 -0.31280589771709483 -0.13181614145056869 0 -0.30807566230962469 -0.12087427087378499 0 -0.30140371581860798 -0.1292511186866305 0 -0.31280589771709483 -0.13181614145056869 0 -0.29657756063899582 -0.140013172184488 0 -0.29492821592448881 -0.13453805291007029 0 -0.30456114821214081 -0.13888567554976469 0 -0.29492821592448881 -0.13453805291007029 0 -0.30140371581860798 -0.1292511186866305 0 -0.30456114821214081 -0.13888567554976469 0 -0.3226930215385343 -0.13395567837890529 0 -0.31855308997834159 -0.13934265221991729 0 -0.32506280578504959 -0.14064102607364051 0 -0.3226930215385343 -0.13395567837890529 0 -0.32506280578504959 -0.14064102607364051 0 -0.33047387389575927 -0.1369340691945744 0 -0.3226930215385343 -0.13395567837890529 0 -0.32807010768985068 -0.12986880773923029 0 -0.33047387389575927 -0.1369340691945744 0 -0.32007374605487132 -0.12494213909402439 0 -0.33441303965894859 -0.1249452932850653 0 -0.32807010768985068 -0.12986880773923029 0 -0.32007374605487132 -0.12494213909402439 0 -0.3226930215385343 -0.13395567837890529 0 -0.32807010768985068 -0.12986880773923029 0 -0.32007374605487132 -0.12494213909402439 0 -0.3226930215385343 -0.13395567837890529 0 -0.31280589771709483 -0.13181614145056869 0 -0.30807566230962469 -0.12087427087378499 0 -0.32007374605487132 -0.12494213909402439 0 -0.31280589771709483 -0.13181614145056869 0 -0.3226930215385343 -0.13395567837890529 0 -0.31280589771709483 -0.13181614145056869 0 -0.31855308997834159 -0.13934265221991729 0 -0.31246708178415561 -0.13872402753426441 0 -0.31280589771709483 -0.13181614145056869 0 -0.31855308997834159 -0.13934265221991729 0 -0.31246836027323899 -0.14497521722301901 0 -0.31246708178415561 -0.13872402753426441 0 -0.31855308997834159 -0.13934265221991729 0 -0.31246836027323899 -0.14497521722301901 0 -0.31855308997834159 -0.13934265221991729 0 -0.32096396999162452 -0.14503749675666289 0 -0.31246836027323899 -0.14497521722301901 0 -0.31722412851074311 -0.15248258895007169 0 -0.32096396999162452 -0.14503749675666289 0 -0.31211863317072019 -0.1538765410016501 0 -0.31722412851074311 -0.15248258895007169 0 -0.31498630483336881 -0.15987728715749039 0 -0.31071230574427161 -0.15022116190891349 0 -0.31246836027323899 -0.14497521722301901 0 -0.31722412851074311 -0.15248258895007169 0 -0.31071230574427161 -0.15022116190891349 0 -0.31211863317072019 -0.1538765410016501 0 -0.31722412851074311 -0.15248258895007169 0 -0.32096396999162452 -0.14503749675666289 0 -0.32506280578504959 -0.14064102607364051 0 -0.33039285730051032 -0.1475567648151897 0 -0.31722412851074311 -0.15248258895007169 0 -0.32096396999162452 -0.14503749675666289 0 -0.33039285730051032 -0.1475567648151897 0 -0.31855308997834159 -0.13934265221991729 0 -0.32096396999162452 -0.14503749675666289 0 -0.32506280578504959 -0.14064102607364051 0 -0.33039285730051032 -0.1475567648151897 0 -0.33813688440009898 -0.15615522653291031 0 -0.34198145815712638 -0.1395953898376964 0 -0.32506280578504959 -0.14064102607364051 0 -0.33039285730051032 -0.1475567648151897 0 -0.33047387389575927 -0.1369340691945744 0 -0.31722412851074311 -0.15248258895007169 0 -0.33039285730051032 -0.1475567648151897 0 -0.33813688440009898 -0.15615522653291031 0 -0.33039285730051032 -0.1475567648151897 0 -0.34198145815712638 -0.1395953898376964 0 -0.33047387389575927 -0.1369340691945744 0 -0.33813688440009898 -0.15615522653291031 0 -0.34198145815712638 -0.1395953898376964 0 -0.34954987665533299 -0.15424548639031271 0 -0.34198145815712638 -0.1395953898376964 0 -0.3337346198504213 -0.1328358900141379 0 -0.33047387389575927 -0.1369340691945744 0 -0.32807010768985068 -0.12986880773923029 0 -0.3337346198504213 -0.1328358900141379 0 -0.33047387389575927 -0.1369340691945744 0 -0.33441303965894859 -0.1249452932850653 0 -0.32807010768985068 -0.12986880773923029 0 -0.3337346198504213 -0.1328358900141379 0 -0.33441303965894859 -0.1249452932850653 0 -0.34198145815712638 -0.1395953898376964 0 -0.34272140335036932 -0.124947120862287 0 -0.33441303965894859 -0.1249452932850653 0 -0.34198145815712638 -0.1395953898376964 0 -0.33441303965894859 -0.1249452932850653 0 -0.34198145815712638 -0.1395953898376964 0 -0.3337346198504213 -0.1328358900141379 0 -0.34272140335036932 -0.124947120862287 0 -0.35413341494744088 -0.14719959415449421 0 -0.34272140335036932 -0.124947120862287 0 -0.35599685079288468 -0.13305792836185981 0 -0.35413341494744088 -0.14719959415449421 0 -0.34272140335036932 -0.124947120862287 0 -0.34198145815712638 -0.1395953898376964 0 -0.35413341494744088 -0.14719959415449421 0 -0.34272140335036932 -0.124947120862287 0 -0.36893450279197471 -0.1249528869149899 0 -0.35599685079288468 -0.13305792836185981 0 -0.35599685079288468 -0.13305792836185981 0 -0.36484224068191412 -0.14157370685753851 0 -0.35413341494744088 -0.14719959415449421 0 -0.36893450279197471 -0.1249528869149899 0 -0.35599685079288468 -0.13305792836185981 0 -0.36484224068191412 -0.14157370685753851 0 -0.36893450279197471 -0.1249528869149899 0 -0.36484224068191412 -0.14157370685753851 0 -0.3777566452334315 -0.14913711856379011 0 -0.3679743334396014 -0.15408772885571331 0 -0.37696591512674532 -0.1609827341034305 0 -0.3777566452334315 -0.14913711856379011 0 -0.3679743334396014 -0.15408772885571331 0 -0.36484224068191412 -0.14157370685753851 0 -0.3777566452334315 -0.14913711856379011 0 -0.3679743334396014 -0.15408772885571331 0 -0.36484224068191412 -0.14157370685753851 0 -0.35413341494744088 -0.14719959415449421 0 -0.35413341494744088 -0.14719959415449421 0 -0.34954987665533299 -0.15424548639031271 0 -0.35445721343992059 -0.1619675590177023 0 -0.34198145815712638 -0.1395953898376964 0 -0.34954987665533299 -0.15424548639031271 0 -0.34198145815712638 -0.1395953898376964 0 -0.35413341494744088 -0.14719959415449421 0 -0.34954987665533299 -0.15424548639031271 0 -0.33813688440009898 -0.15615522653291031 0 -0.34954987665533299 -0.15424548639031271 0 -0.34648545334868369 -0.16311147615285329 0 -0.34648545334868369 -0.16311147615285329 0 -0.35788001493839611 -0.17576831496813999 0 -0.33501951577929873 -0.16729908190312789 0 -0.34954987665533299 -0.15424548639031271 0 -0.34648545334868369 -0.16311147615285329 0 -0.35445721343992059 -0.1619675590177023 0 -0.35413341494744088 -0.14719959415449421 0 -0.35445721343992059 -0.1619675590177023 0 -0.36554542654456429 -0.16945206744667471 0 -0.35788001493839611 -0.17576831496813999 0 -0.33501951577929873 -0.16729908190312789 0 -0.34648545334868369 -0.16311147615285329 0 -0.35445721343992059 -0.1619675590177023 0 -0.35788001493839611 -0.17576831496813999 0 -0.35445721343992059 -0.1619675590177023 0 -0.36554542654456429 -0.16945206744667471 0 -0.35788001493839611 -0.17576831496813999 0 -0.35413341494744088 -0.14719959415449421 0 -0.36554542654456429 -0.16945206744667471 0 -0.3679743334396014 -0.15408772885571331 0 -0.35413341494744088 -0.14719959415449421 0 -0.36554542654456429 -0.16945206744667471 0 -0.3679743334396014 -0.15408772885571331 0 -0.36554542654456429 -0.16945206744667471 0 -0.37696591512674532 -0.1609827341034305 0 -0.37016556171889331 -0.18126023377528719 0 -0.3536864721015115 -0.18284124587119119 0 -0.37235342842372432 -0.19838340983925429 0 -0.36554542654456429 -0.16945206744667471 0 -0.37016556171889331 -0.18126023377528719 0 -0.38426477739238413 -0.17192867897072969 0 -0.37016556171889331 -0.18126023377528719 0 -0.3536864721015115 -0.18284124587119119 0 -0.35788001493839611 -0.17576831496813999 0 -0.36554542654456429 -0.16945206744667471 0 -0.37016556171889331 -0.18126023377528719 0 -0.35788001493839611 -0.17576831496813999 0 -0.3536864721015115 -0.18284124587119119 0 -0.33501951577929873 -0.16729908190312789 0 -0.3536864721015115 -0.18284124587119119 0 -0.35788001493839611 -0.17576831496813999 0 -0.33501951577929873 -0.16729908190312789 0 -0.3536864721015115 -0.18284124587119119 0 -0.32945708373588178 -0.18448348783091689 0 -0.33501951577929873 -0.16729908190312789 0 -0.31722412851074311 -0.15248258895007169 0 -0.33813688440009898 -0.15615522653291031 0 -0.33501951577929873 -0.16729908190312789 0 -0.33813688440009898 -0.15615522653291031 0 -0.34648545334868369 -0.16311147615285329 0 -0.33501951577929873 -0.16729908190312789 0 -0.31722412851074311 -0.15248258895007169 0 -0.33501951577929873 -0.16729908190312789 0 -0.31722412851074311 -0.15248258895007169 0 -0.33501951577929873 -0.16729908190312789 0 -0.31498630483336881 -0.15987728715749039 0 -0.31220508881165993 -0.16846949012138551 0 -0.33501951577929873 -0.16729908190312789 0 -0.31498630483336881 -0.15987728715749039 0 -0.33501951577929873 -0.16729908190312789 0 -0.31498630483336881 -0.15987728715749039 0 -0.31220508881165993 -0.16846949012138551 0 -0.32945708373588178 -0.18448348783091689 0 -0.31489114071409963 -0.18333745750317351 0 -0.31220508881165993 -0.16846949012138551 0 -0.32945708373588178 -0.18448348783091689 0 -0.31220508881165993 -0.16846949012138551 0 -0.32945708373588178 -0.18448348783091689 0 -0.33501951577929873 -0.16729908190312789 0 -0.32945708373588178 -0.18448348783091689 0 -0.31489114071409963 -0.18333745750317351 0 -0.32010675552350842 -0.19230926195043291 0 -0.30717411826112789 -0.1920401195635244 0 -0.32010675552350842 -0.19230926195043291 0 -0.3129652712195421 -0.2114706657937139 0 -0.32945708373588178 -0.18448348783091689 0 -0.32010675552350842 -0.19230926195043291 0 -0.32566449460190838 -0.20326261146105551 0 -0.32010675552350842 -0.19230926195043291 0 -0.3129652712195421 -0.2114706657937139 0 -0.32566449460190838 -0.20326261146105551 0 -0.30717411826112789 -0.1920401195635244 0 -0.31489114071409963 -0.18333745750317351 0 -0.32010675552350842 -0.19230926195043291 0 -0.3129652712195421 -0.2114706657937139 0 -0.32566449460190838 -0.20326261146105551 0 -0.33208474862113468 -0.21873250337862821 0 -0.33208474862113468 -0.21873250337862821 0 -0.34670907866010381 -0.20049748554044841 0 -0.34896881396179619 -0.22434135344573131 0 -0.32566449460190838 -0.20326261146105551 0 -0.33208474862113468 -0.21873250337862821 0 -0.34670907866010381 -0.20049748554044841 0 -0.3536864721015115 -0.18284124587119119 0 -0.32945708373588178 -0.18448348783091689 0 -0.34670907866010381 -0.20049748554044841 0 -0.32945708373588178 -0.18448348783091689 0 -0.32566449460190838 -0.20326261146105551 0 -0.34670907866010381 -0.20049748554044841 0 -0.32945708373588178 -0.18448348783091689 0 -0.34670907866010381 -0.20049748554044841 0 -0.3536864721015115 -0.18284124587119119 0 -0.35917751319241631 -0.19955840612521841 0 -0.34670907866010381 -0.20049748554044841 0 -0.3536864721015115 -0.18284124587119119 0 -0.37235342842372432 -0.19838340983925429 0 -0.3536864721015115 -0.18284124587119119 0 -0.35917751319241631 -0.19955840612521841 0 -0.37235342842372432 -0.19838340983925429 0 -0.37235342842372432 -0.19838340983925429 0 -0.36396107358432572 -0.21651148324997979 0 -0.37772562505684643 -0.22219038377974651 0 -0.35917751319241631 -0.19955840612521841 0 -0.37235342842372432 -0.19838340983925429 0 -0.36396107358432572 -0.21651148324997979 0 -0.34670907866010381 -0.20049748554044841 0 -0.36396107358432572 -0.21651148324997979 0 -0.34896881396179619 -0.22434135344573131 0 -0.34670907866010381 -0.20049748554044841 0 -0.36396107358432572 -0.21651148324997979 0 -0.35917751319241631 -0.19955840612521841 0 -0.34670907866010381 -0.20049748554044841 0 -0.36396107358432572 -0.21651148324997979 0 -0.34896881396179619 -0.22434135344573131 0 -0.36764811873304098 -0.23322730847002751 0 -0.35305879752332059 -0.24486073726717009 0 -0.36396107358432572 -0.21651148324997979 0 -0.36764811873304098 -0.23322730847002751 0 -0.37772562505684643 -0.22219038377974651 0 -0.36396107358432572 -0.21651148324997979 0 -0.34896881396179619 -0.22434135344573131 0 -0.36764811873304098 -0.23322730847002751 0 -0.37533687834285862 -0.25417213976024849 0 -0.36764811873304098 -0.23322730847002751 0 -0.35305879752332059 -0.24486073726717009 0 -0.34896881396179619 -0.22434135344573131 0 -0.35305879752332059 -0.24486073726717009 0 -0.33568364413539042 -0.23615154195274179 0 -0.33623326073948312 -0.25365348176558788 0 -0.33568364413539042 -0.23615154195274179 0 -0.32213598881581812 -0.2442700999577708 0 -0.33623326073948312 -0.25365348176558788 0 -0.35305879752332059 -0.24486073726717009 0 -0.33568364413539042 -0.23615154195274179 0 -0.33208474862113468 -0.21873250337862821 0 -0.33568364413539042 -0.23615154195274179 0 -0.32219037366776621 -0.22897372759534659 0 -0.33208474862113468 -0.21873250337862821 0 -0.34896881396179619 -0.22434135344573131 0 -0.33568364413539042 -0.23615154195274179 0 -0.30829656048542242 -0.23127198481015249 0 -0.3129652712195421 -0.2114706657937139 0 -0.32219037366776621 -0.22897372759534659 0 -0.3129652712195421 -0.2114706657937139 0 -0.33208474862113468 -0.21873250337862821 0 -0.32219037366776621 -0.22897372759534659 0 -0.30769212114973271 -0.24578220261295139 0 -0.30829656048542242 -0.23127198481015249 0 -0.32213598881581812 -0.2442700999577708 0 -0.30829656048542242 -0.23127198481015249 0 -0.32219037366776621 -0.22897372759534659 0 -0.32213598881581812 -0.2442700999577708 0 -0.31968345090478489 -0.25798973640781447 0 -0.30769212114973271 -0.24578220261295139 0 -0.32213598881581812 -0.2442700999577708 0 -0.33568364413539042 -0.23615154195274179 0 -0.32219037366776621 -0.22897372759534659 0 -0.32213598881581812 -0.2442700999577708 0 -0.43598079583492633 -0.24721882136819351 0 -0.42311134176242837 -0.2304528026464861 0 -0.41615383063077721 -0.2466412503256647 0 -0.43598079583492633 -0.24721882136819351 0 -0.42311134176242837 -0.2304528026464861 0 -0.43908324849522451 -0.2287046610080686 0 -0.42311134176242837 -0.2304528026464861 0 -0.41411505562058892 -0.2091502018577929 0 -0.42948217154750851 -0.21815887616964899 0 -0.42311134176242837 -0.2304528026464861 0 -0.42948217154750851 -0.21815887616964899 0 -0.43908324849522451 -0.2287046610080686 0 -0.42948217154750851 -0.21815887616964899 0 -0.43955036875351089 -0.21658504913102711 0 -0.43908324849522451 -0.2287046610080686 0 -0.40619246279161347 -0.2313797712556602 0 -0.41411505562058892 -0.2091502018577929 0 -0.42311134176242837 -0.2304528026464861 0 -0.40619246279161347 -0.2313797712556602 0 -0.41411505562058892 -0.2091502018577929 0 -0.39826986996263802 -0.25360934065352753 0 -0.41615383063077721 -0.2466412503256647 0 -0.40619246279161347 -0.2313797712556602 0 -0.42311134176242837 -0.2304528026464861 0 -0.41615383063077721 -0.2466412503256647 0 -0.40619246279161347 -0.2313797712556602 0 -0.39826986996263802 -0.25360934065352753 0 -0.38632210934187061 -0.2364082567837591 0 -0.40619246279161347 -0.2313797712556602 0 -0.39826986996263802 -0.25360934065352753 0 -0.40619246279161347 -0.2313797712556602 0 -0.37533687834285862 -0.25417213976024849 0 -0.36764811873304098 -0.23322730847002751 0 -0.38632210934187061 -0.2364082567837591 0 -0.37533687834285862 -0.25417213976024849 0 -0.39826986996263802 -0.25360934065352753 0 -0.38632210934187061 -0.2364082567837591 0 -0.36764811873304098 -0.23322730847002751 0 -0.38632210934187061 -0.2364082567837591 0 -0.37772562505684643 -0.22219038377974651 0 -0.38632210934187061 -0.2364082567837591 0 -0.37772562505684643 -0.22219038377974651 0 -0.39102038474593709 -0.2139255738073175 0 -0.38632210934187061 -0.2364082567837591 0 -0.40619246279161347 -0.2313797712556602 0 -0.39102038474593709 -0.2139255738073175 0 -0.39102038474593709 -0.2139255738073175 0 -0.40351751052996843 -0.1957217498792192 0 -0.41411505562058892 -0.2091502018577929 0 -0.40619246279161347 -0.2313797712556602 0 -0.39102038474593709 -0.2139255738073175 0 -0.41411505562058892 -0.2091502018577929 0 -0.37235342842372432 -0.19838340983925429 0 -0.39102038474593709 -0.2139255738073175 0 -0.37235342842372432 -0.19838340983925429 0 -0.37772562505684643 -0.22219038377974651 0 -0.39102038474593709 -0.2139255738073175 0 -0.37016556171889331 -0.18126023377528719 0 -0.37235342842372432 -0.19838340983925429 0 -0.38726325091278008 -0.18918768555573329 0 -0.37235342842372432 -0.19838340983925429 0 -0.39102038474593709 -0.2139255738073175 0 -0.38726325091278008 -0.18918768555573329 0 -0.38726325091278008 -0.18918768555573329 0 -0.40351751052996843 -0.1957217498792192 0 -0.40315121292097328 -0.17942465571532731 0 -0.39102038474593709 -0.2139255738073175 0 -0.38726325091278008 -0.18918768555573329 0 -0.40351751052996843 -0.1957217498792192 0 -0.41411505562058892 -0.2091502018577929 0 -0.42203764844956237 -0.18692063245992491 0 -0.40351751052996843 -0.1957217498792192 0 -0.41411505562058892 -0.2091502018577929 0 -0.42203764844956237 -0.18692063245992491 0 -0.41411505562058892 -0.2091502018577929 0 -0.42948217154750851 -0.21815887616964899 0 -0.43155084310578928 -0.2059016662048701 0 -0.42948217154750851 -0.21815887616964899 0 -0.43155084310578928 -0.2059016662048701 0 -0.43955036875351089 -0.21658504913102711 0 -0.42203764844956237 -0.18692063245992491 0 -0.44484374680150301 -0.19597231310248839 0 -0.41411505562058892 -0.2091502018577929 0 -0.43155084310578928 -0.2059016662048701 0 -0.42203764844956237 -0.18692063245992491 0 -0.43155084310578928 -0.2059016662048701 0 -0.42203764844956237 -0.18692063245992491 0 -0.44484374680150301 -0.19597231310248839 0 -0.42203764844956237 -0.18692063245992491 0 -0.44134853753678083 -0.18159229851429221 0 -0.44484374680150301 -0.19597231310248839 0 -0.42203764844956237 -0.18692063245992491 0 -0.42880774722037651 -0.1679247830322266 0 -0.42203764844956237 -0.18692063245992491 0 -0.42880774722037651 -0.1679247830322266 0 -0.44134853753678083 -0.18159229851429221 0 -0.42880774722037651 -0.1679247830322266 0 -0.43557784599118871 -0.14892893360452769 0 -0.44631139980808621 -0.1631836851414229 0 -0.42880774722037651 -0.1679247830322266 0 -0.43557784599118871 -0.14892893360452769 0 -0.42880774722037651 -0.1679247830322266 0 -0.41236960909879722 -0.16540507401591409 0 -0.42079860369606048 -0.15043713941075901 0 -0.42203764844956237 -0.18692063245992491 0 -0.42880774722037651 -0.1679247830322266 0 -0.41236960909879722 -0.16540507401591409 0 -0.40351751052996843 -0.1957217498792192 0 -0.42203764844956237 -0.18692063245992491 0 -0.40315121292097328 -0.17942465571532731 0 -0.42203764844956237 -0.18692063245992491 0 -0.40315121292097328 -0.17942465571532731 0 -0.42203764844956237 -0.18692063245992491 0 -0.41236960909879722 -0.16540507401591409 0 -0.40315121292097328 -0.17942465571532731 0 -0.38726325091278008 -0.18918768555573329 0 -0.40315121292097328 -0.17942465571532731 0 -0.38426477739238413 -0.17192867897072969 0 -0.40315121292097328 -0.17942465571532731 0 -0.38426477739238413 -0.17192867897072969 0 -0.37016556171889331 -0.18126023377528719 0 -0.38726325091278008 -0.18918768555573329 0 -0.38426477739238413 -0.17192867897072969 0 -0.36554542654456429 -0.16945206744667471 0 -0.38426477739238413 -0.17192867897072969 0 -0.37696591512674532 -0.1609827341034305 0 -0.38426477739238413 -0.17192867897072969 0 -0.37696591512674532 -0.1609827341034305 0 -0.39230106084837368 -0.15838844905994759 0 -0.40315121292097328 -0.17942465571532731 0 -0.38426477739238413 -0.17192867897072969 0 -0.39230106084837368 -0.15838844905994759 0 -0.41236960909879722 -0.16540507401591409 0 -0.39230106084837368 -0.15838844905994759 0 -0.40587711449475489 -0.1449624873806776 0 -0.41236960909879722 -0.16540507401591409 0 -0.40315121292097328 -0.17942465571532731 0 -0.39230106084837368 -0.15838844905994759 0 -0.39230106084837368 -0.15838844905994759 0 -0.39162863389564362 -0.14105630786861159 0 -0.40587711449475489 -0.1449624873806776 0 -0.39230106084837368 -0.15838844905994759 0 -0.39162863389564362 -0.14105630786861159 0 -0.3777566452334315 -0.14913711856379011 0 -0.37696591512674532 -0.1609827341034305 0 -0.39230106084837368 -0.15838844905994759 0 -0.3777566452334315 -0.14913711856379011 0 -0.36893450279197471 -0.1249528869149899 0 -0.39162863389564362 -0.14105630786861159 0 -0.3777566452334315 -0.14913711856379011 0 -0.36893450279197471 -0.1249528869149899 0 -0.39162863389564362 -0.14105630786861159 0 -0.39514760223357998 -0.1249586529677193 0 -0.39162863389564362 -0.14105630786861159 0 -0.40587711449475489 -0.1449624873806776 0 -0.39514760223357998 -0.1249586529677193 0 -0.40587711449475489 -0.1449624873806776 0 -0.39514760223357998 -0.1249586529677193 0 -0.42136070167518519 -0.1249644190204488 0 -0.40587711449475489 -0.1449624873806776 0 -0.42079860369606048 -0.15043713941075901 0 -0.42136070167518519 -0.1249644190204488 0 -0.41236960909879722 -0.16540507401591409 0 -0.40587711449475489 -0.1449624873806776 0 -0.42079860369606048 -0.15043713941075901 0 -0.42079860369606048 -0.15043713941075901 0 -0.43557784599118871 -0.14892893360452769 0 -0.42136070167518519 -0.1249644190204488 0 -0.42880774722037651 -0.1679247830322266 0 -0.42079860369606048 -0.15043713941075901 0 -0.43557784599118871 -0.14892893360452769 0 -0.43557784599118871 -0.14892893360452769 0 -0.42136070167518519 -0.1249644190204488 0 -0.44757380111679052 -0.12497018507317829 0 -0.43557784599118871 -0.14892893360452769 0 -0.45596445488588 -0.14427568033770541 0 -0.44757380111679052 -0.12497018507317829 0 -0.43557784599118871 -0.14892893360452769 0 -0.45596445488588 -0.14427568033770541 0 -0.44631139980808621 -0.1631836851414229 0 -0.45596445488588 -0.14427568033770541 0 -0.46278066629215481 -0.1610158872753634 0 -0.44631139980808621 -0.1631836851414229 0 -0.45596445488588 -0.14427568033770541 0 -0.47930750267908417 -0.1480635854121114 0 -0.46278066629215481 -0.1610158872753634 0 -0.45596445488588 -0.14427568033770541 0 -0.44757380111679052 -0.12497018507317829 0 -0.47378690055839578 -0.1249759511259078 0 -0.48827360080937021 -0.13531742911399189 0 -0.47930750267908417 -0.1480635854121114 0 -0.47378690055839578 -0.1249759511259078 0 -0.45596445488588 -0.14427568033770541 0 -0.47930750267908417 -0.1480635854121114 0 -0.47378690055839578 -0.1249759511259078 0 -0.48827360080937021 -0.13531742911399189 0 -0.5 -0.14324846273931111 0 -0.50000000000000111 -0.12498171717863731 0 -0.48827360080937021 -0.13531742911399189 0 -0.47378690055839578 -0.1249759511259078 0 -0.50000000000000111 -0.12498171717863731 0 -0.5 -0.14324846273931111 0 -0.47930750267908417 -0.1480635854121114 0 -0.49999999999999961 -0.161515208299985 0 -0.48827360080937021 -0.13531742911399189 0 -0.5 -0.14324846273931111 0 -0.47930750267908417 -0.1480635854121114 0 -0.47930750267908417 -0.1480635854121114 0 -0.47738728335761421 -0.1682509267597351 0 -0.46278066629215481 -0.1610158872753634 0 -0.47738728335761421 -0.1682509267597351 0 -0.49999999999999961 -0.161515208299985 0 -0.48839409620634278 -0.18039624849769001 0 -0.49999999999999961 -0.161515208299985 0 -0.48839409620634278 -0.18039624849769001 0 -0.47930750267908417 -0.1480635854121114 0 -0.47738728335761421 -0.1682509267597351 0 -0.49999999999999961 -0.161515208299985 0 -0.49999999999999961 -0.161515208299985 0 -0.5 -0.18618779176616679 0 -0.48839409620634278 -0.18039624849769001 0 -0.5 -0.18618779176616679 0 -0.48839409620634278 -0.18039624849769001 0 -0.48957789370491162 -0.19386933705848941 0 -0.47738728335761421 -0.1682509267597351 0 -0.48839409620634278 -0.18039624849769001 0 -0.47328693949397721 -0.18411760774338479 0 -0.47738728335761421 -0.1682509267597351 0 -0.47328693949397721 -0.18411760774338479 0 -0.45860677246597031 -0.17520894370368309 0 -0.47328693949397721 -0.18411760774338479 0 -0.45860677246597031 -0.17520894370368309 0 -0.45906836497473352 -0.19043479360484361 0 -0.47738728335761421 -0.1682509267597351 0 -0.45860677246597031 -0.17520894370368309 0 -0.46278066629215481 -0.1610158872753634 0 -0.45860677246597031 -0.17520894370368309 0 -0.46278066629215481 -0.1610158872753634 0 -0.44631139980808621 -0.1631836851414229 0 -0.42880774722037651 -0.1679247830322266 0 -0.44631139980808621 -0.1631836851414229 0 -0.44134853753678083 -0.18159229851429221 0 -0.45860677246597031 -0.17520894370368309 0 -0.44631139980808621 -0.1631836851414229 0 -0.44134853753678083 -0.18159229851429221 0 -0.45860677246597031 -0.17520894370368309 0 -0.44134853753678083 -0.18159229851429221 0 -0.45906836497473352 -0.19043479360484361 0 -0.44134853753678083 -0.18159229851429221 0 -0.45906836497473352 -0.19043479360484361 0 -0.44134853753678083 -0.18159229851429221 0 -0.44484374680150301 -0.19597231310248839 0 -0.45906836497473352 -0.19043479360484361 0 -0.43155084310578928 -0.2059016662048701 0 -0.44484374680150301 -0.19597231310248839 0 -0.44343463088850471 -0.20721188330797369 0 -0.43155084310578928 -0.2059016662048701 0 -0.44343463088850471 -0.20721188330797369 0 -0.43955036875351089 -0.21658504913102711 0 -0.44343463088850471 -0.20721188330797369 0 -0.43955036875351089 -0.21658504913102711 0 -0.44966782191270221 -0.21345696714665749 0 -0.44966782191270221 -0.21345696714665749 0 -0.45691127413918359 -0.218140336649912 0 -0.44903912237987481 -0.22310222333220869 0 -0.43955036875351089 -0.21658504913102711 0 -0.44966782191270221 -0.21345696714665749 0 -0.44903912237987481 -0.22310222333220869 0 -0.44484374680150301 -0.19597231310248839 0 -0.44343463088850471 -0.20721188330797369 0 -0.45285363365211462 -0.2065344908709397 0 -0.44343463088850471 -0.20721188330797369 0 -0.44966782191270221 -0.21345696714665749 0 -0.45285363365211462 -0.2065344908709397 0 -0.45285363365211462 -0.2065344908709397 0 -0.4586721235044201 -0.2110072970525271 0 -0.46764984515344349 -0.20502399374505181 0 -0.44966782191270221 -0.21345696714665749 0 -0.45285363365211462 -0.2065344908709397 0 -0.4586721235044201 -0.2110072970525271 0 -0.44966782191270221 -0.21345696714665749 0 -0.4586721235044201 -0.2110072970525271 0 -0.45691127413918359 -0.218140336649912 0 -0.4586721235044201 -0.2110072970525271 0 -0.45691127413918359 -0.218140336649912 0 -0.46757130244775341 -0.21427176676618889 0 -0.4586721235044201 -0.2110072970525271 0 -0.46757130244775341 -0.21427176676618889 0 -0.46764984515344349 -0.20502399374505181 0 -0.44484374680150301 -0.19597231310248839 0 -0.46764984515344349 -0.20502399374505181 0 -0.45906836497473352 -0.19043479360484361 0 -0.44484374680150301 -0.19597231310248839 0 -0.45285363365211462 -0.2065344908709397 0 -0.46764984515344349 -0.20502399374505181 0 -0.45906836497473352 -0.19043479360484361 0 -0.47678819241268611 -0.1992772886953951 0 -0.44484374680150301 -0.19597231310248839 0 -0.46764984515344349 -0.20502399374505181 0 -0.46764984515344349 -0.20502399374505181 0 -0.45906836497473352 -0.19043479360484361 0 -0.47678819241268611 -0.1992772886953951 0 -0.47328693949397721 -0.18411760774338479 0 -0.45906836497473352 -0.19043479360484361 0 -0.47678819241268611 -0.1992772886953951 0 -0.48839409620634278 -0.18039624849769001 0 -0.47328693949397721 -0.18411760774338479 0 -0.47678819241268611 -0.1992772886953951 0 -0.48839409620634278 -0.18039624849769001 0 -0.47678819241268611 -0.1992772886953951 0 -0.47678819241268611 -0.1992772886953951 0 -0.48957789370491162 -0.19386933705848941 0 -0.50000000000000222 -0.21086037523234849 0 -0.48839409620634278 -0.18039624849769001 0 -0.47678819241268611 -0.1992772886953951 0 -0.48957789370491162 -0.19386933705848941 0 -0.5 -0.18618779176616679 0 -0.48957789370491162 -0.19386933705848941 0 -0.50000000000000222 -0.21086037523234849 0 -0.50000000000000222 -0.21086037523234849 0 -0.48101414991814051 -0.21220490785157131 0 -0.4775447229854059 -0.22535576830415929 0 -0.47678819241268611 -0.1992772886953951 0 -0.50000000000000222 -0.21086037523234849 0 -0.47678819241268611 -0.1992772886953951 0 -0.50000000000000222 -0.21086037523234849 0 -0.48101414991814051 -0.21220490785157131 0 -0.46757130244775341 -0.21427176676618889 0 -0.47678819241268611 -0.1992772886953951 0 -0.48101414991814051 -0.21220490785157131 0 -0.46757130244775341 -0.21427176676618889 0 -0.47678819241268611 -0.1992772886953951 0 -0.46757130244775341 -0.21427176676618889 0 -0.46764984515344349 -0.20502399374505181 0 -0.47678819241268611 -0.1992772886953951 0 -0.46757130244775341 -0.21427176676618889 0 -0.48101414991814051 -0.21220490785157131 0 -0.4775447229854059 -0.22535576830415929 0 -0.46757130244775341 -0.21427176676618889 0 -0.4775447229854059 -0.22535576830415929 0 -0.46571952953094348 -0.22577651025912229 0 -0.4775447229854059 -0.22535576830415929 0 -0.4726071657750785 -0.240360200228666 0 -0.45676275941016609 -0.23628729483617639 0 -0.50000000000000222 -0.21086037523234849 0 -0.4775447229854059 -0.22535576830415929 0 -0.48548116721245049 -0.23774912910784329 0 -0.50000000000000222 -0.21086037523234849 0 -0.5 -0.2401545466321974 0 -0.48548116721245049 -0.23774912910784329 0 -0.48050148842732221 -0.25523221810557922 0 -0.5 -0.2401545466321974 0 -0.48548116721245049 -0.23774912910784329 0 -0.48050148842732221 -0.25523221810557922 0 -0.4726071657750785 -0.240360200228666 0 -0.46267023581878858 -0.24817136713935201 0 -0.48050148842732221 -0.25523221810557922 0 -0.48548116721245049 -0.23774912910784329 0 -0.4726071657750785 -0.240360200228666 0 -0.4775447229854059 -0.22535576830415929 0 -0.48548116721245049 -0.23774912910784329 0 -0.4726071657750785 -0.240360200228666 0 -0.4726071657750785 -0.240360200228666 0 -0.46267023581878858 -0.24817136713935201 0 -0.45676275941016609 -0.23628729483617639 0 -0.46267023581878858 -0.24817136713935201 0 -0.45676275941016609 -0.23628729483617639 0 -0.45139902778349827 -0.24711062934306771 0 -0.4775447229854059 -0.22535576830415929 0 -0.45676275941016609 -0.23628729483617639 0 -0.46571952953094348 -0.22577651025912229 0 -0.4775447229854059 -0.22535576830415929 0 -0.45676275941016609 -0.23628729483617639 0 -0.46757130244775341 -0.21427176676618889 0 -0.45835441248282049 -0.22926624483698249 0 -0.45691127413918359 -0.218140336649912 0 -0.46757130244775341 -0.21427176676618889 0 -0.45835441248282049 -0.22926624483698249 0 -0.46757130244775341 -0.21427176676618889 0 -0.46571952953094348 -0.22577651025912229 0 -0.45835441248282049 -0.22926624483698249 0 -0.45691127413918359 -0.218140336649912 0 -0.45835441248282049 -0.22926624483698249 0 -0.44903912237987481 -0.22310222333220869 0 -0.45676275941016609 -0.23628729483617639 0 -0.46571952953094348 -0.22577651025912229 0 -0.45835441248282049 -0.22926624483698249 0 -0.45676275941016609 -0.23628729483617639 0 -0.45835441248282049 -0.22926624483698249 0 -0.44784406772060242 -0.23291584907632601 0 -0.45835441248282049 -0.22926624483698249 0 -0.44784406772060242 -0.23291584907632601 0 -0.44903912237987481 -0.22310222333220869 0 -0.44784406772060242 -0.23291584907632601 0 -0.44903912237987481 -0.22310222333220869 0 -0.43908324849522451 -0.2287046610080686 0 -0.43955036875351089 -0.21658504913102711 0 -0.44903912237987481 -0.22310222333220869 0 -0.43908324849522451 -0.2287046610080686 0 -0.43598079583492633 -0.24721882136819351 0 -0.44784406772060242 -0.23291584907632601 0 -0.43908324849522451 -0.2287046610080686 0 -0.43598079583492633 -0.24721882136819351 0 -0.45676275941016609 -0.23628729483617639 0 -0.45139902778349827 -0.24711062934306771 0 -0.43598079583492633 -0.24721882136819351 0 -0.45676275941016609 -0.23628729483617639 0 -0.44784406772060242 -0.23291584907632601 0 -0.43598079583492633 -0.24721882136819351 0 -0.45676275941016609 -0.23628729483617639 0 -0.41513049604948221 -0.033942569896895612 0 -0.42680670243505803 -0.034615113076212713 0 -0.40073055052989021 -0.025701474464423758 0 -0.41513049604948221 -0.033942569896895612 0 -0.42462943043776058 -0.041038039404546971 0 -0.40237332615973681 -0.030676944162886681 0 -0.42462943043776058 -0.041038039404546971 0 -0.40237332615973681 -0.030676944162886681 0 -0.41105872637709778 -0.041104419315527559 0 -0.42462943043776058 -0.041038039404546971 0 -0.40237332615973681 -0.030676944162886681 0 -0.41795689190558921 -0.046390941043723911 0 -0.41105872637709778 -0.041104419315527559 0 -0.42462943043776058 -0.041038039404546971 0 -0.41513049604948221 -0.033942569896895612 0 -0.42462943043776058 -0.041038039404546971 0 -0.4243569293735685 -0.037306081984415762 0 -0.41105872637709778 -0.041104419315527559 0 -0.4050251302254127 -0.045922345921936697 0 -0.40306291723554027 -0.039039715031688543 0 -0.41795689190558921 -0.046390941043723911 0 -0.41105872637709778 -0.041104419315527559 0 -0.41174405323292163 -0.047949206462353358 0 -0.41105872637709778 -0.041104419315527559 0 -0.41174405323292163 -0.047949206462353358 0 -0.4050251302254127 -0.045922345921936697 0 -0.41174405323292163 -0.047949206462353358 0 -0.4050251302254127 -0.045922345921936697 0 -0.40603099279739802 -0.054788986838451827 0 -0.41174405323292163 -0.047949206462353358 0 -0.4187470457232762 -0.053937065845881961 0 -0.40603099279739802 -0.054788986838451827 0 -0.4187470457232762 -0.053937065845881961 0 -0.40603099279739802 -0.054788986838451827 0 -0.41284572228237681 -0.064006668923108523 0 -0.4187470457232762 -0.053937065845881961 0 -0.41284572228237681 -0.064006668923108523 0 -0.42746868386642678 -0.066478460468227696 0 -0.41795689190558921 -0.046390941043723911 0 -0.41174405323292163 -0.047949206462353358 0 -0.4187470457232762 -0.053937065845881961 0 -0.41795689190558921 -0.046390941043723911 0 -0.4187470457232762 -0.053937065845881961 0 -0.42320145590089769 -0.048540393412862697 0 -0.42320145590089769 -0.048540393412862697 0 -0.43147245553696489 -0.05279552735729795 0 -0.42462943043776058 -0.041038039404546971 0 -0.4187470457232762 -0.053937065845881961 0 -0.42320145590089769 -0.048540393412862697 0 -0.43147245553696489 -0.05279552735729795 0 -0.43147245553696489 -0.05279552735729795 0 -0.42462943043776058 -0.041038039404546971 0 -0.44688553471578463 -0.051399134646207288 0 -0.4187470457232762 -0.053937065845881961 0 -0.43147245553696489 -0.05279552735729795 0 -0.42746868386642678 -0.066478460468227696 0 -0.43147245553696489 -0.05279552735729795 0 -0.42746868386642678 -0.066478460468227696 0 -0.43950717444435422 -0.063784996514660589 0 -0.42818951741271921 -0.038310772776573528 0 -0.43628267576141971 -0.035329403205585218 0 -0.44688553471578463 -0.051399134646207288 0 -0.42462943043776058 -0.041038039404546971 0 -0.42818951741271921 -0.038310772776573528 0 -0.44688553471578463 -0.051399134646207288 0 -0.42462943043776058 -0.041038039404546971 0 -0.44688553471578463 -0.051399134646207288 0 -0.41795689190558921 -0.046390941043723911 0 -0.42320145590089769 -0.048540393412862697 0 -0.42462943043776058 -0.041038039404546971 0 -0.41513049604948221 -0.033942569896895612 0 -0.4243569293735685 -0.037306081984415762 0 -0.42680670243505803 -0.034615113076212713 0 -0.42462943043776058 -0.041038039404546971 0 -0.4243569293735685 -0.037306081984415762 0 -0.42818951741271921 -0.038310772776573528 0 -0.42818951741271921 -0.038310772776573528 0 -0.42680670243505803 -0.034615113076212713 0 -0.4243569293735685 -0.037306081984415762 0 -0.42818951741271921 -0.038310772776573528 0 -0.42680670243505803 -0.034615113076212713 0 -0.42818951741271921 -0.038310772776573528 0 -0.42680670243505803 -0.034615113076212713 0 -0.42995577540377822 -0.032900560567165532 0 -0.42818951741271921 -0.038310772776573528 0 -0.42995577540377822 -0.032900560567165532 0 -0.43628267576141971 -0.035329403205585218 0 -0.42995577540377822 -0.032900560567165532 0 -0.43628267576141971 -0.035329403205585218 0 -0.4327931004709421 -0.029092843067932112 0 -0.42680670243505803 -0.034615113076212713 0 -0.4285090787839364 -0.025262373234060161 0 -0.41794895562780338 -0.01094222954485795 0 -0.42680670243505803 -0.034615113076212713 0 -0.41794895562780338 -0.01094222954485795 0 -0.43628267576141971 -0.035329403205585218 0 -0.4327931004709421 -0.029092843067932112 0 -0.43710875721387199 -0.026668229939385779 0 -0.42995577540377822 -0.032900560567165532 0 -0.4327931004709421 -0.029092843067932112 0 -0.4285090787839364 -0.025262373234060161 0 -0.43210921519170409 -0.025303648393463829 0 -0.43710875721387199 -0.026668229939385779 0 -0.43108579893039811 -0.01948839847471974 0 -0.4327931004709421 -0.029092843067932112 0 -0.43210921519170409 -0.025303648393463829 0 -0.4285090787839364 -0.025262373234060161 0 -0.4327931004709421 -0.029092843067932112 0 -0.43210921519170409 -0.025303648393463829 0 -0.43710875721387199 -0.026668229939385779 0 -0.43108579893039811 -0.01948839847471974 0 -0.43397544616601241 -0.014244232554068349 0 -0.43928417642389239 -0.017661557407765791 0 -0.43710875721387199 -0.026668229939385779 0 -0.43108579893039811 -0.01948839847471974 0 -0.43928417642389239 -0.017661557407765791 0 -0.43210921519170409 -0.025303648393463829 0 -0.43108579893039811 -0.01948839847471974 0 -0.4285090787839364 -0.025262373234060161 0 -0.43108579893039811 -0.01948839847471974 0 -0.4285090787839364 -0.025262373234060161 0 -0.41794895562780338 -0.01094222954485795 0 -0.42680670243505803 -0.034615113076212713 0 -0.42995577540377822 -0.032900560567165532 0 -0.4285090787839364 -0.025262373234060161 0 -0.43591977417237449 -0.008065469867085449 0 -0.42907061680018699 -0.010664914002041091 0 -0.42583279771702431 0.00046528033667210148 0 -0.43108579893039811 -0.01948839847471974 0 -0.43397544616601241 -0.014244232554068349 0 -0.42907061680018699 -0.010664914002041091 0 -0.43591977417237449 -0.008065469867085449 0 -0.43397544616601241 -0.014244232554068349 0 -0.43928417642389239 -0.017661557407765791 0 -0.43591977417237449 -0.008065469867085449 0 -0.43397544616601241 -0.014244232554068349 0 -0.42907061680018699 -0.010664914002041091 0 -0.43108579893039811 -0.01948839847471974 0 -0.42907061680018699 -0.010664914002041091 0 -0.41794895562780338 -0.01094222954485795 0 -0.42907061680018699 -0.010664914002041091 0 -0.41794895562780338 -0.01094222954485795 0 -0.42583279771702431 0.00046528033667210148 0 -0.41794895562780338 -0.01094222954485795 0 -0.4102220184461346 -0.019351118920435541 0 -0.40021295305484711 -0.013852611056198059 0 -0.41794895562780338 -0.01094222954485795 0 -0.40352261506359649 -0.001038070178381474 0 -0.40021295305484711 -0.013852611056198059 0 -0.42680670243505803 -0.034615113076212713 0 -0.41794895562780338 -0.01094222954485795 0 -0.4102220184461346 -0.019351118920435541 0 -0.42680670243505803 -0.034615113076212713 0 -0.4102220184461346 -0.019351118920435541 0 -0.40073055052989021 -0.025701474464423758 0 -0.42680670243505803 -0.034615113076212713 0 -0.40073055052989021 -0.025701474464423758 0 -0.41513049604948221 -0.033942569896895612 0 -0.40073055052989021 -0.025701474464423758 0 -0.40237332615973681 -0.030676944162886681 0 -0.40073055052989021 -0.025701474464423758 0 -0.40237332615973681 -0.030676944162886681 0 -0.38011722188171299 -0.020315848921226409 0 -0.40237332615973681 -0.030676944162886681 0 -0.38011722188171299 -0.020315848921226409 0 -0.4102220184461346 -0.019351118920435541 0 -0.40073055052989021 -0.025701474464423758 0 -0.40021295305484711 -0.013852611056198059 0 -0.40073055052989021 -0.025701474464423758 0 -0.40021295305484711 -0.013852611056198059 0 -0.38745402304870558 -0.01483805838738575 0 -0.40352261506359649 -0.001038070178381474 0 -0.40021295305484711 -0.013852611056198059 0 -0.39408165103759368 -0.0019794594859314238 0 -0.40021295305484711 -0.013852611056198059 0 -0.39408165103759368 -0.0019794594859314238 0 -0.39005949432245718 -0.0085411321607220259 0 -0.40021295305484711 -0.013852611056198059 0 -0.39005949432245718 -0.0085411321607220259 0 -0.38745402304870558 -0.01483805838738575 0 -0.39408165103759368 -0.0019794594859314238 0 -0.3848191179490616 -0.0027051675553946518 0 -0.39005949432245718 -0.0085411321607220259 0 -0.3848191179490616 -0.0027051675553946518 0 -0.38372972652207787 -0.0093303643187002475 0 -0.39005949432245718 -0.0085411321607220259 0 -0.38372972652207787 -0.0093303643187002475 0 -0.38745402304870558 -0.01483805838738575 0 -0.3791207175096093 -0.01135650732177081 0 -0.38372972652207787 -0.0093303643187002475 0 -0.39005949432245718 -0.0085411321607220259 0 -0.38745402304870558 -0.01483805838738575 0 -0.37465439862472261 -0.016787835852634068 0 -0.37464851222799189 -0.0076089195940836872 0 -0.3791207175096093 -0.01135650732177081 0 -0.37465439862472261 -0.016787835852634068 0 -0.38745402304870558 -0.01483805838738575 0 -0.3791207175096093 -0.01135650732177081 0 -0.37464851222799189 -0.0076089195940836872 0 -0.3791207175096093 -0.01135650732177081 0 -0.37960876280762101 -0.0064231604720931881 0 -0.38372972652207787 -0.0093303643187002475 0 -0.3791207175096093 -0.01135650732177081 0 -0.37960876280762101 -0.0064231604720931881 0 -0.3848191179490616 -0.0027051675553946518 0 -0.38372972652207787 -0.0093303643187002475 0 -0.37960876280762101 -0.0064231604720931881 0 -0.37464851222799189 -0.0076089195940836872 0 -0.37960876280762101 -0.0064231604720931881 0 -0.37774077980655368 -0.001289555558904682 0 -0.3848191179490616 -0.0027051675553946518 0 -0.37960876280762101 -0.0064231604720931881 0 -0.37774077980655368 -0.001289555558904682 0 -0.37465439862472261 -0.016787835852634068 0 -0.40073055052989021 -0.025701474464423758 0 -0.38745402304870558 -0.01483805838738575 0 -0.40237332615973681 -0.030676944162886681 0 -0.38781453024876661 -0.02996800237218563 0 -0.38011722188171299 -0.020315848921226409 0 -0.37465439862472261 -0.016787835852634068 0 -0.40073055052989021 -0.025701474464423758 0 -0.38011722188171299 -0.020315848921226409 0 -0.37465439862472261 -0.016787835852634068 0 -0.40073055052989021 -0.025701474464423758 0 -0.37402384376206249 -0.023759624541515059 0 -0.37465439862472261 -0.016787835852634068 0 -0.38011722188171299 -0.020315848921226409 0 -0.37402384376206249 -0.023759624541515059 0 -0.38011722188171299 -0.020315848921226409 0 -0.37866743010551202 -0.02906954498465647 0 -0.38781453024876661 -0.02996800237218563 0 -0.38011722188171299 -0.020315848921226409 0 -0.37866743010551202 -0.02906954498465647 0 -0.37439980638912518 -0.038891661293645137 0 -0.37866743010551202 -0.02906954498465647 0 -0.38394575501216083 -0.036535335565972972 0 -0.37439980638912518 -0.038891661293645137 0 -0.37993408630244868 -0.045501240077299353 0 -0.38394575501216083 -0.036535335565972972 0 -0.37085155020467431 -0.050438611479832557 0 -0.37439980638912518 -0.038891661293645137 0 -0.37993408630244868 -0.045501240077299353 0 -0.37993408630244868 -0.045501240077299353 0 -0.38895054345211377 -0.045335196083553769 0 -0.38394575501216083 -0.036535335565972972 0 -0.38895054345211377 -0.045335196083553769 0 -0.38394575501216083 -0.036535335565972972 0 -0.39396365166307989 -0.03445798481758762 0 -0.38781453024876661 -0.02996800237218563 0 -0.38394575501216083 -0.036535335565972972 0 -0.39396365166307989 -0.03445798481758762 0 -0.38781453024876661 -0.02996800237218563 0 -0.37866743010551202 -0.02906954498465647 0 -0.38394575501216083 -0.036535335565972972 0 -0.40237332615973681 -0.030676944162886681 0 -0.38781453024876661 -0.02996800237218563 0 -0.39396365166307989 -0.03445798481758762 0 -0.39396365166307989 -0.03445798481758762 0 -0.39750411751227832 -0.042292212187568533 0 -0.39928834571923882 -0.035924112998793431 0 -0.38895054345211377 -0.045335196083553769 0 -0.39396365166307989 -0.03445798481758762 0 -0.39750411751227832 -0.042292212187568533 0 -0.39750411751227832 -0.042292212187568533 0 -0.4050251302254127 -0.045922345921936697 0 -0.40306291723554027 -0.039039715031688543 0 -0.39750411751227832 -0.042292212187568533 0 -0.40306291723554027 -0.039039715031688543 0 -0.39928834571923882 -0.035924112998793431 0 -0.40237332615973681 -0.030676944162886681 0 -0.39396365166307989 -0.03445798481758762 0 -0.39928834571923882 -0.035924112998793431 0 -0.41105872637709778 -0.041104419315527559 0 -0.40237332615973681 -0.030676944162886681 0 -0.40306291723554027 -0.039039715031688543 0 -0.40237332615973681 -0.030676944162886681 0 -0.40306291723554027 -0.039039715031688543 0 -0.39928834571923882 -0.035924112998793431 0 -0.40603099279739802 -0.054788986838451827 0 -0.39527915405366182 -0.064437672488960096 0 -0.41284572228237681 -0.064006668923108523 0 -0.40603099279739802 -0.054788986838451827 0 -0.39443592701229091 -0.053019652188425637 0 -0.39527915405366182 -0.064437672488960096 0 -0.4050251302254127 -0.045922345921936697 0 -0.40603099279739802 -0.054788986838451827 0 -0.39443592701229091 -0.053019652188425637 0 -0.39750411751227832 -0.042292212187568533 0 -0.4050251302254127 -0.045922345921936697 0 -0.39443592701229091 -0.053019652188425637 0 -0.38895054345211377 -0.045335196083553769 0 -0.39750411751227832 -0.042292212187568533 0 -0.39443592701229091 -0.053019652188425637 0 -0.39443592701229091 -0.053019652188425637 0 -0.38221605892473098 -0.056125323053866277 0 -0.39527915405366182 -0.064437672488960096 0 -0.36608399240098949 -0.063120758007335118 0 -0.38221605892473098 -0.056125323053866277 0 -0.37978412082390189 -0.068029865631836883 0 -0.38895054345211377 -0.045335196083553769 0 -0.39443592701229091 -0.053019652188425637 0 -0.38221605892473098 -0.056125323053866277 0 -0.37993408630244868 -0.045501240077299353 0 -0.38895054345211377 -0.045335196083553769 0 -0.38221605892473098 -0.056125323053866277 0 -0.37085155020467431 -0.050438611479832557 0 -0.37993408630244868 -0.045501240077299353 0 -0.38221605892473098 -0.056125323053866277 0 -0.36843110820579178 -0.075527255856609146 0 -0.37978412082390189 -0.068029865631836883 0 -0.38691029053433551 -0.080938318752413793 0 -0.37978412082390189 -0.068029865631836883 0 -0.38691029053433551 -0.080938318752413793 0 -0.39527915405366182 -0.064437672488960096 0 -0.38221605892473098 -0.056125323053866277 0 -0.37978412082390189 -0.068029865631836883 0 -0.39527915405366182 -0.064437672488960096 0 -0.37380044498630338 -0.100392191664622 0 -0.36747037526515469 -0.088210616938563927 0 -0.38691029053433551 -0.080938318752413793 0 -0.36843110820579178 -0.075527255856609146 0 -0.38691029053433551 -0.080938318752413793 0 -0.40007542381043809 -0.086939242353532731 0 -0.39460333317738627 -0.1006873657273652 0 -0.41352047356827321 -0.0909948847898496 0 -0.38691029053433551 -0.080938318752413793 0 -0.40007542381043809 -0.086939242353532731 0 -0.40767355229219521 -0.074626636544090755 0 -0.38691029053433551 -0.080938318752413793 0 -0.40007542381043809 -0.086939242353532731 0 -0.39460333317738627 -0.1006873657273652 0 -0.38691029053433551 -0.080938318752413793 0 -0.39527915405366182 -0.064437672488960096 0 -0.40767355229219521 -0.074626636544090755 0 -0.39527915405366182 -0.064437672488960096 0 -0.41284572228237681 -0.064006668923108523 0 -0.40767355229219521 -0.074626636544090755 0 -0.36893450279197471 -0.1249528869149899 0 -0.3789649235099295 -0.11270856972454819 0 -0.39514760223357998 -0.1249586529677193 0 -0.36893450279197471 -0.1249528869149899 0 -0.39514760223357998 -0.1249586529677193 0 -0.3789649235099295 -0.11270856972454819 0 -0.39460333317738627 -0.1006873657273652 0 -0.39514760223357998 -0.1249586529677193 0 -0.37380044498630338 -0.100392191664622 0 -0.38691029053433551 -0.080938318752413793 0 -0.39460333317738627 -0.1006873657273652 0 -0.37380044498630338 -0.100392191664622 0 -0.3789649235099295 -0.11270856972454819 0 -0.39460333317738627 -0.1006873657273652 0 -0.39460333317738627 -0.1006873657273652 0 -0.39514760223357998 -0.1249586529677193 0 -0.4114708495464785 -0.1093321351213095 0 -0.42136070167518519 -0.1249644190204488 0 -0.4114708495464785 -0.1093321351213095 0 -0.43272213707796769 -0.1050553531011644 0 -0.39514760223357998 -0.1249586529677193 0 -0.42136070167518519 -0.1249644190204488 0 -0.39514760223357998 -0.1249586529677193 0 -0.42136070167518519 -0.1249644190204488 0 -0.4114708495464785 -0.1093321351213095 0 -0.39460333317738627 -0.1006873657273652 0 -0.4114708495464785 -0.1093321351213095 0 -0.41352047356827321 -0.0909948847898496 0 -0.4114708495464785 -0.1093321351213095 0 -0.43272213707796769 -0.1050553531011644 0 -0.41352047356827321 -0.0909948847898496 0 -0.42136070167518519 -0.1249644190204488 0 -0.43272213707796769 -0.1050553531011644 0 -0.44757380111679052 -0.12497018507317829 0 -0.42136070167518519 -0.1249644190204488 0 -0.44757380111679052 -0.12497018507317829 0 -0.42023793718526542 -0.076451056482049876 0 -0.41284572228237681 -0.064006668923108523 0 -0.42746868386642678 -0.066478460468227696 0 -0.42023793718526542 -0.076451056482049876 0 -0.41284572228237681 -0.064006668923108523 0 -0.40767355229219521 -0.074626636544090755 0 -0.42023793718526542 -0.076451056482049876 0 -0.40767355229219521 -0.074626636544090755 0 -0.41352047356827321 -0.0909948847898496 0 -0.40007542381043809 -0.086939242353532731 0 -0.40767355229219521 -0.074626636544090755 0 -0.41352047356827321 -0.0909948847898496 0 -0.42023793718526542 -0.076451056482049876 0 -0.41352047356827321 -0.0909948847898496 0 -0.43051036701793649 -0.083964229305721505 0 -0.43272213707796769 -0.1050553531011644 0 -0.41352047356827321 -0.0909948847898496 0 -0.43051036701793649 -0.083964229305721505 0 -0.43272213707796769 -0.1050553531011644 0 -0.43051036701793649 -0.083964229305721505 0 -0.44869793539396702 -0.090613631575090198 0 -0.43051036701793649 -0.083964229305721505 0 -0.42746868386642678 -0.066478460468227696 0 -0.43938561630945938 -0.075374003134316428 0 -0.42023793718526542 -0.076451056482049876 0 -0.43051036701793649 -0.083964229305721505 0 -0.42746868386642678 -0.066478460468227696 0 -0.42746868386642678 -0.066478460468227696 0 -0.43950717444435422 -0.063784996514660589 0 -0.43938561630945938 -0.075374003134316428 0 -0.43950717444435422 -0.063784996514660589 0 -0.45074392082461212 -0.072028697807882153 0 -0.43938561630945938 -0.075374003134316428 0 -0.43051036701793649 -0.083964229305721505 0 -0.43938561630945938 -0.075374003134316428 0 -0.44869793539396702 -0.090613631575090198 0 -0.45074392082461212 -0.072028697807882153 0 -0.43938561630945938 -0.075374003134316428 0 -0.44869793539396702 -0.090613631575090198 0 -0.45074392082461212 -0.072028697807882153 0 -0.44869793539396702 -0.090613631575090198 0 -0.4647336852437608 -0.080388630180202481 0 -0.44869793539396702 -0.090613631575090198 0 -0.4647336852437608 -0.080388630180202481 0 -0.47380622041468068 -0.096022360055862885 0 -0.4647336852437608 -0.080388630180202481 0 -0.46264955769922828 -0.069236149835977229 0 -0.47254815090776853 -0.069469283055039688 0 -0.45074392082461212 -0.072028697807882153 0 -0.46264955769922828 -0.069236149835977229 0 -0.44688553471578463 -0.051399134646207288 0 -0.46264955769922828 -0.069236149835977229 0 -0.47254815090776853 -0.069469283055039688 0 -0.46914163899380801 -0.061760229887868598 0 -0.45074392082461212 -0.072028697807882153 0 -0.4647336852437608 -0.080388630180202481 0 -0.46264955769922828 -0.069236149835977229 0 -0.43272213707796769 -0.1050553531011644 0 -0.44757380111679052 -0.12497018507317829 0 -0.46022938895027038 -0.10869066194517669 0 -0.43272213707796769 -0.1050553531011644 0 -0.44869793539396702 -0.090613631575090198 0 -0.46022938895027038 -0.10869066194517669 0 -0.44869793539396702 -0.090613631575090198 0 -0.46022938895027038 -0.10869066194517669 0 -0.47380622041468068 -0.096022360055862885 0 -0.44757380111679052 -0.12497018507317829 0 -0.47378690055839578 -0.1249759511259078 0 -0.44757380111679052 -0.12497018507317829 0 -0.46022938895027038 -0.10869066194517669 0 -0.47378690055839578 -0.1249759511259078 0 -0.46022938895027038 -0.10869066194517669 0 -0.47378690055839578 -0.1249759511259078 0 -0.48374478807960558 -0.1092121363906397 0 -0.46022938895027038 -0.10869066194517669 0 -0.48374478807960558 -0.1092121363906397 0 -0.47380622041468068 -0.096022360055862885 0 -0.48374478807960558 -0.1092121363906397 0 -0.47380622041468068 -0.096022360055862885 0 -0.48832582805197727 -0.092109142267116931 0 -0.48374478807960558 -0.1092121363906397 0 -0.5 -0.10055386622176241 0 -0.48832582805197727 -0.092109142267116931 0 -0.47378690055839578 -0.1249759511259078 0 -0.48374478807960558 -0.1092121363906397 0 -0.50000000000000111 -0.12498171717863731 0 -0.48374478807960558 -0.1092121363906397 0 -0.5 -0.10055386622176241 0 -0.50000000000000111 -0.12498171717863731 0 -0.47378690055839578 -0.1249759511259078 0 -0.50000000000000111 -0.12498171717863731 0 -0.47254815090776853 -0.069469283055039688 0 -0.47913967023945842 -0.082463322467565006 0 -0.48457081949690362 -0.068943122576377761 0 -0.47913967023945842 -0.082463322467565006 0 -0.48808502354595151 -0.080031310268457945 0 -0.48457081949690362 -0.068943122576377761 0 -0.48457081949690362 -0.068943122576377761 0 -0.46914163899380801 -0.061760229887868598 0 -0.48457081949690362 -0.068943122576377761 0 -0.48230491698392047 -0.057318093012348498 0 -0.46914163899380801 -0.061760229887868598 0 -0.47254815090776853 -0.069469283055039688 0 -0.48457081949690362 -0.068943122576377761 0 -0.46914163899380801 -0.061760229887868598 0 -0.47254815090776853 -0.069469283055039688 0 -0.46914163899380801 -0.061760229887868598 0 -0.4647336852437608 -0.080388630180202481 0 -0.47254815090776853 -0.069469283055039688 0 -0.47913967023945842 -0.082463322467565006 0 -0.4647336852437608 -0.080388630180202481 0 -0.47380622041468068 -0.096022360055862885 0 -0.47913967023945842 -0.082463322467565006 0 -0.47380622041468068 -0.096022360055862885 0 -0.47913967023945842 -0.082463322467565006 0 -0.48832582805197727 -0.092109142267116931 0 -0.5 -0.10055386622176241 0 -0.48832582805197727 -0.092109142267116931 0 -0.499999999999999 -0.07612601526488752 0 -0.48808502354595151 -0.080031310268457945 0 -0.48832582805197727 -0.092109142267116931 0 -0.499999999999999 -0.07612601526488752 0 -0.47913967023945842 -0.082463322467565006 0 -0.48808502354595151 -0.080031310268457945 0 -0.48832582805197727 -0.092109142267116931 0 -0.499999999999999 -0.07612601526488752 0 -0.48457081949690362 -0.068943122576377761 0 -0.499999999999999 -0.07612601526488752 0 -0.48457081949690362 -0.068943122576377761 0 -0.5 -0.055081012739928707 0 -0.48808502354595151 -0.080031310268457945 0 -0.499999999999999 -0.07612601526488752 0 -0.48457081949690362 -0.068943122576377761 0 -0.48457081949690362 -0.068943122576377761 0 -0.5 -0.055081012739928707 0 -0.48230491698392047 -0.057318093012348498 0 -0.5 -0.055081012739928707 0 -0.48157039955536241 -0.044558511477442143 0 -0.48230491698392047 -0.057318093012348498 0 -0.5 -0.055081012739928707 0 -0.500000000000004 -0.034036010214970061 0 -0.48157039955536241 -0.044558511477442143 0 -0.500000000000004 -0.034036010214970061 0 -0.48157039955536241 -0.044558511477442143 0 -0.48148290990478199 -0.029591545163434652 0 -0.48157039955536241 -0.044558511477442143 0 -0.45768975774058179 -0.035844230274481748 0 -0.48148290990478199 -0.029591545163434652 0 -0.48157039955536241 -0.044558511477442143 0 -0.46914163899380801 -0.061760229887868598 0 -0.45768975774058179 -0.035844230274481748 0 -0.48157039955536241 -0.044558511477442143 0 -0.48230491698392047 -0.057318093012348498 0 -0.46914163899380801 -0.061760229887868598 0 -0.46914163899380801 -0.061760229887868598 0 -0.45768975774058179 -0.035844230274481748 0 -0.44688553471578463 -0.051399134646207288 0 -0.46914163899380801 -0.061760229887868598 0 -0.45768975774058179 -0.035844230274481748 0 -0.46264955769922828 -0.069236149835977229 0 -0.46914163899380801 -0.061760229887868598 0 -0.44688553471578463 -0.051399134646207288 0 -0.46914163899380801 -0.061760229887868598 0 -0.44688553471578463 -0.051399134646207288 0 -0.43628267576141971 -0.035329403205585218 0 -0.44354830351403418 -0.034418653902415733 0 -0.44688553471578463 -0.051399134646207288 0 -0.45768975774058179 -0.035844230274481748 0 -0.44354830351403418 -0.034418653902415733 0 -0.44688553471578463 -0.051399134646207288 0 -0.45768975774058179 -0.035844230274481748 0 -0.44354830351403418 -0.034418653902415733 0 -0.44312252706978628 -0.024928407146411868 0 -0.43628267576141971 -0.035329403205585218 0 -0.43710875721387199 -0.026668229939385779 0 -0.44354830351403418 -0.034418653902415733 0 -0.43950717444435422 -0.063784996514660589 0 -0.45074392082461212 -0.072028697807882153 0 -0.44688553471578463 -0.051399134646207288 0 -0.43147245553696489 -0.05279552735729795 0 -0.43950717444435422 -0.063784996514660589 0 -0.44688553471578463 -0.051399134646207288 0 -0.43591977417237449 -0.008065469867085449 0 -0.44623787648735791 -0.0099282306610938807 0 -0.43740981058492812 0.01004998492246997 0 -0.43591977417237449 -0.008065469867085449 0 -0.44623787648735791 -0.0099282306610938807 0 -0.43928417642389239 -0.017661557407765791 0 -0.43591977417237449 -0.008065469867085449 0 -0.44623787648735791 -0.0099282306610938807 0 -0.43710875721387199 -0.026668229939385779 0 -0.43928417642389239 -0.017661557407765791 0 -0.44312252706978628 -0.024928407146411868 0 -0.45768975774058179 -0.035844230274481748 0 -0.44623787648735791 -0.0099282306610938807 0 -0.44312252706978628 -0.024928407146411868 0 -0.45768975774058179 -0.035844230274481748 0 -0.44623787648735791 -0.0099282306610938807 0 -0.44623787648735791 -0.0099282306610938807 0 -0.43928417642389239 -0.017661557407765791 0 -0.44312252706978628 -0.024928407146411868 0 -0.43710875721387199 -0.026668229939385779 0 -0.44354830351403418 -0.034418653902415733 0 -0.44312252706978628 -0.024928407146411868 0 -0.45768975774058179 -0.035844230274481748 0 -0.44623787648735791 -0.0099282306610938807 0 -0.47146408957177099 -0.01448240150379307 0 -0.44623787648735791 -0.0099282306610938807 0 -0.47146408957177099 -0.01448240150379307 0 -0.44623787648735791 -0.0099282306610938807 0 -0.47146408957177099 -0.01448240150379307 0 -0.46048772545436639 0.0043098071123656434 0 -0.47146408957177099 -0.01448240150379307 0 -0.47882554305316488 -0.0018417715126103191 0 -0.46048772545436639 0.0043098071123656434 0 -0.47146408957177099 -0.01448240150379307 0 -0.47882554305316488 -0.0018417715126103191 0 -0.49669030265618502 -0.01903657234648758 0 -0.47146408957177099 -0.01448240150379307 0 -0.49669030265618502 -0.01903657234648758 0 -0.47146408957177099 -0.01448240150379307 0 -0.48148290990478199 -0.029591545163434652 0 -0.49669030265618502 -0.01903657234648758 0 -0.45768975774058179 -0.035844230274481748 0 -0.47146408957177099 -0.01448240150379307 0 -0.48148290990478199 -0.029591545163434652 0 -0.500000000000004 -0.034036010214970061 0 -0.48148290990478199 -0.029591545163434652 0 -0.49669030265618502 -0.01903657234648758 0 -0.49669030265618502 -0.01903657234648758 0 -0.50000000000000056 -0.019634082844440681 0 -0.500000000000004 -0.034036010214970061 0 -0.49669030265618502 -0.01903657234648758 0 -0.500000000000004 -0.034036010214970061 0 -0.49669030265618502 -0.01903657234648758 0 -0.50000000000000056 -0.019634082844440681 0 -0.47882554305316488 -0.0018417715126103191 0 -0.49669030265618502 -0.01903657234648758 0 -0.49160980924365538 0.0039880541876541054 0 -0.49669030265618502 -0.01903657234648758 0 -0.49160980924365538 0.0039880541876541054 0 -0.49669030265618502 -0.01903657234648758 0 -0.50000000000000056 -0.019634082844440681 0 -0.49160980924365538 0.0039880541876541054 0 -0.50000000000000056 -0.019634082844440681 0 -0.49160980924365538 0.0039880541876541054 0 -0.50000000000000033 0.009303662189531537 0 -0.49160980924365538 0.0039880541876541054 0 -0.48652931583112352 0.027012680721795381 0 -0.49160980924365538 0.0039880541876541054 0 -0.50000000000000033 0.009303662189531537 0 -0.48652931583112352 0.027012680721795381 0 -0.50000000000000033 0.009303662189531537 0 -0.5 0.03611151152349279 0 -0.49175907743105379 0.031398254416965428 0 -0.50000000000000033 0.009303662189531537 0 -0.49175907743105379 0.031398254416965428 0 -0.50000000000000033 0.009303662189531537 0 -0.48652931583112352 0.027012680721795381 0 -0.49175907743105379 0.031398254416965428 0 -0.48652931583112352 0.027012680721795381 0 -0.47387578833984401 0.016012254987208822 0 -0.46815351836101687 0.031449839152918539 0 -0.49160980924365538 0.0039880541876541054 0 -0.48652931583112352 0.027012680721795381 0 -0.47387578833984401 0.016012254987208822 0 -0.47882554305316488 -0.0018417715126103191 0 -0.49160980924365538 0.0039880541876541054 0 -0.47387578833984401 0.016012254987208822 0 -0.47882554305316488 -0.0018417715126103191 0 -0.47387578833984401 0.016012254987208822 0 -0.46048772545436639 0.0043098071123656434 0 -0.49282352307895688 0.045257754500502748 0 -0.5 0.03611151152349279 0 -0.5 0.062919360857453976 0 -0.49282352307895688 0.045257754500502748 0 -0.48351815486210709 0.053492846644399093 0 -0.5 0.062919360857453976 0 -0.49175907743105379 0.031398254416965428 0 -0.48144882241859149 0.050037307255936581 0 -0.48351815486210709 0.053492846644399093 0 -0.48652931583112352 0.027012680721795381 0 -0.49175907743105379 0.031398254416965428 0 -0.48144882241859149 0.050037307255936581 0 -0.49175907743105379 0.031398254416965428 0 -0.48351815486210709 0.053492846644399093 0 -0.49282352307895688 0.045257754500502748 0 -0.49175907743105379 0.031398254416965428 0 -0.48351815486210709 0.053492846644399093 0 -0.49282352307895688 0.045257754500502748 0 -0.5 0.03611151152349279 0 -0.49175907743105379 0.031398254416965428 0 -0.48144882241859149 0.050037307255936581 0 -0.4639696453013944 0.043374392403556838 0 -0.46815351836101687 0.031449839152918539 0 -0.48652931583112352 0.027012680721795381 0 -0.48144882241859149 0.050037307255936581 0 -0.48652931583112352 0.027012680721795381 0 -0.48144882241859149 0.050037307255936581 0 -0.46815351836101687 0.031449839152918539 0 -0.48144882241859149 0.050037307255936581 0 -0.45709786057011947 0.055708105081253657 0 -0.47636832900606041 0.073061933790077832 0 -0.48144882241859149 0.050037307255936581 0 -0.48351815486210709 0.053492846644399093 0 -0.47636832900606041 0.073061933790077832 0 -0.48144882241859149 0.050037307255936581 0 -0.47636832900606041 0.073061933790077832 0 -0.48144882241859149 0.050037307255936581 0 -0.45709786057011947 0.055708105081253657 0 -0.4639696453013944 0.043374392403556838 0 -0.45709786057011947 0.055708105081253657 0 -0.4639696453013944 0.043374392403556838 0 -0.45299045524759751 0.034902057762674861 0 -0.4639696453013944 0.043374392403556838 0 -0.46815351836101687 0.031449839152918539 0 -0.45299045524759751 0.034902057762674861 0 -0.46815351836101687 0.031449839152918539 0 -0.45299045524759751 0.034902057762674861 0 -0.45709786057011947 0.055708105081253657 0 -0.45299045524759751 0.034902057762674861 0 -0.43782739213417787 0.038354276372430232 0 -0.45299045524759751 0.034902057762674861 0 -0.43782739213417787 0.038354276372430232 0 -0.45299045524759751 0.034902057762674861 0 -0.43782739213417787 0.038354276372430232 0 -0.44297011017848281 0.02707887027054981 0 -0.45709786057011947 0.055708105081253657 0 -0.43782739213417787 0.038354276372430232 0 -0.43187248081207541 0.055496176207803817 0 -0.45709786057011947 0.055708105081253657 0 -0.43782739213417787 0.038354276372430232 0 -0.45709786057011947 0.055708105081253657 0 -0.43187248081207541 0.055496176207803817 0 -0.43763284036668942 0.072255399145110422 0 -0.47387578833984401 0.016012254987208822 0 -0.46048772545436639 0.0043098071123656434 0 -0.45598123469437257 0.020633802368031268 0 -0.47387578833984401 0.016012254987208822 0 -0.46815351836101687 0.031449839152918539 0 -0.45598123469437257 0.020633802368031268 0 -0.46815351836101687 0.031449839152918539 0 -0.45299045524759751 0.034902057762674861 0 -0.45598123469437257 0.020633802368031268 0 -0.45598123469437257 0.020633802368031268 0 -0.44297011017848281 0.02707887027054981 0 -0.43740981058492812 0.01004998492246997 0 -0.45299045524759751 0.034902057762674861 0 -0.45598123469437257 0.020633802368031268 0 -0.44297011017848281 0.02707887027054981 0 -0.46048772545436639 0.0043098071123656434 0 -0.45598123469437257 0.020633802368031268 0 -0.43740981058492812 0.01004998492246997 0 -0.44623787648735791 -0.0099282306610938807 0 -0.46048772545436639 0.0043098071123656434 0 -0.43740981058492812 0.01004998492246997 0 -0.44623787648735791 -0.0099282306610938807 0 -0.43740981058492812 0.01004998492246997 0 -0.43591977417237449 -0.008065469867085449 0 -0.43740981058492812 0.01004998492246997 0 -0.42583279771702431 0.00046528033667210148 0 -0.43740981058492812 0.01004998492246997 0 -0.42292027786463471 0.01349413118407828 0 -0.42583279771702431 0.00046528033667210148 0 -0.41794895562780338 -0.01094222954485795 0 -0.40909120882054839 0.01273065398649661 0 -0.41794895562780338 -0.01094222954485795 0 -0.40352261506359649 -0.001038070178381474 0 -0.40909120882054839 0.01273065398649661 0 -0.42292027786463471 0.01349413118407828 0 -0.42583279771702431 0.00046528033667210148 0 -0.40909120882054839 0.01273065398649661 0 -0.41794895562780338 -0.01094222954485795 0 -0.42583279771702431 0.00046528033667210148 0 -0.40909120882054839 0.01273065398649661 0 -0.40909120882054839 0.01273065398649661 0 -0.41494363987246979 0.023236645495722939 0 -0.40023346201329341 0.036403537517851137 0 -0.41494363987246979 0.023236645495722939 0 -0.41436175989852531 0.033604495869393458 0 -0.40023346201329341 0.036403537517851137 0 -0.42292027786463471 0.01349413118407828 0 -0.41494363987246979 0.023236645495722939 0 -0.424969395700869 0.026775135554755129 0 -0.42292027786463471 0.01349413118407828 0 -0.40909120882054839 0.01273065398649661 0 -0.41494363987246979 0.023236645495722939 0 -0.41494363987246979 0.023236645495722939 0 -0.41896391809246269 0.029132761591660509 0 -0.41436175989852531 0.033604495869393458 0 -0.41494363987246979 0.023236645495722939 0 -0.41896391809246269 0.029132761591660509 0 -0.424969395700869 0.026775135554755129 0 -0.41896391809246269 0.029132761591660509 0 -0.424969395700869 0.026775135554755129 0 -0.42158087689798668 0.032914769446770492 0 -0.424969395700869 0.026775135554755129 0 -0.42858174468249838 0.030028200506033911 0 -0.42158087689798668 0.032914769446770492 0 -0.44297011017848281 0.02707887027054981 0 -0.43740981058492812 0.01004998492246997 0 -0.42858174468249838 0.030028200506033911 0 -0.43740981058492812 0.01004998492246997 0 -0.42292027786463471 0.01349413118407828 0 -0.424969395700869 0.026775135554755129 0 -0.43740981058492812 0.01004998492246997 0 -0.42858174468249838 0.030028200506033911 0 -0.43740981058492812 0.01004998492246997 0 -0.424969395700869 0.026775135554755129 0 -0.42858174468249838 0.030028200506033911 0 -0.424969395700869 0.026775135554755129 0 -0.42858174468249838 0.030028200506033911 0 -0.43782739213417787 0.038354276372430232 0 -0.44297011017848281 0.02707887027054981 0 -0.42858174468249838 0.030028200506033911 0 -0.43782739213417787 0.038354276372430232 0 -0.42858174468249838 0.030028200506033911 0 -0.42345682706553001 0.041626064651069543 0 -0.43782739213417787 0.038354276372430232 0 -0.42345682706553001 0.041626064651069543 0 -0.43187248081207541 0.055496176207803817 0 -0.43782739213417787 0.038354276372430232 0 -0.42858174468249838 0.030028200506033911 0 -0.43782739213417787 0.038354276372430232 0 -0.42345682706553001 0.041626064651069543 0 -0.42858174468249838 0.030028200506033911 0 -0.42345682706553001 0.041626064651069543 0 -0.42158087689798668 0.032914769446770492 0 -0.42858174468249838 0.030028200506033911 0 -0.42345682706553001 0.041626064651069543 0 -0.42345682706553001 0.041626064651069543 0 -0.43187248081207541 0.055496176207803817 0 -0.4177568865966339 0.054525225210098782 0 -0.43187248081207541 0.055496176207803817 0 -0.4177568865966339 0.054525225210098782 0 -0.41753301535116211 0.067129086497859855 0 -0.42345682706553001 0.041626064651069543 0 -0.4177568865966339 0.054525225210098782 0 -0.40276573021624068 0.046336866753853997 0 -0.4177568865966339 0.054525225210098782 0 -0.40750332447406851 0.057375884956624552 0 -0.41753301535116211 0.067129086497859855 0 -0.42345682706553001 0.041626064651069543 0 -0.4177568865966339 0.054525225210098782 0 -0.4177568865966339 0.054525225210098782 0 -0.40750332447406851 0.057375884956624552 0 -0.40276573021624068 0.046336866753853997 0 -0.42345682706553001 0.041626064651069543 0 -0.40276573021624068 0.046336866753853997 0 -0.42345682706553001 0.041626064651069543 0 -0.41020444479839763 0.039492741198042178 0 -0.40276573021624068 0.046336866753853997 0 -0.42345682706553001 0.041626064651069543 0 -0.41436175989852531 0.033604495869393458 0 -0.42158087689798668 0.032914769446770492 0 -0.42345682706553001 0.041626064651069543 0 -0.41436175989852531 0.033604495869393458 0 -0.41020444479839763 0.039492741198042178 0 -0.41896391809246269 0.029132761591660509 0 -0.41436175989852531 0.033604495869393458 0 -0.42158087689798668 0.032914769446770492 0 -0.41436175989852531 0.033604495869393458 0 -0.41020444479839763 0.039492741198042178 0 -0.40023346201329341 0.036403537517851137 0 -0.40276573021624068 0.046336866753853997 0 -0.38207463336695202 0.051047668856640811 0 -0.38772007791329738 0.03985096685417347 0 -0.41020444479839763 0.039492741198042178 0 -0.40023346201329341 0.036403537517851137 0 -0.40276573021624068 0.046336866753853997 0 -0.40023346201329341 0.036403537517851137 0 -0.40276573021624068 0.046336866753853997 0 -0.38772007791329738 0.03985096685417347 0 -0.40023346201329341 0.036403537517851137 0 -0.38772007791329738 0.03985096685417347 0 -0.38925836826538629 0.030805614435688099 0 -0.40276573021624068 0.046336866753853997 0 -0.38207463336695202 0.051047668856640811 0 -0.40276573021624068 0.046336866753853997 0 -0.39689466156197101 0.057407184083191301 0 -0.38207463336695202 0.051047668856640811 0 -0.40750332447406851 0.057375884956624552 0 -0.39689466156197101 0.057407184083191301 0 -0.40210564328563447 0.066115584712721373 0 -0.40750332447406851 0.057375884956624552 0 -0.40276573021624068 0.046336866753853997 0 -0.39689466156197101 0.057407184083191301 0 -0.38207463336695202 0.051047668856640811 0 -0.38848633305814179 0.065600711414542545 0 -0.36891219827968119 0.060077996683558232 0 -0.39689466156197101 0.057407184083191301 0 -0.38207463336695202 0.051047668856640811 0 -0.38848633305814179 0.065600711414542545 0 -0.38772007791329738 0.03985096685417347 0 -0.37937813184432773 0.031366277704107569 0 -0.38925836826538629 0.030805614435688099 0 -0.38207463336695202 0.051047668856640811 0 -0.38772007791329738 0.03985096685417347 0 -0.37261014177358448 0.043145835856899219 0 -0.38772007791329738 0.03985096685417347 0 -0.37937813184432773 0.031366277704107569 0 -0.37261014177358448 0.043145835856899219 0 -0.37937813184432773 0.031366277704107569 0 -0.38391758338059062 0.022870450659759161 0 -0.37479293228070759 0.022502646493578662 0 -0.37937813184432773 0.031366277704107569 0 -0.38925836826538629 0.030805614435688099 0 -0.38391758338059062 0.022870450659759161 0 -0.38925836826538629 0.030805614435688099 0 -0.38391758338059062 0.022870450659759161 0 -0.3946160130735708 0.021551959563878339 0 -0.38391758338059062 0.022870450659759161 0 -0.38667067902898572 0.013842153393714489 0 -0.3946160130735708 0.021551959563878339 0 -0.38391758338059062 0.022870450659759161 0 -0.3778438638662554 0.014761087644765769 0 -0.38667067902898572 0.013842153393714489 0 -0.38391758338059062 0.022870450659759161 0 -0.3778438638662554 0.014761087644765769 0 -0.37479293228070759 0.022502646493578662 0 -0.3778438638662554 0.014761087644765769 0 -0.38165634421242611 0.0056742618597281089 0 -0.38667067902898572 0.013842153393714489 0 -0.3778438638662554 0.014761087644765769 0 -0.38165634421242611 0.0056742618597281089 0 -0.37464316483836829 0.0066416053135349984 0 -0.37774077980655368 -0.001289555558904682 0 -0.38165634421242611 0.0056742618597281089 0 -0.37464316483836829 0.0066416053135349984 0 -0.3848191179490616 -0.0027051675553946518 0 -0.37774077980655368 -0.001289555558904682 0 -0.38165634421242611 0.0056742618597281089 0 -0.3848191179490616 -0.0027051675553946518 0 -0.38165634421242611 0.0056742618597281089 0 -0.38845980705381639 0.0057813395070211177 0 -0.39408165103759368 -0.0019794594859314238 0 -0.3848191179490616 -0.0027051675553946518 0 -0.38845980705381639 0.0057813395070211177 0 -0.38845980705381639 0.0057813395070211177 0 -0.38667067902898572 0.013842153393714489 0 -0.39627830677719 0.008853295208583448 0 -0.38165634421242611 0.0056742618597281089 0 -0.38845980705381639 0.0057813395070211177 0 -0.38667067902898572 0.013842153393714489 0 -0.38667067902898572 0.013842153393714489 0 -0.39627830677719 0.008853295208583448 0 -0.3946160130735708 0.021551959563878339 0 -0.39408165103759368 -0.0019794594859314238 0 -0.38845980705381639 0.0057813395070211177 0 -0.39627830677719 0.008853295208583448 0 -0.40352261506359649 -0.001038070178381474 0 -0.39408165103759368 -0.0019794594859314238 0 -0.39627830677719 0.008853295208583448 0 -0.40352261506359649 -0.001038070178381474 0 -0.40909120882054839 0.01273065398649661 0 -0.39627830677719 0.008853295208583448 0 -0.40909120882054839 0.01273065398649661 0 -0.39627830677719 0.008853295208583448 0 -0.3946160130735708 0.021551959563878339 0 -0.40909120882054839 0.01273065398649661 0 -0.40023346201329341 0.036403537517851137 0 -0.3946160130735708 0.021551959563878339 0 -0.40909120882054839 0.01273065398649661 0 -0.40023346201329341 0.036403537517851137 0 -0.40023346201329341 0.036403537517851137 0 -0.38925836826538629 0.030805614435688099 0 -0.3946160130735708 0.021551959563878339 0 -0.38696142946532958 0.1003701901717608 0 -0.40164011277457379 0.081352107660276216 0 -0.40864304721671202 0.1107171055473533 0 -0.38750957741872682 0.11885909540365321 0 -0.40864304721671202 0.1107171055473533 0 -0.39401402549175851 0.1361747599337243 0 -0.38750957741872682 0.11885909540365321 0 -0.38696142946532958 0.1003701901717608 0 -0.40864304721671202 0.1107171055473533 0 -0.38750957741872682 0.11885909540365321 0 -0.38696142946532958 0.1003701901717608 0 -0.36904533532088801 0.1177582563576956 0 -0.38696142946532958 0.1003701901717608 0 -0.37090825683648998 0.098456277756480637 0 -0.36904533532088801 0.1177582563576956 0 -0.37929074908003868 0.077603726490867345 0 -0.40164011277457379 0.081352107660276216 0 -0.38696142946532958 0.1003701901717608 0 -0.37929074908003868 0.077603726490867345 0 -0.40164011277457379 0.081352107660276216 0 -0.38696142946532958 0.1003701901717608 0 -0.37929074908003868 0.077603726490867345 0 -0.37090825683648998 0.098456277756480637 0 -0.37929074908003868 0.077603726490867345 0 -0.38848633305814179 0.065600711414542545 0 -0.36891219827968119 0.060077996683558232 0 -0.37929074908003868 0.077603726490867345 0 -0.38848633305814179 0.065600711414542545 0 -0.40164011277457379 0.081352107660276216 0 -0.38848633305814179 0.065600711414542545 0 -0.40210564328563447 0.066115584712721373 0 -0.40164011277457379 0.081352107660276216 0 -0.39689466156197101 0.057407184083191301 0 -0.38848633305814179 0.065600711414542545 0 -0.40210564328563447 0.066115584712721373 0 -0.40164011277457379 0.081352107660276216 0 -0.42398947646910912 0.085100488829685086 0 -0.40164011277457379 0.081352107660276216 0 -0.42398947646910912 0.085100488829685086 0 -0.40864304721671202 0.1107171055473533 0 -0.40210564328563447 0.066115584712721373 0 -0.40164011277457379 0.081352107660276216 0 -0.41753301535116211 0.067129086497859855 0 -0.40164011277457379 0.081352107660276216 0 -0.41753301535116211 0.067129086497859855 0 -0.42398947646910912 0.085100488829685086 0 -0.40750332447406851 0.057375884956624552 0 -0.40210564328563447 0.066115584712721373 0 -0.41753301535116211 0.067129086497859855 0 -0.41753301535116211 0.067129086497859855 0 -0.42398947646910912 0.085100488829685086 0 -0.43763284036668942 0.072255399145110422 0 -0.43187248081207541 0.055496176207803817 0 -0.41753301535116211 0.067129086497859855 0 -0.43763284036668942 0.072255399145110422 0 -0.42398947646910912 0.085100488829685086 0 -0.44633884016364428 0.088848869999093971 0 -0.42398947646910912 0.085100488829685086 0 -0.43763284036668942 0.072255399145110422 0 -0.44633884016364428 0.088848869999093971 0 -0.42398947646910912 0.085100488829685086 0 -0.42906186480059683 0.10519001099972999 0 -0.44633884016364428 0.088848869999093971 0 -0.42398947646910912 0.085100488829685086 0 -0.42906186480059683 0.10519001099972999 0 -0.40864304721671202 0.1107171055473533 0 -0.40864304721671202 0.1107171055473533 0 -0.43267942878230348 0.12559175737704789 0 -0.42906186480059683 0.10519001099972999 0 -0.40864304721671202 0.1107171055473533 0 -0.43267942878230348 0.12559175737704789 0 -0.42906186480059683 0.10519001099972999 0 -0.4489383204882843 0.11104189391905871 0 -0.43267942878230348 0.12559175737704789 0 -0.4489383204882843 0.11104189391905871 0 -0.45289828098281221 0.1241297055338681 0 -0.43267942878230348 0.12559175737704789 0 -0.4489383204882843 0.11104189391905871 0 -0.43267942878230348 0.12559175737704789 0 -0.42906186480059683 0.10519001099972999 0 -0.4489383204882843 0.11104189391905871 0 -0.44633884016364428 0.088848869999093971 0 -0.4489383204882843 0.11104189391905871 0 -0.44633884016364428 0.088848869999093971 0 -0.47121921728662652 0.096397536200283296 0 -0.46607010556719342 0.11973313861048911 0 -0.47121921728662652 0.096397536200283296 0 -0.4489383204882843 0.11104189391905871 0 -0.46607010556719342 0.11973313861048911 0 -0.47121921728662652 0.096397536200283296 0 -0.4489383204882843 0.11104189391905871 0 -0.45289828098281221 0.1241297055338681 0 -0.46607010556719342 0.11973313861048911 0 -0.45709786057011947 0.055708105081253657 0 -0.43763284036668942 0.072255399145110422 0 -0.45544766770060358 0.07348919590478746 0 -0.43763284036668942 0.072255399145110422 0 -0.44633884016364428 0.088848869999093971 0 -0.45544766770060358 0.07348919590478746 0 -0.44633884016364428 0.088848869999093971 0 -0.45544766770060358 0.07348919590478746 0 -0.47121921728662652 0.096397536200283296 0 -0.45544766770060358 0.07348919590478746 0 -0.47636832900606041 0.073061933790077832 0 -0.47121921728662652 0.096397536200283296 0 -0.45709786057011947 0.055708105081253657 0 -0.47636832900606041 0.073061933790077832 0 -0.45709786057011947 0.055708105081253657 0 -0.45544766770060358 0.07348919590478746 0 -0.47636832900606041 0.073061933790077832 0 -0.48351815486210709 0.053492846644399093 0 -0.47636832900606041 0.073061933790077832 0 -0.49140909277123612 0.074197219851226057 0 -0.47636832900606041 0.073061933790077832 0 -0.48274454235378189 0.091705374172880549 0 -0.47121921728662652 0.096397536200283296 0 -0.47636832900606041 0.073061933790077832 0 -0.47121921728662652 0.096397536200283296 0 -0.47636832900606041 0.073061933790077832 0 -0.49715897998801373 0.091784747772784503 0 -0.5 0.089727210191415163 0 -0.49715897998801373 0.091784747772784503 0 -0.49140909277123612 0.074197219851226057 0 -0.47636832900606041 0.073061933790077832 0 -0.48274454235378189 0.091705374172880549 0 -0.49715897998801373 0.091784747772784503 0 -0.47636832900606041 0.073061933790077832 0 -0.49715897998801373 0.091784747772784503 0 -0.49140909277123612 0.074197219851226057 0 -0.5 0.089727210191415163 0 -0.5 0.062919360857453976 0 -0.49140909277123612 0.074197219851226057 0 -0.48351815486210709 0.053492846644399093 0 -0.5 0.062919360857453976 0 -0.49140909277123612 0.074197219851226057 0 -0.46607010556719342 0.11973313861048911 0 -0.48623164313442779 0.1055772789283768 0 -0.48453668432005692 0.123143207324586 0 -0.46607010556719342 0.11973313861048911 0 -0.47121921728662652 0.096397536200283296 0 -0.48623164313442779 0.1055772789283768 0 -0.48274454235378189 0.091705374172880549 0 -0.47121921728662652 0.096397536200283296 0 -0.48623164313442779 0.1055772789283768 0 -0.5 0.089727210191415163 0 -0.49715897998801373 0.091784747772784503 0 -0.5 0.1165350595253765 0 -0.49715897998801373 0.091784747772784503 0 -0.48623164313442779 0.1055772789283768 0 -0.5 0.1165350595253765 0 -0.48274454235378189 0.091705374172880549 0 -0.49715897998801373 0.091784747772784503 0 -0.48623164313442779 0.1055772789283768 0 -0.48623164313442779 0.1055772789283768 0 -0.5 0.1165350595253765 0 -0.48453668432005692 0.123143207324586 0 -0.5 0.1165350595253765 0 -0.48453668432005692 0.123143207324586 0 -0.5 0.1433429088593379 0 -0.48453668432005692 0.123143207324586 0 -0.48049738108946538 0.1379484740379 0 -0.5 0.1433429088593379 0 -0.46607010556719342 0.11973313861048911 0 -0.48453668432005692 0.123143207324586 0 -0.48049738108946538 0.1379484740379 0 -0.46607010556719342 0.11973313861048911 0 -0.48049738108946538 0.1379484740379 0 -0.46092099384776192 0.14306874102069511 0 -0.48464943840857888 0.15775282940309851 0 -0.46990863904630059 0.1670362475492525 0 -0.46092099384776192 0.14306874102069511 0 -0.48464943840857888 0.15775282940309851 0 -0.46092099384776192 0.14306874102069511 0 -0.48049738108946538 0.1379484740379 0 -0.48464943840857888 0.15775282940309851 0 -0.46092099384776192 0.14306874102069511 0 -0.48049738108946538 0.1379484740379 0 -0.5 0.1433429088593379 0 -0.48464943840857888 0.15775282940309851 0 -0.48464943840857888 0.15775282940309851 0 -0.5 0.17015075819329931 0 -0.4898809761324775 0.17912292006808481 0 -0.5 0.1433429088593379 0 -0.48464943840857888 0.15775282940309851 0 -0.5 0.17015075819329931 0 -0.48464943840857888 0.15775282940309851 0 -0.4898809761324775 0.17912292006808481 0 -0.47865635922375932 0.17909963177513319 0 -0.5 0.17015075819329931 0 -0.4898809761324775 0.17912292006808481 0 -0.5 0.19695860752726069 0 -0.4898809761324775 0.17912292006808481 0 -0.47865635922375932 0.17909963177513319 0 -0.48609908303004917 0.1916527734416324 0 -0.47865635922375932 0.17909963177513319 0 -0.47279817792341111 0.1948006201282925 0 -0.47865635922375932 0.17909963177513319 0 -0.46589335310649882 0.18744802338852329 0 -0.47279817792341111 0.1948006201282925 0 -0.47865635922375932 0.17909963177513319 0 -0.46927870962167312 0.17493875400548389 0 -0.46990863904630059 0.1670362475492525 0 -0.47865635922375932 0.17909963177513319 0 -0.46927870962167312 0.17493875400548389 0 -0.46555461593459269 0.18128722400797501 0 -0.47865635922375932 0.17909963177513319 0 -0.46589335310649882 0.18744802338852329 0 -0.46555461593459269 0.18128722400797501 0 -0.48464943840857888 0.15775282940309851 0 -0.47865635922375932 0.17909963177513319 0 -0.46990863904630059 0.1670362475492525 0 -0.45742932361540911 0.15889287394486271 0 -0.45393765338305497 0.17471700686903011 0 -0.46990863904630059 0.1670362475492525 0 -0.45742932361540911 0.15889287394486271 0 -0.46092099384776192 0.14306874102069511 0 -0.45742932361540911 0.15889287394486271 0 -0.46299522428203971 0.17233191268957501 0 -0.45393765338305497 0.17471700686903011 0 -0.46927870962167312 0.17493875400548389 0 -0.46990863904630059 0.1670362475492525 0 -0.46299522428203971 0.17233191268957501 0 -0.46990863904630059 0.1670362475492525 0 -0.45742932361540911 0.15889287394486271 0 -0.46299522428203971 0.17233191268957501 0 -0.46589335310649882 0.18744802338852329 0 -0.46555461593459269 0.18128722400797501 0 -0.45393765338305497 0.17471700686903011 0 -0.46589335310649882 0.18744802338852329 0 -0.46555461593459269 0.18128722400797501 0 -0.46927870962167312 0.17493875400548389 0 -0.46555461593459269 0.18128722400797501 0 -0.46299522428203971 0.17233191268957501 0 -0.46555461593459269 0.18128722400797501 0 -0.46299522428203971 0.17233191268957501 0 -0.45393765338305497 0.17471700686903011 0 -0.46589335310649882 0.18744802338852329 0 -0.45393765338305497 0.17471700686903011 0 -0.45393765338305497 0.17471700686903011 0 -0.44047241453070329 0.18324079402305421 0 -0.44820564853932793 0.20069426145875721 0 -0.45393765338305497 0.17471700686903011 0 -0.44047241453070329 0.18324079402305421 0 -0.44174290600336708 0.16173144065936321 0 -0.45742932361540911 0.15889287394486271 0 -0.44174290600336708 0.16173144065936321 0 -0.44616928685712581 0.1494742970518641 0 -0.45742932361540911 0.15889287394486271 0 -0.45393765338305497 0.17471700686903011 0 -0.44174290600336708 0.16173144065936321 0 -0.45393765338305497 0.17471700686903011 0 -0.44174290600336708 0.16173144065936321 0 -0.44174290600336708 0.16173144065936321 0 -0.44616928685712581 0.1494742970518641 0 -0.43187713239064979 0.1573343508491826 0 -0.44616928685712581 0.1494742970518641 0 -0.43700896048386301 0.14249666109927989 0 -0.43187713239064979 0.1573343508491826 0 -0.44616928685712581 0.1494742970518641 0 -0.44680021131503311 0.13433024919887079 0 -0.46092099384776192 0.14306874102069511 0 -0.44616928685712581 0.1494742970518641 0 -0.44680021131503311 0.13433024919887079 0 -0.43700896048386301 0.14249666109927989 0 -0.45289828098281221 0.1241297055338681 0 -0.44680021131503311 0.13433024919887079 0 -0.43267942878230348 0.12559175737704789 0 -0.44680021131503311 0.13433024919887079 0 -0.43267942878230348 0.12559175737704789 0 -0.43700896048386301 0.14249666109927989 0 -0.44680021131503311 0.13433024919887079 0 -0.43267942878230348 0.12559175737704789 0 -0.45289828098281221 0.1241297055338681 0 -0.44680021131503311 0.13433024919887079 0 -0.46092099384776192 0.14306874102069511 0 -0.46607010556719342 0.11973313861048911 0 -0.46092099384776192 0.14306874102069511 0 -0.45289828098281221 0.1241297055338681 0 -0.46607010556719342 0.11973313861048911 0 -0.46092099384776192 0.14306874102069511 0 -0.44680021131503311 0.13433024919887079 0 -0.46092099384776192 0.14306874102069511 0 -0.45742932361540911 0.15889287394486271 0 -0.46092099384776192 0.14306874102069511 0 -0.45742932361540911 0.15889287394486271 0 -0.44616928685712581 0.1494742970518641 0 -0.46092099384776192 0.14306874102069511 0 -0.46853242371352971 0.23544625301742969 0 -0.46993231893463527 0.26090691788180947 0 -0.48177750529808522 0.24619974485466931 0 -0.46853242371352971 0.23544625301742969 0 -0.46993231893463527 0.26090691788180947 0 -0.48177750529808522 0.24619974485466931 0 -0.48375626182904402 0.22755154475287301 0 -0.46853242371352971 0.23544625301742969 0 -0.48177750529808522 0.24619974485466931 0 -0.5 0.2461359573144368 0 -0.48375626182904402 0.22755154475287301 0 -0.5 0.2461359573144368 0 -0.48375626182904402 0.22755154475287301 0 -0.49999999999999978 0.22376645686122221 0 -0.48375626182904402 0.22755154475287301 0 -0.48639908896170481 0.20928353849475789 0 -0.5 0.2461359573144368 0 -0.49999999999999978 0.22376645686122221 0 -0.48375626182904402 0.22755154475287301 0 -0.47173343442327142 0.22048762952866541 0 -0.46713252849242448 0.20998558815304991 0 -0.46853242371352971 0.23544625301742969 0 -0.48375626182904402 0.22755154475287301 0 -0.47173343442327142 0.22048762952866541 0 -0.4670472636537164 0.20843482960316059 0 -0.48375626182904402 0.22755154475287301 0 -0.47173343442327142 0.22048762952866541 0 -0.46853242371352971 0.23544625301742969 0 -0.48375626182904402 0.22755154475287301 0 -0.4670472636537164 0.20843482960316059 0 -0.48639908896170481 0.20928353849475789 0 -0.47279817792341111 0.1948006201282925 0 -0.4670472636537164 0.20843482960316059 0 -0.48375626182904402 0.22755154475287301 0 -0.48639908896170481 0.20928353849475789 0 -0.4670472636537164 0.20843482960316059 0 -0.49999999999999978 0.22376645686122221 0 -0.48639908896170481 0.20928353849475789 0 -0.5 0.19695860752726069 0 -0.49999999999999978 0.22376645686122221 0 -0.48639908896170481 0.20928353849475789 0 -0.48639908896170481 0.20928353849475789 0 -0.5 0.19695860752726069 0 -0.48609908303004917 0.1916527734416324 0 -0.4898809761324775 0.17912292006808481 0 -0.5 0.19695860752726069 0 -0.48609908303004917 0.1916527734416324 0 -0.48639908896170481 0.20928353849475789 0 -0.48609908303004917 0.1916527734416324 0 -0.47279817792341111 0.1948006201282925 0 -0.47865635922375932 0.17909963177513319 0 -0.48609908303004917 0.1916527734416324 0 -0.47279817792341111 0.1948006201282925 0 -0.48639908896170481 0.20928353849475789 0 -0.47279817792341111 0.1948006201282925 0 -0.47279817792341111 0.1948006201282925 0 -0.4670472636537164 0.20843482960316059 0 -0.46589335310649882 0.18744802338852329 0 -0.47279817792341111 0.1948006201282925 0 -0.46589335310649882 0.18744802338852329 0 -0.4603250720810298 0.20074399020462361 0 -0.4670472636537164 0.20843482960316059 0 -0.46589335310649882 0.18744802338852329 0 -0.45393765338305497 0.17471700686903011 0 -0.44820564853932793 0.20069426145875721 0 -0.46589335310649882 0.18744802338852329 0 -0.4603250720810298 0.20074399020462361 0 -0.44820564853932793 0.20069426145875721 0 -0.46589335310649882 0.18744802338852329 0 -0.47279817792341111 0.1948006201282925 0 -0.4670472636537164 0.20843482960316059 0 -0.46589335310649882 0.18744802338852329 0 -0.4670472636537164 0.20843482960316059 0 -0.45393765338305497 0.17471700686903011 0 -0.44820564853932793 0.20069426145875721 0 -0.44820564853932793 0.20069426145875721 0 -0.45427794118362658 0.21265328965042851 0 -0.44247364369559788 0.22667151604848371 0 -0.44820564853932793 0.20069426145875721 0 -0.44247364369559788 0.22667151604848371 0 -0.44820564853932793 0.20069426145875721 0 -0.44247364369559788 0.22667151604848371 0 -0.42336320141575168 0.21609666274764849 0 -0.45880341375183131 0.2186303689721085 0 -0.45427794118362658 0.21265328965042851 0 -0.46188137931700068 0.21002659871962689 0 -0.45880341375183131 0.2186303689721085 0 -0.45427794118362658 0.21265328965042851 0 -0.4536201791639074 0.2236252940046442 0 -0.4603250720810298 0.20074399020462361 0 -0.45427794118362658 0.21265328965042851 0 -0.46188137931700068 0.21002659871962689 0 -0.4603250720810298 0.20074399020462361 0 -0.44820564853932793 0.20069426145875721 0 -0.45427794118362658 0.21265328965042851 0 -0.4603250720810298 0.20074399020462361 0 -0.46188137931700068 0.21002659871962689 0 -0.4670472636537164 0.20843482960316059 0 -0.4603250720810298 0.20074399020462361 0 -0.4670472636537164 0.20843482960316059 0 -0.46188137931700068 0.21002659871962689 0 -0.4670472636537164 0.20843482960316059 0 -0.46713252849242448 0.20998558815304991 0 -0.4670472636537164 0.20843482960316059 0 -0.46713252849242448 0.20998558815304991 0 -0.47173343442327142 0.22048762952866541 0 -0.4670472636537164 0.20843482960316059 0 -0.46713252849242448 0.20998558815304991 0 -0.45880341375183131 0.2186303689721085 0 -0.46188137931700068 0.21002659871962689 0 -0.46713252849242448 0.20998558815304991 0 -0.46713252849242448 0.20998558815304991 0 -0.45710504060219709 0.23686107433279269 0 -0.46713252849242448 0.20998558815304991 0 -0.45710504060219709 0.23686107433279269 0 -0.46853242371352971 0.23544625301742969 0 -0.45880341375183131 0.2186303689721085 0 -0.46713252849242448 0.20998558815304991 0 -0.45710504060219709 0.23686107433279269 0 -0.45880341375183131 0.2186303689721085 0 -0.4536201791639074 0.2236252940046442 0 -0.45710504060219709 0.23686107433279269 0 -0.46713252849242448 0.20998558815304991 0 -0.46853242371352971 0.23544625301742969 0 -0.45427794118362658 0.21265328965042851 0 -0.4536201791639074 0.2236252940046442 0 -0.44247364369559788 0.22667151604848371 0 -0.4536201791639074 0.2236252940046442 0 -0.44247364369559788 0.22667151604848371 0 -0.45710504060219709 0.23686107433279269 0 -0.44247364369559788 0.22667151604848371 0 -0.4367416388518679 0.25264877063821017 0 -0.44247364369559788 0.22667151604848371 0 -0.45710504060219709 0.23686107433279269 0 -0.4367416388518679 0.25264877063821017 0 -0.45710504060219709 0.23686107433279269 0 -0.46853242371352971 0.23544625301742969 0 -0.46993231893463527 0.26090691788180947 0 -0.41931835140954682 0.23739665832436521 0 -0.40367044579520373 0.24132688110038639 0 -0.41175872593851298 0.2549478601346914 0 -0.41931835140954682 0.23739665832436521 0 -0.40790513800462019 0.22799805468035339 0 -0.40367044579520373 0.24132688110038639 0 -0.41931835140954682 0.23739665832436521 0 -0.4367416388518679 0.25264877063821017 0 -0.41175872593851298 0.2549478601346914 0 -0.44247364369559788 0.22667151604848371 0 -0.41931835140954682 0.23739665832436521 0 -0.4367416388518679 0.25264877063821017 0 -0.44247364369559788 0.22667151604848371 0 -0.41931835140954682 0.23739665832436521 0 -0.42336320141575168 0.21609666274764849 0 -0.41931835140954682 0.23739665832436521 0 -0.40790513800462019 0.22799805468035339 0 -0.42336320141575168 0.21609666274764849 0 -0.40790513800462019 0.22799805468035339 0 -0.42336320141575168 0.21609666274764849 0 -0.40538393777915788 0.2123952851453417 0 -0.42336320141575168 0.21609666274764849 0 -0.42071240458675369 0.1920614743917832 0 -0.40538393777915788 0.2123952851453417 0 -0.44820564853932793 0.20069426145875721 0 -0.42336320141575168 0.21609666274764849 0 -0.42071240458675369 0.1920614743917832 0 -0.44047241453070329 0.18324079402305421 0 -0.44820564853932793 0.20069426145875721 0 -0.42071240458675369 0.1920614743917832 0 -0.42071240458675369 0.1920614743917832 0 -0.40538393777915788 0.2123952851453417 0 -0.42071240458675369 0.1920614743917832 0 -0.4022878927449296 0.1970928012265635 0 -0.40298680868332198 0.18508216307238631 0 -0.42071240458675369 0.1920614743917832 0 -0.4022878927449296 0.1970928012265635 0 -0.40538393777915788 0.2123952851453417 0 -0.4022878927449296 0.1970928012265635 0 -0.39286614404695941 0.1920732104686422 0 -0.40298680868332198 0.18508216307238631 0 -0.4022878927449296 0.1970928012265635 0 -0.39286614404695941 0.1920732104686422 0 -0.39380007669083689 0.206464460861051 0 -0.38422654444444693 0.2008322729754812 0 -0.38088029112643113 0.1825210369279657 0 -0.38422654444444693 0.2008322729754812 0 -0.38088029112643113 0.1825210369279657 0 -0.36802074197771562 0.19700904511440151 0 -0.38422654444444693 0.2008322729754812 0 -0.37368745339656201 0.20924711939208951 0 -0.36802074197771562 0.19700904511440151 0 -0.39286614404695941 0.1920732104686422 0 -0.38422654444444693 0.2008322729754812 0 -0.38088029112643113 0.1825210369279657 0 -0.39286614404695941 0.1920732104686422 0 -0.38422654444444693 0.2008322729754812 0 -0.39380007669083689 0.206464460861051 0 -0.38422654444444693 0.2008322729754812 0 -0.38757279776246373 0.21914350902299659 0 -0.38757279776246373 0.21914350902299659 0 -0.36800338097472479 0.22147713987588341 0 -0.37368745339656201 0.20924711939208951 0 -0.38422654444444693 0.2008322729754812 0 -0.39380007669083689 0.206464460861051 0 -0.38757279776246373 0.21914350902299659 0 -0.38422654444444693 0.2008322729754812 0 -0.38757279776246373 0.21914350902299659 0 -0.37368745339656201 0.20924711939208951 0 -0.39141353052387118 0.2186855059784025 0 -0.39380007669083689 0.206464460861051 0 -0.38757279776246373 0.21914350902299659 0 -0.39141353052387118 0.2186855059784025 0 -0.39380007669083689 0.206464460861051 0 -0.40538393777915788 0.2123952851453417 0 -0.4022878927449296 0.1970928012265635 0 -0.39380007669083689 0.206464460861051 0 -0.40538393777915788 0.2123952851453417 0 -0.40790513800462019 0.22799805468035339 0 -0.39005547097156312 0.23272909589890109 0 -0.40367044579520373 0.24132688110038639 0 -0.39141353052387118 0.2186855059784025 0 -0.40538393777915788 0.2123952851453417 0 -0.39005547097156312 0.23272909589890109 0 -0.40790513800462019 0.22799805468035339 0 -0.40538393777915788 0.2123952851453417 0 -0.39005547097156312 0.23272909589890109 0 -0.40538393777915788 0.2123952851453417 0 -0.39005547097156312 0.23272909589890109 0 -0.38757279776246373 0.21914350902299659 0 -0.39005547097156312 0.23272909589890109 0 -0.38757279776246373 0.21914350902299659 0 -0.36800338097472479 0.22147713987588341 0 -0.39141353052387118 0.2186855059784025 0 -0.38757279776246373 0.21914350902299659 0 -0.39005547097156312 0.23272909589890109 0 -0.38757279776246373 0.21914350902299659 0 -0.37939186114838758 0.22424627805714001 0 -0.36800338097472479 0.22147713987588341 0 -0.38757279776246373 0.21914350902299659 0 -0.37939186114838758 0.22424627805714001 0 -0.39005547097156312 0.23272909589890109 0 -0.39141353052387118 0.2186855059784025 0 -0.38757279776246373 0.21914350902299659 0 -0.37939186114838758 0.22424627805714001 0 -0.37477717689163992 0.25299635056682518 0 -0.39005547097156312 0.23272909589890109 0 -0.39384597734802013 0.25347135609337229 0 -0.37477717689163992 0.25299635056682518 0 -0.37939186114838758 0.22424627805714001 0 -0.39005547097156312 0.23272909589890109 0 -0.37477717689163992 0.25299635056682518 0 -0.39005547097156312 0.23272909589890109 0 -0.37477717689163992 0.25299635056682518 0 -0.40367044579520373 0.24132688110038639 0 -0.41175872593851298 0.2549478601346914 0 -0.39384597734802013 0.25347135609337229 0 -0.39005547097156312 0.23272909589890109 0 -0.39384597734802013 0.25347135609337229 0 -0.39005547097156312 0.23272909589890109 0 -0.40367044579520373 0.24132688110038639 0 -0.39384597734802013 0.25347135609337229 0 -0.41485942150404181 0.14153864215909739 0 -0.41553858058260518 0.15317901213210369 0 -0.42574561826610652 0.14613969243370301 0 -0.41553858058260518 0.15317901213210369 0 -0.42574561826610652 0.14613969243370301 0 -0.42127399236650492 0.15770626544657529 0 -0.41485942150404181 0.14153864215909739 0 -0.41553858058260518 0.15317901213210369 0 -0.4044664398419977 0.15594807455379561 0 -0.40864304721671202 0.1107171055473533 0 -0.41485942150404181 0.14153864215909739 0 -0.43267942878230348 0.12559175737704789 0 -0.41485942150404181 0.14153864215909739 0 -0.43267942878230348 0.12559175737704789 0 -0.42574561826610652 0.14613969243370301 0 -0.43267942878230348 0.12559175737704789 0 -0.43700896048386301 0.14249666109927989 0 -0.42574561826610652 0.14613969243370301 0 -0.41485942150404181 0.14153864215909739 0 -0.43267942878230348 0.12559175737704789 0 -0.42574561826610652 0.14613969243370301 0 -0.43187713239064979 0.1573343508491826 0 -0.42127399236650492 0.15770626544657529 0 -0.43700896048386301 0.14249666109927989 0 -0.42574561826610652 0.14613969243370301 0 -0.43187713239064979 0.1573343508491826 0 -0.43187713239064979 0.1573343508491826 0 -0.42946357341586749 0.17496324995209989 0 -0.4216380035134229 0.16659483191912641 0 -0.44174290600336708 0.16173144065936321 0 -0.43187713239064979 0.1573343508491826 0 -0.42946357341586749 0.17496324995209989 0 -0.43187713239064979 0.1573343508491826 0 -0.42127399236650492 0.15770626544657529 0 -0.4216380035134229 0.16659483191912641 0 -0.44047241453070329 0.18324079402305421 0 -0.44174290600336708 0.16173144065936321 0 -0.42946357341586749 0.17496324995209989 0 -0.44047241453070329 0.18324079402305421 0 -0.42071240458675369 0.1920614743917832 0 -0.42946357341586749 0.17496324995209989 0 -0.42071240458675369 0.1920614743917832 0 -0.42946357341586749 0.17496324995209989 0 -0.41235879422937732 0.17543682721938669 0 -0.42071240458675369 0.1920614743917832 0 -0.41235879422937732 0.17543682721938669 0 -0.40298680868332198 0.18508216307238631 0 -0.42946357341586749 0.17496324995209989 0 -0.41235879422937732 0.17543682721938669 0 -0.4216380035134229 0.16659483191912641 0 -0.41553858058260518 0.15317901213210369 0 -0.42127399236650492 0.15770626544657529 0 -0.41302135350813218 0.1630654313638546 0 -0.42127399236650492 0.15770626544657529 0 -0.4216380035134229 0.16659483191912641 0 -0.41302135350813218 0.1630654313638546 0 -0.41235879422937732 0.17543682721938669 0 -0.4216380035134229 0.16659483191912641 0 -0.41302135350813218 0.1630654313638546 0 -0.41235879422937732 0.17543682721938669 0 -0.41302135350813218 0.1630654313638546 0 -0.40449990094882532 0.16792382984329149 0 -0.41302135350813218 0.1630654313638546 0 -0.40449990094882532 0.16792382984329149 0 -0.4044664398419977 0.15594807455379561 0 -0.41553858058260518 0.15317901213210369 0 -0.41302135350813218 0.1630654313638546 0 -0.4044664398419977 0.15594807455379561 0 -0.3926733654842145 0.1692345557408807 0 -0.4044664398419977 0.15594807455379561 0 -0.40449990094882532 0.16792382984329149 0 -0.3926733654842145 0.1692345557408807 0 -0.40078474618547688 0.17571320347163299 0 -0.40449990094882532 0.16792382984329149 0 -0.3926733654842145 0.1692345557408807 0 -0.4044664398419977 0.15594807455379561 0 -0.3926733654842145 0.1692345557408807 0 -0.39703941422577987 0.15748552694114659 0 -0.4044664398419977 0.15594807455379561 0 -0.40298680868332198 0.18508216307238631 0 -0.40078474618547688 0.17571320347163299 0 -0.39301525059178999 0.18044652774840561 0 -0.41235879422937732 0.17543682721938669 0 -0.40298680868332198 0.18508216307238631 0 -0.40078474618547688 0.17571320347163299 0 -0.41235879422937732 0.17543682721938669 0 -0.40449990094882532 0.16792382984329149 0 -0.40078474618547688 0.17571320347163299 0 -0.3926733654842145 0.1692345557408807 0 -0.40078474618547688 0.17571320347163299 0 -0.39301525059178999 0.18044652774840561 0 -0.39286614404695941 0.1920732104686422 0 -0.40298680868332198 0.18508216307238631 0 -0.39301525059178999 0.18044652774840561 0 -0.39286614404695941 0.1920732104686422 0 -0.39301525059178999 0.18044652774840561 0 -0.38088029112643113 0.1825210369279657 0 -0.3926733654842145 0.1692345557408807 0 -0.38088029112643113 0.1825210369279657 0 -0.3926733654842145 0.1692345557408807 0 -0.39301525059178999 0.18044652774840561 0 -0.38088029112643113 0.1825210369279657 0 -0.3926733654842145 0.1692345557408807 0 -0.37921940694751782 0.17343241172319571 0 -0.38088029112643113 0.1825210369279657 0 -0.37921940694751782 0.17343241172319571 0 -0.38088029112643113 0.1825210369279657 0 -0.37921940694751782 0.17343241172319571 0 -0.38088029112643113 0.1825210369279657 0 -0.37283571032282492 0.1791450959532255 0 -0.3784015845151173 0.16895715591276281 0 -0.37283571032282492 0.1791450959532255 0 -0.37921940694751782 0.17343241172319571 0 -0.3784015845151173 0.16895715591276281 0 -0.37283571032282492 0.1791450959532255 0 -0.37921940694751782 0.17343241172319571 0 -0.37283571032282492 0.1791450959532255 0 -0.39703941422577987 0.15748552694114659 0 -0.37921940694751782 0.17343241172319571 0 -0.38193020105096481 0.16249827228531991 0 -0.3784015845151173 0.16895715591276281 0 -0.38193020105096481 0.16249827228531991 0 -0.37372345991800282 0.14335770613522919 0 -0.39703941422577987 0.15748552694114659 0 -0.37921940694751782 0.17343241172319571 0 -0.3926733654842145 0.1692345557408807 0 -0.39703941422577987 0.15748552694114659 0 -0.37921940694751782 0.17343241172319571 0 -0.39703941422577987 0.15748552694114659 0 -0.38193020105096481 0.16249827228531991 0 -0.38598126975628672 0.1494316781992327 0 -0.37921940694751782 0.17343241172319571 0 -0.3784015845151173 0.16895715591276281 0 -0.38193020105096481 0.16249827228531991 0 -0.3784015845151173 0.16895715591276281 0 -0.38193020105096481 0.16249827228531991 0 -0.37921940694751782 0.17343241172319571 0 -0.3784015845151173 0.16895715591276281 0 -0.38598126975628672 0.1494316781992327 0 -0.39401402549175851 0.1361747599337243 0 -0.37372345991800282 0.14335770613522919 0 -0.38193020105096481 0.16249827228531991 0 -0.38598126975628672 0.1494316781992327 0 -0.37372345991800282 0.14335770613522919 0 -0.3784015845151173 0.16895715591276281 0 -0.37372345991800282 0.14335770613522919 0 -0.39703941422577987 0.15748552694114659 0 -0.38598126975628672 0.1494316781992327 0 -0.39401402549175851 0.1361747599337243 0 -0.41485942150404181 0.14153864215909739 0 -0.39703941422577987 0.15748552694114659 0 -0.39401402549175851 0.1361747599337243 0 -0.41485942150404181 0.14153864215909739 0 -0.39703941422577987 0.15748552694114659 0 -0.4044664398419977 0.15594807455379561 0 -0.41485942150404181 0.14153864215909739 0 -0.39703941422577987 0.15748552694114659 0 -0.40864304721671202 0.1107171055473533 0 -0.41485942150404181 0.14153864215909739 0 -0.39401402549175851 0.1361747599337243 0 -0.38750957741872682 0.11885909540365321 0 -0.37372345991800282 0.14335770613522919 0 -0.36904533532088801 0.1177582563576956 0 -0.38750957741872682 0.11885909540365321 0 -0.39401402549175851 0.1361747599337243 0 -0.37372345991800282 0.14335770613522919 0 -0.35823941519022368 0.13573745574644491 0 -0.37372345991800282 0.14335770613522919 0 -0.36904533532088801 0.1177582563576956 0 -0.37372345991800282 0.14335770613522919 0 -0.36904533532088801 0.1177582563576956 0 -0.35823941519022368 0.13573745574644491 0 -0.34455851703438989 0.13305210298766909 0 -0.35158166360451942 0.11704707172714621 0 -0.35823941519022368 0.13573745574644491 0 -0.34455851703438989 0.13305210298766909 0 -0.34873147585397152 0.15030858297792049 0 -0.35823941519022368 0.13573745574644491 0 -0.34873147585397152 0.15030858297792049 0 -0.36179603940957061 0.15290101429300901 0 -0.34873147585397152 0.15030858297792049 0 -0.34720568730415252 0.1616956217090188 0 -0.33647431770126862 0.14798842126345041 0 -0.34873147585397152 0.15030858297792049 0 -0.36179603940957061 0.15290101429300901 0 -0.35552330674067661 0.16014073544654131 0 -0.35823941519022368 0.13573745574644491 0 -0.36179603940957061 0.15290101429300901 0 -0.37372345991800282 0.14335770613522919 0 -0.3784015845151173 0.16895715591276281 0 -0.36179603940957061 0.15290101429300901 0 -0.37372345991800282 0.14335770613522919 0 -0.3784015845151173 0.16895715591276281 0 -0.36179603940957061 0.15290101429300901 0 -0.3628088848288224 0.16705289795690309 0 -0.3784015845151173 0.16895715591276281 0 -0.3628088848288224 0.16705289795690309 0 -0.36959790597703868 0.17377317275203899 0 -0.36179603940957061 0.15290101429300901 0 -0.3628088848288224 0.16705289795690309 0 -0.35552330674067661 0.16014073544654131 0 -0.38088029112643113 0.1825210369279657 0 -0.37283571032282492 0.1791450959532255 0 -0.36802074197771562 0.19700904511440151 0 -0.37283571032282492 0.1791450959532255 0 -0.36399845157591232 0.19532107462703119 0 -0.37283571032282492 0.1791450959532255 0 -0.36261880381503758 0.18828806813974089 0 -0.3784015845151173 0.16895715591276281 0 -0.36959790597703868 0.17377317275203899 0 -0.37283571032282492 0.1791450959532255 0 -0.36959790597703868 0.17377317275203899 0 -0.37283571032282492 0.1791450959532255 0 -0.36409588864576692 0.17933358541092431 0 -0.3628088848288224 0.16705289795690309 0 -0.36959790597703868 0.17377317275203899 0 -0.36409588864576692 0.17933358541092431 0 -0.3628088848288224 0.16705289795690309 0 -0.36409588864576692 0.17933358541092431 0 -0.35614161380151321 0.17761165346375071 0 -0.36409588864576692 0.17933358541092431 0 -0.35797279878738592 0.18411861580098379 0 -0.35614161380151321 0.17761165346375071 0 -0.36409588864576692 0.17933358541092431 0 -0.35797279878738592 0.18411861580098379 0 -0.36261880381503758 0.18828806813974089 0 -0.37283571032282492 0.1791450959532255 0 -0.36409588864576692 0.17933358541092431 0 -0.36261880381503758 0.18828806813974089 0 -0.35797279878738592 0.18411861580098379 0 -0.35614161380151321 0.17761165346375071 0 -0.35065229879255438 0.18593262723135329 0 -0.35797279878738592 0.18411861580098379 0 -0.35065229879255438 0.18593262723135329 0 -0.35645772166264922 0.19211102842263869 0 -0.35614161380151321 0.17761165346375071 0 -0.34811061985946878 0.17434540014992381 0 -0.35436851446084039 0.1683048517912053 0 -0.35614161380151321 0.17761165346375071 0 -0.34811061985946878 0.17434540014992381 0 -0.35065229879255438 0.18593262723135329 0 -0.35065229879255438 0.18593262723135329 0 -0.34227569468909552 0.1811403169530669 0 -0.33993633525554889 0.19055096072852831 0 -0.34811061985946878 0.17434540014992381 0 -0.35065229879255438 0.18593262723135329 0 -0.34227569468909552 0.1811403169530669 0 -0.35552330674067661 0.16014073544654131 0 -0.35436851446084039 0.1683048517912053 0 -0.34720568730415252 0.1616956217090188 0 -0.3628088848288224 0.16705289795690309 0 -0.35614161380151321 0.17761165346375071 0 -0.35436851446084039 0.1683048517912053 0 -0.3628088848288224 0.16705289795690309 0 -0.35552330674067661 0.16014073544654131 0 -0.35436851446084039 0.1683048517912053 0 -0.34811061985946878 0.17434540014992381 0 -0.34720568730415252 0.1616956217090188 0 -0.33801991010865667 0.17138732975114751 0 -0.34811061985946878 0.17434540014992381 0 -0.35436851446084039 0.1683048517912053 0 -0.34720568730415252 0.1616956217090188 0 -0.34873147585397152 0.15030858297792049 0 -0.35552330674067661 0.16014073544654131 0 -0.34720568730415252 0.1616956217090188 0 -0.34720568730415252 0.1616956217090188 0 -0.33801991010865667 0.17138732975114751 0 -0.33092539158612982 0.1609515407851054 0 -0.34720568730415252 0.1616956217090188 0 -0.33092539158612982 0.1609515407851054 0 -0.33647431770126862 0.14798842126345041 0 -0.33801991010865667 0.17138732975114751 0 -0.33092539158612982 0.1609515407851054 0 -0.3265778886375873 0.17202186172735501 0 -0.34227569468909552 0.1811403169530669 0 -0.33183788287013261 0.1831818366374682 0 -0.33993633525554889 0.19055096072852831 0 -0.34811061985946878 0.17434540014992381 0 -0.33801991010865667 0.17138732975114751 0 -0.34227569468909552 0.1811403169530669 0 -0.33801991010865667 0.17138732975114751 0 -0.34227569468909552 0.1811403169530669 0 -0.33183788287013261 0.1831818366374682 0 -0.33801991010865667 0.17138732975114751 0 -0.33183788287013261 0.1831818366374682 0 -0.3265778886375873 0.17202186172735501 0 -0.3265778886375873 0.17202186172735501 0 -0.31632076704925127 0.18575639557221951 0 -0.3167678101826048 0.16359462978275929 0 -0.33183788287013261 0.1831818366374682 0 -0.3265778886375873 0.17202186172735501 0 -0.31632076704925127 0.18575639557221951 0 -0.33092539158612982 0.1609515407851054 0 -0.3167678101826048 0.16359462978275929 0 -0.32050673558250908 0.1490213804769015 0 -0.33092539158612982 0.1609515407851054 0 -0.3265778886375873 0.17202186172735501 0 -0.3167678101826048 0.16359462978275929 0 -0.32050673558250908 0.1490213804769015 0 -0.30739524272803709 0.15185112365938391 0 -0.31211500736378339 0.1240031522641292 0 -0.3167678101826048 0.16359462978275929 0 -0.32050673558250908 0.1490213804769015 0 -0.30739524272803709 0.15185112365938391 0 -0.32050673558250908 0.1490213804769015 0 -0.30739524272803709 0.15185112365938391 0 -0.32919359534549508 0.13424827028365749 0 -0.31211500736378339 0.1240031522641292 0 -0.33231339904552459 0.1171762944261375 0 -0.32050673558250908 0.1490213804769015 0 -0.32919359534549508 0.13424827028365749 0 -0.31211500736378339 0.1240031522641292 0 -0.34455851703438989 0.13305210298766909 0 -0.32919359534549508 0.13424827028365749 0 -0.33231339904552459 0.1171762944261375 0 -0.34455851703438989 0.13305210298766909 0 -0.32919359534549508 0.13424827028365749 0 -0.33647431770126862 0.14798842126345041 0 -0.32050673558250908 0.1490213804769015 0 -0.32919359534549508 0.13424827028365749 0 -0.33647431770126862 0.14798842126345041 0 -0.33092539158612982 0.1609515407851054 0 -0.32050673558250908 0.1490213804769015 0 -0.33647431770126862 0.14798842126345041 0 -0.34455851703438989 0.13305210298766909 0 -0.34873147585397152 0.15030858297792049 0 -0.33647431770126862 0.14798842126345041 0 -0.35416421148584648 0.23888623464626721 0 -0.34843396418698602 0.22381077072877051 0 -0.33845336435013867 0.242079554605789 0 -0.35416421148584648 0.23888623464626721 0 -0.33845336435013867 0.242079554605789 0 -0.35464358931248319 0.25491115920099722 0 -0.37939186114838758 0.22424627805714001 0 -0.37013679196984273 0.23750613219799629 0 -0.37477717689163992 0.25299635056682518 0 -0.37013679196984273 0.23750613219799629 0 -0.35464358931248319 0.25491115920099722 0 -0.37477717689163992 0.25299635056682518 0 -0.35416421148584648 0.23888623464626721 0 -0.37013679196984273 0.23750613219799629 0 -0.35464358931248319 0.25491115920099722 0 -0.35416421148584648 0.23888623464626721 0 -0.37013679196984273 0.23750613219799629 0 -0.36148561266771267 0.2305011068434443 0 -0.36148561266771267 0.2305011068434443 0 -0.36975441169016687 0.228432664243616 0 -0.36800338097472479 0.22147713987588341 0 -0.37013679196984273 0.23750613219799629 0 -0.36148561266771267 0.2305011068434443 0 -0.36975441169016687 0.228432664243616 0 -0.37939186114838758 0.22424627805714001 0 -0.37013679196984273 0.23750613219799629 0 -0.36975441169016687 0.228432664243616 0 -0.37939186114838758 0.22424627805714001 0 -0.36975441169016687 0.228432664243616 0 -0.36800338097472479 0.22147713987588341 0 -0.36800338097472479 0.22147713987588341 0 -0.34843396418698602 0.22381077072877051 0 -0.35516119282899983 0.21149705330083701 0 -0.36148561266771267 0.2305011068434443 0 -0.36800338097472479 0.22147713987588341 0 -0.34843396418698602 0.22381077072877051 0 -0.36800338097472479 0.22147713987588341 0 -0.34843396418698602 0.22381077072877051 0 -0.35416421148584648 0.23888623464626721 0 -0.36148561266771267 0.2305011068434443 0 -0.34843396418698602 0.22381077072877051 0 -0.34843396418698602 0.22381077072877051 0 -0.34802604401402371 0.21953575615482759 0 -0.33982416592956399 0.21665757569738961 0 -0.34802604401402371 0.21953575615482759 0 -0.34581283434165899 0.20861347152532789 0 -0.33982416592956399 0.21665757569738961 0 -0.34802604401402371 0.21953575615482759 0 -0.34581283434165899 0.20861347152532789 0 -0.35516119282899983 0.21149705330083701 0 -0.34843396418698602 0.22381077072877051 0 -0.34802604401402371 0.21953575615482759 0 -0.35516119282899983 0.21149705330083701 0 -0.34581283434165899 0.20861347152532789 0 -0.35516119282899983 0.21149705330083701 0 -0.35389383475621161 0.20092716755479181 0 -0.34802604401402371 0.21953575615482759 0 -0.35516119282899983 0.21149705330083701 0 -0.34843396418698602 0.22381077072877051 0 -0.35516119282899983 0.21149705330083701 0 -0.36800338097472479 0.22147713987588341 0 -0.35516119282899983 0.21149705330083701 0 -0.37368745339656201 0.20924711939208951 0 -0.35516119282899983 0.21149705330083701 0 -0.37368745339656201 0.20924711939208951 0 -0.36802074197771562 0.19700904511440151 0 -0.35516119282899983 0.21149705330083701 0 -0.36399845157591232 0.19532107462703119 0 -0.35516119282899983 0.21149705330083701 0 -0.36802074197771562 0.19700904511440151 0 -0.37283571032282492 0.1791450959532255 0 -0.36399845157591232 0.19532107462703119 0 -0.36261880381503758 0.18828806813974089 0 -0.37283571032282492 0.1791450959532255 0 -0.36399845157591232 0.19532107462703119 0 -0.36802074197771562 0.19700904511440151 0 -0.35516119282899983 0.21149705330083701 0 -0.36399845157591232 0.19532107462703119 0 -0.36802074197771562 0.19700904511440151 0 -0.38088029112643113 0.1825210369279657 0 -0.36802074197771562 0.19700904511440151 0 -0.36399845157591232 0.19532107462703119 0 -0.36261880381503758 0.18828806813974089 0 -0.35645772166264922 0.19211102842263869 0 -0.35797279878738592 0.18411861580098379 0 -0.36261880381503758 0.18828806813974089 0 -0.35645772166264922 0.19211102842263869 0 -0.35065229879255438 0.18593262723135329 0 -0.35645772166264922 0.19211102842263869 0 -0.34803897337183792 0.19709320989812409 0 -0.35516119282899983 0.21149705330083701 0 -0.36399845157591232 0.19532107462703119 0 -0.35389383475621161 0.20092716755479181 0 -0.35645772166264922 0.19211102842263869 0 -0.35389383475621161 0.20092716755479181 0 -0.34803897337183792 0.19709320989812409 0 -0.36399845157591232 0.19532107462703119 0 -0.35645772166264922 0.19211102842263869 0 -0.35389383475621161 0.20092716755479181 0 -0.34581283434165899 0.20861347152532789 0 -0.35389383475621161 0.20092716755479181 0 -0.34803897337183792 0.19709320989812409 0 -0.34581283434165899 0.20861347152532789 0 -0.34803897337183792 0.19709320989812409 0 -0.33933674095816863 0.19971543786353729 0 -0.35065229879255438 0.18593262723135329 0 -0.34803897337183792 0.19709320989812409 0 -0.33993633525554889 0.19055096072852831 0 -0.33993633525554889 0.19055096072852831 0 -0.33933674095816863 0.19971543786353729 0 -0.33069942903629101 0.19625725860753851 0 -0.34803897337183792 0.19709320989812409 0 -0.33993633525554889 0.19055096072852831 0 -0.33933674095816863 0.19971543786353729 0 -0.33933674095816863 0.19971543786353729 0 -0.33069942903629101 0.19625725860753851 0 -0.33422481296465362 0.2080963853910347 0 -0.33183788287013261 0.1831818366374682 0 -0.33993633525554889 0.19055096072852831 0 -0.33069942903629101 0.19625725860753851 0 -0.31632076704925127 0.18575639557221951 0 -0.33069942903629101 0.19625725860753851 0 -0.32036655352850157 0.2095523693350691 0 -0.33183788287013261 0.1831818366374682 0 -0.31632076704925127 0.18575639557221951 0 -0.33069942903629101 0.19625725860753851 0 -0.32036655352850157 0.2095523693350691 0 -0.32458589997660492 0.2266546254550818 0 -0.30779163400160159 0.21927945841494459 0 -0.32036655352850157 0.2095523693350691 0 -0.32934906837639222 0.21536895119528529 0 -0.32458589997660492 0.2266546254550818 0 -0.32036655352850157 0.2095523693350691 0 -0.32934906837639222 0.21536895119528529 0 -0.33422481296465362 0.2080963853910347 0 -0.32934906837639222 0.21536895119528529 0 -0.33422481296465362 0.2080963853910347 0 -0.33982416592956399 0.21665757569738961 0 -0.33069942903629101 0.19625725860753851 0 -0.32036655352850157 0.2095523693350691 0 -0.33422481296465362 0.2080963853910347 0 -0.34581283434165899 0.20861347152532789 0 -0.33933674095816863 0.19971543786353729 0 -0.33422481296465362 0.2080963853910347 0 -0.34581283434165899 0.20861347152532789 0 -0.33422481296465362 0.2080963853910347 0 -0.33982416592956399 0.21665757569738961 0 -0.34843396418698602 0.22381077072877051 0 -0.33982416592956399 0.21665757569738961 0 -0.32458589997660492 0.2266546254550818 0 -0.34843396418698602 0.22381077072877051 0 -0.32458589997660492 0.2266546254550818 0 -0.34843396418698602 0.22381077072877051 0 -0.32458589997660492 0.2266546254550818 0 -0.33845336435013867 0.242079554605789 0 -0.34843396418698602 0.22381077072877051 0 -0.33845336435013867 0.242079554605789 0 -0.32934906837639222 0.21536895119528529 0 -0.33982416592956399 0.21665757569738961 0 -0.32458589997660492 0.2266546254550818 0 -0.32458589997660492 0.2266546254550818 0 -0.30073783576622393 0.22949848018139329 0 -0.32458589997660492 0.2266546254550818 0 -0.32455092720978362 0.24357057421839101 0 -0.31122576982003303 0.23714335435801151 0 -0.32455092720978362 0.24357057421839101 0 -0.311575650220281 0.24878047680599949 0 -0.31122576982003303 0.23714335435801151 0 -0.32458589997660492 0.2266546254550818 0 -0.32455092720978362 0.24357057421839101 0 -0.33845336435013867 0.242079554605789 0 -0.32455092720978362 0.24357057421839101 0 -0.33845336435013867 0.242079554605789 0 -0.32847276451329022 0.26034833848280681 0 -0.29310990672191722 0.23613872254877591 0 -0.29467853592727078 0.23721261512919359 0 -0.28985028671148488 0.25537141990030859 0 -0.29310990672191722 0.23613872254877591 0 -0.27131573767068418 0.22826101281380451 0 -0.28058301219108422 0.24181621635705669 0 -0.29310990672191722 0.23613872254877591 0 -0.28985028671148488 0.25537141990030859 0 -0.29310990672191722 0.23613872254877591 0 -0.28058301219108422 0.24181621635705669 0 -0.28985028671148488 0.25537141990030859 0 -0.28058301219108422 0.24181621635705669 0 -0.28985028671148488 0.25537141990030859 0 -0.29310990672191722 0.23613872254877591 0 -0.29467853592727078 0.23721261512919359 0 -0.29467853592727078 0.23721261512919359 0 -0.31122576982003303 0.23714335435801151 0 -0.30073783576622393 0.22949848018139329 0 -0.29467853592727078 0.23721261512919359 0 -0.311575650220281 0.24878047680599949 0 -0.31122576982003303 0.23714335435801151 0 -0.29467853592727078 0.23721261512919359 0 -0.311575650220281 0.24878047680599949 0 -0.29467853592727078 0.23721261512919359 0 -0.311575650220281 0.24878047680599949 0 -0.29523766041035199 0.26325150879709891 0 -0.32458589997660492 0.2266546254550818 0 -0.30073783576622393 0.22949848018139329 0 -0.30779163400160159 0.21927945841494459 0 -0.32458589997660492 0.2266546254550818 0 -0.31122576982003303 0.23714335435801151 0 -0.30073783576622393 0.22949848018139329 0 -0.30073783576622393 0.22949848018139329 0 -0.30779163400160159 0.21927945841494459 0 -0.29448167989639912 0.22804486553003031 0 -0.29310990672191722 0.23613872254877591 0 -0.29448167989639912 0.22804486553003031 0 -0.27369133376421262 0.22284465576077489 0 -0.29448167989639912 0.22804486553003031 0 -0.2838712618875629 0.21479465795795599 0 -0.27369133376421262 0.22284465576077489 0 -0.29448167989639912 0.22804486553003031 0 -0.29413635243235581 0.21196267741475219 0 -0.29310990672191722 0.23613872254877591 0 -0.27369133376421262 0.22284465576077489 0 -0.29467853592727078 0.23721261512919359 0 -0.30073783576622393 0.22949848018139329 0 -0.29448167989639912 0.22804486553003031 0 -0.29310990672191722 0.23613872254877591 0 -0.29467853592727078 0.23721261512919359 0 -0.29448167989639912 0.22804486553003031 0 -0.29467853592727078 0.23721261512919359 0 -0.29448167989639912 0.22804486553003031 0 -0.29310990672191722 0.23613872254877591 0 -0.29448167989639912 0.22804486553003031 0 -0.29413635243235581 0.21196267741475219 0 -0.29878620084027852 0.20264695157314819 0 -0.29379102496831272 0.19588048929947419 0 -0.29448167989639912 0.22804486553003031 0 -0.29413635243235581 0.21196267741475219 0 -0.29878620084027852 0.20264695157314819 0 -0.29448167989639912 0.22804486553003031 0 -0.29878620084027852 0.20264695157314819 0 -0.29413635243235581 0.21196267741475219 0 -0.29379102496831272 0.19588048929947419 0 -0.28522308967114912 0.20452327137286261 0 -0.29413635243235581 0.21196267741475219 0 -0.29379102496831272 0.19588048929947419 0 -0.29448167989639912 0.22804486553003031 0 -0.2838712618875629 0.21479465795795599 0 -0.29413635243235581 0.21196267741475219 0 -0.2838712618875629 0.21479465795795599 0 -0.28522308967114912 0.20452327137286261 0 -0.29413635243235581 0.21196267741475219 0 -0.32036655352850157 0.2095523693350691 0 -0.30779163400160159 0.21927945841494459 0 -0.29878620084027852 0.20264695157314819 0 -0.30779163400160159 0.21927945841494459 0 -0.29448167989639912 0.22804486553003031 0 -0.29878620084027852 0.20264695157314819 0 -0.29878620084027852 0.20264695157314819 0 -0.29379102496831272 0.19588048929947419 0 -0.30309072178415769 0.17724903761626601 0 -0.31632076704925127 0.18575639557221951 0 -0.29878620084027852 0.20264695157314819 0 -0.30309072178415769 0.17724903761626601 0 -0.31632076704925127 0.18575639557221951 0 -0.32036655352850157 0.2095523693350691 0 -0.29878620084027852 0.20264695157314819 0 -0.29878620084027852 0.20264695157314819 0 -0.30309072178415769 0.17724903761626601 0 -0.28522308967114912 0.20452327137286261 0 -0.29379102496831272 0.19588048929947419 0 -0.28124953787461371 0.1935735916895788 0 -0.29379102496831272 0.19588048929947419 0 -0.28124953787461371 0.1935735916895788 0 -0.28752446549241689 0.1832489647230989 0 -0.28124953787461371 0.1935735916895788 0 -0.2659766044530758 0.19238405035351089 0 -0.27494974420821611 0.1793112011395637 0 -0.28522308967114912 0.20452327137286261 0 -0.28124953787461371 0.1935735916895788 0 -0.27431068871210279 0.20621206129374381 0 -0.28124953787461371 0.1935735916895788 0 -0.2659766044530758 0.19238405035351089 0 -0.27431068871210279 0.20621206129374381 0 -0.25427276080650663 0.20955058897277601 0 -0.24947341468037071 0.1874691479585941 0 -0.2659766044530758 0.19238405035351089 0 -0.25427276080650663 0.20955058897277601 0 -0.24947341468037071 0.1874691479585941 0 -0.2659766044530758 0.19238405035351089 0 -0.25427276080650663 0.20955058897277601 0 -0.27431068871210279 0.20621206129374381 0 -0.25427276080650663 0.20955058897277601 0 -0.27369133376421262 0.22284465576077489 0 -0.25427276080650663 0.20955058897277601 0 -0.25977281016601761 0.2185578892770178 0 -0.27369133376421262 0.22284465576077489 0 -0.25427276080650663 0.20955058897277601 0 -0.25561524088587501 0.21572724177218369 0 -0.25977281016601761 0.2185578892770178 0 -0.25427276080650663 0.20955058897277601 0 -0.25561524088587501 0.21572724177218369 0 -0.24333230173327219 0.21221501244476959 0 -0.25427276080650663 0.20955058897277601 0 -0.25561524088587501 0.21572724177218369 0 -0.25427276080650663 0.20955058897277601 0 -0.27431068871210279 0.20621206129374381 0 -0.27369133376421262 0.22284465576077489 0 -0.2838712618875629 0.21479465795795599 0 -0.27431068871210279 0.20621206129374381 0 -0.27369133376421262 0.22284465576077489 0 -0.2838712618875629 0.21479465795795599 0 -0.28522308967114912 0.20452327137286261 0 -0.27431068871210279 0.20621206129374381 0 -0.29310990672191722 0.23613872254877591 0 -0.27369133376421262 0.22284465576077489 0 -0.27131573767068418 0.22826101281380451 0 -0.27131573767068418 0.22826101281380451 0 -0.26439065681250729 0.2289784260688752 0 -0.26819560602517328 0.23507842756581021 0 -0.27131573767068418 0.22826101281380451 0 -0.26675876456119929 0.22568570462696191 0 -0.26439065681250729 0.2289784260688752 0 -0.27369133376421262 0.22284465576077489 0 -0.26675876456119929 0.22568570462696191 0 -0.26371349664181459 0.22286429712754721 0 -0.25977281016601761 0.2185578892770178 0 -0.27369133376421262 0.22284465576077489 0 -0.26371349664181459 0.22286429712754721 0 -0.27369133376421262 0.22284465576077489 0 -0.27131573767068418 0.22826101281380451 0 -0.26675876456119929 0.22568570462696191 0 -0.26675876456119929 0.22568570462696191 0 -0.26371349664181459 0.22286429712754721 0 -0.26068259791677789 0.22548013136380779 0 -0.26068259791677789 0.22548013136380779 0 -0.25678634991227811 0.22260498734460241 0 -0.2574101570832959 0.22971939663687391 0 -0.26371349664181459 0.22286429712754721 0 -0.26068259791677789 0.22548013136380779 0 -0.25678634991227811 0.22260498734460241 0 -0.25977281016601761 0.2185578892770178 0 -0.26371349664181459 0.22286429712754721 0 -0.25678634991227811 0.22260498734460241 0 -0.25561524088587501 0.21572724177218369 0 -0.25977281016601761 0.2185578892770178 0 -0.25678634991227811 0.22260498734460241 0 -0.25678634991227811 0.22260498734460241 0 -0.249817319625419 0.2274340479663062 0 -0.24904636230289101 0.22050689045355901 0 -0.25561524088587501 0.21572724177218369 0 -0.25678634991227811 0.22260498734460241 0 -0.24904636230289101 0.22050689045355901 0 -0.25109603964961891 0.234366577265785 0 -0.2574101570832959 0.22971939663687391 0 -0.249817319625419 0.2274340479663062 0 -0.25678634991227811 0.22260498734460241 0 -0.2574101570832959 0.22971939663687391 0 -0.249817319625419 0.2274340479663062 0 -0.2574101570832959 0.22971939663687391 0 -0.26439065681250729 0.2289784260688752 0 -0.26193406046231932 0.2344272911270443 0 -0.26068259791677789 0.22548013136380779 0 -0.2574101570832959 0.22971939663687391 0 -0.26439065681250729 0.2289784260688752 0 -0.26675876456119929 0.22568570462696191 0 -0.26068259791677789 0.22548013136380779 0 -0.26439065681250729 0.2289784260688752 0 -0.26439065681250729 0.2289784260688752 0 -0.26193406046231932 0.2344272911270443 0 -0.26819560602517328 0.23507842756581021 0 -0.26193406046231932 0.2344272911270443 0 -0.26614348890836192 0.24293385421211869 0 -0.26819560602517328 0.23507842756581021 0 -0.2574101570832959 0.22971939663687391 0 -0.26193406046231932 0.2344272911270443 0 -0.25699538715464082 0.23905233796863981 0 -0.26193406046231932 0.2344272911270443 0 -0.25699538715464082 0.23905233796863981 0 -0.26614348890836192 0.24293385421211869 0 -0.25109603964961891 0.234366577265785 0 -0.25699538715464082 0.23905233796863981 0 -0.2470081454867771 0.2422065880623451 0 -0.25109603964961891 0.234366577265785 0 -0.2574101570832959 0.22971939663687391 0 -0.25699538715464082 0.23905233796863981 0 -0.25699538715464082 0.23905233796863981 0 -0.25693865295534157 0.25278860643768353 0 -0.2470081454867771 0.2422065880623451 0 -0.25699538715464082 0.23905233796863981 0 -0.26614348890836192 0.24293385421211869 0 -0.25693865295534157 0.25278860643768353 0 -0.26614348890836192 0.24293385421211869 0 -0.2724296921133022 0.25217156250687062 0 -0.25693865295534157 0.25278860643768353 0 -0.26614348890836192 0.24293385421211869 0 -0.28058301219108422 0.24181621635705669 0 -0.2724296921133022 0.25217156250687062 0 -0.28058301219108422 0.24181621635705669 0 -0.28985028671148488 0.25537141990030859 0 -0.2724296921133022 0.25217156250687062 0 -0.26614348890836192 0.24293385421211869 0 -0.26819560602517328 0.23507842756581021 0 -0.28058301219108422 0.24181621635705669 0 -0.27131573767068418 0.22826101281380451 0 -0.26819560602517328 0.23507842756581021 0 -0.28058301219108422 0.24181621635705669 0 -0.27131573767068418 0.22826101281380451 0 -0.28058301219108422 0.24181621635705669 0 -0.29326612220823411 0.13512644163735801 0 -0.28648818467010168 0.15636331808772699 0 -0.27141175194646833 0.1445184244171912 0 -0.29326612220823411 0.13512644163735801 0 -0.30739524272803709 0.15185112365938391 0 -0.28648818467010168 0.15636331808772699 0 -0.30739524272803709 0.15185112365938391 0 -0.31211500736378339 0.1240031522641292 0 -0.29326612220823411 0.13512644163735801 0 -0.30739524272803709 0.15185112365938391 0 -0.31211500736378339 0.1240031522641292 0 -0.30739524272803709 0.15185112365938391 0 -0.28648818467010168 0.15636331808772699 0 -0.30739524272803709 0.15185112365938391 0 -0.30309072178415769 0.17724903761626601 0 -0.3167678101826048 0.16359462978275929 0 -0.30739524272803709 0.15185112365938391 0 -0.30309072178415769 0.17724903761626601 0 -0.30739524272803709 0.15185112365938391 0 -0.30309072178415769 0.17724903761626601 0 -0.28648818467010168 0.15636331808772699 0 -0.31632076704925127 0.18575639557221951 0 -0.3167678101826048 0.16359462978275929 0 -0.30309072178415769 0.17724903761626601 0 -0.30309072178415769 0.17724903761626601 0 -0.28752446549241689 0.1832489647230989 0 -0.28381669143151822 0.17107272026056419 0 -0.29379102496831272 0.19588048929947419 0 -0.30309072178415769 0.17724903761626601 0 -0.28752446549241689 0.1832489647230989 0 -0.28752446549241689 0.1832489647230989 0 -0.28381669143151822 0.17107272026056419 0 -0.27494974420821611 0.1793112011395637 0 -0.30309072178415769 0.17724903761626601 0 -0.28648818467010168 0.15636331808772699 0 -0.28381669143151822 0.17107272026056419 0 -0.28648818467010168 0.15636331808772699 0 -0.28381669143151822 0.17107272026056419 0 -0.26558112661216632 0.16087551251606999 0 -0.28381669143151822 0.17107272026056419 0 -0.27494974420821611 0.1793112011395637 0 -0.26558112661216632 0.16087551251606999 0 -0.28648818467010168 0.15636331808772699 0 -0.26558112661216632 0.16087551251606999 0 -0.27494974420821611 0.1793112011395637 0 -0.26084394980388648 0.17618123618614701 0 -0.26558112661216632 0.16087551251606999 0 -0.2659766044530758 0.19238405035351089 0 -0.27494974420821611 0.1793112011395637 0 -0.26084394980388648 0.17618123618614701 0 -0.28124953787461371 0.1935735916895788 0 -0.28752446549241689 0.1832489647230989 0 -0.27494974420821611 0.1793112011395637 0 -0.2659766044530758 0.19238405035351089 0 -0.26084394980388648 0.17618123618614701 0 -0.24947341468037071 0.1874691479585941 0 -0.26084394980388648 0.17618123618614701 0 -0.24467406855423091 0.1653877069444131 0 -0.24947341468037071 0.1874691479585941 0 -0.26558112661216632 0.16087551251606999 0 -0.24467406855423091 0.1653877069444131 0 -0.26558112661216632 0.16087551251606999 0 -0.2543915534089356 0.15018751405662761 0 -0.24467406855423091 0.1653877069444131 0 -0.26084394980388648 0.17618123618614701 0 -0.26558112661216632 0.16087551251606999 0 -0.24467406855423091 0.1653877069444131 0 -0.26558112661216632 0.16087551251606999 0 -0.2543915534089356 0.15018751405662761 0 -0.27141175194646833 0.1445184244171912 0 -0.2543915534089356 0.15018751405662761 0 -0.27141175194646833 0.1445184244171912 0 -0.25477231595188199 0.13792181725732239 0 -0.28648818467010168 0.15636331808772699 0 -0.26558112661216632 0.16087551251606999 0 -0.27141175194646833 0.1445184244171912 0 -0.29326612220823411 0.13512644163735801 0 -0.27141175194646833 0.1445184244171912 0 -0.27545980130109921 0.1239996051278405 0 -0.27141175194646833 0.1445184244171912 0 -0.25477231595188199 0.13792181725732239 0 -0.27545980130109921 0.1239996051278405 0 -0.25477231595188199 0.13792181725732239 0 -0.27545980130109921 0.1239996051278405 0 -0.25477231595188199 0.13792181725732239 0 -0.27545980130109921 0.1239996051278405 0 -0.2495823492922267 0.12121763785839371 0 -0.25610310449345419 0.1041046972302731 0 -0.27545980130109921 0.1239996051278405 0 -0.2495823492922267 0.12121763785839371 0 -0.25610310449345419 0.1041046972302731 0 -0.25413031243694739 0.089521027236778197 0 -0.2427234934652894 0.090762762990284518 0 -0.25610310449345419 0.1041046972302731 0 -0.26471001572300679 0.091779207982481292 0 -0.25413031243694739 0.089521027236778197 0 -0.25610310449345419 0.1041046972302731 0 -0.27632390472144541 0.10600366135062909 0 -0.26471001572300679 0.091779207982481292 0 -0.27632390472144541 0.10600366135062909 0 -0.27815219556391091 0.091433986845849968 0 -0.26471001572300679 0.091779207982481292 0 -0.27632390472144541 0.10600366135062909 0 -0.28783094919658059 0.096999283795453681 0 -0.27815219556391091 0.091433986845849968 0 -0.25610310449345419 0.1041046972302731 0 -0.27632390472144541 0.10600366135062909 0 -0.27545980130109921 0.1239996051278405 0 -0.27545980130109921 0.1239996051278405 0 -0.29614728665031642 0.1100773929983587 0 -0.29326612220823411 0.13512644163735801 0 -0.27545980130109921 0.1239996051278405 0 -0.29614728665031642 0.1100773929983587 0 -0.27632390472144541 0.10600366135062909 0 -0.27545980130109921 0.1239996051278405 0 -0.29614728665031642 0.1100773929983587 0 -0.27632390472144541 0.10600366135062909 0 -0.29614728665031642 0.1100773929983587 0 -0.28783094919658059 0.096999283795453681 0 -0.29614728665031642 0.1100773929983587 0 -0.28783094919658059 0.096999283795453681 0 -0.29903425758953422 0.090155638130954882 0 -0.29614728665031642 0.1100773929983587 0 -0.29903425758953422 0.090155638130954882 0 -0.31683477199953253 0.096155180868875256 0 -0.29614728665031642 0.1100773929983587 0 -0.31683477199953253 0.096155180868875256 0 -0.29614728665031642 0.1100773929983587 0 -0.31211500736378339 0.1240031522641292 0 -0.31683477199953253 0.096155180868875256 0 -0.29326612220823411 0.13512644163735801 0 -0.29614728665031642 0.1100773929983587 0 -0.31211500736378339 0.1240031522641292 0 -0.30635830999651792 0.07761242167179265 0 -0.30189037325813839 0.060543452134012458 0 -0.32146679815367007 0.068824891797761426 0 -0.30635830999651792 0.07761242167179265 0 -0.29256534898171721 0.072382945427359638 0 -0.30189037325813839 0.060543452134012458 0 -0.30635830999651792 0.07761242167179265 0 -0.29903425758953422 0.090155638130954882 0 -0.29256534898171721 0.072382945427359638 0 -0.30635830999651792 0.07761242167179265 0 -0.29903425758953422 0.090155638130954882 0 -0.31683477199953253 0.096155180868875256 0 -0.29903425758953422 0.090155638130954882 0 -0.28572263353681682 0.08337299634339973 0 -0.29256534898171721 0.072382945427359638 0 -0.28783094919658059 0.096999283795453681 0 -0.29903425758953422 0.090155638130954882 0 -0.28572263353681682 0.08337299634339973 0 -0.28783094919658059 0.096999283795453681 0 -0.28572263353681682 0.08337299634339973 0 -0.27815219556391091 0.091433986845849968 0 -0.28572263353681682 0.08337299634339973 0 -0.29256534898171721 0.072382945427359638 0 -0.28059357561043269 0.073644623599786935 0 -0.29256534898171721 0.072382945427359638 0 -0.29088471103165969 0.062671374321780771 0 -0.30189037325813839 0.060543452134012458 0 -0.29256534898171721 0.072382945427359638 0 -0.29088471103165969 0.062671374321780771 0 -0.28261649390190829 0.064291953838756216 0 -0.29256534898171721 0.072382945427359638 0 -0.28261649390190829 0.064291953838756216 0 -0.28059357561043269 0.073644623599786935 0 -0.28261649390190829 0.064291953838756216 0 -0.27678196032587499 0.069585006034529676 0 -0.27195195811963518 0.06635492754641531 0 -0.26855373331756138 0.063547936276670339 0 -0.27195195811963518 0.06635492754641531 0 -0.25743728825439521 0.07924270920583569 0 -0.28261649390190829 0.064291953838756216 0 -0.27678196032587499 0.069585006034529676 0 -0.28059357561043269 0.073644623599786935 0 -0.27678196032587499 0.069585006034529676 0 -0.27196581367152378 0.074048519153160283 0 -0.27195195811963518 0.06635492754641531 0 -0.27678196032587499 0.069585006034529676 0 -0.28059357561043269 0.073644623599786935 0 -0.27196581367152378 0.074048519153160283 0 -0.28059357561043269 0.073644623599786935 0 -0.27196581367152378 0.074048519153160283 0 -0.27303575277029413 0.081855029780232597 0 -0.27196581367152378 0.074048519153160283 0 -0.27195195811963518 0.06635492754641531 0 -0.25743728825439521 0.07924270920583569 0 -0.28572263353681682 0.08337299634339973 0 -0.27815219556391091 0.091433986845849968 0 -0.27303575277029413 0.081855029780232597 0 -0.28572263353681682 0.08337299634339973 0 -0.28059357561043269 0.073644623599786935 0 -0.27303575277029413 0.081855029780232597 0 -0.27196581367152378 0.074048519153160283 0 -0.27303575277029413 0.081855029780232597 0 -0.25743728825439521 0.07924270920583569 0 -0.27815219556391091 0.091433986845849968 0 -0.27303575277029413 0.081855029780232597 0 -0.26471001572300679 0.091779207982481292 0 -0.26471001572300679 0.091779207982481292 0 -0.25743728825439521 0.07924270920583569 0 -0.25413031243694739 0.089521027236778197 0 -0.27303575277029413 0.081855029780232597 0 -0.26471001572300679 0.091779207982481292 0 -0.25743728825439521 0.07924270920583569 0 -0.25743728825439521 0.07924270920583569 0 -0.25064083865024739 0.073628726666345984 0 -0.24857020570659841 0.081659589420377987 0 -0.25743728825439521 0.07924270920583569 0 -0.25413031243694739 0.089521027236778197 0 -0.24857020570659841 0.081659589420377987 0 -0.26855373331756138 0.063547936276670339 0 -0.25743728825439521 0.07924270920583569 0 -0.25064083865024739 0.073628726666345984 0 -0.26855373331756138 0.063547936276670339 0 -0.25064083865024739 0.073628726666345984 0 -0.2562734301216873 0.062061687155910393 0 -0.26855373331756138 0.063547936276670339 0 -0.25064083865024739 0.073628726666345984 0 -0.27195195811963518 0.06635492754641531 0 -0.25743728825439521 0.07924270920583569 0 -0.25064083865024739 0.073628726666345984 0 -0.2562734301216873 0.062061687155910393 0 -0.24829977196364941 0.065213336215906109 0 -0.2623477931936597 0.053657636987073307 0 -0.25116276906762952 0.054241108780248931 0 -0.26153642505613889 0.036367366133998442 0 -0.2562734301216873 0.062061687155910393 0 -0.2623477931936597 0.053657636987073307 0 -0.25116276906762952 0.054241108780248931 0 -0.2562734301216873 0.062061687155910393 0 -0.25116276906762952 0.054241108780248931 0 -0.24829977196364941 0.065213336215906109 0 -0.26855373331756138 0.063547936276670339 0 -0.2562734301216873 0.062061687155910393 0 -0.2623477931936597 0.053657636987073307 0 -0.25116276906762952 0.054241108780248931 0 -0.26153642505613889 0.036367366133998442 0 -0.239388393447095 0.04766651035075449 0 -0.2623477931936597 0.053657636987073307 0 -0.26153642505613889 0.036367366133998442 0 -0.27323710809808138 0.049716314049096537 0 -0.26153642505613889 0.036367366133998442 0 -0.28732673365434691 0.040933413293477772 0 -0.26153642505613889 0.036367366133998442 0 -0.2825074511423824 0.030310297232740709 0 -0.28732673365434691 0.040933413293477772 0 -0.26153642505613889 0.036367366133998442 0 -0.27323710809808138 0.049716314049096537 0 -0.28732673365434691 0.040933413293477772 0 -0.26855373331756138 0.063547936276670339 0 -0.27195195811963518 0.06635492754641531 0 -0.28646662798487532 0.053467145886994819 0 -0.26855373331756138 0.063547936276670339 0 -0.28646662798487532 0.053467145886994819 0 -0.26855373331756138 0.063547936276670339 0 -0.27323710809808138 0.049716314049096537 0 -0.28646662798487532 0.053467145886994819 0 -0.27195195811963518 0.06635492754641531 0 -0.28646662798487532 0.053467145886994819 0 -0.28261649390190829 0.064291953838756216 0 -0.27195195811963518 0.06635492754641531 0 -0.28646662798487532 0.053467145886994819 0 -0.26855373331756138 0.063547936276670339 0 -0.2623477931936597 0.053657636987073307 0 -0.27323710809808138 0.049716314049096537 0 -0.26176261374782622 0.0098260211376069873 0 -0.24854849079604721 0.020569936005881421 0 -0.24598119983726671 0.0037338506766126851 0 -0.26003022337954462 -0.0038093911555793728 0 -0.26176261374782622 0.0098260211376069873 0 -0.24598119983726671 0.0037338506766126851 0 -0.26003022337954462 -0.0038093911555793728 0 -0.27433688946420332 -0.0007833753365484626 0 -0.26176261374782622 0.0098260211376069873 0 -0.26153642505613889 0.036367366133998442 0 -0.26176261374782622 0.0098260211376069873 0 -0.24854849079604721 0.020569936005881421 0 -0.26153642505613889 0.036367366133998442 0 -0.26176261374782622 0.0098260211376069873 0 -0.27684491432135683 0.017453585025194441 0 -0.26153642505613889 0.036367366133998442 0 -0.27684491432135683 0.017453585025194441 0 -0.2825074511423824 0.030310297232740709 0 -0.27433688946420332 -0.0007833753365484626 0 -0.26176261374782622 0.0098260211376069873 0 -0.27684491432135683 0.017453585025194441 0 -0.27433688946420332 -0.0007833753365484626 0 -0.27684491432135683 0.017453585025194441 0 -0.28842838408131971 0.0076205693905790281 0 -0.28842838408131971 0.0076205693905790281 0 -0.29131927560690712 0.022062190579302341 0 -0.29989828236451899 0.011495108916467369 0 -0.27684491432135683 0.017453585025194441 0 -0.29131927560690712 0.022062190579302341 0 -0.2825074511423824 0.030310297232740709 0 -0.27684491432135683 0.017453585025194441 0 -0.28842838408131971 0.0076205693905790281 0 -0.29131927560690712 0.022062190579302341 0 -0.29131927560690712 0.022062190579302341 0 -0.2825074511423824 0.030310297232740709 0 -0.29550990707316249 0.034734931131730561 0 -0.29131927560690712 0.022062190579302341 0 -0.30587597075389272 0.02137954460474218 0 -0.29550990707316249 0.034734931131730561 0 -0.30587597075389272 0.02137954460474218 0 -0.29550990707316249 0.034734931131730561 0 -0.30859873922341308 0.03381572977126493 0 -0.29131927560690712 0.022062190579302341 0 -0.30587597075389272 0.02137954460474218 0 -0.29989828236451899 0.011495108916467369 0 -0.3025805037907468 -0.0027432771802810229 0 -0.3204068892458079 -0.0014125807301150939 0 -0.31128727758972891 0.0091565171879943417 0 -0.30587597075389272 0.02137954460474218 0 -0.29989828236451899 0.011495108916467369 0 -0.31128727758972891 0.0091565171879943417 0 -0.3025805037907468 -0.0027432771802810229 0 -0.29989828236451899 0.011495108916467369 0 -0.31128727758972891 0.0091565171879943417 0 -0.3025805037907468 -0.0027432771802810229 0 -0.28842838408131971 0.0076205693905790281 0 -0.29989828236451899 0.011495108916467369 0 -0.28646662798487532 0.053467145886994819 0 -0.304010183261538 0.043594207608826187 0 -0.29088471103165969 0.062671374321780771 0 -0.28646662798487532 0.053467145886994819 0 -0.30189037325813839 0.060543452134012458 0 -0.29088471103165969 0.062671374321780771 0 -0.28261649390190829 0.064291953838756216 0 -0.28646662798487532 0.053467145886994819 0 -0.27323710809808138 0.049716314049096537 0 -0.28646662798487532 0.053467145886994819 0 -0.28732673365434691 0.040933413293477772 0 -0.28646662798487532 0.053467145886994819 0 -0.29550990707316249 0.034734931131730561 0 -0.30859873922341308 0.03381572977126493 0 -0.28646662798487532 0.053467145886994819 0 -0.28732673365434691 0.040933413293477772 0 -0.29550990707316249 0.034734931131730561 0 -0.2825074511423824 0.030310297232740709 0 -0.28732673365434691 0.040933413293477772 0 -0.29550990707316249 0.034734931131730561 0 -0.28646662798487532 0.053467145886994819 0 -0.30859873922341308 0.03381572977126493 0 -0.28646662798487532 0.053467145886994819 0 -0.304010183261538 0.043594207608826187 0 -0.30859873922341308 0.03381572977126493 0 -0.304010183261538 0.043594207608826187 0 -0.30859873922341308 0.03381572977126493 0 -0.32155373853820057 0.033721269330657687 0 -0.304010183261538 0.043594207608826187 0 -0.3137915997446068 0.051476736654279882 0 -0.31549181974187701 0.042926529004151233 0 -0.28646662798487532 0.053467145886994819 0 -0.304010183261538 0.043594207608826187 0 -0.30189037325813839 0.060543452134012458 0 -0.30189037325813839 0.060543452134012458 0 -0.3137915997446068 0.051476736654279882 0 -0.32146679815367007 0.068824891797761426 0 -0.304010183261538 0.043594207608826187 0 -0.30189037325813839 0.060543452134012458 0 -0.3137915997446068 0.051476736654279882 0 -0.3137915997446068 0.051476736654279882 0 -0.32609882430781029 0.041494602726648067 0 -0.32146679815367007 0.068824891797761426 0 -0.32609882430781029 0.041494602726648067 0 -0.32146679815367007 0.068824891797761426 0 -0.3137915997446068 0.051476736654279882 0 -0.31549181974187701 0.042926529004151233 0 -0.32609882430781029 0.041494602726648067 0 -0.304010183261538 0.043594207608826187 0 -0.31549181974187701 0.042926529004151233 0 -0.32155373853820057 0.033721269330657687 0 -0.304010183261538 0.043594207608826187 0 -0.32155373853820057 0.033721269330657687 0 -0.31549181974187701 0.042926529004151233 0 -0.32155373853820057 0.033721269330657687 0 -0.32609882430781029 0.041494602726648067 0 -0.32609882430781029 0.041494602726648067 0 -0.34385517732675519 0.031131612817745031 0 -0.35163198926140088 0.046228739452983239 0 -0.32609882430781029 0.041494602726648067 0 -0.338272543408071 0.060603673933957783 0 -0.32146679815367007 0.068824891797761426 0 -0.32609882430781029 0.041494602726648067 0 -0.338272543408071 0.060603673933957783 0 -0.35163198926140088 0.046228739452983239 0 -0.3204068892458079 -0.0014125807301150939 0 -0.31128727758972891 0.0091565171879943417 0 -0.33073085046195078 0.01416431365553468 0 -0.30587597075389272 0.02137954460474218 0 -0.31128727758972891 0.0091565171879943417 0 -0.33073085046195078 0.01416431365553468 0 -0.30859873922341308 0.03381572977126493 0 -0.33073085046195078 0.01416431365553468 0 -0.30587597075389272 0.02137954460474218 0 -0.30859873922341308 0.03381572977126493 0 -0.33073085046195078 0.01416431365553468 0 -0.32155373853820057 0.033721269330657687 0 -0.32609882430781029 0.041494602726648067 0 -0.33073085046195078 0.01416431365553468 0 -0.30859873922341308 0.03381572977126493 0 -0.32155373853820057 0.033721269330657687 0 -0.33073085046195078 0.01416431365553468 0 -0.32609882430781029 0.041494602726648067 0 -0.33073085046195078 0.01416431365553468 0 -0.33073085046195078 0.01416431365553468 0 -0.34385517732675519 0.031131612817745031 0 -0.35381837275022032 0.01853105722209741 0 -0.32609882430781029 0.041494602726648067 0 -0.33073085046195078 0.01416431365553468 0 -0.34385517732675519 0.031131612817745031 0 -0.33540629353460438 -0.01342214774580049 0 -0.33073085046195078 0.01416431365553468 0 -0.35221409618436439 -0.0049109655465913588 0 -0.33073085046195078 0.01416431365553468 0 -0.35221409618436439 -0.0049109655465913588 0 -0.34857824671955512 -0.007874197240844389 0 -0.33073085046195078 0.01416431365553468 0 -0.35221409618436439 -0.0049109655465913588 0 -0.33073085046195078 0.01416431365553468 0 -0.34939877662876639 0.0070576099193848619 0 -0.33073085046195078 0.01416431365553468 0 -0.34939877662876639 0.0070576099193848619 0 -0.35381837275022032 0.01853105722209741 0 -0.35900139338342918 0.0020097317905480609 0 -0.34939877662876639 0.0070576099193848619 0 -0.35834074471334648 0.0096788928264882005 0 -0.35509488683577939 -0.0004162838960613095 0 -0.35900139338342918 0.0020097317905480609 0 -0.34939877662876639 0.0070576099193848619 0 -0.35509488683577939 -0.0004162838960613095 0 -0.35221409618436439 -0.0049109655465913588 0 -0.34939877662876639 0.0070576099193848619 0 -0.34939877662876639 0.0070576099193848619 0 -0.35834074471334648 0.0096788928264882005 0 -0.35381837275022032 0.01853105722209741 0 -0.34385517732675519 0.031131612817745031 0 -0.35381837275022032 0.01853105722209741 0 -0.36551724687399623 0.028318485711261141 0 -0.37937813184432773 0.031366277704107569 0 -0.36551724687399623 0.028318485711261141 0 -0.37479293228070759 0.022502646493578662 0 -0.36551724687399623 0.028318485711261141 0 -0.37479293228070759 0.022502646493578662 0 -0.36730783543836809 0.01519693074799966 0 -0.3778438638662554 0.014761087644765769 0 -0.37479293228070759 0.022502646493578662 0 -0.36730783543836809 0.01519693074799966 0 -0.35381837275022032 0.01853105722209741 0 -0.36551724687399623 0.028318485711261141 0 -0.36730783543836809 0.01519693074799966 0 -0.35834074471334648 0.0096788928264882005 0 -0.36730783543836809 0.01519693074799966 0 -0.36603012090457948 0.0050917054244422654 0 -0.35834074471334648 0.0096788928264882005 0 -0.35381837275022032 0.01853105722209741 0 -0.36730783543836809 0.01519693074799966 0 -0.36730783543836809 0.01519693074799966 0 -0.37464316483836829 0.0066416053135349984 0 -0.36603012090457948 0.0050917054244422654 0 -0.3778438638662554 0.014761087644765769 0 -0.36730783543836809 0.01519693074799966 0 -0.37464316483836829 0.0066416053135349984 0 -0.37126952376897032 -0.00085078512189483576 0 -0.37774077980655368 -0.001289555558904682 0 -0.37464316483836829 0.0066416053135349984 0 -0.37126952376897032 -0.00085078512189483576 0 -0.37464316483836829 0.0066416053135349984 0 -0.36603012090457948 0.0050917054244422654 0 -0.37126952376897032 -0.00085078512189483576 0 -0.36494834593608783 -0.001298186014321303 0 -0.36603012090457948 0.0050917054244422654 0 -0.36494834593608783 -0.001298186014321303 0 -0.35900139338342918 0.0020097317905480609 0 -0.36603012090457948 0.0050917054244422654 0 -0.35900139338342918 0.0020097317905480609 0 -0.35834074471334648 0.0096788928264882005 0 -0.36603012090457948 0.0050917054244422654 0 -0.35163198926140088 0.046228739452983239 0 -0.36891219827968119 0.060077996683558232 0 -0.35298131256760962 0.063034912088641357 0 -0.338272543408071 0.060603673933957783 0 -0.35163198926140088 0.046228739452983239 0 -0.35298131256760962 0.063034912088641357 0 -0.34385517732675519 0.031131612817745031 0 -0.36551724687399623 0.028318485711261141 0 -0.35163198926140088 0.046228739452983239 0 -0.36551724687399623 0.028318485711261141 0 -0.35163198926140088 0.046228739452983239 0 -0.37261014177358448 0.043145835856899219 0 -0.37937813184432773 0.031366277704107569 0 -0.36551724687399623 0.028318485711261141 0 -0.37261014177358448 0.043145835856899219 0 -0.35163198926140088 0.046228739452983239 0 -0.37261014177358448 0.043145835856899219 0 -0.36891219827968119 0.060077996683558232 0 -0.38207463336695202 0.051047668856640811 0 -0.37261014177358448 0.043145835856899219 0 -0.36891219827968119 0.060077996683558232 0 -0.37929074908003868 0.077603726490867345 0 -0.35694138538550352 0.073855345321458488 0 -0.37929074908003868 0.077603726490867345 0 -0.36891219827968119 0.060077996683558232 0 -0.35694138538550352 0.073855345321458488 0 -0.36891219827968119 0.060077996683558232 0 -0.35298131256760962 0.063034912088641357 0 -0.35694138538550352 0.073855345321458488 0 -0.35298131256760962 0.063034912088641357 0 -0.35694138538550352 0.073855345321458488 0 -0.34914844650339177 0.074408805051249083 0 -0.35694138538550352 0.073855345321458488 0 -0.34914844650339177 0.074408805051249083 0 -0.35387282561504041 0.085789381247760657 0 -0.338272543408071 0.060603673933957783 0 -0.35298131256760962 0.063034912088641357 0 -0.34914844650339177 0.074408805051249083 0 -0.34914844650339177 0.074408805051249083 0 -0.35387282561504041 0.085789381247760657 0 -0.33299160925146271 0.085281992960062933 0 -0.35694138538550352 0.073855345321458488 0 -0.35387282561504041 0.085789381247760657 0 -0.36438159895332511 0.085691586513687634 0 -0.35387282561504041 0.085789381247760657 0 -0.36438159895332511 0.085691586513687634 0 -0.35579278546844412 0.098564625017930646 0 -0.37929074908003868 0.077603726490867345 0 -0.35694138538550352 0.073855345321458488 0 -0.36438159895332511 0.085691586513687634 0 -0.37929074908003868 0.077603726490867345 0 -0.36438159895332511 0.085691586513687634 0 -0.37090825683648998 0.098456277756480637 0 -0.37090825683648998 0.098456277756480637 0 -0.36904533532088801 0.1177582563576956 0 -0.35579278546844412 0.098564625017930646 0 -0.36438159895332511 0.085691586513687634 0 -0.37090825683648998 0.098456277756480637 0 -0.35579278546844412 0.098564625017930646 0 -0.35823941519022368 0.13573745574644491 0 -0.36904533532088801 0.1177582563576956 0 -0.35158166360451942 0.11704707172714621 0 -0.36904533532088801 0.1177582563576956 0 -0.35158166360451942 0.11704707172714621 0 -0.35579278546844412 0.098564625017930646 0 -0.35158166360451942 0.11704707172714621 0 -0.35579278546844412 0.098564625017930646 0 -0.34047962299512569 0.099373871294989508 0 -0.35387282561504041 0.085789381247760657 0 -0.35579278546844412 0.098564625017930646 0 -0.34047962299512569 0.099373871294989508 0 -0.34047962299512569 0.099373871294989508 0 -0.33231339904552459 0.1171762944261375 0 -0.31683477199953253 0.096155180868875256 0 -0.34455851703438989 0.13305210298766909 0 -0.35158166360451942 0.11704707172714621 0 -0.33231339904552459 0.1171762944261375 0 -0.35158166360451942 0.11704707172714621 0 -0.34047962299512569 0.099373871294989508 0 -0.33231339904552459 0.1171762944261375 0 -0.31211500736378339 0.1240031522641292 0 -0.31683477199953253 0.096155180868875256 0 -0.31211500736378339 0.1240031522641292 0 -0.33231339904552459 0.1171762944261375 0 -0.31683477199953253 0.096155180868875256 0 -0.30635830999651792 0.07761242167179265 0 -0.31683477199953253 0.096155180868875256 0 -0.32146679815367007 0.068824891797761426 0 -0.31683477199953253 0.096155180868875256 0 -0.32146679815367007 0.068824891797761426 0 -0.33299160925146271 0.085281992960062933 0 -0.31683477199953253 0.096155180868875256 0 -0.32146679815367007 0.068824891797761426 0 -0.31683477199953253 0.096155180868875256 0 -0.33299160925146271 0.085281992960062933 0 -0.338272543408071 0.060603673933957783 0 -0.32146679815367007 0.068824891797761426 0 -0.33576809196089219 0.072507027900731907 0 -0.32146679815367007 0.068824891797761426 0 -0.33576809196089219 0.072507027900731907 0 -0.33299160925146271 0.085281992960062933 0 -0.34914844650339177 0.074408805051249083 0 -0.33576809196089219 0.072507027900731907 0 -0.33299160925146271 0.085281992960062933 0 -0.338272543408071 0.060603673933957783 0 -0.34914844650339177 0.074408805051249083 0 -0.33576809196089219 0.072507027900731907 0 -0.35387282561504041 0.085789381247760657 0 -0.34047962299512569 0.099373871294989508 0 -0.33299160925146271 0.085281992960062933 0 -0.34914844650339177 0.074408805051249083 0 -0.33299160925146271 0.085281992960062933 0 -0.34047962299512569 0.099373871294989508 0 -0.31683477199953253 0.096155180868875256 0 -0.33299160925146271 0.085281992960062933 0 -0.3938434845513461 0.48000301234504228 0 -0.4154786193197833 0.47000451851756458 0 -0.40908183102320411 0.4845696213484928 0 -0.3938434845513461 0.48000301234504228 0 -0.40110135887996978 0.47332954189399812 0 -0.4154786193197833 0.47000451851756458 0 -0.3938434845513461 0.48000301234504228 0 -0.4154786193197833 0.47000451851756458 0 -0.3938434845513461 0.48000301234504228 0 -0.40110135887996978 0.47332954189399812 0 -0.38930270813857232 0.46778113184491188 0 -0.3938434845513461 0.48000301234504228 0 -0.39546946259238258 0.49128185561313598 0 -0.40908183102320411 0.4845696213484928 0 -0.40521342881326272 0.5 0 -0.39546946259238258 0.49128185561313598 0 -0.37789332191386737 0.5 0 -0.40521342881326272 0.5 0 -0.39546946259238258 0.49128185561313598 0 -0.40908183102320411 0.4845696213484928 0 -0.3938434845513461 0.48000301234504228 0 -0.39546946259238258 0.49128185561313598 0 -0.38517353549973538 0.49039659604947999 0 -0.3938434845513461 0.48000301234504228 0 -0.37220834978290879 0.49000150617251997 0 -0.39546946259238258 0.49128185561313598 0 -0.38517353549973538 0.49039659604947999 0 -0.37789332191386737 0.5 0 -0.3938434845513461 0.48000301234504228 0 -0.38517353549973538 0.49039659604947999 0 -0.37220834978290879 0.49000150617251997 0 -0.38517353549973538 0.49039659604947999 0 -0.37789332191386737 0.5 0 -0.37220834978290879 0.49000150617251997 0 -0.3938434845513461 0.48000301234504228 0 -0.37805640255927542 0.47903421333972468 0 -0.3842367001720054 0.47454362448235632 0 -0.3938434845513461 0.48000301234504228 0 -0.37805640255927542 0.47903421333972468 0 -0.37220834978290879 0.49000150617251997 0 -0.3842367001720054 0.47454362448235632 0 -0.37701653082709469 0.46900635458093531 0 -0.38930270813857232 0.46778113184491188 0 -0.3938434845513461 0.48000301234504228 0 -0.3842367001720054 0.47454362448235632 0 -0.38930270813857232 0.46778113184491188 0 -0.37805640255927542 0.47903421333972468 0 -0.3842367001720054 0.47454362448235632 0 -0.37701653082709469 0.46900635458093531 0 -0.37701653082709469 0.46900635458093531 0 -0.38677844954541418 0.45747132953460651 0 -0.37376195539900242 0.45249759326054367 0 -0.37701653082709469 0.46900635458093531 0 -0.38677844954541418 0.45747132953460651 0 -0.38930270813857232 0.46778113184491188 0 -0.38473584783684761 0.44354080077547992 0 -0.36778315087773072 0.43214877602771662 0 -0.37376195539900242 0.45249759326054367 0 -0.38677844954541418 0.45747132953460651 0 -0.38473584783684761 0.44354080077547992 0 -0.37376195539900242 0.45249759326054367 0 -0.38677844954541418 0.45747132953460651 0 -0.38473584783684761 0.44354080077547992 0 -0.39843898125590987 0.45231631840454728 0 -0.39843898125590987 0.45231631840454728 0 -0.4072920944712265 0.44499890251068641 0 -0.39856520721893041 0.43647578570475237 0 -0.38473584783684761 0.44354080077547992 0 -0.39843898125590987 0.45231631840454728 0 -0.39856520721893041 0.43647578570475237 0 -0.39843898125590987 0.45231631840454728 0 -0.39841490533913748 0.46178879282826651 0 -0.41709791082295028 0.45456801136960878 0 -0.40110135887996978 0.47332954189399812 0 -0.39841490533913748 0.46178879282826651 0 -0.41709791082295028 0.45456801136960878 0 -0.38677844954541418 0.45747132953460651 0 -0.38930270813857232 0.46778113184491188 0 -0.39841490533913748 0.46178879282826651 0 -0.40110135887996978 0.47332954189399812 0 -0.38930270813857232 0.46778113184491188 0 -0.39841490533913748 0.46178879282826651 0 -0.38677844954541418 0.45747132953460651 0 -0.39843898125590987 0.45231631840454728 0 -0.39841490533913748 0.46178879282826651 0 -0.40110135887996978 0.47332954189399812 0 -0.41709791082295028 0.45456801136960878 0 -0.4154786193197833 0.47000451851756458 0 -0.40110135887996978 0.47332954189399812 0 -0.41709791082295028 0.45456801136960878 0 -0.41709791082295028 0.45456801136960878 0 -0.42692569345801529 0.46340213249295897 0 -0.4154786193197833 0.47000451851756458 0 -0.41709791082295028 0.45456801136960878 0 -0.43309446276593089 0.43580648084521972 0 -0.41506627858711548 0.4366354945638371 0 -0.39843898125590987 0.45231631840454728 0 -0.41709791082295028 0.45456801136960878 0 -0.4072920944712265 0.44499890251068641 0 -0.4072920944712265 0.44499890251068641 0 -0.41506627858711548 0.4366354945638371 0 -0.39856520721893041 0.43647578570475237 0 -0.41709791082295028 0.45456801136960878 0 -0.4072920944712265 0.44499890251068641 0 -0.41506627858711548 0.4366354945638371 0 -0.41709791082295028 0.45456801136960878 0 -0.43251943231727258 0.45189802077753072 0 -0.43309446276593089 0.43580648084521972 0 -0.41709791082295028 0.45456801136960878 0 -0.43309446276593089 0.43580648084521972 0 -0.43251943231727258 0.45189802077753072 0 -0.44285055445462801 0.44408738363144917 0 -0.43309446276593089 0.43580648084521972 0 -0.43251943231727258 0.45189802077753072 0 -0.42692569345801529 0.46340213249295897 0 -0.44262854008483871 0.46162609554841733 0 -0.42692569345801529 0.46340213249295897 0 -0.43014133963940671 0.47900644757454591 0 -0.44262854008483871 0.46162609554841733 0 -0.41709791082295028 0.45456801136960878 0 -0.43251943231727258 0.45189802077753072 0 -0.42692569345801529 0.46340213249295897 0 -0.42692569345801529 0.46340213249295897 0 -0.43014133963940671 0.47900644757454591 0 -0.4154786193197833 0.47000451851756458 0 -0.43014133963940671 0.47900644757454591 0 -0.4154786193197833 0.47000451851756458 0 -0.40908183102320411 0.4845696213484928 0 -0.40521342881326272 0.5 0 -0.40908183102320411 0.4845696213484928 0 -0.43253353571265801 0.5 0 -0.43014133963940671 0.47900644757454591 0 -0.40908183102320411 0.4845696213484928 0 -0.43253353571265801 0.5 0 -0.43014133963940671 0.47900644757454591 0 -0.43253353571265801 0.5 0 -0.44984012809851409 0.48033494727474779 0 -0.43253353571265801 0.5 0 -0.44984012809851409 0.48033494727474779 0 -0.45985364261205308 0.50000000000000111 0 -0.43014133963940671 0.47900644757454591 0 -0.44984012809851409 0.48033494727474779 0 -0.44262854008483871 0.46162609554841733 0 -0.44984012809851409 0.48033494727474779 0 -0.47312811744354261 0.47395110078869013 0 -0.45820768181792781 0.46325373185340701 0 -0.45985364261205308 0.50000000000000111 0 -0.47312811744354261 0.47395110078869013 0 -0.44984012809851409 0.48033494727474779 0 -0.45985364261205308 0.50000000000000111 0 -0.47312811744354261 0.47395110078869013 0 -0.5 0.5 0 -0.47312811744354261 0.47395110078869013 0 -0.49999999999999972 0.44664233614409321 0 -0.45985364261205308 0.50000000000000111 0 -0.5 0.5 0 -0.47312811744354261 0.47395110078869013 0 -0.48640259227503152 0.44790220157737892 0 -0.49999999999999972 0.44664233614409321 0 -0.47883616718389621 0.43347798499105172 0 -0.49999999999999972 0.44664233614409321 0 -0.47883616718389621 0.43347798499105172 0 -0.47312811744354261 0.47395110078869013 0 -0.48640259227503152 0.44790220157737892 0 -0.49999999999999972 0.44664233614409321 0 -0.47312811744354261 0.47395110078869013 0 -0.48640259227503152 0.44790220157737892 0 -0.47312811744354261 0.47395110078869013 0 -0.48640259227503152 0.44790220157737892 0 -0.46932328621444303 0.45009797021529852 0 -0.46932328621444303 0.45009797021529852 0 -0.46288197751253979 0.435741310408158 0 -0.47883616718389621 0.43347798499105172 0 -0.48640259227503152 0.44790220157737892 0 -0.46932328621444303 0.45009797021529852 0 -0.47883616718389621 0.43347798499105172 0 -0.46932328621444303 0.45009797021529852 0 -0.45653044061400749 0.44574373859450739 0 -0.46288197751253979 0.435741310408158 0 -0.46932328621444303 0.45009797021529852 0 -0.45653044061400749 0.44574373859450739 0 -0.45820768181792781 0.46325373185340701 0 -0.45653044061400749 0.44574373859450739 0 -0.44988321330808601 0.43264183945635343 0 -0.46288197751253979 0.435741310408158 0 -0.47312811744354261 0.47395110078869013 0 -0.46932328621444303 0.45009797021529852 0 -0.45820768181792781 0.46325373185340701 0 -0.45653044061400749 0.44574373859450739 0 -0.45820768181792781 0.46325373185340701 0 -0.44262854008483871 0.46162609554841733 0 -0.44984012809851409 0.48033494727474779 0 -0.45820768181792781 0.46325373185340701 0 -0.44262854008483871 0.46162609554841733 0 -0.43251943231727258 0.45189802077753072 0 -0.44262854008483871 0.46162609554841733 0 -0.44285055445462801 0.44408738363144917 0 -0.45653044061400749 0.44574373859450739 0 -0.44262854008483871 0.46162609554841733 0 -0.44285055445462801 0.44408738363144917 0 -0.44285055445462801 0.44408738363144917 0 -0.44988321330808601 0.43264183945635343 0 -0.43309446276593089 0.43580648084521972 0 -0.45653044061400749 0.44574373859450739 0 -0.44285055445462801 0.44408738363144917 0 -0.44988321330808601 0.43264183945635343 0 -0.44909101470891138 0.41704495032083061 0 -0.43309446276593089 0.43580648084521972 0 -0.44988321330808601 0.43264183945635343 0 -0.44909101470891138 0.41704495032083061 0 -0.43309446276593089 0.43580648084521972 0 -0.44988321330808601 0.43264183945635343 0 -0.44909101470891138 0.41704495032083061 0 -0.45767233436779298 0.42031363383801013 0 -0.44909101470891138 0.41704495032083061 0 -0.43642708593841462 0.41129790334070748 0 -0.43309446276593089 0.43580648084521972 0 -0.44909101470891138 0.41704495032083061 0 -0.44923652684218601 0.40651161443480333 0 -0.43642708593841462 0.41129790334070748 0 -0.44909101470891138 0.41704495032083061 0 -0.46310762304278369 0.4136785712167641 0 -0.46508756665189233 0.39828341979644161 0 -0.44909101470891138 0.41704495032083061 0 -0.46508756665189233 0.39828341979644161 0 -0.44909101470891138 0.41704495032083061 0 -0.44923652684218601 0.40651161443480333 0 -0.46508756665189233 0.39828341979644161 0 -0.44909101470891138 0.41704495032083061 0 -0.45767233436779298 0.42031363383801013 0 -0.46310762304278369 0.4136785712167641 0 -0.45767233436779298 0.42031363383801013 0 -0.46310762304278369 0.4136785712167641 0 -0.4689935185142321 0.42014913325858988 0 -0.46310762304278369 0.4136785712167641 0 -0.47635794946245552 0.41312634298853379 0 -0.46508756665189233 0.39828341979644161 0 -0.45767233436779298 0.42031363383801013 0 -0.47883616718389621 0.43347798499105172 0 -0.4689935185142321 0.42014913325858988 0 -0.45767233436779298 0.42031363383801013 0 -0.46288197751253979 0.435741310408158 0 -0.47883616718389621 0.43347798499105172 0 -0.45767233436779298 0.42031363383801013 0 -0.47883616718389621 0.43347798499105172 0 -0.44988321330808601 0.43264183945635343 0 -0.45767233436779298 0.42031363383801013 0 -0.46288197751253979 0.435741310408158 0 -0.47883616718389621 0.43347798499105172 0 -0.47635794946245552 0.41312634298853379 0 -0.48714440641974271 0.42351608680749347 0 -0.47883616718389621 0.43347798499105172 0 -0.4689935185142321 0.42014913325858988 0 -0.47635794946245552 0.41312634298853379 0 -0.46310762304278369 0.4136785712167641 0 -0.4689935185142321 0.42014913325858988 0 -0.47635794946245552 0.41312634298853379 0 -0.47635794946245552 0.41312634298853379 0 -0.48901457958177968 0.41012265573874179 0 -0.48254378332594611 0.39722493186941499 0 -0.47635794946245552 0.41312634298853379 0 -0.48901457958177968 0.41012265573874179 0 -0.48714440641974271 0.42351608680749347 0 -0.48901457958177968 0.41012265573874179 0 -0.5 0.42140439004324071 0 -0.49999999999999978 0.39616644394238798 0 -0.48901457958177968 0.41012265573874179 0 -0.5 0.42140439004324071 0 -0.48714440641974271 0.42351608680749347 0 -0.49999999999999972 0.44664233614409321 0 -0.47883616718389621 0.43347798499105172 0 -0.48714440641974271 0.42351608680749347 0 -0.49999999999999972 0.44664233614409321 0 -0.5 0.42140439004324071 0 -0.48714440641974271 0.42351608680749347 0 -0.49007778645481631 0.38142997617552599 0 -0.49999999999999978 0.39616644394238798 0 -0.50000000000000311 0.3685517992903854 0 -0.49007778645481631 0.38142997617552599 0 -0.47611467569506138 0.38535029247959018 0 -0.48714178473823078 0.37241716516273898 0 -0.49999999999999978 0.39616644394238798 0 -0.48254378332594611 0.39722493186941499 0 -0.48901457958177968 0.41012265573874179 0 -0.49999999999999978 0.39616644394238798 0 -0.48254378332594611 0.39722493186941499 0 -0.49007778645481631 0.38142997617552599 0 -0.49999999999999978 0.39616644394238798 0 -0.48254378332594611 0.39722493186941499 0 -0.48254378332594611 0.39722493186941499 0 -0.46508756665189233 0.39828341979644161 0 -0.47635794946245552 0.41312634298853379 0 -0.48254378332594611 0.39722493186941499 0 -0.46508756665189233 0.39828341979644161 0 -0.48254378332594611 0.39722493186941499 0 -0.47611467569506138 0.38535029247959018 0 -0.46508756665189233 0.39828341979644161 0 -0.47611467569506138 0.38535029247959018 0 -0.46508756665189233 0.39828341979644161 0 -0.49007778645481631 0.38142997617552599 0 -0.48254378332594611 0.39722493186941499 0 -0.47611467569506138 0.38535029247959018 0 -0.47611467569506138 0.38535029247959018 0 -0.47397397291215421 0.37493689296344251 0 -0.48714178473823078 0.37241716516273898 0 -0.47611467569506138 0.38535029247959018 0 -0.48714178473823078 0.37241716516273898 0 -0.46871814716203669 0.37906981455344119 0 -0.46360543106569913 0.37231654924431878 0 -0.47397397291215421 0.37493689296344251 0 -0.47611467569506138 0.38535029247959018 0 -0.46871814716203669 0.37906981455344119 0 -0.47397397291215421 0.37493689296344251 0 -0.46871814716203669 0.37906981455344119 0 -0.46117850897523233 0.38367552352641338 0 -0.46360543106569913 0.37231654924431878 0 -0.47611467569506138 0.38535029247959018 0 -0.46871814716203669 0.37906981455344119 0 -0.46117850897523233 0.38367552352641338 0 -0.47611467569506138 0.38535029247959018 0 -0.46117850897523233 0.38367552352641338 0 -0.46508756665189233 0.39828341979644161 0 -0.46117850897523233 0.38367552352641338 0 -0.45400385251667602 0.39093091030285698 0 -0.45110956684876158 0.38402681738971201 0 -0.46117850897523233 0.38367552352641338 0 -0.45110956684876158 0.38402681738971201 0 -0.44813402172652672 0.37354371539476261 0 -0.46117850897523233 0.38367552352641338 0 -0.44813402172652672 0.37354371539476261 0 -0.46360543106569913 0.37231654924431878 0 -0.44923652684218601 0.40651161443480333 0 -0.46508756665189233 0.39828341979644161 0 -0.44634044006952572 0.39942018428123321 0 -0.46508756665189233 0.39828341979644161 0 -0.45400385251667602 0.39093091030285698 0 -0.44634044006952572 0.39942018428123321 0 -0.46508756665189233 0.39828341979644161 0 -0.44634044006952572 0.39942018428123321 0 -0.46117850897523233 0.38367552352641338 0 -0.46508756665189233 0.39828341979644161 0 -0.45400385251667602 0.39093091030285698 0 -0.45400385251667602 0.39093091030285698 0 -0.44634044006952572 0.39942018428123321 0 -0.44518347515021223 0.38837251913440451 0 -0.44634044006952572 0.39942018428123321 0 -0.44518347515021223 0.38837251913440451 0 -0.43728617553129168 0.39370672697544878 0 -0.44923652684218601 0.40651161443480333 0 -0.44634044006952572 0.39942018428123321 0 -0.43642708593841462 0.41129790334070748 0 -0.45110956684876158 0.38402681738971201 0 -0.44480856609964842 0.38185924381796288 0 -0.44813402172652672 0.37354371539476261 0 -0.45400385251667602 0.39093091030285698 0 -0.45110956684876158 0.38402681738971201 0 -0.44518347515021223 0.38837251913440451 0 -0.45110956684876158 0.38402681738971201 0 -0.44518347515021223 0.38837251913440451 0 -0.44480856609964842 0.38185924381796288 0 -0.44518347515021223 0.38837251913440451 0 -0.43913693036841173 0.38484964203092692 0 -0.43002747341826991 0.3864772557201327 0 -0.44518347515021223 0.38837251913440451 0 -0.43002747341826991 0.3864772557201327 0 -0.44518347515021223 0.38837251913440451 0 -0.43913693036841173 0.38484964203092692 0 -0.44480856609964842 0.38185924381796288 0 -0.44480856609964842 0.38185924381796288 0 -0.4393591315165738 0.37762743775392832 0 -0.44813402172652672 0.37354371539476261 0 -0.43913693036841173 0.38484964203092692 0 -0.44480856609964842 0.38185924381796288 0 -0.4393591315165738 0.37762743775392832 0 -0.43913693036841173 0.38484964203092692 0 -0.43173797726570751 0.37658334167695551 0 -0.43913693036841173 0.38484964203092692 0 -0.43173797726570751 0.37658334167695551 0 -0.43002747341826991 0.3864772557201327 0 -0.43913693036841173 0.38484964203092692 0 -0.4393591315165738 0.37762743775392832 0 -0.43173797726570751 0.37658334167695551 0 -0.4393591315165738 0.37762743775392832 0 -0.43173797726570751 0.37658334167695551 0 -0.4325639091043616 0.37180597819459837 0 -0.43173797726570751 0.37658334167695551 0 -0.43002747341826991 0.3864772557201327 0 -0.44518347515021223 0.38837251913440451 0 -0.43002747341826991 0.3864772557201327 0 -0.43728617553129168 0.39370672697544878 0 -0.43002747341826991 0.3864772557201327 0 -0.41472776448615789 0.38456402166930481 0 -0.42117367656598032 0.39254991666010941 0 -0.43002747341826991 0.3864772557201327 0 -0.41472776448615789 0.38456402166930481 0 -0.43002747341826991 0.3864772557201327 0 -0.42328890360694349 0.38021744503538613 0 -0.41472776448615789 0.38456402166930481 0 -0.43173797726570751 0.37658334167695551 0 -0.43002747341826991 0.3864772557201327 0 -0.42328890360694349 0.38021744503538613 0 -0.43173797726570751 0.37658334167695551 0 -0.42328890360694349 0.38021744503538613 0 -0.42689564018809201 0.37117335838025439 0 -0.40881671944059661 0.37920357314115732 0 -0.42689564018809201 0.37117335838025439 0 -0.42328890360694349 0.38021744503538613 0 -0.40881671944059661 0.37920357314115732 0 -0.42689564018809201 0.37117335838025439 0 -0.42328890360694349 0.38021744503538613 0 -0.41472776448615789 0.38456402166930481 0 -0.40881671944059661 0.37920357314115732 0 -0.41472776448615789 0.38456402166930481 0 -0.40724106840129259 0.39428871981441299 0 -0.42117367656598032 0.39254991666010941 0 -0.41472776448615789 0.38456402166930481 0 -0.40826438028753348 0.3817067557430866 0 -0.39942805555404642 0.38265078761847338 0 -0.41472776448615789 0.38456402166930481 0 -0.40724106840129259 0.39428871981441299 0 -0.39942805555404642 0.38265078761847338 0 -0.41472776448615789 0.38456402166930481 0 -0.39942805555404642 0.38265078761847338 0 -0.40881671944059661 0.37920357314115732 0 -0.39942805555404642 0.38265078761847338 0 -0.41098055992701871 0.3693971202961519 0 -0.40826438028753348 0.3817067557430866 0 -0.40881671944059661 0.37920357314115732 0 -0.41472776448615789 0.38456402166930481 0 -0.40826438028753348 0.3817067557430866 0 -0.40881671944059661 0.37920357314115732 0 -0.40724106840129259 0.39428871981441299 0 -0.4157685575788832 0.40127396331749671 0 -0.40157856791931718 0.40704460823596672 0 -0.42117367656598032 0.39254991666010941 0 -0.4157685575788832 0.40127396331749671 0 -0.42759331348715912 0.40055694876602499 0 -0.40724106840129259 0.39428871981441299 0 -0.42117367656598032 0.39254991666010941 0 -0.4157685575788832 0.40127396331749671 0 -0.4157685575788832 0.40127396331749671 0 -0.42759331348715912 0.40055694876602499 0 -0.44634044006952572 0.39942018428123321 0 -0.42759331348715912 0.40055694876602499 0 -0.44634044006952572 0.39942018428123321 0 -0.42759331348715912 0.40055694876602499 0 -0.43728617553129168 0.39370672697544878 0 -0.44634044006952572 0.39942018428123321 0 -0.42759331348715912 0.40055694876602499 0 -0.43642708593841462 0.41129790334070748 0 -0.43002747341826991 0.3864772557201327 0 -0.42117367656598032 0.39254991666010941 0 -0.42759331348715912 0.40055694876602499 0 -0.43002747341826991 0.3864772557201327 0 -0.42759331348715912 0.40055694876602499 0 -0.43002747341826991 0.3864772557201327 0 -0.42759331348715912 0.40055694876602499 0 -0.43728617553129168 0.39370672697544878 0 -0.43642708593841462 0.41129790334070748 0 -0.42449994900394461 0.41844961959922572 0 -0.43309446276593089 0.43580648084521972 0 -0.42759331348715912 0.40055694876602499 0 -0.43642708593841462 0.41129790334070748 0 -0.42449994900394461 0.41844961959922572 0 -0.4157685575788832 0.40127396331749671 0 -0.42759331348715912 0.40055694876602499 0 -0.42449994900394461 0.41844961959922572 0 -0.42759331348715912 0.40055694876602499 0 -0.42449994900394461 0.41844961959922572 0 -0.42449994900394461 0.41844961959922572 0 -0.43309446276593089 0.43580648084521972 0 -0.41506627858711548 0.4366354945638371 0 -0.42449994900394461 0.41844961959922572 0 -0.41506627858711548 0.4366354945638371 0 -0.40746949035714619 0.42222882353716701 0 -0.41506627858711548 0.4366354945638371 0 -0.40746949035714619 0.42222882353716701 0 -0.39856520721893041 0.43647578570475237 0 -0.42449994900394461 0.41844961959922572 0 -0.40746949035714619 0.42222882353716701 0 -0.41232914121482278 0.41224925367246401 0 -0.4157685575788832 0.40127396331749671 0 -0.42449994900394461 0.41844961959922572 0 -0.41232914121482278 0.41224925367246401 0 -0.4157685575788832 0.40127396331749671 0 -0.41232914121482278 0.41224925367246401 0 -0.40157856791931718 0.40704460823596672 0 -0.40746949035714619 0.42222882353716701 0 -0.41232914121482278 0.41224925367246401 0 -0.40157856791931718 0.40704460823596672 0 -0.40746949035714619 0.42222882353716701 0 -0.40157856791931718 0.40704460823596672 0 -0.39298749241221759 0.42119507937603923 0 -0.40746949035714619 0.42222882353716701 0 -0.39298749241221759 0.42119507937603923 0 -0.39856520721893041 0.43647578570475237 0 -0.39298749241221759 0.42119507937603923 0 -0.39856520721893041 0.43647578570475237 0 -0.38373994498284608 0.43043669407259588 0 -0.38373994498284608 0.43043669407259588 0 -0.37668454372729859 0.41206883315114529 0 -0.36778315087773072 0.43214877602771662 0 -0.38473584783684761 0.44354080077547992 0 -0.38373994498284608 0.43043669407259588 0 -0.36778315087773072 0.43214877602771662 0 -0.38473584783684761 0.44354080077547992 0 -0.39856520721893041 0.43647578570475237 0 -0.38373994498284608 0.43043669407259588 0 -0.40157856791931718 0.40704460823596672 0 -0.39298749241221759 0.42119507937603923 0 -0.37668454372729859 0.41206883315114529 0 -0.39298749241221759 0.42119507937603923 0 -0.38373994498284608 0.43043669407259588 0 -0.37668454372729859 0.41206883315114529 0 -0.40157856791931718 0.40704460823596672 0 -0.37668454372729859 0.41206883315114529 0 -0.37668454372729859 0.41206883315114529 0 -0.37844474563582792 0.390355182046278 0 -0.39076978830337122 0.39764902138512792 0 -0.40157856791931718 0.40704460823596672 0 -0.37668454372729859 0.41206883315114529 0 -0.39076978830337122 0.39764902138512792 0 -0.38141148745950948 0.38039780936179463 0 -0.39942805555404642 0.38265078761847338 0 -0.37844474563582792 0.390355182046278 0 -0.39942805555404642 0.38265078761847338 0 -0.38141148745950948 0.38039780936179463 0 -0.37844474563582792 0.390355182046278 0 -0.39942805555404642 0.38265078761847338 0 -0.37844474563582792 0.390355182046278 0 -0.39942805555404642 0.38265078761847338 0 -0.39076978830337122 0.39764902138512792 0 -0.38141148745950948 0.38039780936179463 0 -0.39942805555404642 0.38265078761847338 0 -0.39128338495032239 0.36719877308275878 0 -0.40826438028753348 0.3817067557430866 0 -0.40881671944059661 0.37920357314115732 0 -0.39942805555404642 0.38265078761847338 0 -0.40881671944059661 0.37920357314115732 0 -0.39942805555404642 0.38265078761847338 0 -0.40724106840129259 0.39428871981441299 0 -0.40157856791931718 0.40704460823596672 0 -0.39076978830337122 0.39764902138512792 0 -0.40724106840129259 0.39428871981441299 0 -0.39942805555404642 0.38265078761847338 0 -0.39076978830337122 0.39764902138512792 0 -0.39259889148010241 0.34864188780489069 0 -0.39999637464883392 0.35559476271013252 0 -0.38966798311544332 0.35610238881872369 0 -0.39259889148010241 0.34864188780489069 0 -0.39999637464883392 0.35559476271013252 0 -0.40046159691170069 0.34164056661102238 0 -0.39999637464883392 0.35559476271013252 0 -0.40046159691170069 0.34164056661102238 0 -0.41381361947694889 0.35655778899711688 0 -0.39999637464883392 0.35559476271013252 0 -0.40397412088998857 0.3623881668075713 0 -0.41381361947694889 0.35655778899711688 0 -0.39128338495032239 0.36719877308275878 0 -0.41098055992701871 0.3693971202961519 0 -0.40397412088998857 0.3623881668075713 0 -0.39128338495032239 0.36719877308275878 0 -0.41098055992701871 0.3693971202961519 0 -0.39942805555404642 0.38265078761847338 0 -0.39128338495032239 0.36719877308275878 0 -0.41098055992701871 0.3693971202961519 0 -0.39999637464883392 0.35559476271013252 0 -0.39128338495032239 0.36719877308275878 0 -0.38966798311544332 0.35610238881872369 0 -0.39999637464883392 0.35559476271013252 0 -0.40397412088998857 0.3623881668075713 0 -0.39128338495032239 0.36719877308275878 0 -0.39128338495032239 0.36719877308275878 0 -0.38070440212728118 0.35956436367519867 0 -0.38966798311544332 0.35610238881872369 0 -0.39128338495032239 0.36719877308275878 0 -0.38070440212728118 0.35956436367519867 0 -0.37158620997362618 0.36500042586936587 0 -0.39128338495032239 0.36719877308275878 0 -0.37158620997362618 0.36500042586936587 0 -0.38141148745950948 0.38039780936179463 0 -0.39128338495032239 0.36719877308275878 0 -0.37158620997362618 0.36500042586936587 0 -0.38070440212728118 0.35956436367519867 0 -0.38259242285128608 0.34975193996759602 0 -0.36960199921418602 0.35731180584905542 0 -0.38259242285128608 0.34975193996759602 0 -0.37580907906339922 0.33647878059299557 0 -0.36960199921418602 0.35731180584905542 0 -0.38070440212728118 0.35956436367519867 0 -0.38966798311544332 0.35610238881872369 0 -0.38259242285128608 0.34975193996759602 0 -0.39259889148010241 0.34864188780489069 0 -0.38966798311544332 0.35610238881872369 0 -0.38259242285128608 0.34975193996759602 0 -0.39259889148010241 0.34864188780489069 0 -0.38259242285128608 0.34975193996759602 0 -0.38794720083446621 0.34059934721089508 0 -0.38259242285128608 0.34975193996759602 0 -0.37580907906339922 0.33647878059299557 0 -0.38794720083446621 0.34059934721089508 0 -0.37580907906339922 0.33647878059299557 0 -0.38794720083446621 0.34059934721089508 0 -0.38710957434645199 0.32672334422492838 0 -0.37580907906339922 0.33647878059299557 0 -0.38201615891261242 0.31564575533693578 0 -0.38201615891261242 0.31564575533693578 0 -0.38336946241093189 0.30974931290420182 0 -0.36531193472093021 0.32454274932608829 0 -0.37580907906339922 0.33647878059299557 0 -0.38201615891261242 0.31564575533693578 0 -0.38710957434645199 0.32672334422492838 0 -0.38201615891261242 0.31564575533693578 0 -0.39350880394476312 0.31593875705230262 0 -0.38336946241093189 0.30974931290420182 0 -0.38201615891261242 0.31564575533693578 0 -0.38710957434645199 0.32672334422492838 0 -0.39350880394476312 0.31593875705230262 0 -0.38710957434645199 0.32672334422492838 0 -0.39350880394476312 0.31593875705230262 0 -0.39921774374196328 0.327754485124091 0 -0.39350880394476312 0.31593875705230262 0 -0.39921774374196328 0.327754485124091 0 -0.40602554896887638 0.32011992980008452 0 -0.39921774374196328 0.327754485124091 0 -0.40602554896887638 0.32011992980008452 0 -0.40814721749945931 0.33505042297199122 0 -0.38794720083446621 0.34059934721089508 0 -0.38710957434645199 0.32672334422492838 0 -0.40046159691170069 0.34164056661102238 0 -0.39259889148010241 0.34864188780489069 0 -0.38794720083446621 0.34059934721089508 0 -0.40046159691170069 0.34164056661102238 0 -0.38710957434645199 0.32672334422492838 0 -0.39921774374196328 0.327754485124091 0 -0.40046159691170069 0.34164056661102238 0 -0.38710957434645199 0.32672334422492838 0 -0.40046159691170069 0.34164056661102238 0 -0.39921774374196328 0.327754485124091 0 -0.40046159691170069 0.34164056661102238 0 -0.40814721749945931 0.33505042297199122 0 -0.40814721749945931 0.33505042297199122 0 -0.41954562432067788 0.33058053440738988 0 -0.41381361947694889 0.35655778899711688 0 -0.41954562432067788 0.33058053440738988 0 -0.41381361947694889 0.35655778899711688 0 -0.40602554896887638 0.32011992980008452 0 -0.40814721749945931 0.33505042297199122 0 -0.41954562432067788 0.33058053440738988 0 -0.40602554896887638 0.32011992980008452 0 -0.41954562432067788 0.33058053440738988 0 -0.42527762916440792 0.30460327981766322 0 -0.41954562432067788 0.33058053440738988 0 -0.42527762916440792 0.30460327981766322 0 -0.41954562432067788 0.33058053440738988 0 -0.44001701522470671 0.31606260091672289 0 -0.42527762916440792 0.30460327981766322 0 -0.41954562432067788 0.33058053440738988 0 -0.42420657124029282 0.3485159257420361 0 -0.43843079740841773 0.33787066219507811 0 -0.41954562432067788 0.33058053440738988 0 -0.43843079740841773 0.33787066219507811 0 -0.44001701522470671 0.31606260091672289 0 -0.42420657124029282 0.3485159257420361 0 -0.43459164588172849 0.36007712215754689 0 -0.43843079740841773 0.33787066219507811 0 -0.42420657124029282 0.3485159257420361 0 -0.41381361947694889 0.35655778899711688 0 -0.43459164588172849 0.36007712215754689 0 -0.41381361947694889 0.35655778899711688 0 -0.43459164588172849 0.36007712215754689 0 -0.43459164588172849 0.36007712215754689 0 -0.43843079740841773 0.33787066219507811 0 -0.40046159691170069 0.34164056661102238 0 -0.40814721749945931 0.33505042297199122 0 -0.41381361947694889 0.35655778899711688 0 -0.41954562432067788 0.33058053440738988 0 -0.42420657124029282 0.3485159257420361 0 -0.41381361947694889 0.35655778899711688 0 -0.39999637464883392 0.35559476271013252 0 -0.41381361947694889 0.35655778899711688 0 -0.40046159691170069 0.34164056661102238 0 -0.41381361947694889 0.35655778899711688 0 -0.41381361947694889 0.35655778899711688 0 -0.41098055992701871 0.3693971202961519 0 -0.42689564018809201 0.37117335838025439 0 -0.41098055992701871 0.3693971202961519 0 -0.42689564018809201 0.37117335838025439 0 -0.40881671944059661 0.37920357314115732 0 -0.41098055992701871 0.3693971202961519 0 -0.42689564018809201 0.37117335838025439 0 -0.40881671944059661 0.37920357314115732 0 -0.41098055992701871 0.3693971202961519 0 -0.40397412088998857 0.3623881668075713 0 -0.41381361947694889 0.35655778899711688 0 -0.41098055992701871 0.3693971202961519 0 -0.41381361947694889 0.35655778899711688 0 -0.41098055992701871 0.3693971202961519 0 -0.41381361947694889 0.35655778899711688 0 -0.42689564018809201 0.37117335838025439 0 -0.41381361947694889 0.35655778899711688 0 -0.42907199843085347 0.36486274908666949 0 -0.43459164588172849 0.36007712215754689 0 -0.42689564018809201 0.37117335838025439 0 -0.42907199843085347 0.36486274908666949 0 -0.42980351636605002 0.37149789839679431 0 -0.43173797726570751 0.37658334167695551 0 -0.42689564018809201 0.37117335838025439 0 -0.43173797726570751 0.37658334167695551 0 -0.42689564018809201 0.37117335838025439 0 -0.42980351636605002 0.37149789839679431 0 -0.42689564018809201 0.37117335838025439 0 -0.42980351636605002 0.37149789839679431 0 -0.41381361947694889 0.35655778899711688 0 -0.42689564018809201 0.37117335838025439 0 -0.42907199843085347 0.36486274908666949 0 -0.43459164588172849 0.36007712215754689 0 -0.4325639091043616 0.37180597819459837 0 -0.42907199843085347 0.36486274908666949 0 -0.43459164588172849 0.36007712215754689 0 -0.4325639091043616 0.37180597819459837 0 -0.43173797726570751 0.37658334167695551 0 -0.4325639091043616 0.37180597819459837 0 -0.43173797726570751 0.37658334167695551 0 -0.4325639091043616 0.37180597819459837 0 -0.42980351636605002 0.37149789839679431 0 -0.4325639091043616 0.37180597819459837 0 -0.42980351636605002 0.37149789839679431 0 -0.42907199843085347 0.36486274908666949 0 -0.4325639091043616 0.37180597819459837 0 -0.42980351636605002 0.37149789839679431 0 -0.4393591315165738 0.37762743775392832 0 -0.4325639091043616 0.37180597819459837 0 -0.44813402172652672 0.37354371539476261 0 -0.4325639091043616 0.37180597819459837 0 -0.44813402172652672 0.37354371539476261 0 -0.4325639091043616 0.37180597819459837 0 -0.44813402172652672 0.37354371539476261 0 -0.45404419213644692 0.3625975043188554 0 -0.43459164588172849 0.36007712215754689 0 -0.45404419213644692 0.3625975043188554 0 -0.43459164588172849 0.36007712215754689 0 -0.4325639091043616 0.37180597819459837 0 -0.45404419213644692 0.3625975043188554 0 -0.4325639091043616 0.37180597819459837 0 -0.45404419213644692 0.3625975043188554 0 -0.43459164588172849 0.36007712215754689 0 -0.44549025602952702 0.35300777224981977 0 -0.45404419213644692 0.3625975043188554 0 -0.44549025602952702 0.35300777224981977 0 -0.45575207180717081 0.34762579988211101 0 -0.43843079740841773 0.33787066219507811 0 -0.43459164588172849 0.36007712215754689 0 -0.44549025602952702 0.35300777224981977 0 -0.43843079740841773 0.33787066219507811 0 -0.44549025602952702 0.35300777224981977 0 -0.45575207180717081 0.34762579988211101 0 -0.45404419213644692 0.3625975043188554 0 -0.45575207180717081 0.34762579988211101 0 -0.46674234051517471 0.35793515390827568 0 -0.45404419213644692 0.3625975043188554 0 -0.45575207180717081 0.34762579988211101 0 -0.46674234051517471 0.35793515390827568 0 -0.46933267881425472 0.34565439271282838 0 -0.45404419213644692 0.3625975043188554 0 -0.47441064506165659 0.36523629740895902 0 -0.46674234051517471 0.35793515390827568 0 -0.45404419213644692 0.3625975043188554 0 -0.47441064506165659 0.36523629740895902 0 -0.45404419213644692 0.3625975043188554 0 -0.46360543106569913 0.37231654924431878 0 -0.47441064506165659 0.36523629740895902 0 -0.44813402172652672 0.37354371539476261 0 -0.45404419213644692 0.3625975043188554 0 -0.46360543106569913 0.37231654924431878 0 -0.46674234051517471 0.35793515390827568 0 -0.45404419213644692 0.3625975043188554 0 -0.46360543106569913 0.37231654924431878 0 -0.47397397291215421 0.37493689296344251 0 -0.47441064506165659 0.36523629740895902 0 -0.47441064506165659 0.36523629740895902 0 -0.48058358620238051 0.35168401037216412 0 -0.49477709798686631 0.36787509049906381 0 -0.47397397291215421 0.37493689296344251 0 -0.47441064506165659 0.36523629740895902 0 -0.48714178473823078 0.37241716516273898 0 -0.46674234051517471 0.35793515390827568 0 -0.47441064506165659 0.36523629740895902 0 -0.48058358620238051 0.35168401037216412 0 -0.46674234051517471 0.35793515390827568 0 -0.46933267881425472 0.34565439271282838 0 -0.48058358620238051 0.35168401037216412 0 -0.46933267881425472 0.34565439271282838 0 -0.48058358620238051 0.35168401037216412 0 -0.48121002056386808 0.3369363626790518 0 -0.48058358620238051 0.35168401037216412 0 -0.49703354506598713 0.34759711953555122 0 -0.48121002056386808 0.3369363626790518 0 -0.49703354506598713 0.34759711953555122 0 -0.5 0.34812631329607491 0 -0.49477709798686631 0.36787509049906381 0 -0.48058358620238051 0.35168401037216412 0 -0.49703354506598713 0.34759711953555122 0 -0.49477709798686631 0.36787509049906381 0 -0.49703354506598713 0.34759711953555122 0 -0.49477709798686631 0.36787509049906381 0 -0.5 0.34812631329607491 0 -0.50000000000000311 0.3685517992903854 0 -0.49477709798686631 0.36787509049906381 0 -0.47441064506165659 0.36523629740895902 0 -0.49477709798686631 0.36787509049906381 0 -0.48714178473823078 0.37241716516273898 0 -0.47441064506165659 0.36523629740895902 0 -0.49477709798686631 0.36787509049906381 0 -0.49007778645481631 0.38142997617552599 0 -0.50000000000000311 0.3685517992903854 0 -0.49477709798686631 0.36787509049906381 0 -0.50000000000000311 0.3685517992903854 0 -0.49477709798686631 0.36787509049906381 0 -0.49007778645481631 0.38142997617552599 0 -0.49477709798686631 0.36787509049906381 0 -0.48714178473823078 0.37241716516273898 0 -0.4992899921451075 0.32731914857203848 0 -0.47890896772952718 0.31636292681222472 0 -0.4992899921451075 0.32731914857203848 0 -0.48121002056386808 0.3369363626790518 0 -0.47890896772952718 0.31636292681222472 0 -0.49999999999999989 0.32093853419885771 0 -0.47890896772952718 0.31636292681222472 0 -0.48920120729889771 0.30786362236022019 0 -0.49999999999999989 0.32093853419885771 0 -0.4992899921451075 0.32731914857203848 0 -0.47890896772952718 0.31636292681222472 0 -0.49999999999999989 0.32093853419885771 0 -0.4992899921451075 0.32731914857203848 0 -0.49703354506598713 0.34759711953555122 0 -0.4992899921451075 0.32731914857203848 0 -0.49703354506598713 0.34759711953555122 0 -0.4992899921451075 0.32731914857203848 0 -0.48121002056386808 0.3369363626790518 0 -0.49703354506598713 0.34759711953555122 0 -0.5 0.34812631329607491 0 -0.4992899921451075 0.32731914857203848 0 -0.46933267881425472 0.34565439271282838 0 -0.48121002056386808 0.3369363626790518 0 -0.46237537498267961 0.3340906367225393 0 -0.48121002056386808 0.3369363626790518 0 -0.47890896772952718 0.31636292681222472 0 -0.46237537498267961 0.3340906367225393 0 -0.47890896772952718 0.31636292681222472 0 -0.45636509730576869 0.32029680939338251 0 -0.45852794331394758 0.30540670505240958 0 -0.47890896772952718 0.31636292681222472 0 -0.45636509730576869 0.32029680939338251 0 -0.46237537498267961 0.3340906367225393 0 -0.45575207180717081 0.34762579988211101 0 -0.46933267881425472 0.34565439271282838 0 -0.46237537498267961 0.3340906367225393 0 -0.45575207180717081 0.34762579988211101 0 -0.46237537498267961 0.3340906367225393 0 -0.43843079740841773 0.33787066219507811 0 -0.45636509730576869 0.32029680939338251 0 -0.46237537498267961 0.3340906367225393 0 -0.43843079740841773 0.33787066219507811 0 -0.45636509730576869 0.32029680939338251 0 -0.43843079740841773 0.33787066219507811 0 -0.44001701522470671 0.31606260091672289 0 -0.45636509730576869 0.32029680939338251 0 -0.44001701522470671 0.31606260091672289 0 -0.45852794331394758 0.30540670505240958 0 -0.4381469188983681 0.2944504832925946 0 -0.45852794331394758 0.30540670505240958 0 -0.44001701522470671 0.31606260091672289 0 -0.4381469188983681 0.2944504832925946 0 -0.45852794331394758 0.30540670505240958 0 -0.4381469188983681 0.2944504832925946 0 -0.4447805513699985 0.27737231294201392 0 -0.43100963400813791 0.27862602522793672 0 -0.4381469188983681 0.2944504832925946 0 -0.45724976864254441 0.28334965182257721 0 -0.4447805513699985 0.27737231294201392 0 -0.4381469188983681 0.2944504832925946 0 -0.45724976864254441 0.28334965182257721 0 -0.45852794331394758 0.30540670505240958 0 -0.45724976864254441 0.28334965182257721 0 -0.45852794331394758 0.30540670505240958 0 -0.47789586146606378 0.29814868652574811 0 -0.47890896772952718 0.31636292681222472 0 -0.45852794331394758 0.30540670505240958 0 -0.47890896772952718 0.31636292681222472 0 -0.47789586146606378 0.29814868652574811 0 -0.48920120729889771 0.30786362236022019 0 -0.47890896772952718 0.31636292681222472 0 -0.45852794331394758 0.30540670505240958 0 -0.47789586146606378 0.29814868652574811 0 -0.45724976864254441 0.28334965182257721 0 -0.47789586146606378 0.29814868652574811 0 -0.48102565218130672 0.27929705551177292 0 -0.5 0.29600434190405073 0 -0.5 0.27107014960924369 0 -0.48102565218130672 0.27929705551177292 0 -0.47789586146606378 0.29814868652574811 0 -0.5 0.29600434190405073 0 -0.48102565218130672 0.27929705551177292 0 -0.47789586146606378 0.29814868652574811 0 -0.5 0.29600434190405073 0 -0.48920120729889771 0.30786362236022019 0 -0.49999999999999989 0.32093853419885771 0 -0.5 0.29600434190405073 0 -0.48920120729889771 0.30786362236022019 0 -0.48177750529808522 0.24619974485466931 0 -0.5 0.2461359573144368 0 -0.48654709528280549 0.26072196503438649 0 -0.5 0.2461359573144368 0 -0.48654709528280549 0.26072196503438649 0 -0.5 0.27107014960924369 0 -0.48654709528280549 0.26072196503438649 0 -0.5 0.27107014960924369 0 -0.48102565218130672 0.27929705551177292 0 -0.48654709528280549 0.26072196503438649 0 -0.48102565218130672 0.27929705551177292 0 -0.46993231893463527 0.26090691788180947 0 -0.45724976864254441 0.28334965182257721 0 -0.48102565218130672 0.27929705551177292 0 -0.46993231893463527 0.26090691788180947 0 -0.48177750529808522 0.24619974485466931 0 -0.48654709528280549 0.26072196503438649 0 -0.46993231893463527 0.26090691788180947 0 -0.45710504060219709 0.23686107433279269 0 -0.46993231893463527 0.26090691788180947 0 -0.44707755271196942 0.2637365605125353 0 -0.45724976864254441 0.28334965182257721 0 -0.46993231893463527 0.26090691788180947 0 -0.44707755271196942 0.2637365605125353 0 -0.45724976864254441 0.28334965182257721 0 -0.4447805513699985 0.27737231294201392 0 -0.44707755271196942 0.2637365605125353 0 -0.4447805513699985 0.27737231294201392 0 -0.44707755271196942 0.2637365605125353 0 -0.43100963400813791 0.27862602522793672 0 -0.45710504060219709 0.23686107433279269 0 -0.44707755271196942 0.2637365605125353 0 -0.44707755271196942 0.2637365605125353 0 -0.4367416388518679 0.25264877063821017 0 -0.43100963400813791 0.27862602522793672 0 -0.45710504060219709 0.23686107433279269 0 -0.44707755271196942 0.2637365605125353 0 -0.4367416388518679 0.25264877063821017 0 -0.4367416388518679 0.25264877063821017 0 -0.41175872593851298 0.2549478601346914 0 -0.41885046316002428 0.26850948483906401 0 -0.41175872593851298 0.2549478601346914 0 -0.41885046316002428 0.26850948483906401 0 -0.3976364837244763 0.27421361628784369 0 -0.41885046316002428 0.26850948483906401 0 -0.41710583327712653 0.28211115190663788 0 -0.3976364837244763 0.27421361628784369 0 -0.41885046316002428 0.26850948483906401 0 -0.43100963400813791 0.27862602522793672 0 -0.41710583327712653 0.28211115190663788 0 -0.4367416388518679 0.25264877063821017 0 -0.43100963400813791 0.27862602522793672 0 -0.4367416388518679 0.25264877063821017 0 -0.41885046316002428 0.26850948483906401 0 -0.43100963400813791 0.27862602522793672 0 -0.4381469188983681 0.2944504832925946 0 -0.43100963400813791 0.27862602522793672 0 -0.42527762916440792 0.30460327981766322 0 -0.43100963400813791 0.27862602522793672 0 -0.42527762916440792 0.30460327981766322 0 -0.41710583327712653 0.28211115190663788 0 -0.43100963400813791 0.27862602522793672 0 -0.42527762916440792 0.30460327981766322 0 -0.44001701522470671 0.31606260091672289 0 -0.4381469188983681 0.2944504832925946 0 -0.42527762916440792 0.30460327981766322 0 -0.40602554896887638 0.32011992980008452 0 -0.42527762916440792 0.30460327981766322 0 -0.4014269901009333 0.29495587648231503 0 -0.41710583327712653 0.28211115190663788 0 -0.4014269901009333 0.29495587648231503 0 -0.42527762916440792 0.30460327981766322 0 -0.41710583327712653 0.28211115190663788 0 -0.4014269901009333 0.29495587648231503 0 -0.41710583327712653 0.28211115190663788 0 -0.4014269901009333 0.29495587648231503 0 -0.3976364837244763 0.27421361628784369 0 -0.4014269901009333 0.29495587648231503 0 -0.38389766901197209 0.2919764357376447 0 -0.3976364837244763 0.27421361628784369 0 -0.4014269901009333 0.29495587648231503 0 -0.3976364837244763 0.27421361628784369 0 -0.39350880394476312 0.31593875705230262 0 -0.40602554896887638 0.32011992980008452 0 -0.4014269901009333 0.29495587648231503 0 -0.4014269901009333 0.29495587648231503 0 -0.38336946241093189 0.30974931290420182 0 -0.40602554896887638 0.32011992980008452 0 -0.4014269901009333 0.29495587648231503 0 -0.39350880394476312 0.31593875705230262 0 -0.4014269901009333 0.29495587648231503 0 -0.38336946241093189 0.30974931290420182 0 -0.38336946241093189 0.30974931290420182 0 -0.38389766901197209 0.2919764357376447 0 -0.36596935852520629 0.30787018431111951 0 -0.4014269901009333 0.29495587648231503 0 -0.38336946241093189 0.30974931290420182 0 -0.38389766901197209 0.2919764357376447 0 -0.38389766901197209 0.2919764357376447 0 -0.3839238193794226 0.27871888045260418 0 -0.3976364837244763 0.27421361628784369 0 -0.38389766901197209 0.2919764357376447 0 -0.3839238193794226 0.27871888045260418 0 -0.3703732677084236 0.2804332674389724 0 -0.3839238193794226 0.27871888045260418 0 -0.38378785707281859 0.2682522023459562 0 -0.3703732677084236 0.2804332674389724 0 -0.38378785707281859 0.2682522023459562 0 -0.37477717689163992 0.25299635056682518 0 -0.3703732677084236 0.2804332674389724 0 -0.3839238193794226 0.27871888045260418 0 -0.38378785707281859 0.2682522023459562 0 -0.3976364837244763 0.27421361628784369 0 -0.38378785707281859 0.2682522023459562 0 -0.39384597734802013 0.25347135609337229 0 -0.37477717689163992 0.25299635056682518 0 -0.39384597734802013 0.25347135609337229 0 -0.3976364837244763 0.27421361628784369 0 -0.41175872593851298 0.2549478601346914 0 -0.39384597734802013 0.25347135609337229 0 -0.3976364837244763 0.27421361628784369 0 -0.38378785707281859 0.2682522023459562 0 -0.39384597734802013 0.25347135609337229 0 -0.3976364837244763 0.27421361628784369 0 -0.35834524103505527 0.27479395617319979 0 -0.34490227433735798 0.27909378963084902 0 -0.35045174428906722 0.28677843618767362 0 -0.35834524103505527 0.27479395617319979 0 -0.34490227433735798 0.27909378963084902 0 -0.34728570068091402 0.2661688508290645 0 -0.34728570068091402 0.2661688508290645 0 -0.35464358931248319 0.25491115920099722 0 -0.34150965816976359 0.25817059719828012 0 -0.33845336435013867 0.242079554605789 0 -0.35464358931248319 0.25491115920099722 0 -0.34150965816976359 0.25817059719828012 0 -0.35834524103505527 0.27479395617319979 0 -0.34728570068091402 0.2661688508290645 0 -0.35464358931248319 0.25491115920099722 0 -0.35834524103505527 0.27479395617319979 0 -0.37477717689163992 0.25299635056682518 0 -0.35834524103505527 0.27479395617319979 0 -0.35464358931248319 0.25491115920099722 0 -0.37477717689163992 0.25299635056682518 0 -0.37477717689163992 0.25299635056682518 0 -0.3703732677084236 0.2804332674389724 0 -0.35834524103505527 0.27479395617319979 0 -0.37477717689163992 0.25299635056682518 0 -0.3703732677084236 0.2804332674389724 0 -0.3703732677084236 0.2804332674389724 0 -0.36596935852520629 0.30787018431111951 0 -0.38389766901197209 0.2919764357376447 0 -0.3703732677084236 0.2804332674389724 0 -0.36596935852520629 0.30787018431111951 0 -0.35834524103505527 0.27479395617319979 0 -0.3703732677084236 0.2804332674389724 0 -0.35925388220638338 0.290827281626163 0 -0.3703732677084236 0.2804332674389724 0 -0.36596935852520629 0.30787018431111951 0 -0.35925388220638338 0.290827281626163 0 -0.36596935852520629 0.30787018431111951 0 -0.35645499353340299 0.30154574554434233 0 -0.35925388220638338 0.290827281626163 0 -0.36596935852520629 0.30787018431111951 0 -0.35645499353340299 0.30154574554434233 0 -0.35774913989266272 0.31391262040183171 0 -0.35645499353340299 0.30154574554434233 0 -0.35013945535461871 0.3105838988596446 0 -0.35774913989266272 0.31391262040183171 0 -0.35645499353340299 0.30154574554434233 0 -0.34780240298166087 0.30288468022079579 0 -0.35285886900803182 0.29452238055293539 0 -0.34780240298166087 0.30288468022079579 0 -0.34622635383862083 0.29383585221412489 0 -0.33932813284697128 0.29730713825443927 0 -0.34780240298166087 0.30288468022079579 0 -0.35285886900803182 0.29452238055293539 0 -0.34622635383862083 0.29383585221412489 0 -0.34780240298166087 0.30288468022079579 0 -0.34514961405368982 0.30758965292055213 0 -0.33997231501418312 0.30473657218964828 0 -0.35645499353340299 0.30154574554434233 0 -0.34780240298166087 0.30288468022079579 0 -0.35013945535461871 0.3105838988596446 0 -0.34780240298166087 0.30288468022079579 0 -0.34514961405368982 0.30758965292055213 0 -0.35013945535461871 0.3105838988596446 0 -0.34514961405368982 0.30758965292055213 0 -0.35013945535461871 0.3105838988596446 0 -0.34268428286429659 0.31215346041211978 0 -0.35834524103505527 0.27479395617319979 0 -0.35925388220638338 0.290827281626163 0 -0.35045174428906722 0.28677843618767362 0 -0.35645499353340299 0.30154574554434233 0 -0.35925388220638338 0.290827281626163 0 -0.35285886900803182 0.29452238055293539 0 -0.35925388220638338 0.290827281626163 0 -0.35285886900803182 0.29452238055293539 0 -0.35045174428906722 0.28677843618767362 0 -0.35285886900803182 0.29452238055293539 0 -0.34622635383862083 0.29383585221412489 0 -0.35045174428906722 0.28677843618767362 0 -0.34622635383862083 0.29383585221412489 0 -0.35045174428906722 0.28677843618767362 0 -0.34088660642111013 0.2879281286912172 0 -0.34490227433735798 0.27909378963084902 0 -0.35045174428906722 0.28677843618767362 0 -0.34088660642111013 0.2879281286912172 0 -0.34490227433735798 0.27909378963084902 0 -0.34088660642111013 0.2879281286912172 0 -0.33262910378125132 0.278293493462413 0 -0.34088660642111013 0.2879281286912172 0 -0.33227483086849752 0.29261385498347509 0 -0.33932813284697128 0.29730713825443927 0 -0.34622635383862083 0.29383585221412489 0 -0.34088660642111013 0.2879281286912172 0 -0.33932813284697128 0.29730713825443927 0 -0.33227483086849752 0.29261385498347509 0 -0.32398535199451511 0.28524421774589648 0 -0.33262910378125132 0.278293493462413 0 -0.34088660642111013 0.2879281286912172 0 -0.33227483086849752 0.29261385498347509 0 -0.33262910378125132 0.278293493462413 0 -0.33718535734333338 0.30882123026638569 0 -0.34268428286429659 0.31215346041211978 0 -0.33477104767585758 0.31524888829805342 0 -0.33718535734333338 0.30882123026638569 0 -0.34268428286429659 0.31215346041211978 0 -0.33997231501418312 0.30473657218964828 0 -0.34514961405368982 0.30758965292055213 0 -0.34268428286429659 0.31215346041211978 0 -0.33997231501418312 0.30473657218964828 0 -0.33718535734333338 0.30882123026638569 0 -0.33997231501418312 0.30473657218964828 0 -0.33396296217470239 0.30554582684384218 0 -0.33997231501418312 0.30473657218964828 0 -0.33932813284697128 0.29730713825443927 0 -0.33396296217470239 0.30554582684384218 0 -0.34780240298166087 0.30288468022079579 0 -0.33997231501418312 0.30473657218964828 0 -0.33932813284697128 0.29730713825443927 0 -0.33227483086849752 0.29261385498347509 0 -0.33396296217470239 0.30554582684384218 0 -0.32251037119006698 0.3031431883822347 0 -0.33227483086849752 0.29261385498347509 0 -0.33932813284697128 0.29730713825443927 0 -0.33396296217470239 0.30554582684384218 0 -0.33718535734333338 0.30882123026638569 0 -0.33396296217470239 0.30554582684384218 0 -0.33477104767585758 0.31524888829805342 0 -0.33396296217470239 0.30554582684384218 0 -0.32251037119006698 0.3031431883822347 0 -0.33219148171911272 0.31730370811833031 0 -0.32251037119006698 0.3031431883822347 0 -0.31456388983813333 0.31636814557902659 0 -0.33219148171911272 0.31730370811833031 0 -0.32251037119006698 0.3031431883822347 0 -0.31282926066102218 0.28898266864613842 0 -0.30402337591517081 0.3051012194244167 0 -0.32251037119006698 0.3031431883822347 0 -0.30402337591517081 0.3051012194244167 0 -0.31456388983813333 0.31636814557902659 0 -0.32251037119006698 0.3031431883822347 0 -0.33219148171911272 0.31730370811833031 0 -0.33227483086849752 0.29261385498347509 0 -0.32251037119006698 0.3031431883822347 0 -0.32398535199451511 0.28524421774589648 0 -0.32251037119006698 0.3031431883822347 0 -0.32398535199451511 0.28524421774589648 0 -0.31282926066102218 0.28898266864613842 0 -0.32251037119006698 0.3031431883822347 0 -0.31282926066102218 0.28898266864613842 0 -0.31282926066102218 0.28898266864613842 0 -0.32065101258715689 0.274665503564473 0 -0.32398535199451511 0.28524421774589648 0 -0.31282926066102218 0.28898266864613842 0 -0.32065101258715689 0.274665503564473 0 -0.32065101258715689 0.274665503564473 0 -0.32847276451329022 0.26034833848280681 0 -0.31199410965335322 0.26463258327439948 0 -0.32065101258715689 0.274665503564473 0 -0.33262910378125132 0.278293493462413 0 -0.32847276451329022 0.26034833848280681 0 -0.31282926066102218 0.28898266864613842 0 -0.32065101258715689 0.274665503564473 0 -0.30403346053568642 0.27611708872161922 0 -0.32065101258715689 0.274665503564473 0 -0.32847276451329022 0.26034833848280681 0 -0.32398535199451511 0.28524421774589648 0 -0.32065101258715689 0.274665503564473 0 -0.33262910378125132 0.278293493462413 0 -0.33262910378125132 0.278293493462413 0 -0.33869287199199061 0.26734508287274228 0 -0.32847276451329022 0.26034833848280681 0 -0.34490227433735798 0.27909378963084902 0 -0.34728570068091402 0.2661688508290645 0 -0.33869287199199061 0.26734508287274228 0 -0.34490227433735798 0.27909378963084902 0 -0.33262910378125132 0.278293493462413 0 -0.33869287199199061 0.26734508287274228 0 -0.33845336435013867 0.242079554605789 0 -0.34150965816976359 0.25817059719828012 0 -0.32847276451329022 0.26034833848280681 0 -0.33845336435013867 0.242079554605789 0 -0.32847276451329022 0.26034833848280681 0 -0.34728570068091402 0.2661688508290645 0 -0.33869287199199061 0.26734508287274228 0 -0.34150965816976359 0.25817059719828012 0 -0.33869287199199061 0.26734508287274228 0 -0.34150965816976359 0.25817059719828012 0 -0.32847276451329022 0.26034833848280681 0 -0.33869287199199061 0.26734508287274228 0 -0.32847276451329022 0.26034833848280681 0 -0.311575650220281 0.24878047680599949 0 -0.32847276451329022 0.26034833848280681 0 -0.311575650220281 0.24878047680599949 0 -0.32847276451329022 0.26034833848280681 0 -0.31199410965335322 0.26463258327439948 0 -0.32455092720978362 0.24357057421839101 0 -0.311575650220281 0.24878047680599949 0 -0.32847276451329022 0.26034833848280681 0 -0.311575650220281 0.24878047680599949 0 -0.31199410965335322 0.26463258327439948 0 -0.29523766041035199 0.26325150879709891 0 -0.30403346053568642 0.27611708872161922 0 -0.29523766041035199 0.26325150879709891 0 -0.29574151564778611 0.28671646758259889 0 -0.31199410965335322 0.26463258327439948 0 -0.30403346053568642 0.27611708872161922 0 -0.29523766041035199 0.26325150879709891 0 -0.32065101258715689 0.274665503564473 0 -0.31199410965335322 0.26463258327439948 0 -0.30403346053568642 0.27611708872161922 0 -0.30403346053568642 0.27611708872161922 0 -0.29523766041035199 0.26325150879709891 0 -0.28985028671148488 0.25537141990030859 0 -0.26863301980023729 0.26794771562718522 0 -0.28534189936007232 0.28197220440765719 0 -0.29523766041035199 0.26325150879709891 0 -0.29574151564778611 0.28671646758259889 0 -0.29523766041035199 0.26325150879709891 0 -0.29574151564778611 0.28671646758259889 0 -0.28534189936007232 0.28197220440765719 0 -0.28985028671148488 0.25537141990030859 0 -0.29523766041035199 0.26325150879709891 0 -0.28534189936007232 0.28197220440765719 0 -0.28985028671148488 0.25537141990030859 0 -0.28534189936007232 0.28197220440765719 0 -0.29467853592727078 0.23721261512919359 0 -0.29523766041035199 0.26325150879709891 0 -0.29467853592727078 0.23721261512919359 0 -0.28985028671148488 0.25537141990030859 0 -0.29523766041035199 0.26325150879709891 0 -0.28985028671148488 0.25537141990030859 0 -0.29523766041035199 0.26325150879709891 0 -0.28985028671148488 0.25537141990030859 0 -0.2724296921133022 0.25217156250687062 0 -0.26863301980023729 0.26794771562718522 0 -0.2724296921133022 0.25217156250687062 0 -0.26863301980023729 0.26794771562718522 0 -0.25693865295534157 0.25278860643768353 0 -0.26863301980023729 0.26794771562718522 0 -0.26277913973510902 0.29023342414179659 0 -0.28534189936007232 0.28197220440765719 0 -0.26277913973510902 0.29023342414179659 0 -0.2447247674615598 0.2718938593685879 0 -0.26863301980023729 0.26794771562718522 0 -0.26277913973510902 0.29023342414179659 0 -0.2447247674615598 0.2718938593685879 0 -0.26863301980023729 0.26794771562718522 0 -0.25693865295534157 0.25278860643768353 0 -0.2447247674615598 0.2718938593685879 0 -0.26277913973510902 0.29023342414179659 0 -0.25757488899104952 0.31786411623381933 0 -0.2366570207200871 0.30010935915934539 0 -0.26277913973510902 0.29023342414179659 0 -0.28083351200865853 0.30857298891500562 0 -0.28534189936007232 0.28197220440765719 0 -0.26277913973510902 0.29023342414179659 0 -0.28083351200865853 0.30857298891500562 0 -0.26277913973510902 0.29023342414179659 0 -0.28083351200865853 0.30857298891500562 0 -0.25757488899104952 0.31786411623381933 0 -0.28083351200865853 0.30857298891500562 0 -0.29574151564778611 0.28671646758259889 0 -0.30402337591517081 0.3051012194244167 0 -0.28083351200865853 0.30857298891500562 0 -0.29574151564778611 0.28671646758259889 0 -0.28534189936007232 0.28197220440765719 0 -0.28083351200865853 0.30857298891500562 0 -0.28534189936007232 0.28197220440765719 0 -0.31282926066102218 0.28898266864613842 0 -0.29574151564778611 0.28671646758259889 0 -0.30402337591517081 0.3051012194244167 0 -0.31282926066102218 0.28898266864613842 0 -0.30403346053568642 0.27611708872161922 0 -0.29574151564778611 0.28671646758259889 0 -0.31282926066102218 0.28898266864613842 0 -0.30403346053568642 0.27611708872161922 0 -0.31282926066102218 0.28898266864613842 0 -0.30402337591517081 0.3051012194244167 0 -0.30402337591517081 0.3051012194244167 0 -0.29932851783868691 0.32736014762988469 0 -0.31456388983813333 0.31636814557902659 0 -0.29932851783868691 0.32736014762988469 0 -0.31400963374603508 0.33178692824556621 0 -0.31456388983813333 0.31636814557902659 0 -0.29582778577295937 0.3462701483728044 0 -0.31354931950312093 0.34747342072874071 0 -0.31400963374603508 0.33178692824556621 0 -0.29582778577295937 0.3462701483728044 0 -0.31400963374603508 0.33178692824556621 0 -0.29932851783868691 0.32736014762988469 0 -0.29582778577295937 0.3462701483728044 0 -0.31400963374603508 0.33178692824556621 0 -0.29932851783868691 0.32736014762988469 0 -0.27670802547122531 0.33291454828341721 0 -0.29582778577295937 0.3462701483728044 0 -0.27670802547122531 0.33291454828341721 0 -0.29582778577295937 0.3462701483728044 0 -0.28186865011063378 0.34863084123191301 0 -0.28083351200865853 0.30857298891500562 0 -0.30402337591517081 0.3051012194244167 0 -0.29932851783868691 0.32736014762988469 0 -0.28083351200865853 0.30857298891500562 0 -0.29932851783868691 0.32736014762988469 0 -0.28083351200865853 0.30857298891500562 0 -0.29932851783868691 0.32736014762988469 0 -0.27670802547122531 0.33291454828341721 0 -0.28083351200865853 0.30857298891500562 0 -0.27670802547122531 0.33291454828341721 0 -0.25757488899104952 0.31786411623381933 0 -0.28083351200865853 0.30857298891500562 0 -0.27670802547122531 0.33291454828341721 0 -0.27670802547122531 0.33291454828341721 0 -0.25757488899104952 0.31786411623381933 0 -0.25368472498167011 0.34420349485172652 0 -0.2613799420943046 0.36179346951182628 0 -0.25453646971320443 0.37462232419521813 0 -0.26689531734350652 0.36931705260985792 0 -0.2613799420943046 0.36179346951182628 0 -0.25453646971320443 0.37462232419521813 0 -0.24822911175635759 0.36217347122335058 0 -0.25368472498167011 0.34420349485172652 0 -0.27258253893379292 0.35725610765182902 0 -0.2613799420943046 0.36179346951182628 0 -0.25368472498167011 0.34420349485172652 0 -0.24822911175635759 0.36217347122335058 0 -0.2613799420943046 0.36179346951182628 0 -0.25368472498167011 0.34420349485172652 0 -0.27258253893379292 0.35725610765182902 0 -0.27670802547122531 0.33291454828341721 0 -0.27258253893379292 0.35725610765182902 0 -0.27670802547122531 0.33291454828341721 0 -0.27258253893379292 0.35725610765182902 0 -0.28186865011063378 0.34863084123191301 0 -0.27670802547122531 0.33291454828341721 0 -0.25368472498167011 0.34420349485172652 0 -0.27258253893379292 0.35725610765182902 0 -0.27258253893379292 0.35725610765182902 0 -0.27764593779988228 0.36075336850004069 0 -0.28186865011063378 0.34863084123191301 0 -0.27258253893379292 0.35725610765182902 0 -0.27764593779988228 0.36075336850004069 0 -0.27764593779988228 0.36075336850004069 0 -0.27110701654299552 0.36596211494311248 0 -0.28943519450698252 0.3688961411714532 0 -0.27110701654299552 0.36596211494311248 0 -0.28943519450698252 0.3688961411714532 0 -0.27110701654299552 0.36596211494311248 0 -0.28943519450698252 0.3688961411714532 0 -0.28084635904778937 0.37544065550995409 0 -0.27258253893379292 0.35725610765182902 0 -0.27764593779988228 0.36075336850004069 0 -0.27110701654299552 0.36596211494311248 0 -0.27764593779988228 0.36075336850004069 0 -0.27110701654299552 0.36596211494311248 0 -0.2613799420943046 0.36179346951182628 0 -0.27258253893379292 0.35725610765182902 0 -0.27110701654299552 0.36596211494311248 0 -0.2613799420943046 0.36179346951182628 0 -0.27110701654299552 0.36596211494311248 0 -0.26689531734350652 0.36931705260985792 0 -0.27258253893379292 0.35725610765182902 0 -0.27110701654299552 0.36596211494311248 0 -0.27110701654299552 0.36596211494311248 0 -0.26689531734350652 0.36931705260985792 0 -0.27110701654299552 0.36596211494311248 0 -0.28084635904778937 0.37544065550995409 0 -0.27663284499009211 0.37939207802828528 0 -0.28943519450698252 0.3688961411714532 0 -0.28685204816290072 0.37621819500323123 0 -0.28084635904778937 0.37544065550995409 0 -0.27764593779988228 0.36075336850004069 0 -0.28943519450698252 0.3688961411714532 0 -0.29551252006441958 0.37309371542857861 0 -0.28943519450698252 0.3688961411714532 0 -0.28685204816290072 0.37621819500323123 0 -0.29551252006441958 0.37309371542857861 0 -0.28943519450698252 0.3688961411714532 0 -0.27764593779988228 0.36075336850004069 0 -0.29582778577295937 0.3462701483728044 0 -0.27764593779988228 0.36075336850004069 0 -0.29582778577295937 0.3462701483728044 0 -0.28186865011063378 0.34863084123191301 0 -0.28943519450698252 0.3688961411714532 0 -0.29582778577295937 0.3462701483728044 0 -0.30300283950081008 0.36051339397403093 0 -0.27764593779988228 0.36075336850004069 0 -0.28943519450698252 0.3688961411714532 0 -0.29582778577295937 0.3462701483728044 0 -0.29582778577295937 0.3462701483728044 0 -0.30300283950081008 0.36051339397403093 0 -0.31354931950312093 0.34747342072874071 0 -0.28943519450698252 0.3688961411714532 0 -0.31408843612631249 0.37197903781600761 0 -0.28943519450698252 0.3688961411714532 0 -0.30300283950081008 0.36051339397403093 0 -0.31408843612631249 0.37197903781600761 0 -0.29551252006441958 0.37309371542857861 0 -0.28943519450698252 0.3688961411714532 0 -0.31408843612631249 0.37197903781600761 0 -0.30300283950081008 0.36051339397403093 0 -0.31408843612631249 0.37197903781600761 0 -0.32472866683278162 0.35786931268145811 0 -0.31408843612631249 0.37197903781600761 0 -0.32472866683278162 0.35786931268145811 0 -0.33874167774564268 0.3750619344605613 0 -0.31408843612631249 0.37197903781600761 0 -0.33874167774564268 0.3750619344605613 0 -0.33942470910854639 0.36092010030626542 0 -0.32472866683278162 0.35786931268145811 0 -0.33874167774564268 0.3750619344605613 0 -0.33942470910854639 0.36092010030626542 0 -0.3497530714632448 0.36534695126967459 0 -0.33874167774564268 0.3750619344605613 0 -0.33815763529499693 0.35089104021064632 0 -0.32472866683278162 0.35786931268145811 0 -0.33017767166301859 0.34092732036984391 0 -0.33815763529499693 0.35089104021064632 0 -0.33017767166301859 0.34092732036984391 0 -0.34251680356524339 0.34321741671518669 0 -0.33815763529499693 0.35089104021064632 0 -0.3460879504978186 0.35511096805544279 0 -0.34556584107983002 0.34849125976349993 0 -0.33815763529499693 0.35089104021064632 0 -0.34251680356524339 0.34321741671518669 0 -0.34556584107983002 0.34849125976349993 0 -0.33942470910854639 0.36092010030626542 0 -0.33815763529499693 0.35089104021064632 0 -0.3460879504978186 0.35511096805544279 0 -0.33942470910854639 0.36092010030626542 0 -0.33815763529499693 0.35089104021064632 0 -0.32472866683278162 0.35786931268145811 0 -0.31354931950312093 0.34747342072874071 0 -0.32472866683278162 0.35786931268145811 0 -0.33017767166301859 0.34092732036984391 0 -0.30300283950081008 0.36051339397403093 0 -0.31354931950312093 0.34747342072874071 0 -0.32472866683278162 0.35786931268145811 0 -0.31400963374603508 0.33178692824556621 0 -0.33219148171911272 0.31730370811833031 0 -0.33017767166301859 0.34092732036984391 0 -0.31354931950312093 0.34747342072874071 0 -0.31400963374603508 0.33178692824556621 0 -0.33017767166301859 0.34092732036984391 0 -0.31400963374603508 0.33178692824556621 0 -0.33219148171911272 0.31730370811833031 0 -0.31400963374603508 0.33178692824556621 0 -0.31456388983813333 0.31636814557902659 0 -0.33219148171911272 0.31730370811833031 0 -0.33477104767585758 0.31524888829805342 0 -0.33219148171911272 0.31730370811833031 0 -0.34795343649956839 0.3209401758966518 0 -0.33219148171911272 0.31730370811833031 0 -0.34725440703092858 0.33933618574797492 0 -0.34795343649956839 0.3209401758966518 0 -0.33396296217470239 0.30554582684384218 0 -0.33477104767585758 0.31524888829805342 0 -0.33219148171911272 0.31730370811833031 0 -0.33477104767585758 0.31524888829805342 0 -0.33219148171911272 0.31730370811833031 0 -0.34268428286429659 0.31215346041211978 0 -0.33477104767585758 0.31524888829805342 0 -0.34795343649956839 0.3209401758966518 0 -0.33219148171911272 0.31730370811833031 0 -0.34725440703092858 0.33933618574797492 0 -0.33219148171911272 0.31730370811833031 0 -0.33017767166301859 0.34092732036984391 0 -0.34725440703092858 0.33933618574797492 0 -0.33017767166301859 0.34092732036984391 0 -0.34251680356524339 0.34321741671518669 0 -0.34725440703092858 0.33933618574797492 0 -0.34725440703092858 0.33933618574797492 0 -0.34795343649956839 0.3209401758966518 0 -0.36531193472093021 0.32454274932608829 0 -0.34251680356524339 0.34321741671518669 0 -0.35002774160894051 0.34339273059465159 0 -0.34725440703092858 0.33933618574797492 0 -0.34725440703092858 0.33933618574797492 0 -0.35848812135385522 0.33902175933596412 0 -0.36531193472093021 0.32454274932608829 0 -0.34725440703092858 0.33933618574797492 0 -0.36531193472093021 0.32454274932608829 0 -0.34251680356524339 0.34321741671518669 0 -0.34725440703092858 0.33933618574797492 0 -0.35002774160894051 0.34339273059465159 0 -0.34725440703092858 0.33933618574797492 0 -0.35002774160894051 0.34339273059465159 0 -0.35848812135385522 0.33902175933596412 0 -0.35712059876301439 0.34740413424876382 0 -0.35002774160894051 0.34339273059465159 0 -0.34725440703092858 0.33933618574797492 0 -0.35848812135385522 0.33902175933596412 0 -0.34795343649956839 0.3209401758966518 0 -0.35774913989266272 0.31391262040183171 0 -0.36531193472093021 0.32454274932608829 0 -0.35013945535461871 0.3105838988596446 0 -0.34268428286429659 0.31215346041211978 0 -0.34795343649956839 0.3209401758966518 0 -0.35013945535461871 0.3105838988596446 0 -0.34795343649956839 0.3209401758966518 0 -0.35774913989266272 0.31391262040183171 0 -0.38336946241093189 0.30974931290420182 0 -0.36596935852520629 0.30787018431111951 0 -0.36531193472093021 0.32454274932608829 0 -0.36596935852520629 0.30787018431111951 0 -0.35774913989266272 0.31391262040183171 0 -0.36531193472093021 0.32454274932608829 0 -0.37580907906339922 0.33647878059299557 0 -0.38201615891261242 0.31564575533693578 0 -0.36531193472093021 0.32454274932608829 0 -0.38336946241093189 0.30974931290420182 0 -0.36531193472093021 0.32454274932608829 0 -0.35848812135385522 0.33902175933596412 0 -0.36629538785756799 0.33494858662202331 0 -0.36491865814174967 0.34450616947628299 0 -0.35848812135385522 0.33902175933596412 0 -0.36491865814174967 0.34450616947628299 0 -0.35712059876301439 0.34740413424876382 0 -0.35848812135385522 0.33902175933596412 0 -0.36531193472093021 0.32454274932608829 0 -0.36629538785756799 0.33494858662202331 0 -0.37580907906339922 0.33647878059299557 0 -0.36531193472093021 0.32454274932608829 0 -0.36629538785756799 0.33494858662202331 0 -0.37580907906339922 0.33647878059299557 0 -0.36629538785756799 0.33494858662202331 0 -0.36491865814174967 0.34450616947628299 0 -0.37580907906339922 0.33647878059299557 0 -0.36491865814174967 0.34450616947628299 0 -0.36960199921418602 0.35731180584905542 0 -0.37580907906339922 0.33647878059299557 0 -0.36960199921418602 0.35731180584905542 0 -0.36491865814174967 0.34450616947628299 0 -0.36204010283369881 0.35293053614415609 0 -0.35712059876301439 0.34740413424876382 0 -0.36491865814174967 0.34450616947628299 0 -0.36204010283369881 0.35293053614415609 0 -0.36960199921418602 0.35731180584905542 0 -0.36231373349064938 0.3583368008115923 0 -0.36204010283369881 0.35293053614415609 0 -0.35577634304253192 0.35617190760009498 0 -0.36231373349064938 0.3583368008115923 0 -0.36204010283369881 0.35293053614415609 0 -0.36960199921418602 0.35731180584905542 0 -0.36960199921418602 0.35731180584905542 0 -0.36339491936497281 0.37814483110511521 0 -0.36960199921418602 0.35731180584905542 0 -0.37158620997362618 0.36500042586936587 0 -0.36339491936497281 0.37814483110511521 0 -0.36960199921418602 0.35731180584905542 0 -0.36108579844600058 0.36545797327707619 0 -0.36339491936497281 0.37814483110511521 0 -0.38141148745950948 0.38039780936179463 0 -0.37158620997362618 0.36500042586936587 0 -0.36339491936497281 0.37814483110511521 0 -0.38070440212728118 0.35956436367519867 0 -0.36960199921418602 0.35731180584905542 0 -0.37158620997362618 0.36500042586936587 0 -0.36231373349064938 0.3583368008115923 0 -0.36108579844600058 0.36545797327707619 0 -0.35577634304253192 0.35617190760009498 0 -0.36231373349064938 0.3583368008115923 0 -0.36960199921418602 0.35731180584905542 0 -0.36108579844600058 0.36545797327707619 0 -0.36108579844600058 0.36545797327707619 0 -0.3497530714632448 0.36534695126967459 0 -0.35577634304253192 0.35617190760009498 0 -0.3497530714632448 0.36534695126967459 0 -0.36339491936497281 0.37814483110511521 0 -0.33874167774564268 0.3750619344605613 0 -0.36108579844600058 0.36545797327707619 0 -0.3497530714632448 0.36534695126967459 0 -0.36339491936497281 0.37814483110511521 0 -0.33942470910854639 0.36092010030626542 0 -0.3497530714632448 0.36534695126967459 0 -0.3460879504978186 0.35511096805544279 0 -0.3497530714632448 0.36534695126967459 0 -0.3460879504978186 0.35511096805544279 0 -0.35577634304253192 0.35617190760009498 0 -0.3460879504978186 0.35511096805544279 0 -0.35103907443215082 0.34984414324157243 0 -0.35577634304253192 0.35617190760009498 0 -0.3460879504978186 0.35511096805544279 0 -0.34556584107983002 0.34849125976349993 0 -0.35103907443215082 0.34984414324157243 0 -0.34251680356524339 0.34321741671518669 0 -0.35002774160894051 0.34339273059465159 0 -0.34556584107983002 0.34849125976349993 0 -0.35002774160894051 0.34339273059465159 0 -0.34556584107983002 0.34849125976349993 0 -0.35103907443215082 0.34984414324157243 0 -0.35103907443215082 0.34984414324157243 0 -0.35712059876301439 0.34740413424876382 0 -0.35577634304253192 0.35617190760009498 0 -0.35002774160894051 0.34339273059465159 0 -0.35103907443215082 0.34984414324157243 0 -0.35712059876301439 0.34740413424876382 0 -0.36204010283369881 0.35293053614415609 0 -0.35712059876301439 0.34740413424876382 0 -0.35577634304253192 0.35617190760009498 0 -0.35746143571760969 0.39805957647408341 0 -0.33700984602307921 0.4055687403903776 0 -0.35746143571760969 0.39805957647408341 0 -0.36339491936497281 0.37814483110511521 0 -0.33874167774564268 0.3750619344605613 0 -0.36339491936497281 0.37814483110511521 0 -0.33874167774564268 0.3750619344605613 0 -0.38141148745950948 0.38039780936179463 0 -0.37844474563582792 0.390355182046278 0 -0.36339491936497281 0.37814483110511521 0 -0.37844474563582792 0.390355182046278 0 -0.35746143571760969 0.39805957647408341 0 -0.36339491936497281 0.37814483110511521 0 -0.35746143571760969 0.39805957647408341 0 -0.36339491936497281 0.37814483110511521 0 -0.38141148745950948 0.38039780936179463 0 -0.36339491936497281 0.37814483110511521 0 -0.37668454372729859 0.41206883315114529 0 -0.37844474563582792 0.390355182046278 0 -0.35746143571760969 0.39805957647408341 0 -0.37844474563582792 0.390355182046278 0 -0.35746143571760969 0.39805957647408341 0 -0.37668454372729859 0.41206883315114529 0 -0.36778315087773072 0.43214877602771662 0 -0.35179051953527918 0.41709305806631919 0 -0.37668454372729859 0.41206883315114529 0 -0.35746143571760969 0.39805957647408341 0 -0.35179051953527918 0.41709305806631919 0 -0.37668454372729859 0.41206883315114529 0 -0.35179051953527918 0.41709305806631919 0 -0.36778315087773072 0.43214877602771662 0 -0.35179051953527918 0.41709305806631919 0 -0.34355933144160938 0.44471966407244162 0 -0.35179051953527918 0.41709305806631919 0 -0.34355933144160938 0.44471966407244162 0 -0.35746143571760969 0.39805957647408341 0 -0.35179051953527918 0.41709305806631919 0 -0.33700984602307921 0.4055687403903776 0 -0.35746143571760969 0.39805957647408341 0 -0.35179051953527918 0.41709305806631919 0 -0.35179051953527918 0.41709305806631919 0 -0.33092261172728182 0.42130471390500562 0 -0.33700984602307921 0.4055687403903776 0 -0.35179051953527918 0.41709305806631919 0 -0.33092261172728182 0.42130471390500562 0 -0.33092261172728182 0.42130471390500562 0 -0.31655825632854873 0.41307790430667191 0 -0.33700984602307921 0.4055687403903776 0 -0.35179051953527918 0.41709305806631919 0 -0.33092261172728182 0.42130471390500562 0 -0.34355933144160938 0.44471966407244162 0 -0.33092261172728182 0.42130471390500562 0 -0.32304151796324199 0.43794530689545591 0 -0.34355933144160938 0.44471966407244162 0 -0.33092261172728182 0.42130471390500562 0 -0.31005470391928353 0.42551636974368717 0 -0.32304151796324199 0.43794530689545591 0 -0.33092261172728182 0.42130471390500562 0 -0.31005470391928353 0.42551636974368717 0 -0.31005470391928353 0.42551636974368717 0 -0.30636015846579262 0.44081646755455739 0 -0.32304151796324199 0.43794530689545591 0 -0.31655825632854873 0.41307790430667191 0 -0.32178824989383492 0.40044082628072353 0 -0.33700984602307921 0.4055687403903776 0 -0.33092261172728182 0.42130471390500562 0 -0.31655825632854873 0.41307790430667191 0 -0.31005470391928353 0.42551636974368717 0 -0.31655825632854873 0.41307790430667191 0 -0.33700984602307921 0.4055687403903776 0 -0.31655825632854873 0.41307790430667191 0 -0.32178824989383492 0.40044082628072353 0 -0.30820761894760612 0.40180007281058999 0 -0.31589124725359768 0.39098578459502642 0 -0.32178824989383492 0.40044082628072353 0 -0.30820761894760612 0.40180007281058999 0 -0.31589124725359768 0.39098578459502642 0 -0.32178824989383492 0.40044082628072353 0 -0.33127428091634248 0.39077162930095188 0 -0.35746143571760969 0.39805957647408341 0 -0.33127428091634248 0.39077162930095188 0 -0.33700984602307921 0.4055687403903776 0 -0.32178824989383492 0.40044082628072353 0 -0.33127428091634248 0.39077162930095188 0 -0.33700984602307921 0.4055687403903776 0 -0.35746143571760969 0.39805957647408341 0 -0.33127428091634248 0.39077162930095188 0 -0.33874167774564268 0.3750619344605613 0 -0.31408843612631249 0.37197903781600761 0 -0.33127428091634248 0.39077162930095188 0 -0.33874167774564268 0.3750619344605613 0 -0.31408843612631249 0.37197903781600761 0 -0.31589124725359768 0.39098578459502642 0 -0.33127428091634248 0.39077162930095188 0 -0.29551252006441958 0.37309371542857861 0 -0.31408843612631249 0.37197903781600761 0 -0.30568017353146049 0.38157918508743732 0 -0.31408843612631249 0.37197903781600761 0 -0.31589124725359768 0.39098578459502642 0 -0.30568017353146049 0.38157918508743732 0 -0.31589124725359768 0.39098578459502642 0 -0.30568017353146049 0.38157918508743732 0 -0.30603649680964828 0.39194203915736708 0 -0.30568017353146049 0.38157918508743732 0 -0.29743858983336929 0.38628170497916159 0 -0.30603649680964828 0.39194203915736708 0 -0.29551252006441958 0.37309371542857861 0 -0.30568017353146049 0.38157918508743732 0 -0.29743858983336929 0.38628170497916159 0 -0.31589124725359768 0.39098578459502642 0 -0.30820761894760612 0.40180007281058999 0 -0.30603649680964828 0.39194203915736708 0 -0.30820761894760612 0.40180007281058999 0 -0.30603649680964828 0.39194203915736708 0 -0.29604813782321171 0.40003827384795049 0 -0.29743858983336929 0.38628170497916159 0 -0.30603649680964828 0.39194203915736708 0 -0.29604813782321171 0.40003827384795049 0 -0.30820761894760612 0.40180007281058999 0 -0.29604813782321171 0.40003827384795049 0 -0.2987408814332651 0.40933989620534528 0 -0.29604813782321171 0.40003827384795049 0 -0.28905057763704689 0.40562835892549581 0 -0.28392778011776681 0.39892722844600809 0 -0.29604813782321171 0.40003827384795049 0 -0.28905057763704689 0.40562835892549581 0 -0.2987408814332651 0.40933989620534528 0 -0.29604813782321171 0.40003827384795049 0 -0.28980128107673031 0.39400368344191522 0 -0.28392778011776681 0.39892722844600809 0 -0.29743858983336929 0.38628170497916159 0 -0.29604813782321171 0.40003827384795049 0 -0.28980128107673031 0.39400368344191522 0 -0.28980128107673031 0.39400368344191522 0 -0.28179061653257348 0.3907675264945405 0 -0.28392778011776681 0.39892722844600809 0 -0.28905057763704689 0.40562835892549581 0 -0.28392778011776681 0.39892722844600809 0 -0.27817781655911977 0.40726136879628272 0 -0.29743858983336929 0.38628170497916159 0 -0.28980128107673031 0.39400368344191522 0 -0.28179061653257348 0.3907675264945405 0 -0.29743858983336929 0.38628170497916159 0 -0.28179061653257348 0.3907675264945405 0 -0.28819376848868639 0.38228739672622841 0 -0.29743858983336929 0.38628170497916159 0 -0.28179061653257348 0.3907675264945405 0 -0.29551252006441958 0.37309371542857861 0 -0.29743858983336929 0.38628170497916159 0 -0.28819376848868639 0.38228739672622841 0 -0.29551252006441958 0.37309371542857861 0 -0.28819376848868639 0.38228739672622841 0 -0.28685204816290072 0.37621819500323123 0 -0.28179061653257348 0.3907675264945405 0 -0.28158428542699082 0.38279668863870758 0 -0.28819376848868639 0.38228739672622841 0 -0.28158428542699082 0.38279668863870758 0 -0.28819376848868639 0.38228739672622841 0 -0.28685204816290072 0.37621819500323123 0 -0.28158428542699082 0.38279668863870758 0 -0.28685204816290072 0.37621819500323123 0 -0.28084635904778937 0.37544065550995409 0 -0.27110701654299552 0.36596211494311248 0 -0.26614264323177789 0.39525334800991979 0 -0.27110701654299552 0.36596211494311248 0 -0.27663284499009211 0.37939207802828528 0 -0.27229768174870289 0.38438446135480281 0 -0.27110701654299552 0.36596211494311248 0 -0.27229768174870289 0.38438446135480281 0 -0.26614264323177789 0.39525334800991979 0 -0.27110701654299552 0.36596211494311248 0 -0.26689531734350652 0.36931705260985792 0 -0.26614264323177789 0.39525334800991979 0 -0.28158428542699082 0.38279668863870758 0 -0.28084635904778937 0.37544065550995409 0 -0.27663284499009211 0.37939207802828528 0 -0.27229768174870289 0.38438446135480281 0 -0.27641046434025379 0.38710393959788297 0 -0.26614264323177789 0.39525334800991979 0 -0.28179061653257348 0.3907675264945405 0 -0.28158428542699082 0.38279668863870758 0 -0.27641046434025379 0.38710393959788297 0 -0.27663284499009211 0.37939207802828528 0 -0.27229768174870289 0.38438446135480281 0 -0.27641046434025379 0.38710393959788297 0 -0.28158428542699082 0.38279668863870758 0 -0.27663284499009211 0.37939207802828528 0 -0.27641046434025379 0.38710393959788297 0 -0.28179061653257348 0.3907675264945405 0 -0.27641046434025379 0.38710393959788297 0 -0.26614264323177789 0.39525334800991979 0 -0.28179061653257348 0.3907675264945405 0 -0.27661435207820328 0.39472461325581981 0 -0.26614264323177789 0.39525334800991979 0 -0.28179061653257348 0.3907675264945405 0 -0.28392778011776681 0.39892722844600809 0 -0.27661435207820328 0.39472461325581981 0 -0.28179061653257348 0.3907675264945405 0 -0.26614264323177789 0.39525334800991979 0 -0.28392778011776681 0.39892722844600809 0 -0.27661435207820328 0.39472461325581981 0 -0.27572094251528112 0.40196054452149499 0 -0.28392778011776681 0.39892722844600809 0 -0.27572094251528112 0.40196054452149499 0 -0.27817781655911977 0.40726136879628272 0 -0.27572094251528112 0.40196054452149499 0 -0.26416382130603389 0.40692896758786917 0 -0.27817781655911977 0.40726136879628272 0 -0.27661435207820328 0.39472461325581981 0 -0.27572094251528112 0.40196054452149499 0 -0.26416382130603389 0.40692896758786917 0 -0.27661435207820328 0.39472461325581981 0 -0.26614264323177789 0.39525334800991979 0 -0.26416382130603389 0.40692896758786917 0 -0.27661435207820328 0.39472461325581981 0 -0.26416382130603389 0.40692896758786917 0 -0.26614264323177789 0.39525334800991979 0 -0.24781733580734391 0.38604582424895789 0 -0.24388213391773941 0.40163479241199579 0 -0.26614264323177789 0.39525334800991979 0 -0.25157066981256843 0.40894445920752592 0 -0.24388213391773941 0.40163479241199579 0 -0.26614264323177789 0.39525334800991979 0 -0.24388213391773941 0.40163479241199579 0 -0.26614264323177789 0.39525334800991979 0 -0.26416382130603389 0.40692896758786917 0 -0.26614264323177789 0.39525334800991979 0 -0.25157066981256843 0.40894445920752592 0 -0.26416382130603389 0.40692896758786917 0 -0.25453646971320443 0.37462232419521813 0 -0.26614264323177789 0.39525334800991979 0 -0.24781733580734391 0.38604582424895789 0 -0.25453646971320443 0.37462232419521813 0 -0.26689531734350652 0.36931705260985792 0 -0.26614264323177789 0.39525334800991979 0 -0.26107936510946472 0.42512814796255138 0 -0.25799490891289278 0.4433273283372331 0 -0.26107936510946472 0.42512814796255138 0 -0.27138668263498972 0.43431468825499642 0 -0.25799490891289278 0.4433273283372331 0 -0.26107936510946472 0.42512814796255138 0 -0.25799490891289278 0.4433273283372331 0 -0.24263019791012411 0.42803682032005991 0 -0.25799490891289278 0.4433273283372331 0 -0.24263019791012411 0.42803682032005991 0 -0.26107936510946472 0.42512814796255138 0 -0.26416382130603389 0.40692896758786917 0 -0.26107936510946472 0.42512814796255138 0 -0.26416382130603389 0.40692896758786917 0 -0.24263019791012411 0.42803682032005991 0 -0.26416382130603389 0.40692896758786917 0 -0.24263019791012411 0.42803682032005991 0 -0.25157066981256843 0.40894445920752592 0 -0.26416382130603389 0.40692896758786917 0 -0.24263019791012411 0.42803682032005991 0 -0.26107936510946472 0.42512814796255138 0 -0.26416382130603389 0.40692896758786917 0 -0.27370875903762831 0.41905129137381081 0 -0.26416382130603389 0.40692896758786917 0 -0.27817781655911977 0.40726136879628272 0 -0.27370875903762831 0.41905129137381081 0 -0.27817781655911977 0.40726136879628272 0 -0.27370875903762831 0.41905129137381081 0 -0.28647403122915938 0.41490769911839809 0 -0.27370875903762831 0.41905129137381081 0 -0.27138668263498972 0.43431468825499642 0 -0.28359142860916292 0.42646623900898489 0 -0.26107936510946472 0.42512814796255138 0 -0.27370875903762831 0.41905129137381081 0 -0.27138668263498972 0.43431468825499642 0 -0.27138668263498972 0.43431468825499642 0 -0.28359142860916292 0.42646623900898489 0 -0.28426041238301858 0.43930471826406531 0 -0.28359142860916292 0.42646623900898489 0 -0.29576073289665422 0.43347565529899762 0 -0.28426041238301858 0.43930471826406531 0 -0.28359142860916292 0.42646623900898489 0 -0.29576073289665422 0.43347565529899762 0 -0.29610666663401819 0.4205870682229661 0 -0.28905057763704689 0.40562835892549581 0 -0.27817781655911977 0.40726136879628272 0 -0.28647403122915938 0.41490769911839809 0 -0.27370875903762831 0.41905129137381081 0 -0.28359142860916292 0.42646623900898489 0 -0.28647403122915938 0.41490769911839809 0 -0.28359142860916292 0.42646623900898489 0 -0.28647403122915938 0.41490769911839809 0 -0.29610666663401819 0.4205870682229661 0 -0.28647403122915938 0.41490769911839809 0 -0.29610666663401819 0.4205870682229661 0 -0.2987408814332651 0.40933989620534528 0 -0.28905057763704689 0.40562835892549581 0 -0.28647403122915938 0.41490769911839809 0 -0.2987408814332651 0.40933989620534528 0 -0.31655825632854873 0.41307790430667191 0 -0.29610666663401819 0.4205870682229661 0 -0.2987408814332651 0.40933989620534528 0 -0.31655825632854873 0.41307790430667191 0 -0.29610666663401819 0.4205870682229661 0 -0.31005470391928353 0.42551636974368717 0 -0.31655825632854873 0.41307790430667191 0 -0.29610666663401819 0.4205870682229661 0 -0.31655825632854873 0.41307790430667191 0 -0.30820761894760612 0.40180007281058999 0 -0.2987408814332651 0.40933989620534528 0 -0.29576073289665422 0.43347565529899762 0 -0.31005470391928353 0.42551636974368717 0 -0.30636015846579262 0.44081646755455739 0 -0.29576073289665422 0.43347565529899762 0 -0.29610666663401819 0.4205870682229661 0 -0.31005470391928353 0.42551636974368717 0 -0.29576073289665422 0.43347565529899762 0 -0.30636015846579262 0.44081646755455739 0 -0.2944743431310044 0.45228094752776682 0 -0.30636015846579262 0.44081646755455739 0 -0.30512100021830008 0.46490456032657962 0 -0.30636015846579262 0.44081646755455739 0 -0.30512100021830008 0.46490456032657962 0 -0.2944743431310044 0.45228094752776682 0 -0.30636015846579262 0.44081646755455739 0 -0.30512100021830008 0.46490456032657962 0 -0.32381548421637429 0.45642326981327008 0 -0.30512100021830008 0.46490456032657962 0 -0.2944743431310044 0.45228094752776682 0 -0.28858619761816889 0.47377087817814589 0 -0.2944743431310044 0.45228094752776682 0 -0.27329055326553048 0.45854910325768988 0 -0.28858619761816889 0.47377087817814589 0 -0.2944743431310044 0.45228094752776682 0 -0.28426041238301858 0.43930471826406531 0 -0.27329055326553048 0.45854910325768988 0 -0.29576073289665422 0.43347565529899762 0 -0.2944743431310044 0.45228094752776682 0 -0.28426041238301858 0.43930471826406531 0 -0.27138668263498972 0.43431468825499642 0 -0.28426041238301858 0.43930471826406531 0 -0.27329055326553048 0.45854910325768988 0 -0.27138668263498972 0.43431468825499642 0 -0.27329055326553048 0.45854910325768988 0 -0.25799490891289278 0.4433273283372331 0 -0.27329055326553048 0.45854910325768988 0 -0.25799490891289278 0.4433273283372331 0 -0.27329055326553048 0.45854910325768988 0 -0.28858619761816889 0.47377087817814589 0 -0.27329055326553048 0.45854910325768988 0 -0.25438198006151169 0.46464464965965441 0 -0.25799490891289278 0.4433273283372331 0 -0.27329055326553048 0.45854910325768988 0 -0.25438198006151169 0.46464464965965441 0 -0.26859377699614329 0.4811575177290362 0 -0.25438198006151169 0.46464464965965441 0 -0.25799490891289278 0.4433273283372331 0 -0.25438198006151169 0.46464464965965441 0 -0.25799490891289278 0.4433273283372331 0 -0.24356894722331929 0.44821508210096461 0 -0.25080144613104921 0.5 0 -0.26859377699614329 0.4811575177290362 0 -0.2467553297522557 0.48147402383551691 0 -0.25080144613104921 0.5 0 -0.26859377699614329 0.4811575177290362 0 -0.27705851983630159 0.5 0 -0.25438198006151169 0.46464464965965441 0 -0.26859377699614329 0.4811575177290362 0 -0.2467553297522557 0.48147402383551691 0 -0.27329055326553048 0.45854910325768988 0 -0.26859377699614329 0.4811575177290362 0 -0.28858619761816889 0.47377087817814589 0 -0.26859377699614329 0.4811575177290362 0 -0.27705851983630159 0.5 0 -0.28830299895955541 0.48893487857068268 0 -0.27705851983630159 0.5 0 -0.28830299895955541 0.48893487857068268 0 -0.30331559354155391 0.49999999999999939 0 -0.26859377699614329 0.4811575177290362 0 -0.28830299895955541 0.48893487857068268 0 -0.28858619761816889 0.47377087817814589 0 -0.28830299895955541 0.48893487857068268 0 -0.28858619761816889 0.47377087817814589 0 -0.30388184197080759 0.48899265309860168 0 -0.28858619761816889 0.47377087817814589 0 -0.30388184197080759 0.48899265309860168 0 -0.30512100021830008 0.46490456032657962 0 -0.30388184197080759 0.48899265309860168 0 -0.30512100021830008 0.46490456032657962 0 -0.30388184197080759 0.48899265309860168 0 -0.31654611508668351 0.48621885406126381 0 -0.30512100021830008 0.46490456032657962 0 -0.28858619761816889 0.47377087817814589 0 -0.30388184197080759 0.48899265309860168 0 -0.30331559354155391 0.49999999999999939 0 -0.30388184197080759 0.48899265309860168 0 -0.28830299895955541 0.48893487857068268 0 -0.30331559354155391 0.49999999999999939 0 -0.30388184197080759 0.48899265309860168 0 -0.30388184197080759 0.48899265309860168 0 -0.31494260619507058 0.500000000000002 0 -0.31654611508668351 0.48621885406126381 0 -0.30331559354155391 0.49999999999999939 0 -0.30388184197080759 0.48899265309860168 0 -0.31494260619507058 0.500000000000002 0 -0.30388184197080759 0.48899265309860168 0 -0.31494260619507058 0.500000000000002 0 -0.31654611508668351 0.48621885406126381 0 -0.33275791060477139 0.5 0 -0.32602721644446891 0.47719705688113462 0 -0.31494260619507058 0.500000000000002 0 -0.31654611508668351 0.48621885406126381 0 -0.33275791060477139 0.5 0 -0.33275791060477139 0.5 0 -0.34200011506365208 0.48331572161184322 0 -0.32602721644446891 0.47719705688113462 0 -0.33275791060477139 0.5 0 -0.34200011506365208 0.48331572161184322 0 -0.35057321501447208 0.49999999999999872 0 -0.34200011506365208 0.48331572161184322 0 -0.32602721644446891 0.47719705688113462 0 -0.33593075250063148 0.46750731867274542 0 -0.34200011506365208 0.48331572161184322 0 -0.33593075250063148 0.46750731867274542 0 -0.35201810675435108 0.4676562019538536 0 -0.30512100021830008 0.46490456032657962 0 -0.31654611508668351 0.48621885406126381 0 -0.32602721644446891 0.47719705688113462 0 -0.30512100021830008 0.46490456032657962 0 -0.32602721644446891 0.47719705688113462 0 -0.32381548421637429 0.45642326981327008 0 -0.30636015846579262 0.44081646755455739 0 -0.32381548421637429 0.45642326981327008 0 -0.32304151796324199 0.43794530689545591 0 -0.32381548421637429 0.45642326981327008 0 -0.32304151796324199 0.43794530689545591 0 -0.34355933144160938 0.44471966407244162 0 -0.32381548421637429 0.45642326981327008 0 -0.34355933144160938 0.44471966407244162 0 -0.33593075250063148 0.46750731867274542 0 -0.32602721644446891 0.47719705688113462 0 -0.32381548421637429 0.45642326981327008 0 -0.33593075250063148 0.46750731867274542 0 -0.35201810675435108 0.4676562019538536 0 -0.36028404822733179 0.44939908513577981 0 -0.36566353784044697 0.46257036423753561 0 -0.34355933144160938 0.44471966407244162 0 -0.35201810675435108 0.4676562019538536 0 -0.36028404822733179 0.44939908513577981 0 -0.34355933144160938 0.44471966407244162 0 -0.33593075250063148 0.46750731867274542 0 -0.35201810675435108 0.4676562019538536 0 -0.36778315087773072 0.43214877602771662 0 -0.34355933144160938 0.44471966407244162 0 -0.36028404822733179 0.44939908513577981 0 -0.36778315087773072 0.43214877602771662 0 -0.36028404822733179 0.44939908513577981 0 -0.37376195539900242 0.45249759326054367 0 -0.37701653082709469 0.46900635458093531 0 -0.37376195539900242 0.45249759326054367 0 -0.36566353784044697 0.46257036423753561 0 -0.36028404822733179 0.44939908513577981 0 -0.37376195539900242 0.45249759326054367 0 -0.36566353784044697 0.46257036423753561 0 -0.36552159823955549 0.47691699748014749 0 -0.37220834978290879 0.49000150617251997 0 -0.35595833756876799 0.48470827593500232 0 -0.37701653082709469 0.46900635458093531 0 -0.36566353784044697 0.46257036423753561 0 -0.36552159823955549 0.47691699748014749 0 -0.37805640255927542 0.47903421333972468 0 -0.37701653082709469 0.46900635458093531 0 -0.36552159823955549 0.47691699748014749 0 -0.35201810675435108 0.4676562019538536 0 -0.36566353784044697 0.46257036423753561 0 -0.36552159823955549 0.47691699748014749 0 -0.37805640255927542 0.47903421333972468 0 -0.36552159823955549 0.47691699748014749 0 -0.37220834978290879 0.49000150617251997 0 -0.37220834978290879 0.49000150617251997 0 -0.35057321501447208 0.49999999999999872 0 -0.35595833756876799 0.48470827593500232 0 -0.37789332191386737 0.5 0 -0.37220834978290879 0.49000150617251997 0 -0.35057321501447208 0.49999999999999872 0 -0.37220834978290879 0.49000150617251997 0 -0.35057321501447208 0.49999999999999872 0 -0.34200011506365208 0.48331572161184322 0 -0.35057321501447208 0.49999999999999872 0 -0.35595833756876799 0.48470827593500232 0 -0.34200011506365208 0.48331572161184322 0 -0.35201810675435108 0.4676562019538536 0 -0.35595833756876799 0.48470827593500232 0 -0.35201810675435108 0.4676562019538536 0 -0.36552159823955549 0.47691699748014749 0 -0.35595833756876799 0.48470827593500232 0 -0.142080771754234 0.48212662116497451 0 -0.14744519938683801 0.47523243684594829 0 -0.1380962150490555 0.47248515407185221 0 -0.142080771754234 0.48212662116497451 0 -0.14744519938683801 0.47523243684594829 0 -0.15313912830386001 0.48632871978955722 0 -0.14744519938683801 0.47523243684594829 0 -0.1380962150490555 0.47248515407185221 0 -0.1446941887002707 0.46454185114692792 0 -0.14744519938683801 0.47523243684594829 0 -0.1446941887002707 0.46454185114692792 0 -0.15815775643206659 0.473198332503178 0 -0.14744519938683801 0.47523243684594829 0 -0.15313912830386001 0.48632871978955722 0 -0.15815775643206659 0.473198332503178 0 -0.142080771754234 0.48212662116497451 0 -0.15313912830386001 0.48632871978955722 0 -0.13803845513632401 0.5 0 -0.15313912830386001 0.48632871978955722 0 -0.13803845513632401 0.5 0 -0.1663114266205577 0.50000000000000011 0 -0.142080771754234 0.48212662116497451 0 -0.13803845513632401 0.5 0 -0.12908554574303099 0.47755934496718438 0 -0.13803845513632401 0.5 0 -0.12908554574303099 0.47755934496718438 0 -0.1160402402672886 0.48503019582547341 0 -0.142080771754234 0.48212662116497451 0 -0.12908554574303099 0.47755934496718438 0 -0.1380962150490555 0.47248515407185221 0 -0.12908554574303099 0.47755934496718438 0 -0.1380962150490555 0.47248515407185221 0 -0.13097929143795109 0.46459511115351071 0 -0.12908554574303099 0.47755934496718438 0 -0.13097929143795109 0.46459511115351071 0 -0.1176294132596279 0.46872710166108278 0 -0.13097929143795109 0.46459511115351071 0 -0.1351896940807357 0.45304119368279389 0 -0.1204057133641486 0.45504160574272429 0 -0.13097929143795109 0.46459511115351071 0 -0.1351896940807357 0.45304119368279389 0 -0.1446941887002707 0.46454185114692792 0 -0.1380962150490555 0.47248515407185221 0 -0.13097929143795109 0.46459511115351071 0 -0.1446941887002707 0.46454185114692792 0 -0.1351896940807357 0.45304119368279389 0 -0.13889501351409689 0.43598263237980822 0 -0.1242648033483075 0.43981492828754482 0 -0.1351896940807357 0.45304119368279389 0 -0.1242648033483075 0.43981492828754482 0 -0.1204057133641486 0.45504160574272429 0 -0.15017718620881049 0.45777983735391498 0 -0.13889501351409689 0.43598263237980822 0 -0.1351896940807357 0.45304119368279389 0 -0.15017718620881049 0.45777983735391498 0 -0.13889501351409689 0.43598263237980822 0 -0.15995177900170021 0.44572512983606088 0 -0.15376963845050121 0.4328235067909087 0 -0.13889501351409689 0.43598263237980822 0 -0.15017718620881049 0.45777983735391498 0 -0.15995177900170021 0.44572512983606088 0 -0.13889501351409689 0.43598263237980822 0 -0.15017718620881049 0.45777983735391498 0 -0.15995177900170021 0.44572512983606088 0 -0.1446941887002707 0.46454185114692792 0 -0.15017718620881049 0.45777983735391498 0 -0.1351896940807357 0.45304119368279389 0 -0.1446941887002707 0.46454185114692792 0 -0.15017718620881049 0.45777983735391498 0 -0.1446941887002707 0.46454185114692792 0 -0.15017718620881049 0.45777983735391498 0 -0.15815775643206659 0.473198332503178 0 -0.15017718620881049 0.45777983735391498 0 -0.15868634814382429 0.46531473325554851 0 -0.15815775643206659 0.473198332503178 0 -0.15017718620881049 0.45777983735391498 0 -0.15815775643206659 0.473198332503178 0 -0.160558198289461 0.46047642425523388 0 -0.1655661766345953 0.45099185016729298 0 -0.16585225164495951 0.46980433890986678 0 -0.1655661766345953 0.45099185016729298 0 -0.17867327812258871 0.46114583139567922 0 -0.16585225164495951 0.46980433890986678 0 -0.1655661766345953 0.45099185016729298 0 -0.16585225164495951 0.46980433890986678 0 -0.15868634814382429 0.46531473325554851 0 -0.160558198289461 0.46047642425523388 0 -0.16585225164495951 0.46980433890986678 0 -0.15017718620881049 0.45777983735391498 0 -0.15868634814382429 0.46531473325554851 0 -0.160558198289461 0.46047642425523388 0 -0.15017718620881049 0.45777983735391498 0 -0.160558198289461 0.46047642425523388 0 -0.15995177900170021 0.44572512983606088 0 -0.15995177900170021 0.44572512983606088 0 -0.1655661766345953 0.45099185016729298 0 -0.1697263717945888 0.43367042231820602 0 -0.160558198289461 0.46047642425523388 0 -0.15995177900170021 0.44572512983606088 0 -0.1655661766345953 0.45099185016729298 0 -0.15995177900170021 0.44572512983606088 0 -0.1697263717945888 0.43367042231820602 0 -0.1655661766345953 0.45099185016729298 0 -0.1926513277646352 0.45119866261047992 0 -0.1697263717945888 0.43367042231820602 0 -0.1926513277646352 0.45119866261047992 0 -0.1697263717945888 0.43367042231820602 0 -0.1926513277646352 0.45119866261047992 0 -0.18693863061853061 0.43491447939059907 0 -0.1697263717945888 0.43367042231820602 0 -0.1655661766345953 0.45099185016729298 0 -0.17867327812258871 0.46114583139567922 0 -0.1926513277646352 0.45119866261047992 0 -0.17867327812258871 0.46114583139567922 0 -0.17876854714149509 0.47093865696285842 0 -0.16585225164495951 0.46980433890986678 0 -0.17867327812258871 0.46114583139567922 0 -0.1899884502156329 0.46461586120334353 0 -0.1926513277646352 0.45119866261047992 0 -0.17867327812258871 0.46114583139567922 0 -0.17876854714149509 0.47093865696285842 0 -0.1899884502156329 0.46461586120334353 0 -0.17876854714149509 0.47093865696285842 0 -0.19138341924764241 0.47827032896460842 0 -0.1899884502156329 0.46461586120334353 0 -0.1757986315986971 0.48088398659212228 0 -0.17876854714149509 0.47093865696285842 0 -0.19138341924764241 0.47827032896460842 0 -0.1757986315986971 0.48088398659212228 0 -0.17876854714149509 0.47093865696285842 0 -0.16585225164495951 0.46980433890986678 0 -0.16585225164495951 0.46980433890986678 0 -0.16613832665532341 0.48861682765244069 0 -0.16585225164495951 0.46980433890986678 0 -0.15815775643206659 0.473198332503178 0 -0.16613832665532341 0.48861682765244069 0 -0.1757986315986971 0.48088398659212228 0 -0.16585225164495951 0.46980433890986678 0 -0.16613832665532341 0.48861682765244069 0 -0.15313912830386001 0.48632871978955722 0 -0.15815775643206659 0.473198332503178 0 -0.16613832665532341 0.48861682765244069 0 -0.15815775643206659 0.473198332503178 0 -0.16613832665532341 0.48861682765244069 0 -0.15868634814382429 0.46531473325554851 0 -0.16585225164495951 0.46980433890986678 0 -0.15815775643206659 0.473198332503178 0 -0.15313912830386001 0.48632871978955722 0 -0.16613832665532341 0.48861682765244069 0 -0.1663114266205577 0.50000000000000011 0 -0.16613832665532341 0.48861682765244069 0 -0.1720302250152923 0.50000000000000022 0 -0.16613832665532341 0.48861682765244069 0 -0.1663114266205577 0.50000000000000011 0 -0.1720302250152923 0.50000000000000022 0 -0.16613832665532341 0.48861682765244069 0 -0.1663114266205577 0.50000000000000011 0 -0.16613832665532341 0.48861682765244069 0 -0.17430115969348189 0.49501483184612438 0 -0.1720302250152923 0.50000000000000022 0 -0.17430115969348189 0.49501483184612438 0 -0.1720302250152923 0.50000000000000022 0 -0.1982872987205446 0.5 0 -0.1757986315986971 0.48088398659212228 0 -0.17430115969348189 0.49501483184612438 0 -0.19138341924764241 0.47827032896460842 0 -0.17430115969348189 0.49501483184612438 0 -0.19138341924764241 0.47827032896460842 0 -0.1757986315986971 0.48088398659212228 0 -0.16613832665532341 0.48861682765244069 0 -0.17430115969348189 0.49501483184612438 0 -0.17430115969348189 0.49501483184612438 0 -0.1982872987205446 0.5 0 -0.19138341924764241 0.47827032896460842 0 -0.1982872987205446 0.5 0 -0.19138341924764241 0.47827032896460842 0 -0.21217809917650449 0.48030286392854288 0 -0.19138341924764241 0.47827032896460842 0 -0.208465678801803 0.46152582608309223 0 -0.19138341924764241 0.47827032896460842 0 -0.21217809917650449 0.48030286392854288 0 -0.208465678801803 0.46152582608309223 0 -0.1982872987205446 0.5 0 -0.21217809917650449 0.48030286392854288 0 -0.22454437242579681 0.5 0 -0.22454437242579681 0.5 0 -0.2288960980978284 0.47674808914996208 0 -0.2467553297522557 0.48147402383551691 0 -0.21217809917650449 0.48030286392854288 0 -0.22454437242579681 0.5 0 -0.2288960980978284 0.47674808914996208 0 -0.21217809917650449 0.48030286392854288 0 -0.2288960980978284 0.47674808914996208 0 -0.22325063631842021 0.46203708915627778 0 -0.25438198006151169 0.46464464965965441 0 -0.2467553297522557 0.48147402383551691 0 -0.2372897108761052 0.46028528898629889 0 -0.2288960980978284 0.47674808914996208 0 -0.2467553297522557 0.48147402383551691 0 -0.2372897108761052 0.46028528898629889 0 -0.25080144613104921 0.5 0 -0.22454437242579681 0.5 0 -0.2467553297522557 0.48147402383551691 0 -0.24356894722331929 0.44821508210096461 0 -0.22554793835596351 0.44478132320157598 0 -0.24263019791012411 0.42803682032005991 0 -0.24356894722331929 0.44821508210096461 0 -0.2372897108761052 0.46028528898629889 0 -0.22554793835596351 0.44478132320157598 0 -0.25799490891289278 0.4433273283372331 0 -0.24356894722331929 0.44821508210096461 0 -0.24263019791012411 0.42803682032005991 0 -0.25438198006151169 0.46464464965965441 0 -0.24356894722331929 0.44821508210096461 0 -0.2372897108761052 0.46028528898629889 0 -0.2288960980978284 0.47674808914996208 0 -0.2372897108761052 0.46028528898629889 0 -0.22325063631842021 0.46203708915627778 0 -0.2372897108761052 0.46028528898629889 0 -0.22325063631842021 0.46203708915627778 0 -0.22554793835596351 0.44478132320157598 0 -0.22325063631842021 0.46203708915627778 0 -0.22554793835596351 0.44478132320157598 0 -0.208465678801803 0.46152582608309223 0 -0.22554793835596351 0.44478132320157598 0 -0.20785557032720109 0.44518798724498809 0 -0.21437917226951189 0.43588067273166847 0 -0.22554793835596351 0.44478132320157598 0 -0.20785557032720109 0.44518798724498809 0 -0.208465678801803 0.46152582608309223 0 -0.22554793835596351 0.44478132320157598 0 -0.208465678801803 0.46152582608309223 0 -0.21217809917650449 0.48030286392854288 0 -0.22325063631842021 0.46203708915627778 0 -0.208465678801803 0.46152582608309223 0 -0.19138341924764241 0.47827032896460842 0 -0.208465678801803 0.46152582608309223 0 -0.1899884502156329 0.46461586120334353 0 -0.208465678801803 0.46152582608309223 0 -0.1899884502156329 0.46461586120334353 0 -0.1926513277646352 0.45119866261047992 0 -0.20785557032720109 0.44518798724498809 0 -0.1926513277646352 0.45119866261047992 0 -0.18693863061853061 0.43491447939059907 0 -0.20785557032720109 0.44518798724498809 0 -0.208465678801803 0.46152582608309223 0 -0.1926513277646352 0.45119866261047992 0 -0.19176926968858449 0.42488004754311998 0 -0.20430089696141959 0.42856004989685992 0 -0.18693863061853061 0.43491447939059907 0 -0.20785557032720109 0.44518798724498809 0 -0.20430089696141959 0.42856004989685992 0 -0.18693863061853061 0.43491447939059907 0 -0.19176926968858449 0.42488004754311998 0 -0.19667758679306771 0.41738623802377928 0 -0.20430089696141959 0.42856004989685992 0 -0.19667758679306771 0.41738623802377928 0 -0.19460267291041519 0.40299123798476227 0 -0.182164522352502 0.41833083015148409 0 -0.19460267291041519 0.40299123798476227 0 -0.182164522352502 0.41833083015148409 0 -0.19176926968858449 0.42488004754311998 0 -0.19667758679306771 0.41738623802377928 0 -0.182164522352502 0.41833083015148409 0 -0.19667758679306771 0.41738623802377928 0 -0.2074030129404133 0.4163894186605448 0 -0.20430089696141959 0.42856004989685992 0 -0.19667758679306771 0.41738623802377928 0 -0.2074030129404133 0.4163894186605448 0 -0.19460267291041519 0.40299123798476227 0 -0.2074030129404133 0.4163894186605448 0 -0.21981228343346321 0.42499333058324978 0 -0.22162162460370111 0.40801623681407218 0 -0.2074030129404133 0.4163894186605448 0 -0.22162162460370111 0.40801623681407218 0 -0.19460267291041519 0.40299123798476227 0 -0.20785557032720109 0.44518798724498809 0 -0.20430089696141959 0.42856004989685992 0 -0.21437917226951189 0.43588067273166847 0 -0.2074030129404133 0.4163894186605448 0 -0.20430089696141959 0.42856004989685992 0 -0.21981228343346321 0.42499333058324978 0 -0.20430089696141959 0.42856004989685992 0 -0.21437917226951189 0.43588067273166847 0 -0.21981228343346321 0.42499333058324978 0 -0.22554793835596351 0.44478132320157598 0 -0.24263019791012411 0.42803682032005991 0 -0.22554793835596351 0.44478132320157598 0 -0.2313941741476824 0.42795323546389102 0 -0.24263019791012411 0.42803682032005991 0 -0.22554793835596351 0.44478132320157598 0 -0.21437917226951189 0.43588067273166847 0 -0.21981228343346321 0.42499333058324978 0 -0.22554793835596351 0.44478132320157598 0 -0.2313941741476824 0.42795323546389102 0 -0.21981228343346321 0.42499333058324978 0 -0.2313941741476824 0.42795323546389102 0 -0.21981228343346321 0.42499333058324978 0 -0.2301621318308705 0.41771135234831969 0 -0.2313941741476824 0.42795323546389102 0 -0.2301621318308705 0.41771135234831969 0 -0.23881831920799079 0.42424335086624981 0 -0.21981228343346321 0.42499333058324978 0 -0.22162162460370111 0.40801623681407218 0 -0.2301621318308705 0.41771135234831969 0 -0.22162162460370111 0.40801623681407218 0 -0.2301621318308705 0.41771135234831969 0 -0.241034552697166 0.41286836770778501 0 -0.25157066981256843 0.40894445920752592 0 -0.241034552697166 0.41286836770778501 0 -0.24263019791012411 0.42803682032005991 0 -0.241034552697166 0.41286836770778501 0 -0.24263019791012411 0.42803682032005991 0 -0.23881831920799079 0.42424335086624981 0 -0.22162162460370111 0.40801623681407218 0 -0.241034552697166 0.41286836770778501 0 -0.24388213391773941 0.40163479241199579 0 -0.2301621318308705 0.41771135234831969 0 -0.241034552697166 0.41286836770778501 0 -0.23881831920799079 0.42424335086624981 0 -0.25157066981256843 0.40894445920752592 0 -0.241034552697166 0.41286836770778501 0 -0.24388213391773941 0.40163479241199579 0 -0.2313941741476824 0.42795323546389102 0 -0.24263019791012411 0.42803682032005991 0 -0.23881831920799079 0.42424335086624981 0 -0.24263019791012411 0.42803682032005991 0 -0.23881831920799079 0.42424335086624981 0 -0.25453646971320443 0.37462232419521813 0 -0.24781733580734391 0.38604582424895789 0 -0.23735930512057779 0.37349779701461089 0 -0.2365264908337599 0.38834162546439549 0 -0.24781733580734391 0.38604582424895789 0 -0.23735930512057779 0.37349779701461089 0 -0.2365264908337599 0.38834162546439549 0 -0.24781733580734391 0.38604582424895789 0 -0.24388213391773941 0.40163479241199579 0 -0.22162162460370111 0.40801623681407218 0 -0.24388213391773941 0.40163479241199579 0 -0.22162162460370111 0.40801623681407218 0 -0.2365264908337599 0.38834162546439549 0 -0.2225569648072106 0.38059728391652659 0 -0.22162162460370111 0.40801623681407218 0 -0.2365264908337599 0.38834162546439549 0 -0.24388213391773941 0.40163479241199579 0 -0.2365264908337599 0.38834162546439549 0 -0.2225569648072106 0.38059728391652659 0 -0.23735930512057779 0.37349779701461089 0 -0.2225569648072106 0.38059728391652659 0 -0.20545957084956781 0.38789926664213359 0 -0.1994770785436861 0.36691897370504389 0 -0.22162162460370111 0.40801623681407218 0 -0.2225569648072106 0.38059728391652659 0 -0.20545957084956781 0.38789926664213359 0 -0.22162162460370111 0.40801623681407218 0 -0.20545957084956781 0.38789926664213359 0 -0.19460267291041519 0.40299123798476227 0 -0.20545957084956781 0.38789926664213359 0 -0.19460267291041519 0.40299123798476227 0 -0.18736095772118591 0.3836472042370111 0 -0.20545957084956781 0.38789926664213359 0 -0.18736095772118591 0.3836472042370111 0 -0.1994770785436861 0.36691897370504389 0 -0.18736095772118591 0.3836472042370111 0 -0.16248792359233191 0.38534127627451031 0 -0.17644948136236779 0.3976803029940168 0 -0.18736095772118591 0.3836472042370111 0 -0.16248792359233191 0.38534127627451031 0 -0.1741500565645078 0.37123080613525078 0 -0.16248792359233191 0.38534127627451031 0 -0.16330635783110381 0.4038062271485704 0 -0.14438589058212131 0.3948348353259919 0 -0.16248792359233191 0.38534127627451031 0 -0.16330635783110381 0.4038062271485704 0 -0.17644948136236779 0.3976803029940168 0 -0.19460267291041519 0.40299123798476227 0 -0.17644948136236779 0.3976803029940168 0 -0.17778078602166139 0.40821888849324761 0 -0.19460267291041519 0.40299123798476227 0 -0.18736095772118591 0.3836472042370111 0 -0.17644948136236779 0.3976803029940168 0 -0.16330635783110381 0.4038062271485704 0 -0.17644948136236779 0.3976803029940168 0 -0.17778078602166139 0.40821888849324761 0 -0.19460267291041519 0.40299123798476227 0 -0.182164522352502 0.41833083015148409 0 -0.17778078602166139 0.40821888849324761 0 -0.182164522352502 0.41833083015148409 0 -0.1723808956519178 0.41828584418740389 0 -0.17778078602166139 0.40821888849324761 0 -0.19176926968858449 0.42488004754311998 0 -0.182164522352502 0.41833083015148409 0 -0.18693863061853061 0.43491447939059907 0 -0.182164522352502 0.41833083015148409 0 -0.18693863061853061 0.43491447939059907 0 -0.1697263717945888 0.43367042231820602 0 -0.182164522352502 0.41833083015148409 0 -0.1697263717945888 0.43367042231820602 0 -0.182164522352502 0.41833083015148409 0 -0.1723808956519178 0.41828584418740389 0 -0.1697263717945888 0.43367042231820602 0 -0.15995177900170021 0.44572512983606088 0 -0.1697263717945888 0.43367042231820602 0 -0.15376963845050121 0.4328235067909087 0 -0.1697263717945888 0.43367042231820602 0 -0.14650538949161929 0.41591584262955861 0 -0.15376963845050121 0.4328235067909087 0 -0.1697263717945888 0.43367042231820602 0 -0.14650538949161929 0.41591584262955861 0 -0.1723808956519178 0.41828584418740389 0 -0.1697263717945888 0.43367042231820602 0 -0.14650538949161929 0.41591584262955861 0 -0.1723808956519178 0.41828584418740389 0 -0.14650538949161929 0.41591584262955861 0 -0.16330635783110381 0.4038062271485704 0 -0.1723808956519178 0.41828584418740389 0 -0.14650538949161929 0.41591584262955861 0 -0.16330635783110381 0.4038062271485704 0 -0.1723808956519178 0.41828584418740389 0 -0.17778078602166139 0.40821888849324761 0 -0.14650538949161929 0.41591584262955861 0 -0.15376963845050121 0.4328235067909087 0 -0.13889501351409689 0.43598263237980822 0 -0.13889501351409689 0.43598263237980822 0 -0.12761284081938409 0.41418542740570108 0 -0.14650538949161929 0.41591584262955861 0 -0.13889501351409689 0.43598263237980822 0 -0.12761284081938409 0.41418542740570108 0 -0.13889501351409689 0.43598263237980822 0 -0.12761284081938409 0.41418542740570108 0 -0.1242648033483075 0.43981492828754482 0 -0.14650538949161929 0.41591584262955861 0 -0.12761284081938409 0.41418542740570108 0 -0.12644786621320531 0.40058001872868543 0 -0.14650538949161929 0.41591584262955861 0 -0.12644786621320531 0.40058001872868543 0 -0.14650538949161929 0.41591584262955861 0 -0.12761284081938409 0.41418542740570108 0 -0.14650538949161929 0.41591584262955861 0 -0.12644786621320531 0.40058001872868543 0 -0.14438589058212131 0.3948348353259919 0 -0.12644786621320531 0.40058001872868543 0 -0.12826940643264259 0.38638828685515292 0 -0.14438589058212131 0.3948348353259919 0 -0.1399268433138337 0.37661104245066729 0 -0.12826940643264259 0.38638828685515292 0 -0.1198206075896991 0.37069234566290138 0 -0.1399268433138337 0.37661104245066729 0 -0.12826940643264259 0.38638828685515292 0 -0.14438589058212131 0.3948348353259919 0 -0.16248792359233191 0.38534127627451031 0 -0.1399268433138337 0.37661104245066729 0 -0.1571746455416145 0.36408416689185819 0 -0.16248792359233191 0.38534127627451031 0 -0.1399268433138337 0.37661104245066729 0 -0.14438589058212131 0.3948348353259919 0 -0.16330635783110381 0.4038062271485704 0 -0.14650538949161929 0.41591584262955861 0 -0.14438589058212131 0.3948348353259919 0 -0.1367685514822152 0.35851885971508118 0 -0.13367478836053351 0.33932016938713638 0 -0.15331730601663701 0.3395623532820784 0 -0.1367685514822152 0.35851885971508118 0 -0.15331730601663701 0.3395623532820784 0 -0.1571746455416145 0.36408416689185819 0 -0.1399268433138337 0.37661104245066729 0 -0.1367685514822152 0.35851885971508118 0 -0.1571746455416145 0.36408416689185819 0 -0.1399268433138337 0.37661104245066729 0 -0.1367685514822152 0.35851885971508118 0 -0.1198206075896991 0.37069234566290138 0 -0.1367685514822152 0.35851885971508118 0 -0.13367478836053351 0.33932016938713638 0 -0.1173066256070304 0.35104950557859033 0 -0.13367478836053351 0.33932016938713638 0 -0.1262409447270301 0.3211703831111522 0 -0.1175879007316586 0.33497855513245622 0 -0.13367478836053351 0.33932016938713638 0 -0.1262409447270301 0.3211703831111522 0 -0.14995133854557879 0.31573290008088639 0 -0.1262409447270301 0.3211703831111522 0 -0.14995133854557879 0.31573290008088639 0 -0.13170636281121431 0.30540396541675668 0 -0.13367478836053351 0.33932016938713638 0 -0.14995133854557879 0.31573290008088639 0 -0.15331730601663701 0.3395623532820784 0 -0.15331730601663701 0.3395623532820784 0 -0.17079439025487569 0.32494122108339912 0 -0.1763971922801616 0.3532406634935612 0 -0.14995133854557879 0.31573290008088639 0 -0.17079439025487569 0.32494122108339912 0 -0.167164841548782 0.29891422322321631 0 -0.14995133854557879 0.31573290008088639 0 -0.15331730601663701 0.3395623532820784 0 -0.17079439025487569 0.32494122108339912 0 -0.17079439025487569 0.32494122108339912 0 -0.19256976679114979 0.33165381796875049 0 -0.19699128312530151 0.30504565645142051 0 -0.17079439025487569 0.32494122108339912 0 -0.1763971922801616 0.3532406634935612 0 -0.19256976679114979 0.33165381796875049 0 -0.15331730601663701 0.3395623532820784 0 -0.1763971922801616 0.3532406634935612 0 -0.1571746455416145 0.36408416689185819 0 -0.15331730601663701 0.3395623532820784 0 -0.1763971922801616 0.3532406634935612 0 -0.1763971922801616 0.3532406634935612 0 -0.1571746455416145 0.36408416689185819 0 -0.1741500565645078 0.37123080613525078 0 -0.16248792359233191 0.38534127627451031 0 -0.1571746455416145 0.36408416689185819 0 -0.1741500565645078 0.37123080613525078 0 -0.18736095772118591 0.3836472042370111 0 -0.1741500565645078 0.37123080613525078 0 -0.1994770785436861 0.36691897370504389 0 -0.1763971922801616 0.3532406634935612 0 -0.1741500565645078 0.37123080613525078 0 -0.1994770785436861 0.36691897370504389 0 -0.1763971922801616 0.3532406634935612 0 -0.1994770785436861 0.36691897370504389 0 -0.1763971922801616 0.3532406634935612 0 -0.20127160642404629 0.34878804965207372 0 -0.19256976679114979 0.33165381796875049 0 -0.1763971922801616 0.3532406634935612 0 -0.1994770785436861 0.36691897370504389 0 -0.20127160642404629 0.34878804965207372 0 -0.1994770785436861 0.36691897370504389 0 -0.20127160642404629 0.34878804965207372 0 -0.22480168799342179 0.35512276170724633 0 -0.20127160642404629 0.34878804965207372 0 -0.22480168799342179 0.35512276170724633 0 -0.2131123065118124 0.33700403138576668 0 -0.2225569648072106 0.38059728391652659 0 -0.1994770785436861 0.36691897370504389 0 -0.2225569648072106 0.38059728391652659 0 -0.1994770785436861 0.36691897370504389 0 -0.22480168799342179 0.35512276170724633 0 -0.2225569648072106 0.38059728391652659 0 -0.22480168799342179 0.35512276170724633 0 -0.23735930512057779 0.37349779701461089 0 -0.25368472498167011 0.34420349485172652 0 -0.22480168799342179 0.35512276170724633 0 -0.24822911175635759 0.36217347122335058 0 -0.22480168799342179 0.35512276170724633 0 -0.24822911175635759 0.36217347122335058 0 -0.23735930512057779 0.37349779701461089 0 -0.25453646971320443 0.37462232419521813 0 -0.24822911175635759 0.36217347122335058 0 -0.23735930512057779 0.37349779701461089 0 -0.25757488899104952 0.31786411623381933 0 -0.23478691102954721 0.33115088205162452 0 -0.2366570207200871 0.30010935915934539 0 -0.25368472498167011 0.34420349485172652 0 -0.22480168799342179 0.35512276170724633 0 -0.23478691102954721 0.33115088205162452 0 -0.25368472498167011 0.34420349485172652 0 -0.23478691102954721 0.33115088205162452 0 -0.25757488899104952 0.31786411623381933 0 -0.25368472498167011 0.34420349485172652 0 -0.23478691102954721 0.33115088205162452 0 -0.23478691102954721 0.33115088205162452 0 -0.2158890970774244 0.31809826925152251 0 -0.2131123065118124 0.33700403138576668 0 -0.22480168799342179 0.35512276170724633 0 -0.23478691102954721 0.33115088205162452 0 -0.2131123065118124 0.33700403138576668 0 -0.23478691102954721 0.33115088205162452 0 -0.2158890970774244 0.31809826925152251 0 -0.2366570207200871 0.30010935915934539 0 -0.23478691102954721 0.33115088205162452 0 -0.2158890970774244 0.31809826925152251 0 -0.2158890970774244 0.31809826925152251 0 -0.2131123065118124 0.33700403138576668 0 -0.19256976679114979 0.33165381796875049 0 -0.20127160642404629 0.34878804965207372 0 -0.2131123065118124 0.33700403138576668 0 -0.19256976679114979 0.33165381796875049 0 -0.2158890970774244 0.31809826925152251 0 -0.19256976679114979 0.33165381796875049 0 -0.19699128312530151 0.30504565645142051 0 -0.19699128312530151 0.30504565645142051 0 -0.2044220976180971 0.2747921468301005 0 -0.18537993383704029 0.28397978744787411 0 -0.19699128312530151 0.30504565645142051 0 -0.21636901433909059 0.29447561219915308 0 -0.2044220976180971 0.2747921468301005 0 -0.2158890970774244 0.31809826925152251 0 -0.19699128312530151 0.30504565645142051 0 -0.21636901433909059 0.29447561219915308 0 -0.2158890970774244 0.31809826925152251 0 -0.19699128312530151 0.30504565645142051 0 -0.2158890970774244 0.31809826925152251 0 -0.21636901433909059 0.29447561219915308 0 -0.2366570207200871 0.30010935915934539 0 -0.21636901433909059 0.29447561219915308 0 -0.2366570207200871 0.30010935915934539 0 -0.2235041758045673 0.27405874977876837 0 -0.26277913973510902 0.29023342414179659 0 -0.2366570207200871 0.30010935915934539 0 -0.2447247674615598 0.2718938593685879 0 -0.2366570207200871 0.30010935915934539 0 -0.2447247674615598 0.2718938593685879 0 -0.2235041758045673 0.27405874977876837 0 -0.25693865295534157 0.25278860643768353 0 -0.2416444700809012 0.25186566196455601 0 -0.2447247674615598 0.2718938593685879 0 -0.2416444700809012 0.25186566196455601 0 -0.2447247674615598 0.2718938593685879 0 -0.22667039518801041 0.25355429459537898 0 -0.2447247674615598 0.2718938593685879 0 -0.22667039518801041 0.25355429459537898 0 -0.2447247674615598 0.2718938593685879 0 -0.2235041758045673 0.27405874977876837 0 -0.22667039518801041 0.25355429459537898 0 -0.2235041758045673 0.27405874977876837 0 -0.22667039518801041 0.25355429459537898 0 -0.21218175950055909 0.24952722652004439 0 -0.2044220976180971 0.2747921468301005 0 -0.1929026130837673 0.25762258695206858 0 -0.21218175950055909 0.24952722652004439 0 -0.2044220976180971 0.2747921468301005 0 -0.21218175950055909 0.24952722652004439 0 -0.2235041758045673 0.27405874977876837 0 -0.2044220976180971 0.2747921468301005 0 -0.21218175950055909 0.24952722652004439 0 -0.21636901433909059 0.29447561219915308 0 -0.2235041758045673 0.27405874977876837 0 -0.2044220976180971 0.2747921468301005 0 -0.2044220976180971 0.2747921468301005 0 -0.1929026130837673 0.25762258695206858 0 -0.18537993383704029 0.28397978744787411 0 -0.1929026130837673 0.25762258695206858 0 -0.16582228118094081 0.26466105519565358 0 -0.18651378479530609 0.23505073182760211 0 -0.1929026130837673 0.25762258695206858 0 -0.16582228118094081 0.26466105519565358 0 -0.18537993383704029 0.28397978744787411 0 -0.16582228118094081 0.26466105519565358 0 -0.167164841548782 0.29891422322321631 0 -0.14136362158270599 0.28508793949713551 0 -0.16582228118094081 0.26466105519565358 0 -0.18537993383704029 0.28397978744787411 0 -0.167164841548782 0.29891422322321631 0 -0.19699128312530151 0.30504565645142051 0 -0.18537993383704029 0.28397978744787411 0 -0.167164841548782 0.29891422322321631 0 -0.17079439025487569 0.32494122108339912 0 -0.19699128312530151 0.30504565645142051 0 -0.167164841548782 0.29891422322321631 0 -0.167164841548782 0.29891422322321631 0 -0.14136362158270599 0.28508793949713551 0 -0.14995133854557879 0.31573290008088639 0 -0.167164841548782 0.29891422322321631 0 -0.14136362158270599 0.28508793949713551 0 -0.14995133854557879 0.31573290008088639 0 -0.14136362158270599 0.28508793949713551 0 -0.13170636281121431 0.30540396541675668 0 -0.1262409447270301 0.3211703831111522 0 -0.13170636281121431 0.30540396541675668 0 -0.1173504618646501 0.30916380798395637 0 -0.14136362158270599 0.28508793949713551 0 -0.13170636281121431 0.30540396541675668 0 -0.1202787732923796 0.29457691953651272 0 -0.14136362158270599 0.28508793949713551 0 -0.1196693143642453 0.28329908912575552 0 -0.1202787732923796 0.29457691953651272 0 -0.14136362158270599 0.28508793949713551 0 -0.1155624016166297 0.27126165577105521 0 -0.1196693143642453 0.28329908912575552 0 -0.14136362158270599 0.28508793949713551 0 -0.1155624016166297 0.27126165577105521 0 -0.12872708527658799 0.25991420809329241 0 -0.1416417428525672 0.26777243923482702 0 -0.1155624016166297 0.27126165577105521 0 -0.14136362158270599 0.28508793949713551 0 -0.1416417428525672 0.26777243923482702 0 -0.1155624016166297 0.27126165577105521 0 -0.12872708527658799 0.25991420809329241 0 -0.14534546737678511 0.25129379472131641 0 -0.1416417428525672 0.26777243923482702 0 -0.12872708527658799 0.25991420809329241 0 -0.14534546737678511 0.25129379472131641 0 -0.12470300375741469 0.2457033751303839 0 -0.16582228118094081 0.26466105519565358 0 -0.14534546737678511 0.25129379472131641 0 -0.1416417428525672 0.26777243923482702 0 -0.16582228118094081 0.26466105519565358 0 -0.14136362158270599 0.28508793949713551 0 -0.1416417428525672 0.26777243923482702 0 -0.1083690905562489 0.27746201143443072 0 -0.10470287070229969 0.27376422074294909 0 -0.09206590757372593 0.27740472432850488 0 -0.099741497972773749 0.27068482051400677 0 -0.1098053558875477 0.27272524579145851 0 -0.092391857727521592 0.25884509119311472 0 -0.1155624016166297 0.27126165577105521 0 -0.1098053558875477 0.27272524579145851 0 -0.092391857727521592 0.25884509119311472 0 -0.099741497972773749 0.27068482051400677 0 -0.09206590757372593 0.27740472432850488 0 -0.092391857727521592 0.25884509119311472 0 -0.10470287070229969 0.27376422074294909 0 -0.099741497972773749 0.27068482051400677 0 -0.1098053558875477 0.27272524579145851 0 -0.1083690905562489 0.27746201143443072 0 -0.1098053558875477 0.27272524579145851 0 -0.1083690905562489 0.27746201143443072 0 -0.10470287070229969 0.27376422074294909 0 -0.1098053558875477 0.27272524579145851 0 -0.10470287070229969 0.27376422074294909 0 -0.099741497972773749 0.27068482051400677 0 -0.09206590757372593 0.27740472432850488 0 -0.1155624016166297 0.27126165577105521 0 -0.092391857727521592 0.25884509119311472 0 -0.11076524853809321 0.25238606884059173 0 -0.1155624016166297 0.27126165577105521 0 -0.092391857727521592 0.25884509119311472 0 -0.11076524853809321 0.25238606884059173 0 -0.1199394347971814 0.25731632695883078 0 -0.1155624016166297 0.27126165577105521 0 -0.12872708527658799 0.25991420809329241 0 -0.1199394347971814 0.25731632695883078 0 -0.12470300375741469 0.2457033751303839 0 -0.11076524853809321 0.25238606884059173 0 -0.1199394347971814 0.25731632695883078 0 -0.12470300375741469 0.2457033751303839 0 -0.12872708527658799 0.25991420809329241 0 -0.1199394347971814 0.25731632695883078 0 -0.1155624016166297 0.27126165577105521 0 -0.12872708527658799 0.25991420809329241 0 -0.1155624016166297 0.27126165577105521 0 -0.1083690905562489 0.27746201143443072 0 -0.1155624016166297 0.27126165577105521 0 -0.1196693143642453 0.28329908912575552 0 -0.1083690905562489 0.27746201143443072 0 -0.1155624016166297 0.27126165577105521 0 -0.1098053558875477 0.27272524579145851 0 -0.1083690905562489 0.27746201143443072 0 -0.1155624016166297 0.27126165577105521 0 -0.1083690905562489 0.27746201143443072 0 -0.1202787732923796 0.29457691953651272 0 -0.1003457715998239 0.30392270831765028 0 -0.1083690905562489 0.27746201143443072 0 -0.1196693143642453 0.28329908912575552 0 -0.1202787732923796 0.29457691953651272 0 -0.1202787732923796 0.29457691953651272 0 -0.1173504618646501 0.30916380798395637 0 -0.1003457715998239 0.30392270831765028 0 -0.13170636281121431 0.30540396541675668 0 -0.1202787732923796 0.29457691953651272 0 -0.1173504618646501 0.30916380798395637 0 -0.1173504618646501 0.30916380798395637 0 -0.1003457715998239 0.30392270831765028 0 -0.1081804568928026 0.32074506353771021 0 -0.1083690905562489 0.27746201143443072 0 -0.08834593029567378 0.29472120043351602 0 -0.09206590757372593 0.27740472432850488 0 -0.1083690905562489 0.27746201143443072 0 -0.1003457715998239 0.30392270831765028 0 -0.08834593029567378 0.29472120043351602 0 -0.1083690905562489 0.27746201143443072 0 -0.1003457715998239 0.30392270831765028 0 -0.1083690905562489 0.27746201143443072 0 -0.08834593029567378 0.29472120043351602 0 -0.08834593029567378 0.29472120043351602 0 -0.079344374197139078 0.28508182268507098 0 -0.09206590757372593 0.27740472432850488 0 -0.08834593029567378 0.29472120043351602 0 -0.072463929930227558 0.29930610977545041 0 -0.077617967212061698 0.29366907382828078 0 -0.08834593029567378 0.29472120043351602 0 -0.079344374197139078 0.28508182268507098 0 -0.077617967212061698 0.29366907382828078 0 -0.08834593029567378 0.29472120043351602 0 -0.087527931766016032 0.31235393694025021 0 -0.08121949171140587 0.31012908581564408 0 -0.08834593029567378 0.29472120043351602 0 -0.068322770035098762 0.31198038943260148 0 -0.1003457715998239 0.30392270831765028 0 -0.08834593029567378 0.29472120043351602 0 -0.087527931766016032 0.31235393694025021 0 -0.08834593029567378 0.29472120043351602 0 -0.08121949171140587 0.31012908581564408 0 -0.069852456288818351 0.31207980665071 0 -0.08834593029567378 0.29472120043351602 0 -0.068322770035098762 0.31198038943260148 0 -0.069852456288818351 0.31207980665071 0 -0.08834593029567378 0.29472120043351602 0 -0.072463929930227558 0.29930610977545041 0 -0.068322770035098762 0.31198038943260148 0 -0.072463929930227558 0.29930610977545041 0 -0.064179569528432873 0.29754197169583518 0 -0.063962500348327456 0.30379626580195229 0 -0.072463929930227558 0.29930610977545041 0 -0.063962500348327456 0.30379626580195229 0 -0.068322770035098762 0.31198038943260148 0 -0.068322770035098762 0.31198038943260148 0 -0.069852456288818351 0.31207980665071 0 -0.079344374197139078 0.28508182268507098 0 -0.070510141993048517 0.29225124769799787 0 -0.067485792004003509 0.28106498521306011 0 -0.079344374197139078 0.28508182268507098 0 -0.077617967212061698 0.29366907382828078 0 -0.070510141993048517 0.29225124769799787 0 -0.072463929930227558 0.29930610977545041 0 -0.077617967212061698 0.29366907382828078 0 -0.070510141993048517 0.29225124769799787 0 -0.064179569528432873 0.29754197169583518 0 -0.070510141993048517 0.29225124769799787 0 -0.059799020663136082 0.29068729405280619 0 -0.072463929930227558 0.29930610977545041 0 -0.064179569528432873 0.29754197169583518 0 -0.070510141993048517 0.29225124769799787 0 -0.070510141993048517 0.29225124769799787 0 -0.067485792004003509 0.28106498521306011 0 -0.059799020663136082 0.29068729405280619 0 -0.079344374197139078 0.28508182268507098 0 -0.077112635008727601 0.26938653581869981 0 -0.067485792004003509 0.28106498521306011 0 -0.077112635008727601 0.26938653581869981 0 -0.067485792004003509 0.28106498521306011 0 -0.060296114269721542 0.26705395206363342 0 -0.079344374197139078 0.28508182268507098 0 -0.077112635008727601 0.26938653581869981 0 -0.09206590757372593 0.27740472432850488 0 -0.077112635008727601 0.26938653581869981 0 -0.09206590757372593 0.27740472432850488 0 -0.092391857727521592 0.25884509119311472 0 -0.092391857727521592 0.25884509119311472 0 -0.069221313838413207 0.24642852661517459 0 -0.077112635008727601 0.26938653581869981 0 -0.092391857727521592 0.25884509119311472 0 -0.069221313838413207 0.24642852661517459 0 -0.077112635008727601 0.26938653581869981 0 -0.060296114269721542 0.26705395206363342 0 -0.069221313838413207 0.24642852661517459 0 -0.048126263350958612 0.25465777805589501 0 -0.060296114269721542 0.26705395206363342 0 -0.069221313838413207 0.24642852661517459 0 -0.048126263350958612 0.25465777805589501 0 -0.060296114269721542 0.26705395206363342 0 -0.041784573477856593 0.2719242686623195 0 -0.055384127889045079 0.27986410773994991 0 -0.060296114269721542 0.26705395206363342 0 -0.041784573477856593 0.2719242686623195 0 -0.055384127889045079 0.27986410773994991 0 -0.041784573477856593 0.2719242686623195 0 -0.044370237993260717 0.29032640624232281 0 -0.067485792004003509 0.28106498521306011 0 -0.055384127889045079 0.27986410773994991 0 -0.060296114269721542 0.26705395206363342 0 -0.041784573477856593 0.2719242686623195 0 -0.028053557715267439 0.25838243531431121 0 -0.02550209953536561 0.27186686885002359 0 -0.041784573477856593 0.2719242686623195 0 -0.02550209953536561 0.27186686885002359 0 -0.031040102747703489 0.28267752730564011 0 -0.048126263350958612 0.25465777805589501 0 -0.041784573477856593 0.2719242686623195 0 -0.028053557715267439 0.25838243531431121 0 -0.048126263350958612 0.25465777805589501 0 -0.028053557715267439 0.25838243531431121 0 -0.033382390283993792 0.24359412621706661 0 -0.028053557715267439 0.25838243531431121 0 -0.01504563196256534 0.26333196488375049 0 -0.01778818590069102 0.2421293126167848 0 -0.01504563196256534 0.26333196488375049 0 -0.01778818590069102 0.2421293126167848 0 -0.028053557715267439 0.25838243531431121 0 -0.02550209953536561 0.27186686885002359 0 -0.01504563196256534 0.26333196488375049 0 -0.028053557715267439 0.25838243531431121 0 -0.01504563196256534 0.26333196488375049 0 -0.02550209953536561 0.27186686885002359 0 -0.01214761008608776 0.28573653795517551 0 -0.031040102747703489 0.28267752730564011 0 -0.02550209953536561 0.27186686885002359 0 -0.01504563196256534 0.26333196488375049 0 -0.01214761008608776 0.28573653795517551 0 -0.001267499687089951 0.2776013217203892 0 -0.01504563196256534 0.26333196488375049 0 -0.01214761008608776 0.28573653795517551 0 -0.01504563196256534 0.26333196488375049 0 -0.01214761008608776 0.28573653795517551 0 -0.00067809962666212902 0.26216505597133072 0 -0.01504563196256534 0.26333196488375049 0 0.010965700908337589 0.27322930467739909 0 -0.001267499687089951 0.2776013217203892 0 -0.01504563196256534 0.26333196488375049 0 0.010965700908337589 0.27322930467739909 0 -0.01504563196256534 0.26333196488375049 0 0.010965700908337589 0.27322930467739909 0 -0.0087132352456033638 0.25173417187717928 0 -0.01504563196256534 0.26333196488375049 0 -0.01778818590069102 0.2421293126167848 0 -0.00067809962666212902 0.26216505597133072 0 -0.0087132352456033638 0.25173417187717928 0 0.0027594708259384838 0.25829047161104352 0 -0.00067809962666212902 0.26216505597133072 0 -0.0087132352456033638 0.25173417187717928 0 -0.01504563196256534 0.26333196488375049 0 -0.009249588209606344 0.30814111102660002 0 -0.01214761008608776 0.28573653795517551 0 0.0038021096493471361 0.29689124930627131 0 -0.009249588209606344 0.30814111102660002 0 -0.01214761008608776 0.28573653795517551 0 -0.01214761008608776 0.28573653795517551 0 0.002380999114604244 0.28599596302517022 0 0.0038021096493471361 0.29689124930627131 0 -0.001267499687089951 0.2776013217203892 0 -0.01214761008608776 0.28573653795517551 0 0.002380999114604244 0.28599596302517022 0 -0.009249588209606344 0.30814111102660002 0 -0.01214761008608776 0.28573653795517551 0 -0.02711874363180217 0.2953884665518679 0 -0.01214761008608776 0.28573653795517551 0 -0.031040102747703489 0.28267752730564011 0 -0.02711874363180217 0.2953884665518679 0 -0.009249588209606344 0.30814111102660002 0 -0.02711874363180217 0.2953884665518679 0 -0.038786179122352507 0.31006075022960111 0 -0.009249588209606344 0.30814111102660002 0 -0.038786179122352507 0.31006075022960111 0 -0.02711874363180217 0.2953884665518679 0 -0.038786179122352507 0.31006075022960111 0 -0.044370237993260717 0.29032640624232281 0 -0.038786179122352507 0.31006075022960111 0 -0.044370237993260717 0.29032640624232281 0 -0.054162254707424723 0.30166894115096898 0 -0.031040102747703489 0.28267752730564011 0 -0.02711874363180217 0.2953884665518679 0 -0.044370237993260717 0.29032640624232281 0 -0.041784573477856593 0.2719242686623195 0 -0.031040102747703489 0.28267752730564011 0 -0.044370237993260717 0.29032640624232281 0 -0.055384127889045079 0.27986410773994991 0 -0.044370237993260717 0.29032640624232281 0 -0.059799020663136082 0.29068729405280619 0 -0.044370237993260717 0.29032640624232281 0 -0.059799020663136082 0.29068729405280619 0 -0.054162254707424723 0.30166894115096898 0 -0.064179569528432873 0.29754197169583518 0 -0.059799020663136082 0.29068729405280619 0 -0.054162254707424723 0.30166894115096898 0 -0.067485792004003509 0.28106498521306011 0 -0.055384127889045079 0.27986410773994991 0 -0.059799020663136082 0.29068729405280619 0 -0.068322770035098762 0.31198038943260148 0 -0.038786179122352507 0.31006075022960111 0 -0.068322770035098762 0.31198038943260148 0 -0.038786179122352507 0.31006075022960111 0 -0.054162254707424723 0.30166894115096898 0 -0.064179569528432873 0.29754197169583518 0 -0.063962500348327456 0.30379626580195229 0 -0.054162254707424723 0.30166894115096898 0 -0.063962500348327456 0.30379626580195229 0 -0.068322770035098762 0.31198038943260148 0 -0.054162254707424723 0.30166894115096898 0 -0.068322770035098762 0.31198038943260148 0 -0.038786179122352507 0.31006075022960111 0 -0.053879496619987192 0.32442993198196868 0 -0.068322770035098762 0.31198038943260148 0 -0.053879496619987192 0.32442993198196868 0 -0.059045099567240703 0.33862263320968672 0 -0.059976501396798443 0.34640013057040159 0 -0.068046633572776155 0.34513696516333192 0 -0.053879496619987192 0.32442993198196868 0 -0.059045099567240703 0.33862263320968672 0 -0.06815446288386498 0.3263880450875648 0 -0.053879496619987192 0.32442993198196868 0 -0.059045099567240703 0.33862263320968672 0 -0.049717572699208172 0.33977374392884352 0 -0.053879496619987192 0.32442993198196868 0 -0.049717572699208172 0.33977374392884352 0 -0.039436223204876379 0.33687947453133682 0 -0.059045099567240703 0.33862263320968672 0 -0.049717572699208172 0.33977374392884352 0 -0.052933118771744558 0.34753778728834739 0 -0.049717572699208172 0.33977374392884352 0 -0.039436223204876379 0.33687947453133682 0 -0.045752302425533672 0.34929255203680049 0 -0.053879496619987192 0.32442993198196868 0 -0.039436223204876379 0.33687947453133682 0 -0.039359444206513459 0.32419621080282812 0 -0.053879496619987192 0.32442993198196868 0 -0.039436223204876379 0.33687947453133682 0 -0.039436223204876379 0.33687947453133682 0 -0.039359444206513459 0.32419621080282812 0 -0.02531264429424256 0.33765677836634578 0 -0.039436223204876379 0.33687947453133682 0 -0.02531264429424256 0.33765677836634578 0 -0.034795741464765127 0.3466441775467104 0 -0.038786179122352507 0.31006075022960111 0 -0.053879496619987192 0.32442993198196868 0 -0.039359444206513459 0.32419621080282812 0 -0.038786179122352507 0.31006075022960111 0 -0.039359444206513459 0.32419621080282812 0 -0.024068293084679539 0.32272721199300619 0 -0.009249588209606344 0.30814111102660002 0 -0.038786179122352507 0.31006075022960111 0 -0.024068293084679539 0.32272721199300619 0 -0.024068293084679539 0.32272721199300619 0 -0.02531264429424256 0.33765677836634578 0 -0.005758602284471958 0.33512988219008361 0 -0.039359444206513459 0.32419621080282812 0 -0.024068293084679539 0.32272721199300619 0 -0.02531264429424256 0.33765677836634578 0 -0.005758602284471958 0.33512988219008361 0 -0.0077202170519437719 0.34710906184019069 0 0.0082446038140756572 0.34376242611402219 0 -0.02531264429424256 0.33765677836634578 0 -0.005758602284471958 0.33512988219008361 0 -0.0077202170519437719 0.34710906184019069 0 -0.009249588209606344 0.30814111102660002 0 -0.005758602284471958 0.33512988219008361 0 0.0094307060340404689 0.32376070079746733 0 -0.009249588209606344 0.30814111102660002 0 -0.005758602284471958 0.33512988219008361 0 -0.009249588209606344 0.30814111102660002 0 -0.024068293084679539 0.32272721199300619 0 -0.005758602284471958 0.33512988219008361 0 -0.0045677851665312944 0.36532665559408428 0 -0.0087141207398781558 0.37710904293520409 0 0.0077169544749549623 0.36306791211952738 0 -0.0045677851665312944 0.36532665559408428 0 -0.019623601183504629 0.35541479533684739 0 -0.0087141207398781558 0.37710904293520409 0 -0.0087141207398781558 0.37710904293520409 0 0.0077169544749549623 0.36306791211952738 0 -0.0077202170519437719 0.34710906184019069 0 -0.019623601183504629 0.35541479533684739 0 0.0038095970876644218 0.35606187191015221 0 -0.019623601183504629 0.35541479533684739 0 0.0038095970876644218 0.35606187191015221 0 -0.0045677851665312944 0.36532665559408428 0 -0.019623601183504629 0.35541479533684739 0 0.0038095970876644218 0.35606187191015221 0 -0.02531264429424256 0.33765677836634578 0 -0.019623601183504629 0.35541479533684739 0 -0.034795741464765127 0.3466441775467104 0 -0.02531264429424256 0.33765677836634578 0 -0.0077202170519437719 0.34710906184019069 0 -0.019623601183504629 0.35541479533684739 0 -0.019623601183504629 0.35541479533684739 0 -0.034100997704691827 0.37295894625721099 0 -0.0087141207398781558 0.37710904293520409 0 -0.019623601183504629 0.35541479533684739 0 -0.034100997704691827 0.37295894625721099 0 -0.043056799454673583 0.35476771876354157 0 -0.034100997704691827 0.37295894625721099 0 -0.047131069669461997 0.36807368878450081 0 -0.054593457040109393 0.3822816536988497 0 -0.034100997704691827 0.37295894625721099 0 -0.043056799454673583 0.35476771876354157 0 -0.034100997704691827 0.37295894625721099 0 -0.043056799454673583 0.35476771876354157 0 -0.047131069669461997 0.36807368878450081 0 -0.019623601183504629 0.35541479533684739 0 -0.043056799454673583 0.35476771876354157 0 -0.019623601183504629 0.35541479533684739 0 -0.034795741464765127 0.3466441775467104 0 -0.043056799454673583 0.35476771876354157 0 -0.043056799454673583 0.35476771876354157 0 -0.045752302425533672 0.34929255203680049 0 -0.039436223204876379 0.33687947453133682 0 -0.034795741464765127 0.3466441775467104 0 -0.045752302425533672 0.34929255203680049 0 -0.034795741464765127 0.3466441775467104 0 -0.043056799454673583 0.35476771876354157 0 -0.045752302425533672 0.34929255203680049 0 -0.043056799454673583 0.35476771876354157 0 -0.052933118771744558 0.34753778728834739 0 -0.059881153675432383 0.35430313662024071 0 -0.043056799454673583 0.35476771876354157 0 -0.059881153675432383 0.35430313662024071 0 -0.051828064233363932 0.36038047858465339 0 -0.043056799454673583 0.35476771876354157 0 -0.059881153675432383 0.35430313662024071 0 -0.043056799454673583 0.35476771876354157 0 -0.045752302425533672 0.34929255203680049 0 -0.052933118771744558 0.34753778728834739 0 -0.049717572699208172 0.33977374392884352 0 -0.045752302425533672 0.34929255203680049 0 -0.052933118771744558 0.34753778728834739 0 -0.059881153675432383 0.35430313662024071 0 -0.051828064233363932 0.36038047858465339 0 -0.058626870601395778 0.36023180910453118 0 -0.059045099567240703 0.33862263320968672 0 -0.052933118771744558 0.34753778728834739 0 -0.059976501396798443 0.34640013057040159 0 -0.052933118771744558 0.34753778728834739 0 -0.059881153675432383 0.35430313662024071 0 -0.059976501396798443 0.34640013057040159 0 -0.047131069669461997 0.36807368878450081 0 -0.054116187566776573 0.36544526432200969 0 -0.058148679921659119 0.37186744297544022 0 -0.047131069669461997 0.36807368878450081 0 -0.058148679921659119 0.37186744297544022 0 -0.054593457040109393 0.3822816536988497 0 -0.043056799454673583 0.35476771876354157 0 -0.047131069669461997 0.36807368878450081 0 -0.051828064233363932 0.36038047858465339 0 -0.047131069669461997 0.36807368878450081 0 -0.051828064233363932 0.36038047858465339 0 -0.054116187566776573 0.36544526432200969 0 -0.054116187566776573 0.36544526432200969 0 -0.058626870601395778 0.36023180910453118 0 -0.058148679921659119 0.37186744297544022 0 -0.051828064233363932 0.36038047858465339 0 -0.054116187566776573 0.36544526432200969 0 -0.058626870601395778 0.36023180910453118 0 -0.058626870601395778 0.36023180910453118 0 -0.058148679921659119 0.37186744297544022 0 -0.076275814730551866 0.38330479896731001 0 -0.058626870601395778 0.36023180910453118 0 -0.071157696118109362 0.36170448025062218 0 -0.076275814730551866 0.38330479896731001 0 -0.071157696118109362 0.36170448025062218 0 -0.084299133686975572 0.35684410208409001 0 -0.076275814730551866 0.38330479896731001 0 -0.058626870601395778 0.36023180910453118 0 -0.076275814730551866 0.38330479896731001 0 -0.084299133686975572 0.35684410208409001 0 -0.089436666146690338 0.3774527594588406 0 -0.076275814730551866 0.38330479896731001 0 -0.084299133686975572 0.35684410208409001 0 -0.076275814730551866 0.38330479896731001 0 -0.093494049974744503 0.36523362229143391 0 -0.084299133686975572 0.35684410208409001 0 -0.089436666146690338 0.3774527594588406 0 -0.084299133686975572 0.35684410208409001 0 -0.076705507896191183 0.35383855447693902 0 -0.080753986599573127 0.33990497651870988 0 -0.084299133686975572 0.35684410208409001 0 -0.092322452643399749 0.33038340520087017 0 -0.095141502753968779 0.35097174187852381 0 -0.093494049974744503 0.36523362229143391 0 -0.084299133686975572 0.35684410208409001 0 -0.095141502753968779 0.35097174187852381 0 -0.059881153675432383 0.35430313662024071 0 -0.071157696118109362 0.36170448025062218 0 -0.076705507896191183 0.35383855447693902 0 -0.076705507896191183 0.35383855447693902 0 -0.068046633572776155 0.34513696516333192 0 -0.080753986599573127 0.33990497651870988 0 -0.059881153675432383 0.35430313662024071 0 -0.076705507896191183 0.35383855447693902 0 -0.068046633572776155 0.34513696516333192 0 -0.059881153675432383 0.35430313662024071 0 -0.076705507896191183 0.35383855447693902 0 -0.071157696118109362 0.36170448025062218 0 -0.084299133686975572 0.35684410208409001 0 -0.076705507896191183 0.35383855447693902 0 -0.059881153675432383 0.35430313662024071 0 -0.058626870601395778 0.36023180910453118 0 -0.071157696118109362 0.36170448025062218 0 -0.059881153675432383 0.35430313662024071 0 -0.059976501396798443 0.34640013057040159 0 -0.068046633572776155 0.34513696516333192 0 -0.06815446288386498 0.3263880450875648 0 -0.079151648495115301 0.32136139923810009 0 -0.080753986599573127 0.33990497651870988 0 -0.068046633572776155 0.34513696516333192 0 -0.06815446288386498 0.3263880450875648 0 -0.080753986599573127 0.33990497651870988 0 -0.059045099567240703 0.33862263320968672 0 -0.068046633572776155 0.34513696516333192 0 -0.06815446288386498 0.3263880450875648 0 -0.068322770035098762 0.31198038943260148 0 -0.069852456288818351 0.31207980665071 0 -0.06815446288386498 0.3263880450875648 0 -0.068322770035098762 0.31198038943260148 0 -0.053879496619987192 0.32442993198196868 0 -0.06815446288386498 0.3263880450875648 0 -0.08121949171140587 0.31012908581564408 0 -0.069852456288818351 0.31207980665071 0 -0.079151648495115301 0.32136139923810009 0 -0.069852456288818351 0.31207980665071 0 -0.06815446288386498 0.3263880450875648 0 -0.079151648495115301 0.32136139923810009 0 -0.087527931766016032 0.31235393694025021 0 -0.079151648495115301 0.32136139923810009 0 -0.092322452643399749 0.33038340520087017 0 -0.1003457715998239 0.30392270831765028 0 -0.087527931766016032 0.31235393694025021 0 -0.092322452643399749 0.33038340520087017 0 -0.087527931766016032 0.31235393694025021 0 -0.08121949171140587 0.31012908581564408 0 -0.079151648495115301 0.32136139923810009 0 -0.084299133686975572 0.35684410208409001 0 -0.092322452643399749 0.33038340520087017 0 -0.079151648495115301 0.32136139923810009 0 -0.092322452643399749 0.33038340520087017 0 -0.080753986599573127 0.33990497651870988 0 -0.084299133686975572 0.35684410208409001 0 -0.092322452643399749 0.33038340520087017 0 -0.080753986599573127 0.33990497651870988 0 -0.092322452643399749 0.33038340520087017 0 -0.10472406897533799 0.34168768652513631 0 -0.095141502753968779 0.35097174187852381 0 -0.092322452643399749 0.33038340520087017 0 -0.10472406897533799 0.34168768652513631 0 -0.1081804568928026 0.32074506353771021 0 -0.1003457715998239 0.30392270831765028 0 -0.092322452643399749 0.33038340520087017 0 -0.1003457715998239 0.30392270831765028 0 -0.092322452643399749 0.33038340520087017 0 -0.1081804568928026 0.32074506353771021 0 -0.1262409447270301 0.3211703831111522 0 -0.1173504618646501 0.30916380798395637 0 -0.1081804568928026 0.32074506353771021 0 -0.1262409447270301 0.3211703831111522 0 -0.1081804568928026 0.32074506353771021 0 -0.1175879007316586 0.33497855513245622 0 -0.13367478836053351 0.33932016938713638 0 -0.1175879007316586 0.33497855513245622 0 -0.1173066256070304 0.35104950557859033 0 -0.10472406897533799 0.34168768652513631 0 -0.1081804568928026 0.32074506353771021 0 -0.1175879007316586 0.33497855513245622 0 -0.10472406897533799 0.34168768652513631 0 -0.1175879007316586 0.33497855513245622 0 -0.1173066256070304 0.35104950557859033 0 -0.1173066256070304 0.35104950557859033 0 -0.1198206075896991 0.37069234566290138 0 -0.1030551893938276 0.35978992576853291 0 -0.1367685514822152 0.35851885971508118 0 -0.1173066256070304 0.35104950557859033 0 -0.1198206075896991 0.37069234566290138 0 -0.1198206075896991 0.37069234566290138 0 -0.1030551893938276 0.35978992576853291 0 -0.10026372758235801 0.37465761506622741 0 -0.093494049974744503 0.36523362229143391 0 -0.10026372758235801 0.37465761506622741 0 -0.089436666146690338 0.3774527594588406 0 -0.093494049974744503 0.36523362229143391 0 -0.1030551893938276 0.35978992576853291 0 -0.10026372758235801 0.37465761506622741 0 -0.10472406897533799 0.34168768652513631 0 -0.1030551893938276 0.35978992576853291 0 -0.095141502753968779 0.35097174187852381 0 -0.093494049974744503 0.36523362229143391 0 -0.1030551893938276 0.35978992576853291 0 -0.095141502753968779 0.35097174187852381 0 -0.10472406897533799 0.34168768652513631 0 -0.1173066256070304 0.35104950557859033 0 -0.1030551893938276 0.35978992576853291 0 -0.101128536279416 0.3977608810528192 0 -0.11378235269799521 0.38746486633725291 0 -0.11258596611237601 0.40408595479252452 0 -0.101128536279416 0.3977608810528192 0 -0.095244926421122186 0.38729621463576269 0 -0.11378235269799521 0.38746486633725291 0 -0.101128536279416 0.3977608810528192 0 -0.11258596611237601 0.40408595479252452 0 -0.097808874238227678 0.41145560844912898 0 -0.101128536279416 0.3977608810528192 0 -0.097808874238227678 0.41145560844912898 0 -0.087042344484389883 0.39738020370821953 0 -0.101128536279416 0.3977608810528192 0 -0.095244926421122186 0.38729621463576269 0 -0.087042344484389883 0.39738020370821953 0 -0.10026372758235801 0.37465761506622741 0 -0.095244926421122186 0.38729621463576269 0 -0.11378235269799521 0.38746486633725291 0 -0.10026372758235801 0.37465761506622741 0 -0.095244926421122186 0.38729621463576269 0 -0.089436666146690338 0.3774527594588406 0 -0.1198206075896991 0.37069234566290138 0 -0.10026372758235801 0.37465761506622741 0 -0.11378235269799521 0.38746486633725291 0 -0.12826940643264259 0.38638828685515292 0 -0.1198206075896991 0.37069234566290138 0 -0.11378235269799521 0.38746486633725291 0 -0.12644786621320531 0.40058001872868543 0 -0.12826940643264259 0.38638828685515292 0 -0.11378235269799521 0.38746486633725291 0 -0.12761284081938409 0.41418542740570108 0 -0.11378235269799521 0.38746486633725291 0 -0.12761284081938409 0.41418542740570108 0 -0.12644786621320531 0.40058001872868543 0 -0.11378235269799521 0.38746486633725291 0 -0.12761284081938409 0.41418542740570108 0 -0.11378235269799521 0.38746486633725291 0 -0.11258596611237601 0.40408595479252452 0 -0.12761284081938409 0.41418542740570108 0 -0.11258596611237601 0.40408595479252452 0 -0.097808874238227678 0.41145560844912898 0 -0.12761284081938409 0.41418542740570108 0 -0.1126245701039178 0.4308246085444013 0 -0.097808874238227678 0.41145560844912898 0 -0.12761284081938409 0.41418542740570108 0 -0.097808874238227678 0.41145560844912898 0 -0.12761284081938409 0.41418542740570108 0 -0.1126245701039178 0.4308246085444013 0 -0.1242648033483075 0.43981492828754482 0 -0.1126245701039178 0.4308246085444013 0 -0.096605527178418776 0.42311346390882398 0 -0.097170403390676049 0.43571281837191522 0 -0.1126245701039178 0.4308246085444013 0 -0.097170403390676049 0.43571281837191522 0 -0.10338783084247161 0.44098956532991213 0 -0.1126245701039178 0.4308246085444013 0 -0.097808874238227678 0.41145560844912898 0 -0.1126245701039178 0.4308246085444013 0 -0.096605527178418776 0.42311346390882398 0 -0.097808874238227678 0.41145560844912898 0 -0.096605527178418776 0.42311346390882398 0 -0.097808874238227678 0.41145560844912898 0 -0.090623427087895073 0.41079747558654428 0 -0.097808874238227678 0.41145560844912898 0 -0.090623427087895073 0.41079747558654428 0 -0.096605527178418776 0.42311346390882398 0 -0.090623427087895073 0.41079747558654428 0 -0.084800361071377284 0.4267768085921303 0 -0.090623427087895073 0.41079747558654428 0 -0.084347825254610875 0.40943513047528779 0 -0.084800361071377284 0.4267768085921303 0 -0.084800361071377284 0.4267768085921303 0 -0.074925168374781331 0.40278603401425761 0 -0.084347825254610875 0.40943513047528779 0 -0.084800361071377284 0.4267768085921303 0 -0.074925168374781331 0.40278603401425761 0 -0.097808874238227678 0.41145560844912898 0 -0.090623427087895073 0.41079747558654428 0 -0.087042344484389883 0.39738020370821953 0 -0.096605527178418776 0.42311346390882398 0 -0.097170403390676049 0.43571281837191522 0 -0.084800361071377284 0.4267768085921303 0 -0.084800361071377284 0.4267768085921303 0 -0.077689053426030094 0.43734830183904833 0 -0.073740177733494089 0.43015549729097768 0 -0.084800361071377284 0.4267768085921303 0 -0.077689053426030094 0.43734830183904833 0 -0.085627028266785254 0.44117175463919189 0 -0.077689053426030094 0.43734830183904833 0 -0.073740177733494089 0.43015549729097768 0 -0.069373851585076945 0.43677151010665521 0 -0.084800361071377284 0.4267768085921303 0 -0.073740177733494089 0.43015549729097768 0 -0.074963529381557356 0.42372471124402672 0 -0.084800361071377284 0.4267768085921303 0 -0.074963529381557356 0.42372471124402672 0 -0.074207610301873977 0.415826985147286 0 -0.073740177733494089 0.43015549729097768 0 -0.07134827269677288 0.42521816639912852 0 -0.067010261651664849 0.42692585223643509 0 -0.073740177733494089 0.43015549729097768 0 -0.074963529381557356 0.42372471124402672 0 -0.07134827269677288 0.42521816639912852 0 -0.074963529381557356 0.42372471124402672 0 -0.07134827269677288 0.42521816639912852 0 -0.069903249343569923 0.42035209495099629 0 -0.06803153127557314 0.42418340705062968 0 -0.063864341410284964 0.42423751461595932 0 -0.069903249343569923 0.42035209495099629 0 -0.07134827269677288 0.42521816639912852 0 -0.06803153127557314 0.42418340705062968 0 -0.067010261651664849 0.42692585223643509 0 -0.07134827269677288 0.42521816639912852 0 -0.06803153127557314 0.42418340705062968 0 -0.069903249343569923 0.42035209495099629 0 -0.06803153127557314 0.42418340705062968 0 -0.063864341410284964 0.42423751461595932 0 -0.067010261651664849 0.42692585223643509 0 -0.063864341410284964 0.42423751461595932 0 -0.067010261651664849 0.42692585223643509 0 -0.067010261651664849 0.42692585223643509 0 -0.06657591115514655 0.43192586875325267 0 -0.062357688865182517 0.42920641545622512 0 -0.063864341410284964 0.42423751461595932 0 -0.067010261651664849 0.42692585223643509 0 -0.062357688865182517 0.42920641545622512 0 -0.063864341410284964 0.42423751461595932 0 -0.062357688865182517 0.42920641545622512 0 -0.073740177733494089 0.43015549729097768 0 -0.067010261651664849 0.42692585223643509 0 -0.06657591115514655 0.43192586875325267 0 -0.073740177733494089 0.43015549729097768 0 -0.06657591115514655 0.43192586875325267 0 -0.069373851585076945 0.43677151010665521 0 -0.06657591115514655 0.43192586875325267 0 -0.062750456602468974 0.43554137489064498 0 -0.062357688865182517 0.42920641545622512 0 -0.06657591115514655 0.43192586875325267 0 -0.062750456602468974 0.43554137489064498 0 -0.069373851585076945 0.43677151010665521 0 -0.063864341410284964 0.42423751461595932 0 -0.069903249343569923 0.42035209495099629 0 -0.070070078070418332 0.40377115679163461 0 -0.074207610301873977 0.415826985147286 0 -0.069903249343569923 0.42035209495099629 0 -0.070070078070418332 0.40377115679163461 0 -0.063864341410284964 0.42423751461595932 0 -0.070070078070418332 0.40377115679163461 0 -0.058881304157308093 0.40804381518971672 0 -0.063864341410284964 0.42423751461595932 0 -0.070070078070418332 0.40377115679163461 0 -0.084800361071377284 0.4267768085921303 0 -0.074207610301873977 0.415826985147286 0 -0.074925168374781331 0.40278603401425761 0 -0.074207610301873977 0.415826985147286 0 -0.070070078070418332 0.40377115679163461 0 -0.074925168374781331 0.40278603401425761 0 -0.074963529381557356 0.42372471124402672 0 -0.074207610301873977 0.415826985147286 0 -0.069903249343569923 0.42035209495099629 0 -0.070070078070418332 0.40377115679163461 0 -0.064506344576777661 0.39145758865641178 0 -0.076275814730551866 0.38330479896731001 0 -0.070070078070418332 0.40377115679163461 0 -0.074925168374781331 0.40278603401425761 0 -0.076275814730551866 0.38330479896731001 0 -0.070070078070418332 0.40377115679163461 0 -0.076275814730551866 0.38330479896731001 0 -0.070070078070418332 0.40377115679163461 0 -0.064506344576777661 0.39145758865641178 0 -0.057086028466031037 0.39647274516785291 0 -0.074925168374781331 0.40278603401425761 0 -0.087042344484389883 0.39738020370821953 0 -0.076275814730551866 0.38330479896731001 0 -0.084347825254610875 0.40943513047528779 0 -0.074925168374781331 0.40278603401425761 0 -0.087042344484389883 0.39738020370821953 0 -0.097808874238227678 0.41145560844912898 0 -0.087042344484389883 0.39738020370821953 0 -0.090623427087895073 0.41079747558654428 0 -0.084347825254610875 0.40943513047528779 0 -0.087042344484389883 0.39738020370821953 0 -0.087042344484389883 0.39738020370821953 0 -0.089436666146690338 0.3774527594588406 0 -0.076275814730551866 0.38330479896731001 0 -0.095244926421122186 0.38729621463576269 0 -0.087042344484389883 0.39738020370821953 0 -0.089436666146690338 0.3774527594588406 0 -0.087042344484389883 0.39738020370821953 0 -0.076275814730551866 0.38330479896731001 0 -0.064506344576777661 0.39145758865641178 0 -0.076275814730551866 0.38330479896731001 0 -0.054593457040109393 0.3822816536988497 0 -0.058148679921659119 0.37186744297544022 0 -0.076275814730551866 0.38330479896731001 0 -0.054593457040109393 0.3822816536988497 0 -0.064506344576777661 0.39145758865641178 0 -0.054593457040109393 0.3822816536988497 0 -0.057086028466031037 0.39647274516785291 0 -0.054593457040109393 0.3822816536988497 0 -0.057086028466031037 0.39647274516785291 0 -0.042391572779214973 0.39096282696345341 0 -0.057086028466031037 0.39647274516785291 0 -0.042391572779214973 0.39096282696345341 0 -0.044504768682498037 0.40769384418342008 0 -0.070070078070418332 0.40377115679163461 0 -0.057086028466031037 0.39647274516785291 0 -0.058881304157308093 0.40804381518971672 0 -0.057086028466031037 0.39647274516785291 0 -0.044504768682498037 0.40769384418342008 0 -0.058881304157308093 0.40804381518971672 0 -0.02514519595471108 0.39115017375088101 0 -0.044504768682498037 0.40769384418342008 0 -0.042391572779214973 0.39096282696345341 0 -0.02514519595471108 0.39115017375088101 0 -0.044504768682498037 0.40769384418342008 0 -0.034100997704691827 0.37295894625721099 0 -0.054593457040109393 0.3822816536988497 0 -0.042391572779214973 0.39096282696345341 0 -0.034100997704691827 0.37295894625721099 0 -0.042391572779214973 0.39096282696345341 0 -0.02514519595471108 0.39115017375088101 0 -0.034100997704691827 0.37295894625721099 0 -0.02514519595471108 0.39115017375088101 0 -0.034100997704691827 0.37295894625721099 0 -0.02514519595471108 0.39115017375088101 0 -0.0087141207398781558 0.37710904293520409 0 -0.02514519595471108 0.39115017375088101 0 -0.0087141207398781558 0.37710904293520409 0 -0.02514519595471108 0.39115017375088101 0 -0.014810785045769751 0.41214166341376801 0 -0.02514519595471108 0.39115017375088101 0 -0.014810785045769751 0.41214166341376801 0 -0.044504768682498037 0.40769384418342008 0 -0.0068648610501423502 0.39382000907293813 0 -0.014810785045769751 0.41214166341376801 0 0.0046995574085186929 0.41194005205042061 0 -0.02514519595471108 0.39115017375088101 0 -0.0068648610501423502 0.39382000907293813 0 -0.014810785045769751 0.41214166341376801 0 -0.02514519595471108 0.39115017375088101 0 -0.0068648610501423502 0.39382000907293813 0 -0.0087141207398781558 0.37710904293520409 0 -0.0068648610501423502 0.39382000907293813 0 -0.0087141207398781558 0.37710904293520409 0 0.0053185270157129726 0.37689571945341471 0 -0.0044763741368290672 0.43313315307665529 0 -0.014810785045769751 0.41214166341376801 0 -0.0044763741368290672 0.43313315307665529 0 -0.014810785045769751 0.41214166341376801 0 -0.026116443713473419 0.4246575807879529 0 -0.0044763741368290672 0.43313315307665529 0 -0.014810785045769751 0.41214166341376801 0 0.0046995574085186929 0.41194005205042061 0 -0.014810785045769751 0.41214166341376801 0 -0.026116443713473419 0.4246575807879529 0 -0.044504768682498037 0.40769384418342008 0 -0.0044763741368290672 0.43313315307665529 0 -0.026116443713473419 0.4246575807879529 0 -0.02623027688729573 0.44118750916919391 0 -0.026116443713473419 0.4246575807879529 0 -0.040560013814974517 0.42913173409672722 0 -0.02623027688729573 0.44118750916919391 0 -0.040560013814974517 0.42913173409672722 0 -0.048293098329248912 0.43867666423002288 0 -0.039090066940739521 0.44352471403713711 0 -0.026116443713473419 0.4246575807879529 0 -0.040560013814974517 0.42913173409672722 0 -0.044504768682498037 0.40769384418342008 0 -0.040560013814974517 0.42913173409672722 0 -0.044504768682498037 0.40769384418342008 0 -0.051886787429848112 0.42350176277299723 0 -0.063864341410284964 0.42423751461595932 0 -0.044504768682498037 0.40769384418342008 0 -0.058881304157308093 0.40804381518971672 0 -0.063864341410284964 0.42423751461595932 0 -0.044504768682498037 0.40769384418342008 0 -0.051886787429848112 0.42350176277299723 0 -0.063864341410284964 0.42423751461595932 0 -0.044504768682498037 0.40769384418342008 0 -0.053936434918908913 0.43159717611494758 0 -0.057641003333182179 0.44086754716312743 0 -0.048293098329248912 0.43867666423002288 0 -0.040560013814974517 0.42913173409672722 0 -0.053936434918908913 0.43159717611494758 0 -0.048293098329248912 0.43867666423002288 0 -0.040560013814974517 0.42913173409672722 0 -0.053936434918908913 0.43159717611494758 0 -0.051886787429848112 0.42350176277299723 0 -0.053936434918908913 0.43159717611494758 0 -0.051886787429848112 0.42350176277299723 0 -0.062357688865182517 0.42920641545622512 0 -0.063864341410284964 0.42423751461595932 0 -0.051886787429848112 0.42350176277299723 0 -0.062357688865182517 0.42920641545622512 0 -0.062750456602468974 0.43554137489064498 0 -0.053936434918908913 0.43159717611494758 0 -0.062357688865182517 0.42920641545622512 0 -0.062750456602468974 0.43554137489064498 0 -0.053936434918908913 0.43159717611494758 0 -0.057641003333182179 0.44086754716312743 0 -0.062750456602468974 0.43554137489064498 0 -0.057641003333182179 0.44086754716312743 0 -0.065491549478626135 0.44200233464982802 0 -0.057641003333182179 0.44086754716312743 0 -0.062398417199954148 0.4499603094023914 0 -0.065491549478626135 0.44200233464982802 0 -0.057641003333182179 0.44086754716312743 0 -0.062398417199954148 0.4499603094023914 0 -0.050237972638439453 0.44826214973817502 0 -0.057641003333182179 0.44086754716312743 0 -0.050237972638439453 0.44826214973817502 0 -0.048293098329248912 0.43867666423002288 0 -0.062398417199954148 0.4499603094023914 0 -0.050230730183752688 0.46259696058471089 0 -0.064501224992871267 0.46542691543905351 0 -0.062398417199954148 0.4499603094023914 0 -0.050237972638439453 0.44826214973817502 0 -0.050230730183752688 0.46259696058471089 0 -0.050230730183752688 0.46259696058471089 0 -0.035748626011326709 0.45858167758110602 0 -0.046040344352481867 0.47841272498986082 0 -0.050237972638439453 0.44826214973817502 0 -0.050230730183752688 0.46259696058471089 0 -0.035748626011326709 0.45858167758110602 0 -0.035748626011326709 0.45858167758110602 0 -0.039090066940739521 0.44352471403713711 0 -0.02623027688729573 0.44118750916919391 0 -0.050237972638439453 0.44826214973817502 0 -0.048293098329248912 0.43867666423002288 0 -0.039090066940739521 0.44352471403713711 0 -0.050237972638439453 0.44826214973817502 0 -0.035748626011326709 0.45858167758110602 0 -0.039090066940739521 0.44352471403713711 0 -0.040560013814974517 0.42913173409672722 0 -0.039090066940739521 0.44352471403713711 0 -0.02623027688729573 0.44118750916919391 0 -0.035748626011326709 0.45858167758110602 0 -0.02623027688729573 0.44118750916919391 0 -0.01728298942402769 0.45556140426229003 0 -0.0044763741368290672 0.43313315307665529 0 -0.02623027688729573 0.44118750916919391 0 -0.01728298942402769 0.45556140426229003 0 -0.035748626011326709 0.45858167758110602 0 -0.01728298942402769 0.45556140426229003 0 -0.022784747477638551 0.4775754860453762 0 -0.01728298942402769 0.45556140426229003 0 -0.0062093312902834459 0.46527566221073008 0 0.006403582431216831 0.45126676372832991 0 -0.01728298942402769 0.45556140426229003 0 -0.0062093312902834459 0.46527566221073008 0 -0.022784747477638551 0.4775754860453762 0 -0.0044763741368290672 0.43313315307665529 0 -0.01728298942402769 0.45556140426229003 0 0.006403582431216831 0.45126676372832991 0 -0.0062093312902834459 0.46527566221073008 0 -0.022784747477638551 0.4775754860453762 0 0.0095498935665802413 0.47810272379952351 0 -0.022784747477638551 0.4775754860453762 0 -0.021427984417146221 0.5 0 0.0095498935665802413 0.47810272379952351 0 -0.021427984417146221 0.5 0 0.0095498935665802413 0.47810272379952351 0 0.0086042794582089632 0.5 0 -0.022784747477638551 0.4775754860453762 0 -0.021427984417146221 0.5 0 -0.046040344352481867 0.47841272498986082 0 -0.021427984417146221 0.5 0 -0.046040344352481867 0.47841272498986082 0 -0.051460248292501398 0.5 0 -0.035748626011326709 0.45858167758110602 0 -0.022784747477638551 0.4775754860453762 0 -0.046040344352481867 0.47841272498986082 0 -0.046040344352481867 0.47841272498986082 0 -0.067939054777113927 0.48291587414950521 0 -0.064501224992871267 0.46542691543905351 0 -0.050230730183752688 0.46259696058471089 0 -0.046040344352481867 0.47841272498986082 0 -0.064501224992871267 0.46542691543905351 0 -0.046040344352481867 0.47841272498986082 0 -0.051460248292501398 0.5 0 -0.067939054777113927 0.48291587414950521 0 -0.051460248292501398 0.5 0 -0.081492512167856565 0.50000000000000011 0 -0.067939054777113927 0.48291587414950521 0 -0.081492512167856565 0.50000000000000011 0 -0.085878896958769185 0.47675925450649242 0 -0.067939054777113927 0.48291587414950521 0 -0.081492512167856565 0.50000000000000011 0 -0.085878896958769185 0.47675925450649242 0 -0.099362977551805121 0.48745008538217821 0 -0.081492512167856565 0.50000000000000011 0 -0.085878896958769185 0.47675925450649242 0 -0.085878896958769185 0.47675925450649242 0 -0.075452149305044958 0.46933040044586682 0 -0.067939054777113927 0.48291587414950521 0 -0.075452149305044958 0.46933040044586682 0 -0.067939054777113927 0.48291587414950521 0 -0.064501224992871267 0.46542691543905351 0 -0.064501224992871267 0.46542691543905351 0 -0.075214053997903707 0.45912990264989012 0 -0.070315415620740368 0.45334812155980347 0 -0.062398417199954148 0.4499603094023914 0 -0.064501224992871267 0.46542691543905351 0 -0.070315415620740368 0.45334812155980347 0 -0.075214053997903707 0.45912990264989012 0 -0.070315415620740368 0.45334812155980347 0 -0.081419329692844739 0.44979703694502599 0 -0.075452149305044958 0.46933040044586682 0 -0.064501224992871267 0.46542691543905351 0 -0.075214053997903707 0.45912990264989012 0 -0.075452149305044958 0.46933040044586682 0 -0.075214053997903707 0.45912990264989012 0 -0.082509194984251868 0.46007906520350089 0 -0.069373851585076945 0.43677151010665521 0 -0.065491549478626135 0.44200233464982802 0 -0.073041418115067244 0.44511613748665291 0 -0.062750456602468974 0.43554137489064498 0 -0.069373851585076945 0.43677151010665521 0 -0.065491549478626135 0.44200233464982802 0 -0.062398417199954148 0.4499603094023914 0 -0.065491549478626135 0.44200233464982802 0 -0.073041418115067244 0.44511613748665291 0 -0.062398417199954148 0.4499603094023914 0 -0.070315415620740368 0.45334812155980347 0 -0.073041418115067244 0.44511613748665291 0 -0.070315415620740368 0.45334812155980347 0 -0.073041418115067244 0.44511613748665291 0 -0.081419329692844739 0.44979703694502599 0 -0.073041418115067244 0.44511613748665291 0 -0.07941018481149445 0.44345804230003222 0 -0.081419329692844739 0.44979703694502599 0 -0.077689053426030094 0.43734830183904833 0 -0.069373851585076945 0.43677151010665521 0 -0.073041418115067244 0.44511613748665291 0 -0.077689053426030094 0.43734830183904833 0 -0.073041418115067244 0.44511613748665291 0 -0.07941018481149445 0.44345804230003222 0 -0.097170403390676049 0.43571281837191522 0 -0.084800361071377284 0.4267768085921303 0 -0.094675553767973264 0.45076758317000298 0 -0.084800361071377284 0.4267768085921303 0 -0.094675553767973264 0.45076758317000298 0 -0.084800361071377284 0.4267768085921303 0 -0.085627028266785254 0.44117175463919189 0 -0.094675553767973264 0.45076758317000298 0 -0.085627028266785254 0.44117175463919189 0 -0.07941018481149445 0.44345804230003222 0 -0.081419329692844739 0.44979703694502599 0 -0.077689053426030094 0.43734830183904833 0 -0.085627028266785254 0.44117175463919189 0 -0.07941018481149445 0.44345804230003222 0 -0.085627028266785254 0.44117175463919189 0 -0.081419329692844739 0.44979703694502599 0 -0.088082484801868088 0.44854024150695748 0 -0.081419329692844739 0.44979703694502599 0 -0.086047819819581178 0.45134535453790131 0 -0.088082484801868088 0.44854024150695748 0 -0.085627028266785254 0.44117175463919189 0 -0.088082484801868088 0.44854024150695748 0 -0.094675553767973264 0.45076758317000298 0 -0.086047819819581178 0.45134535453790131 0 -0.088082484801868088 0.44854024150695748 0 -0.090265281749681819 0.45351850901298468 0 -0.088082484801868088 0.44854024150695748 0 -0.090265281749681819 0.45351850901298468 0 -0.094675553767973264 0.45076758317000298 0 -0.085878896958769185 0.47675925450649242 0 -0.075452149305044958 0.46933040044586682 0 -0.082509194984251868 0.46007906520350089 0 -0.085878896958769185 0.47675925450649242 0 -0.090265281749681819 0.45351850901298468 0 -0.085878896958769185 0.47675925450649242 0 -0.090265281749681819 0.45351850901298468 0 -0.093944937474792503 0.46462082789344678 0 -0.085878896958769185 0.47675925450649242 0 -0.082509194984251868 0.46007906520350089 0 -0.090265281749681819 0.45351850901298468 0 -0.081419329692844739 0.44979703694502599 0 -0.086047819819581178 0.45134535453790131 0 -0.082509194984251868 0.46007906520350089 0 -0.075214053997903707 0.45912990264989012 0 -0.081419329692844739 0.44979703694502599 0 -0.082509194984251868 0.46007906520350089 0 -0.090265281749681819 0.45351850901298468 0 -0.093944937474792503 0.46462082789344678 0 -0.094675553767973264 0.45076758317000298 0 -0.086047819819581178 0.45134535453790131 0 -0.082509194984251868 0.46007906520350089 0 -0.090265281749681819 0.45351850901298468 0 -0.093944937474792503 0.46462082789344678 0 -0.094675553767973264 0.45076758317000298 0 -0.1045507464645692 0.47475835774787573 0 -0.094675553767973264 0.45076758317000298 0 -0.1045507464645692 0.47475835774787573 0 -0.1087715055698807 0.4588247561088431 0 -0.094675553767973264 0.45076758317000298 0 -0.1045507464645692 0.47475835774787573 0 -0.1126245701039178 0.4308246085444013 0 -0.1090807961073193 0.44665325123332839 0 -0.10338783084247161 0.44098956532991213 0 -0.097170403390676049 0.43571281837191522 0 -0.094675553767973264 0.45076758317000298 0 -0.10338783084247161 0.44098956532991213 0 -0.1087715055698807 0.4588247561088431 0 -0.094675553767973264 0.45076758317000298 0 -0.1090807961073193 0.44665325123332839 0 -0.094675553767973264 0.45076758317000298 0 -0.1090807961073193 0.44665325123332839 0 -0.10338783084247161 0.44098956532991213 0 -0.1126245701039178 0.4308246085444013 0 -0.1090807961073193 0.44665325123332839 0 -0.1242648033483075 0.43981492828754482 0 -0.1090807961073193 0.44665325123332839 0 -0.1242648033483075 0.43981492828754482 0 -0.1204057133641486 0.45504160574272429 0 -0.1087715055698807 0.4588247561088431 0 -0.1176294132596279 0.46872710166108278 0 -0.1045507464645692 0.47475835774787573 0 -0.1087715055698807 0.4588247561088431 0 -0.1204057133641486 0.45504160574272429 0 -0.1176294132596279 0.46872710166108278 0 -0.1087715055698807 0.4588247561088431 0 -0.1090807961073193 0.44665325123332839 0 -0.1204057133641486 0.45504160574272429 0 -0.13097929143795109 0.46459511115351071 0 -0.1204057133641486 0.45504160574272429 0 -0.1176294132596279 0.46872710166108278 0 -0.12908554574303099 0.47755934496718438 0 -0.1176294132596279 0.46872710166108278 0 -0.1160402402672886 0.48503019582547341 0 -0.1176294132596279 0.46872710166108278 0 -0.1160402402672886 0.48503019582547341 0 -0.1045507464645692 0.47475835774787573 0 -0.13803845513632401 0.5 0 -0.1097654836520903 0.5 0 -0.1160402402672886 0.48503019582547341 0 -0.1097654836520903 0.5 0 -0.1160402402672886 0.48503019582547341 0 -0.099362977551805121 0.48745008538217821 0 -0.081492512167856565 0.50000000000000011 0 -0.1097654836520903 0.5 0 -0.099362977551805121 0.48745008538217821 0 -0.085878896958769185 0.47675925450649242 0 -0.093944937474792503 0.46462082789344678 0 -0.1045507464645692 0.47475835774787573 0 -0.085878896958769185 0.47675925450649242 0 -0.099362977551805121 0.48745008538217821 0 -0.1045507464645692 0.47475835774787573 0 -0.1160402402672886 0.48503019582547341 0 -0.099362977551805121 0.48745008538217821 0 -0.1045507464645692 0.47475835774787573 0 -0.15850742705232401 0.077073165420907211 0 -0.17832815471062741 0.080370175701138483 0 -0.15596223049933161 0.089669487892629185 0 -0.17128916945913089 0.092189477241546317 0 -0.17832815471062741 0.080370175701138483 0 -0.15596223049933161 0.089669487892629185 0 -0.17832815471062741 0.080370175701138483 0 -0.15596223049933161 0.089669487892629185 0 -0.15850742705232401 0.077073165420907211 0 -0.16907692184479731 0.071953328836937142 0 -0.17832815471062741 0.080370175701138483 0 -0.15850742705232401 0.077073165420907211 0 -0.15722519427174569 0.065058312825911402 0 -0.16907692184479731 0.071953328836937142 0 -0.16907692184479731 0.071953328836937142 0 -0.1809864334298861 0.069780609401686525 0 -0.17832815471062741 0.080370175701138483 0 -0.16907692184479731 0.071953328836937142 0 -0.1809864334298861 0.069780609401686525 0 -0.18167022033174851 0.056262687610226528 0 -0.1809864334298861 0.069780609401686525 0 -0.17832815471062741 0.080370175701138483 0 -0.20069407892192309 0.071070863509647808 0 -0.1809864334298861 0.069780609401686525 0 -0.18167022033174851 0.056262687610226528 0 -0.1876556690991136 0.063313821709693935 0 -0.17128916945913089 0.092189477241546317 0 -0.18444466814129201 0.081023499242751457 0 -0.17631468167186989 0.1066384650542631 0 -0.17128916945913089 0.092189477241546317 0 -0.18444466814129201 0.081023499242751457 0 -0.17832815471062741 0.080370175701138483 0 -0.18444466814129201 0.081023499242751457 0 -0.17631468167186989 0.1066384650542631 0 -0.19937405773042491 0.1071019237599893 0 -0.17631468167186989 0.1066384650542631 0 -0.16393492635195239 0.1245978723337525 0 -0.1795193575176991 0.1294692331289829 0 -0.17631468167186989 0.1066384650542631 0 -0.19937405773042491 0.1071019237599893 0 -0.1795193575176991 0.1294692331289829 0 -0.16393492635195239 0.1245978723337525 0 -0.16139611227253359 0.1032457583169494 0 -0.15311233888185891 0.1152965378839053 0 -0.17631468167186989 0.1066384650542631 0 -0.16393492635195239 0.1245978723337525 0 -0.16139611227253359 0.1032457583169494 0 -0.17128916945913089 0.092189477241546317 0 -0.17631468167186989 0.1066384650542631 0 -0.16139611227253359 0.1032457583169494 0 -0.17128916945913089 0.092189477241546317 0 -0.16139611227253359 0.1032457583169494 0 -0.15596223049933161 0.089669487892629185 0 -0.16139611227253359 0.1032457583169494 0 -0.13359630628803579 0.098968800084119873 0 -0.15596223049933161 0.089669487892629185 0 -0.16139611227253359 0.1032457583169494 0 -0.15311233888185891 0.1152965378839053 0 -0.13359630628803579 0.098968800084119873 0 -0.13359630628803579 0.098968800084119873 0 -0.15596223049933161 0.089669487892629185 0 -0.15311233888185891 0.1152965378839053 0 -0.13930859898956699 0.1145050369687237 0 -0.153752621985453 0.14073392350839439 0 -0.15311233888185891 0.1152965378839053 0 -0.13930859898956699 0.1145050369687237 0 -0.13359630628803579 0.098968800084119873 0 -0.13930859898956699 0.1145050369687237 0 -0.12607259725238279 0.11330641960449821 0 -0.12916618827146031 0.12390190950899049 0 -0.13930859898956699 0.1145050369687237 0 -0.12607259725238279 0.11330641960449821 0 -0.13359630628803579 0.098968800084119873 0 -0.13359630628803579 0.098968800084119873 0 -0.12697672020224329 0.087309090757334687 0 -0.14089006822782121 0.082531143958766096 0 -0.12697672020224329 0.087309090757334687 0 -0.14089006822782121 0.082531143958766096 0 -0.12697985749263241 0.07630636069427757 0 -0.15850742705232401 0.077073165420907211 0 -0.14089006822782121 0.082531143958766096 0 -0.15596223049933161 0.089669487892629185 0 -0.13359630628803579 0.098968800084119873 0 -0.14089006822782121 0.082531143958766096 0 -0.15596223049933161 0.089669487892629185 0 -0.15850742705232401 0.077073165420907211 0 -0.14089006822782121 0.082531143958766096 0 -0.14764327064684279 0.071644858797684771 0 -0.15722519427174569 0.065058312825911402 0 -0.14764327064684279 0.071644858797684771 0 -0.1471722955607111 0.059591957907519158 0 -0.15850742705232401 0.077073165420907211 0 -0.15722519427174569 0.065058312825911402 0 -0.14764327064684279 0.071644858797684771 0 -0.14089006822782121 0.082531143958766096 0 -0.14764327064684279 0.071644858797684771 0 -0.13666502121529681 0.069478967649866344 0 -0.14764327064684279 0.071644858797684771 0 -0.13666502121529681 0.069478967649866344 0 -0.1471722955607111 0.059591957907519158 0 -0.14089006822782121 0.082531143958766096 0 -0.13666502121529681 0.069478967649866344 0 -0.12697985749263241 0.07630636069427757 0 -0.13666502121529681 0.069478967649866344 0 -0.12697985749263241 0.07630636069427757 0 -0.12509646681095879 0.065597408261105467 0 -0.13666502121529681 0.069478967649866344 0 -0.12509646681095879 0.065597408261105467 0 -0.13233523162579211 0.057527865090889828 0 -0.13233523162579211 0.057527865090889828 0 -0.1197320338084647 0.057760070231756527 0 -0.1244920148619628 0.050381604022983993 0 -0.12509646681095879 0.065597408261105467 0 -0.13233523162579211 0.057527865090889828 0 -0.1197320338084647 0.057760070231756527 0 -0.13666502121529681 0.069478967649866344 0 -0.13233523162579211 0.057527865090889828 0 -0.1471722955607111 0.059591957907519158 0 -0.13233523162579211 0.057527865090889828 0 -0.131277092146349 0.043237905602295942 0 -0.1435202772377579 0.047601805401877667 0 -0.13233523162579211 0.057527865090889828 0 -0.131277092146349 0.043237905602295942 0 -0.1244920148619628 0.050381604022983993 0 -0.131277092146349 0.043237905602295942 0 -0.14194951185496399 0.035172378083737049 0 -0.12424451236807239 0.027069144312366941 0 -0.131277092146349 0.043237905602295942 0 -0.12424451236807239 0.027069144312366941 0 -0.12075472355362291 0.04122338309529356 0 -0.131277092146349 0.043237905602295942 0 -0.12075472355362291 0.04122338309529356 0 -0.1244920148619628 0.050381604022983993 0 -0.131277092146349 0.043237905602295942 0 -0.14194951185496399 0.035172378083737049 0 -0.1435202772377579 0.047601805401877667 0 -0.14194951185496399 0.035172378083737049 0 -0.15126073753592009 0.02487777788828089 0 -0.1637260562540532 0.045028253166508762 0 -0.14194951185496399 0.035172378083737049 0 -0.1435202772377579 0.047601805401877667 0 -0.1637260562540532 0.045028253166508762 0 -0.15722519427174569 0.065058312825911402 0 -0.1471722955607111 0.059591957907519158 0 -0.1637260562540532 0.045028253166508762 0 -0.1471722955607111 0.059591957907519158 0 -0.1435202772377579 0.047601805401877667 0 -0.1637260562540532 0.045028253166508762 0 -0.13233523162579211 0.057527865090889828 0 -0.1471722955607111 0.059591957907519158 0 -0.1435202772377579 0.047601805401877667 0 -0.1244522405185825 -0.00038769298458709092 0 -0.1310798501921922 0.016754836893075501 0 -0.12424451236807239 0.027069144312366941 0 -0.1244522405185825 -0.00038769298458709092 0 -0.13302987177733741 0.0072862060594841918 0 -0.1310798501921922 0.016754836893075501 0 -0.13796817939809339 -7.5853332940862265e-05 0 -0.13302987177733741 0.0072862060594841918 0 -0.13861921700048169 0.01285353366238922 0 -0.1244522405185825 -0.00038769298458709092 0 -0.13796817939809339 -7.5853332940862265e-05 0 -0.13302987177733741 0.0072862060594841918 0 -0.13302987177733741 0.0072862060594841918 0 -0.13861921700048169 0.01285353366238922 0 -0.1310798501921922 0.016754836893075501 0 -0.14194951185496399 0.035172378083737049 0 -0.1395360945068517 0.023372288850015029 0 -0.12424451236807239 0.027069144312366941 0 -0.13861921700048169 0.01285353366238922 0 -0.1395360945068517 0.023372288850015029 0 -0.1310798501921922 0.016754836893075501 0 -0.1395360945068517 0.023372288850015029 0 -0.1310798501921922 0.016754836893075501 0 -0.12424451236807239 0.027069144312366941 0 -0.14194951185496399 0.035172378083737049 0 -0.1395360945068517 0.023372288850015029 0 -0.15126073753592009 0.02487777788828089 0 -0.15126073753592009 0.02487777788828089 0 -0.15188271994169991 0.01786916074884114 0 -0.14657132146084931 0.01677767438903701 0 -0.15126073753592009 0.02487777788828089 0 -0.15837519066330749 0.018103177496080571 0 -0.1567842680697151 0.017821512483746641 0 -0.15126073753592009 0.02487777788828089 0 -0.15188271994169991 0.01786916074884114 0 -0.1567842680697151 0.017821512483746641 0 -0.1543123506052223 0.01567032783345056 0 -0.15188271994169991 0.01786916074884114 0 -0.1567842680697151 0.017821512483746641 0 -0.13861921700048169 0.01285353366238922 0 -0.1395360945068517 0.023372288850015029 0 -0.14657132146084931 0.01677767438903701 0 -0.1395360945068517 0.023372288850015029 0 -0.15126073753592009 0.02487777788828089 0 -0.14657132146084931 0.01677767438903701 0 -0.15381676672243971 -0.0048344028756085976 0 -0.13796817939809339 -7.5853332940862265e-05 0 -0.14598604308907309 0.0075397954886723484 0 -0.15381676672243971 -0.0048344028756085976 0 -0.15837519066330749 0.018103177496080571 0 -0.15381676672243971 -0.0048344028756085976 0 -0.15182406541376531 0.011854288846745499 0 -0.15837519066330749 0.018103177496080571 0 -0.15381676672243971 -0.0048344028756085976 0 -0.15182406541376531 0.011854288846745499 0 -0.14598604308907309 0.0075397954886723484 0 -0.13861921700048169 0.01285353366238922 0 -0.14657132146084931 0.01677767438903701 0 -0.14598604308907309 0.0075397954886723484 0 -0.14657132146084931 0.01677767438903701 0 -0.15182406541376531 0.011854288846745499 0 -0.14598604308907309 0.0075397954886723484 0 -0.15188271994169991 0.01786916074884114 0 -0.14657132146084931 0.01677767438903701 0 -0.15182406541376531 0.011854288846745499 0 -0.1543123506052223 0.01567032783345056 0 -0.15182406541376531 0.011854288846745499 0 -0.15837519066330749 0.018103177496080571 0 -0.1543123506052223 0.01567032783345056 0 -0.15188271994169991 0.01786916074884114 0 -0.15182406541376531 0.011854288846745499 0 -0.13796817939809339 -7.5853332940862265e-05 0 -0.13861921700048169 0.01285353366238922 0 -0.14598604308907309 0.0075397954886723484 0 -0.15381676672243971 -0.0048344028756085976 0 -0.16872927738725291 0.0066655648670224509 0 -0.15837519066330749 0.018103177496080571 0 -0.16872927738725291 0.0066655648670224509 0 -0.15837519066330749 0.018103177496080571 0 -0.17312315274812851 0.016956976572924821 0 -0.15837519066330749 0.018103177496080571 0 -0.17088268452158301 0.030303691123205939 0 -0.18416549926151529 0.022669224655560441 0 -0.15837519066330749 0.018103177496080571 0 -0.17088268452158301 0.030303691123205939 0 -0.1637260562540532 0.045028253166508762 0 -0.15126073753592009 0.02487777788828089 0 -0.15837519066330749 0.018103177496080571 0 -0.1637260562540532 0.045028253166508762 0 -0.15837519066330749 0.018103177496080571 0 -0.18416549926151529 0.022669224655560441 0 -0.1543123506052223 0.01567032783345056 0 -0.15837519066330749 0.018103177496080571 0 -0.1567842680697151 0.017821512483746641 0 -0.15837519066330749 0.018103177496080571 0 -0.1567842680697151 0.017821512483746641 0 -0.15837519066330749 0.018103177496080571 0 -0.18416549926151529 0.022669224655560441 0 -0.17312315274812851 0.016956976572924821 0 -0.17088268452158301 0.030303691123205939 0 -0.18416549926151529 0.022669224655560441 0 -0.1815242396402782 0.037713578252632912 0 -0.18416549926151529 0.022669224655560441 0 -0.17919408738426101 0.017592611389363012 0 -0.18518118592807509 0.0154377595936586 0 -0.18416549926151529 0.022669224655560441 0 -0.17312315274812851 0.016956976572924821 0 -0.17919408738426101 0.017592611389363012 0 -0.1785064095432054 -0.0066611219507198768 0 -0.16872927738725291 0.0066655648670224509 0 -0.193034969706537 0.00064734206737222756 0 -0.16872927738725291 0.0066655648670224509 0 -0.193034969706537 0.00064734206737222756 0 -0.16872927738725291 0.0066655648670224509 0 -0.18518118592807509 0.0154377595936586 0 -0.193034969706537 0.00064734206737222756 0 -0.16872927738725291 0.0066655648670224509 0 -0.17919408738426101 0.017592611389363012 0 -0.18518118592807509 0.0154377595936586 0 -0.16872927738725291 0.0066655648670224509 0 -0.17312315274812851 0.016956976572924821 0 -0.17919408738426101 0.017592611389363012 0 -0.16907692184479731 0.071953328836937142 0 -0.1637260562540532 0.045028253166508762 0 -0.18167022033174851 0.056262687610226528 0 -0.15722519427174569 0.065058312825911402 0 -0.16907692184479731 0.071953328836937142 0 -0.1637260562540532 0.045028253166508762 0 -0.16907692184479731 0.071953328836937142 0 -0.1637260562540532 0.045028253166508762 0 -0.15837519066330749 0.018103177496080571 0 -0.1637260562540532 0.045028253166508762 0 -0.17088268452158301 0.030303691123205939 0 -0.1637260562540532 0.045028253166508762 0 -0.1815242396402782 0.037713578252632912 0 -0.1815242396402782 0.037713578252632912 0 -0.18167022033174851 0.056262687610226528 0 -0.1948999673891425 0.045815662425189529 0 -0.1637260562540532 0.045028253166508762 0 -0.1815242396402782 0.037713578252632912 0 -0.18167022033174851 0.056262687610226528 0 -0.18416549926151529 0.022669224655560441 0 -0.1815242396402782 0.037713578252632912 0 -0.19539241544158811 0.034915353149486399 0 -0.19598386328254799 0.058823167906541372 0 -0.20873259774339259 0.055173182954087172 0 -0.20069407892192309 0.071070863509647808 0 -0.18167022033174851 0.056262687610226528 0 -0.19598386328254799 0.058823167906541372 0 -0.1876556690991136 0.063313821709693935 0 -0.19598386328254799 0.058823167906541372 0 -0.1948999673891425 0.045815662425189529 0 -0.20873259774339259 0.055173182954087172 0 -0.18167022033174851 0.056262687610226528 0 -0.19598386328254799 0.058823167906541372 0 -0.1948999673891425 0.045815662425189529 0 -0.1815242396402782 0.037713578252632912 0 -0.1948999673891425 0.045815662425189529 0 -0.19539241544158811 0.034915353149486399 0 -0.1948999673891425 0.045815662425189529 0 -0.19539241544158811 0.034915353149486399 0 -0.20641656305728129 0.041143028599009299 0 -0.20641656305728129 0.041143028599009299 0 -0.20995580785972329 0.027235271815039791 0 -0.22080882119384479 0.043900986742667819 0 -0.19539241544158811 0.034915353149486399 0 -0.20641656305728129 0.041143028599009299 0 -0.20995580785972329 0.027235271815039791 0 -0.20641656305728129 0.041143028599009299 0 -0.20873259774339259 0.055173182954087172 0 -0.22080882119384479 0.043900986742667819 0 -0.20873259774339259 0.055173182954087172 0 -0.2267202713125637 0.058975611642501508 0 -0.2176358721649875 0.072186860311035453 0 -0.1948999673891425 0.045815662425189529 0 -0.20641656305728129 0.041143028599009299 0 -0.20873259774339259 0.055173182954087172 0 -0.20993853639106591 -0.0035380738047605968 0 -0.2009137908539024 0.01431144198083124 0 -0.193034969706537 0.00064734206737222756 0 -0.18518118592807509 0.0154377595936586 0 -0.2009137908539024 0.01431144198083124 0 -0.193034969706537 0.00064734206737222756 0 -0.18518118592807509 0.0154377595936586 0 -0.193034969706537 0.00064734206737222756 0 -0.18416549926151529 0.022669224655560441 0 -0.20995580785972329 0.027235271815039791 0 -0.18416549926151529 0.022669224655560441 0 -0.18518118592807509 0.0154377595936586 0 -0.2009137908539024 0.01431144198083124 0 -0.18416549926151529 0.022669224655560441 0 -0.2009137908539024 0.01431144198083124 0 -0.20995580785972329 0.027235271815039791 0 -0.18416549926151529 0.022669224655560441 0 -0.19539241544158811 0.034915353149486399 0 -0.20995580785972329 0.027235271815039791 0 -0.2009137908539024 0.01431144198083124 0 -0.20995580785972329 0.027235271815039791 0 -0.21568563774484731 0.0082874278720449449 0 -0.20993853639106591 -0.0035380738047605968 0 -0.2009137908539024 0.01431144198083124 0 -0.21568563774484731 0.0082874278720449449 0 -0.22684210307559549 -0.0077234896768903086 0 -0.21568563774484731 0.0082874278720449449 0 -0.23077795054394901 0.01115198904600462 0 -0.22684210307559549 -0.0077234896768903086 0 -0.23077795054394901 0.01115198904600462 0 -0.20995580785972329 0.027235271815039791 0 -0.21568563774484731 0.0082874278720449449 0 -0.23077795054394901 0.01115198904600462 0 -0.20995580785972329 0.027235271815039791 0 -0.2357461164579312 0.03180131897451912 0 -0.20995580785972329 0.027235271815039791 0 -0.23077795054394901 0.01115198904600462 0 -0.2357461164579312 0.03180131897451912 0 -0.23077795054394901 0.01115198904600462 0 -0.24854849079604721 0.020569936005881421 0 -0.2357461164579312 0.03180131897451912 0 -0.26153642505613889 0.036367366133998442 0 -0.24854849079604721 0.020569936005881421 0 -0.2357461164579312 0.03180131897451912 0 -0.23077795054394901 0.01115198904600462 0 -0.24854849079604721 0.020569936005881421 0 -0.24598119983726671 0.0037338506766126851 0 -0.22684210307559549 -0.0077234896768903086 0 -0.23077795054394901 0.01115198904600462 0 -0.24598119983726671 0.0037338506766126851 0 -0.20873259774339259 0.055173182954087172 0 -0.2267202713125637 0.058975611642501508 0 -0.22080882119384479 0.043900986742667819 0 -0.2267202713125637 0.058975611642501508 0 -0.22080882119384479 0.043900986742667819 0 -0.239388393447095 0.04766651035075449 0 -0.22080882119384479 0.043900986742667819 0 -0.2357461164579312 0.03180131897451912 0 -0.239388393447095 0.04766651035075449 0 -0.20995580785972329 0.027235271815039791 0 -0.22080882119384479 0.043900986742667819 0 -0.2357461164579312 0.03180131897451912 0 -0.26153642505613889 0.036367366133998442 0 -0.2357461164579312 0.03180131897451912 0 -0.26153642505613889 0.036367366133998442 0 -0.2357461164579312 0.03180131897451912 0 -0.239388393447095 0.04766651035075449 0 -0.25116276906762952 0.054241108780248931 0 -0.239388393447095 0.04766651035075449 0 -0.24035595759446179 0.060712669830591162 0 -0.2267202713125637 0.058975611642501508 0 -0.239388393447095 0.04766651035075449 0 -0.24035595759446179 0.060712669830591162 0 -0.25116276906762952 0.054241108780248931 0 -0.24035595759446179 0.060712669830591162 0 -0.24829977196364941 0.065213336215906109 0 -0.2267202713125637 0.058975611642501508 0 -0.24035595759446179 0.060712669830591162 0 -0.23791909572611269 0.075142721002645518 0 -0.24035595759446179 0.060712669830591162 0 -0.24829977196364941 0.065213336215906109 0 -0.23791909572611269 0.075142721002645518 0 -0.25064083865024739 0.073628726666345984 0 -0.23791909572611269 0.075142721002645518 0 -0.24857020570659841 0.081659589420377987 0 -0.25064083865024739 0.073628726666345984 0 -0.24829977196364941 0.065213336215906109 0 -0.23791909572611269 0.075142721002645518 0 -0.23791909572611269 0.075142721002645518 0 -0.2427234934652894 0.090762762990284518 0 -0.22646138453880821 0.085461994072224837 0 -0.25413031243694739 0.089521027236778197 0 -0.2427234934652894 0.090762762990284518 0 -0.24857020570659841 0.081659589420377987 0 -0.23791909572611269 0.075142721002645518 0 -0.2427234934652894 0.090762762990284518 0 -0.24857020570659841 0.081659589420377987 0 -0.2267202713125637 0.058975611642501508 0 -0.23791909572611269 0.075142721002645518 0 -0.2176358721649875 0.072186860311035453 0 -0.23791909572611269 0.075142721002645518 0 -0.22646138453880821 0.085461994072224837 0 -0.2176358721649875 0.072186860311035453 0 -0.20873259774339259 0.055173182954087172 0 -0.2176358721649875 0.072186860311035453 0 -0.20069407892192309 0.071070863509647808 0 -0.2176358721649875 0.072186860311035453 0 -0.20525373999263671 0.08640341449760941 0 -0.20069407892192309 0.071070863509647808 0 -0.22646138453880821 0.085461994072224837 0 -0.2176358721649875 0.072186860311035453 0 -0.20525373999263671 0.08640341449760941 0 -0.22646138453880821 0.085461994072224837 0 -0.20525373999263671 0.08640341449760941 0 -0.2161514522581473 0.1006972439961434 0 -0.18444466814129201 0.081023499242751457 0 -0.20525373999263671 0.08640341449760941 0 -0.20069407892192309 0.071070863509647808 0 -0.18444466814129201 0.081023499242751457 0 -0.20525373999263671 0.08640341449760941 0 -0.19937405773042491 0.1071019237599893 0 -0.17832815471062741 0.080370175701138483 0 -0.20069407892192309 0.071070863509647808 0 -0.18444466814129201 0.081023499242751457 0 -0.17832815471062741 0.080370175701138483 0 -0.20069407892192309 0.071070863509647808 0 -0.1809864334298861 0.069780609401686525 0 -0.1876556690991136 0.063313821709693935 0 -0.20069407892192309 0.071070863509647808 0 -0.19598386328254799 0.058823167906541372 0 -0.1876556690991136 0.063313821709693935 0 -0.20069407892192309 0.071070863509647808 0 -0.19937405773042491 0.1071019237599893 0 -0.2161514522581473 0.1006972439961434 0 -0.21430344731955769 0.133180348277227 0 -0.19937405773042491 0.1071019237599893 0 -0.19727411993202021 0.1275714443648302 0 -0.1795193575176991 0.1294692331289829 0 -0.18444466814129201 0.081023499242751457 0 -0.19937405773042491 0.1071019237599893 0 -0.20525373999263671 0.08640341449760941 0 -0.19937405773042491 0.1071019237599893 0 -0.2161514522581473 0.1006972439961434 0 -0.19937405773042491 0.1071019237599893 0 -0.21430344731955769 0.133180348277227 0 -0.19937405773042491 0.1071019237599893 0 -0.19727411993202021 0.1275714443648302 0 -0.21430344731955769 0.133180348277227 0 -0.2161514522581473 0.1006972439961434 0 -0.23231730930006211 0.10853516007106349 0 -0.21430344731955769 0.133180348277227 0 -0.2427234934652894 0.090762762990284518 0 -0.22646138453880821 0.085461994072224837 0 -0.23231730930006211 0.10853516007106349 0 -0.22646138453880821 0.085461994072224837 0 -0.2161514522581473 0.1006972439961434 0 -0.23231730930006211 0.10853516007106349 0 -0.25610310449345419 0.1041046972302731 0 -0.2427234934652894 0.090762762990284518 0 -0.23231730930006211 0.10853516007106349 0 -0.25610310449345419 0.1041046972302731 0 -0.23231730930006211 0.10853516007106349 0 -0.2495823492922267 0.12121763785839371 0 -0.23231730930006211 0.10853516007106349 0 -0.2495823492922267 0.12121763785839371 0 -0.23849568892714909 0.13696143350773771 0 -0.23231730930006211 0.10853516007106349 0 -0.23849568892714909 0.13696143350773771 0 -0.25477231595188199 0.13792181725732239 0 -0.2495823492922267 0.12121763785839371 0 -0.23849568892714909 0.13696143350773771 0 -0.23231730930006211 0.10853516007106349 0 -0.23849568892714909 0.13696143350773771 0 -0.21430344731955769 0.133180348277227 0 -0.23849568892714909 0.13696143350773771 0 -0.22923283690869051 0.15925877279446471 0 -0.21430344731955769 0.133180348277227 0 -0.22923283690869051 0.15925877279446471 0 -0.21430344731955769 0.133180348277227 0 -0.2543915534089356 0.15018751405662761 0 -0.23849568892714909 0.13696143350773771 0 -0.24467406855423091 0.1653877069444131 0 -0.23849568892714909 0.13696143350773771 0 -0.24467406855423091 0.1653877069444131 0 -0.22923283690869051 0.15925877279446471 0 -0.2543915534089356 0.15018751405662761 0 -0.25477231595188199 0.13792181725732239 0 -0.23849568892714909 0.13696143350773771 0 -0.23849568892714909 0.13696143350773771 0 -0.24467406855423091 0.1653877069444131 0 -0.24467406855423091 0.1653877069444131 0 -0.2350219134637796 0.18103954803765679 0 -0.22379977898383499 0.16989282922580509 0 -0.24467406855423091 0.1653877069444131 0 -0.24947341468037071 0.1874691479585941 0 -0.2350219134637796 0.18103954803765679 0 -0.24467406855423091 0.1653877069444131 0 -0.24947341468037071 0.1874691479585941 0 -0.2350219134637796 0.18103954803765679 0 -0.22004124654446131 0.18611549732905991 0 -0.22379977898383499 0.16989282922580509 0 -0.24467406855423091 0.1653877069444131 0 -0.22379977898383499 0.16989282922580509 0 -0.22923283690869051 0.15925877279446471 0 -0.22379977898383499 0.16989282922580509 0 -0.22923283690869051 0.15925877279446471 0 -0.20989634202023699 0.1560844752241346 0 -0.24467406855423091 0.1653877069444131 0 -0.22379977898383499 0.16989282922580509 0 -0.22379977898383499 0.16989282922580509 0 -0.20292548941343971 0.17439795150720031 0 -0.20989634202023699 0.1560844752241346 0 -0.20292548941343971 0.17439795150720031 0 -0.20989634202023699 0.1560844752241346 0 -0.17833905569944569 0.15756593750779829 0 -0.22379977898383499 0.16989282922580509 0 -0.20292548941343971 0.17439795150720031 0 -0.22004124654446131 0.18611549732905991 0 -0.22379977898383499 0.16989282922580509 0 -0.20292548941343971 0.17439795150720031 0 -0.22004124654446131 0.18611549732905991 0 -0.20292548941343971 0.17439795150720031 0 -0.22004124654446131 0.18611549732905991 0 -0.20292548941343971 0.17439795150720031 0 -0.20568385543668641 0.19260324117033031 0 -0.20292548941343971 0.17439795150720031 0 -0.1757122088887666 0.1802711648698879 0 -0.20292548941343971 0.17439795150720031 0 -0.1897130520823497 0.19444680225630501 0 -0.1757122088887666 0.1802711648698879 0 -0.20292548941343971 0.17439795150720031 0 -0.20568385543668641 0.19260324117033031 0 -0.1897130520823497 0.19444680225630501 0 -0.20292548941343971 0.17439795150720031 0 -0.17833905569944569 0.15756593750779829 0 -0.19589961716039911 0.1405342722931214 0 -0.20989634202023699 0.1560844752241346 0 -0.17833905569944569 0.15756593750779829 0 -0.19727411993202021 0.1275714443648302 0 -0.19589961716039911 0.1405342722931214 0 -0.1795193575176991 0.1294692331289829 0 -0.19727411993202021 0.1275714443648302 0 -0.19589961716039911 0.1405342722931214 0 -0.21430344731955769 0.133180348277227 0 -0.22923283690869051 0.15925877279446471 0 -0.21430344731955769 0.133180348277227 0 -0.20989634202023699 0.1560844752241346 0 -0.19589961716039911 0.1405342722931214 0 -0.21430344731955769 0.133180348277227 0 -0.20989634202023699 0.1560844752241346 0 -0.23288038931281729 0.23888496135878451 0 -0.21994142138302111 0.22426230620998819 0 -0.21218175950055909 0.24952722652004439 0 -0.22667039518801041 0.25355429459537898 0 -0.23288038931281729 0.23888496135878451 0 -0.21218175950055909 0.24952722652004439 0 -0.2416444700809012 0.25186566196455601 0 -0.22667039518801041 0.25355429459537898 0 -0.23288038931281729 0.23888496135878451 0 -0.2416444700809012 0.25186566196455601 0 -0.23288038931281729 0.23888496135878451 0 -0.2470081454867771 0.2422065880623451 0 -0.25693865295534157 0.25278860643768353 0 -0.2416444700809012 0.25186566196455601 0 -0.2470081454867771 0.2422065880623451 0 -0.25109603964961891 0.234366577265785 0 -0.2470081454867771 0.2422065880623451 0 -0.24424918889796191 0.23342051569475999 0 -0.23288038931281729 0.23888496135878451 0 -0.2470081454867771 0.2422065880623451 0 -0.24424918889796191 0.23342051569475999 0 -0.23288038931281729 0.23888496135878451 0 -0.24424918889796191 0.23342051569475999 0 -0.2396805993576108 0.22455316273993289 0 -0.24424918889796191 0.23342051569475999 0 -0.249817319625419 0.2274340479663062 0 -0.2396805993576108 0.22455316273993289 0 -0.25109603964961891 0.234366577265785 0 -0.24424918889796191 0.23342051569475999 0 -0.249817319625419 0.2274340479663062 0 -0.249817319625419 0.2274340479663062 0 -0.24904636230289101 0.22050689045355901 0 -0.2396805993576108 0.22455316273993289 0 -0.24904636230289101 0.22050689045355901 0 -0.2396805993576108 0.22455316273993289 0 -0.24333230173327219 0.21221501244476959 0 -0.2396805993576108 0.22455316273993289 0 -0.21994142138302111 0.22426230620998819 0 -0.23304733008138001 0.21339205942673259 0 -0.23288038931281729 0.23888496135878451 0 -0.2396805993576108 0.22455316273993289 0 -0.21994142138302111 0.22426230620998819 0 -0.21994142138302111 0.22426230620998819 0 -0.22770108326548311 0.19899738589993199 0 -0.210353022999335 0.20567537760669019 0 -0.21994142138302111 0.22426230620998819 0 -0.23304733008138001 0.21339205942673259 0 -0.22770108326548311 0.19899738589993199 0 -0.21994142138302111 0.22426230620998819 0 -0.22770108326548311 0.19899738589993199 0 -0.23304733008138001 0.21339205942673259 0 -0.2346933251094325 0.20523388649383931 0 -0.22770108326548311 0.19899738589993199 0 -0.25427276080650663 0.20955058897277601 0 -0.23715700367548431 0.1978330431509176 0 -0.2396805993576108 0.22455316273993289 0 -0.23304733008138001 0.21339205942673259 0 -0.24333230173327219 0.21221501244476959 0 -0.25427276080650663 0.20955058897277601 0 -0.24333230173327219 0.21221501244476959 0 -0.23715700367548431 0.1978330431509176 0 -0.25561524088587501 0.21572724177218369 0 -0.24904636230289101 0.22050689045355901 0 -0.24333230173327219 0.21221501244476959 0 -0.24333230173327219 0.21221501244476959 0 -0.2346933251094325 0.20523388649383931 0 -0.23715700367548431 0.1978330431509176 0 -0.23304733008138001 0.21339205942673259 0 -0.24333230173327219 0.21221501244476959 0 -0.2346933251094325 0.20523388649383931 0 -0.25427276080650663 0.20955058897277601 0 -0.24947341468037071 0.1874691479585941 0 -0.23715700367548431 0.1978330431509176 0 -0.24947341468037071 0.1874691479585941 0 -0.2350219134637796 0.18103954803765679 0 -0.23715700367548431 0.1978330431509176 0 -0.22004124654446131 0.18611549732905991 0 -0.23715700367548431 0.1978330431509176 0 -0.22004124654446131 0.18611549732905991 0 -0.23715700367548431 0.1978330431509176 0 -0.22770108326548311 0.19899738589993199 0 -0.2350219134637796 0.18103954803765679 0 -0.22004124654446131 0.18611549732905991 0 -0.23715700367548431 0.1978330431509176 0 -0.2346933251094325 0.20523388649383931 0 -0.23715700367548431 0.1978330431509176 0 -0.22770108326548311 0.19899738589993199 0 -0.22004124654446131 0.18611549732905991 0 -0.22770108326548311 0.19899738589993199 0 -0.21594480206149139 0.19584787550150309 0 -0.22770108326548311 0.19899738589993199 0 -0.21594480206149139 0.19584787550150309 0 -0.210353022999335 0.20567537760669019 0 -0.22004124654446131 0.18611549732905991 0 -0.21594480206149139 0.19584787550150309 0 -0.20568385543668641 0.19260324117033031 0 -0.21594480206149139 0.19584787550150309 0 -0.20568385543668641 0.19260324117033031 0 -0.210353022999335 0.20567537760669019 0 -0.20568385543668641 0.19260324117033031 0 -0.19800517532583911 0.2033181044808495 0 -0.210353022999335 0.20567537760669019 0 -0.20568385543668641 0.19260324117033031 0 -0.1897130520823497 0.19444680225630501 0 -0.19800517532583911 0.2033181044808495 0 -0.1897130520823497 0.19444680225630501 0 -0.19800517532583911 0.2033181044808495 0 -0.1863200837324982 0.20555600776477401 0 -0.19800517532583911 0.2033181044808495 0 -0.19795586237832599 0.21830909360614789 0 -0.210353022999335 0.20567537760669019 0 -0.19800517532583911 0.2033181044808495 0 -0.19795586237832599 0.21830909360614789 0 -0.1863200837324982 0.20555600776477401 0 -0.19795586237832599 0.21830909360614789 0 -0.18240126852579899 0.21930684119835961 0 -0.1863200837324982 0.20555600776477401 0 -0.21994142138302111 0.22426230620998819 0 -0.19795586237832599 0.21830909360614789 0 -0.210353022999335 0.20567537760669019 0 -0.21994142138302111 0.22426230620998819 0 -0.19795586237832599 0.21830909360614789 0 -0.20314208847108339 0.23556135501649109 0 -0.19795586237832599 0.21830909360614789 0 -0.18651378479530609 0.23505073182760211 0 -0.18240126852579899 0.21930684119835961 0 -0.19795586237832599 0.21830909360614789 0 -0.20314208847108339 0.23556135501649109 0 -0.18651378479530609 0.23505073182760211 0 -0.1929026130837673 0.25762258695206858 0 -0.20314208847108339 0.23556135501649109 0 -0.18651378479530609 0.23505073182760211 0 -0.1929026130837673 0.25762258695206858 0 -0.20314208847108339 0.23556135501649109 0 -0.21218175950055909 0.24952722652004439 0 -0.21994142138302111 0.22426230620998819 0 -0.21218175950055909 0.24952722652004439 0 -0.21994142138302111 0.22426230620998819 0 -0.20314208847108339 0.23556135501649109 0 -0.21218175950055909 0.24952722652004439 0 -0.16582228118094081 0.26466105519565358 0 -0.18651378479530609 0.23505073182760211 0 -0.1608218935138386 0.23306973899941771 0 -0.16582228118094081 0.26466105519565358 0 -0.14534546737678511 0.25129379472131641 0 -0.1608218935138386 0.23306973899941771 0 -0.18651378479530609 0.23505073182760211 0 -0.1608218935138386 0.23306973899941771 0 -0.18651378479530609 0.23505073182760211 0 -0.18240126852579899 0.21930684119835961 0 -0.1608218935138386 0.23306973899941771 0 -0.1608218935138386 0.23306973899941771 0 -0.16716432822862029 0.21469463307327219 0 -0.14537567171977789 0.21373021027012479 0 -0.18240126852579899 0.21930684119835961 0 -0.1608218935138386 0.23306973899941771 0 -0.16716432822862029 0.21469463307327219 0 -0.16716432822862029 0.21469463307327219 0 -0.15728284033457929 0.19872471446884221 0 -0.14537567171977789 0.21373021027012479 0 -0.16716432822862029 0.21469463307327219 0 -0.1863200837324982 0.20555600776477401 0 -0.15728284033457929 0.19872471446884221 0 -0.18240126852579899 0.21930684119835961 0 -0.16716432822862029 0.21469463307327219 0 -0.1863200837324982 0.20555600776477401 0 -0.1863200837324982 0.20555600776477401 0 -0.1747365466553682 0.1940095109997643 0 -0.15728284033457929 0.19872471446884221 0 -0.1897130520823497 0.19444680225630501 0 -0.1863200837324982 0.20555600776477401 0 -0.1747365466553682 0.1940095109997643 0 -0.1897130520823497 0.19444680225630501 0 -0.1747365466553682 0.1940095109997643 0 -0.1757122088887666 0.1802711648698879 0 -0.1747365466553682 0.1940095109997643 0 -0.16534449221108169 0.19019064904669619 0 -0.1757122088887666 0.1802711648698879 0 -0.1863200837324982 0.20555600776477401 0 -0.15728284033457929 0.19872471446884221 0 -0.1747365466553682 0.1940095109997643 0 -0.16534449221108169 0.19019064904669619 0 -0.15728284033457929 0.19872471446884221 0 -0.16534449221108169 0.19019064904669619 0 -0.15728284033457929 0.19872471446884221 0 -0.15629575781976141 0.184461654133797 0 -0.15728284033457929 0.19872471446884221 0 -0.12824559693666041 0.19189342117291039 0 -0.15629575781976141 0.184461654133797 0 -0.15728284033457929 0.19872471446884221 0 -0.12824559693666041 0.19189342117291039 0 -0.14537567171977789 0.21373021027012479 0 -0.15728284033457929 0.19872471446884221 0 -0.12824559693666041 0.19189342117291039 0 -0.12824559693666041 0.19189342117291039 0 -0.14537567171977789 0.21373021027012479 0 -0.1242544958201173 0.21504107598638081 0 -0.1608218935138386 0.23306973899941771 0 -0.14537567171977789 0.21373021027012479 0 -0.13513000223237101 0.23108874617123329 0 -0.1608218935138386 0.23306973899941771 0 -0.13513000223237101 0.23108874617123329 0 -0.14537567171977789 0.21373021027012479 0 -0.13513000223237101 0.23108874617123329 0 -0.1242544958201173 0.21504107598638081 0 -0.14534546737678511 0.25129379472131641 0 -0.13513000223237101 0.23108874617123329 0 -0.12470300375741469 0.2457033751303839 0 -0.14534546737678511 0.25129379472131641 0 -0.1608218935138386 0.23306973899941771 0 -0.13513000223237101 0.23108874617123329 0 -0.17833905569944569 0.15756593750779829 0 -0.1561619761378806 0.16047685630827471 0 -0.153752621985453 0.14073392350839439 0 -0.1795193575176991 0.1294692331289829 0 -0.17833905569944569 0.15756593750779829 0 -0.153752621985453 0.14073392350839439 0 -0.17833905569944569 0.15756593750779829 0 -0.153752621985453 0.14073392350839439 0 -0.16393492635195239 0.1245978723337525 0 -0.15311233888185891 0.1152965378839053 0 -0.153752621985453 0.14073392350839439 0 -0.16393492635195239 0.1245978723337525 0 -0.1795193575176991 0.1294692331289829 0 -0.153752621985453 0.14073392350839439 0 -0.19589961716039911 0.1405342722931214 0 -0.1795193575176991 0.1294692331289829 0 -0.17833905569944569 0.15756593750779829 0 -0.20292548941343971 0.17439795150720031 0 -0.17833905569944569 0.15756593750779829 0 -0.1757122088887666 0.1802711648698879 0 -0.1897130520823497 0.19444680225630501 0 -0.1757122088887666 0.1802711648698879 0 -0.16534449221108169 0.19019064904669619 0 -0.1757122088887666 0.1802711648698879 0 -0.15629575781976141 0.184461654133797 0 -0.1757122088887666 0.1802711648698879 0 -0.15629575781976141 0.184461654133797 0 -0.1757122088887666 0.1802711648698879 0 -0.15629575781976141 0.184461654133797 0 -0.1561619761378806 0.16047685630827471 0 -0.17833905569944569 0.15756593750779829 0 -0.1757122088887666 0.1802711648698879 0 -0.1561619761378806 0.16047685630827471 0 -0.1757122088887666 0.1802711648698879 0 -0.1561619761378806 0.16047685630827471 0 -0.1561619761378806 0.16047685630827471 0 -0.14126926821389521 0.17232478353634881 0 -0.1371080151487378 0.15864895140394189 0 -0.15629575781976141 0.184461654133797 0 -0.1561619761378806 0.16047685630827471 0 -0.14126926821389521 0.17232478353634881 0 -0.12824559693666041 0.19189342117291039 0 -0.15629575781976141 0.184461654133797 0 -0.14126926821389521 0.17232478353634881 0 -0.12824559693666041 0.19189342117291039 0 -0.14126926821389521 0.17232478353634881 0 -0.1248941403316576 0.1686438139500778 0 -0.14126926821389521 0.17232478353634881 0 -0.1371080151487378 0.15864895140394189 0 -0.1248941403316576 0.1686438139500778 0 -0.1371080151487378 0.15864895140394189 0 -0.1239269324459726 0.1539154783358255 0 -0.1248941403316576 0.1686438139500778 0 -0.1371080151487378 0.15864895140394189 0 -0.13661174338699569 0.1406825477466605 0 -0.1239269324459726 0.1539154783358255 0 -0.1561619761378806 0.16047685630827471 0 -0.13661174338699569 0.1406825477466605 0 -0.1561619761378806 0.16047685630827471 0 -0.13661174338699569 0.1406825477466605 0 -0.153752621985453 0.14073392350839439 0 -0.1561619761378806 0.16047685630827471 0 -0.1371080151487378 0.15864895140394189 0 -0.13661174338699569 0.1406825477466605 0 -0.12916618827146031 0.12390190950899049 0 -0.153752621985453 0.14073392350839439 0 -0.13930859898956699 0.1145050369687237 0 -0.12916618827146031 0.12390190950899049 0 -0.153752621985453 0.14073392350839439 0 -0.13661174338699569 0.1406825477466605 0 -0.11706151063611089 0.1208882391850464 0 -0.12916618827146031 0.12390190950899049 0 -0.13661174338699569 0.1406825477466605 0 -0.11706151063611089 0.1208882391850464 0 -0.12916618827146031 0.12390190950899049 0 -0.13661174338699569 0.1406825477466605 0 -0.153752621985453 0.14073392350839439 0 -0.13661174338699569 0.1406825477466605 0 -0.11473911200363 0.13153944404780621 0 -0.1132109842275667 0.1430328284895945 0 -0.13661174338699569 0.1406825477466605 0 -0.11473911200363 0.13153944404780621 0 -0.11706151063611089 0.1208882391850464 0 -0.11473911200363 0.13153944404780621 0 -0.1039338124667491 0.13009472872812991 0 -0.1132109842275667 0.1430328284895945 0 -0.11473911200363 0.13153944404780621 0 -0.1039338124667491 0.13009472872812991 0 -0.10601879130899509 0.12208205668825579 0 -0.1039338124667491 0.13009472872812991 0 -0.093398168270057425 0.14218175111966569 0 -0.093946486761182085 0.1175508364221631 0 -0.1039338124667491 0.13009472872812991 0 -0.1132109842275667 0.1430328284895945 0 -0.093398168270057425 0.14218175111966569 0 -0.1078097791349048 0.15856925008885259 0 -0.089544080768145809 0.16137822361845131 0 -0.093398168270057425 0.14218175111966569 0 -0.1132109842275667 0.1430328284895945 0 -0.1078097791349048 0.15856925008885259 0 -0.093398168270057425 0.14218175111966569 0 -0.13661174338699569 0.1406825477466605 0 -0.1132109842275667 0.1430328284895945 0 -0.1239269324459726 0.1539154783358255 0 -0.1132109842275667 0.1430328284895945 0 -0.1239269324459726 0.1539154783358255 0 -0.1078097791349048 0.15856925008885259 0 -0.1248941403316576 0.1686438139500778 0 -0.099208353538741523 0.18506212787697859 0 -0.1078097791349048 0.15856925008885259 0 -0.1239269324459726 0.1539154783358255 0 -0.1248941403316576 0.1686438139500778 0 -0.1078097791349048 0.15856925008885259 0 -0.12824559693666041 0.19189342117291039 0 -0.1248941403316576 0.1686438139500778 0 -0.099208353538741523 0.18506212787697859 0 -0.099208353538741523 0.18506212787697859 0 -0.1078097791349048 0.15856925008885259 0 -0.089544080768145809 0.16137822361845131 0 -0.089544080768145809 0.16137822361845131 0 -0.070171110140822543 0.1782308345810468 0 -0.074669823138777097 0.15727584041375819 0 -0.099208353538741523 0.18506212787697859 0 -0.089544080768145809 0.16137822361845131 0 -0.070171110140822543 0.1782308345810468 0 -0.099208353538741523 0.18506212787697859 0 -0.070171110140822543 0.1782308345810468 0 -0.070171110140822543 0.1782308345810468 0 -0.074669823138777097 0.15727584041375819 0 -0.057722578482997257 0.16273086802879619 0 -0.074669823138777097 0.15727584041375819 0 -0.066369438716585821 0.14892706699039879 0 -0.057722578482997257 0.16273086802879619 0 -0.074669823138777097 0.15727584041375819 0 -0.066369438716585821 0.14892706699039879 0 -0.074733199104357148 0.14603812585323231 0 -0.074669823138777097 0.15727584041375819 0 -0.074733199104357148 0.14603812585323231 0 -0.082756465015383474 0.1492386270883771 0 -0.074733199104357148 0.14603812585323231 0 -0.067315024607703278 0.13662092079142449 0 -0.081437053795579945 0.1393191944367777 0 -0.066369438716585821 0.14892706699039879 0 -0.074733199104357148 0.14603812585323231 0 -0.067315024607703278 0.13662092079142449 0 -0.066369438716585821 0.14892706699039879 0 -0.067315024607703278 0.13662092079142449 0 -0.054361576129613079 0.15178129246158931 0 -0.067315024607703278 0.13662092079142449 0 -0.088852304720190942 0.12644129241805541 0 -0.067315024607703278 0.13662092079142449 0 -0.088852304720190942 0.12644129241805541 0 -0.075786521408142987 0.12443322189858901 0 -0.067315024607703278 0.13662092079142449 0 -0.062016764747578973 0.12884034001808189 0 -0.075786521408142987 0.12443322189858901 0 -0.088852304720190942 0.12644129241805541 0 -0.093398168270057425 0.14218175111966569 0 -0.093946486761182085 0.1175508364221631 0 -0.067315024607703278 0.13662092079142449 0 -0.081437053795579945 0.1393191944367777 0 -0.088852304720190942 0.12644129241805541 0 -0.093398168270057425 0.14218175111966569 0 -0.093946486761182085 0.1175508364221631 0 -0.081437053795579945 0.1393191944367777 0 -0.088852304720190942 0.12644129241805541 0 -0.093398168270057425 0.14218175111966569 0 -0.089544080768145809 0.16137822361845131 0 -0.093398168270057425 0.14218175111966569 0 -0.082756465015383474 0.1492386270883771 0 -0.089544080768145809 0.16137822361845131 0 -0.074669823138777097 0.15727584041375819 0 -0.082756465015383474 0.1492386270883771 0 -0.074733199104357148 0.14603812585323231 0 -0.081437053795579945 0.1393191944367777 0 -0.082756465015383474 0.1492386270883771 0 -0.081437053795579945 0.1393191944367777 0 -0.093398168270057425 0.14218175111966569 0 -0.082756465015383474 0.1492386270883771 0 -0.11076524853809321 0.25238606884059173 0 -0.1094381109509034 0.22910775334304889 0 -0.091345724210048884 0.23566487628332011 0 -0.11076524853809321 0.25238606884059173 0 -0.092391857727521592 0.25884509119311472 0 -0.091345724210048884 0.23566487628332011 0 -0.13513000223237101 0.23108874617123329 0 -0.12470300375741469 0.2457033751303839 0 -0.1094381109509034 0.22910775334304889 0 -0.11076524853809321 0.25238606884059173 0 -0.12470300375741469 0.2457033751303839 0 -0.1094381109509034 0.22910775334304889 0 -0.13513000223237101 0.23108874617123329 0 -0.1094381109509034 0.22910775334304889 0 -0.13513000223237101 0.23108874617123329 0 -0.1094381109509034 0.22910775334304889 0 -0.1242544958201173 0.21504107598638081 0 -0.1094381109509034 0.22910775334304889 0 -0.10308309726087379 0.20938524897458621 0 -0.091345724210048884 0.23566487628332011 0 -0.1094381109509034 0.22910775334304889 0 -0.10308309726087379 0.20938524897458621 0 -0.1242544958201173 0.21504107598638081 0 -0.12824559693666041 0.19189342117291039 0 -0.10308309726087379 0.20938524897458621 0 -0.1242544958201173 0.21504107598638081 0 -0.12824559693666041 0.19189342117291039 0 -0.099208353538741523 0.18506212787697859 0 -0.12824559693666041 0.19189342117291039 0 -0.099208353538741523 0.18506212787697859 0 -0.10308309726087379 0.20938524897458621 0 -0.099208353538741523 0.18506212787697859 0 -0.070171110140822543 0.1782308345810468 0 -0.078220861930521898 0.21057701145176541 0 -0.070171110140822543 0.1782308345810468 0 -0.078220861930521898 0.21057701145176541 0 -0.056949983849450658 0.19269083667038239 0 -0.099208353538741523 0.18506212787697859 0 -0.10308309726087379 0.20938524897458621 0 -0.078220861930521898 0.21057701145176541 0 -0.078220861930521898 0.21057701145176541 0 -0.056178602179823331 0.21732906463454121 0 -0.056949983849450658 0.19269083667038239 0 -0.10308309726087379 0.20938524897458621 0 -0.078220861930521898 0.21057701145176541 0 -0.091345724210048884 0.23566487628332011 0 -0.078220861930521898 0.21057701145176541 0 -0.069221313838413207 0.24642852661517459 0 -0.091345724210048884 0.23566487628332011 0 -0.078220861930521898 0.21057701145176541 0 -0.069221313838413207 0.24642852661517459 0 -0.056178602179823331 0.21732906463454121 0 -0.092391857727521592 0.25884509119311472 0 -0.069221313838413207 0.24642852661517459 0 -0.091345724210048884 0.23566487628332011 0 -0.033382390283993792 0.24359412621706661 0 -0.046050769949304807 0.23401196203723451 0 -0.025866468353912139 0.2289639569827632 0 -0.048126263350958612 0.25465777805589501 0 -0.033382390283993792 0.24359412621706661 0 -0.046050769949304807 0.23401196203723451 0 -0.048126263350958612 0.25465777805589501 0 -0.069221313838413207 0.24642852661517459 0 -0.046050769949304807 0.23401196203723451 0 -0.069221313838413207 0.24642852661517459 0 -0.046050769949304807 0.23401196203723451 0 -0.069221313838413207 0.24642852661517459 0 -0.046050769949304807 0.23401196203723451 0 -0.056178602179823331 0.21732906463454121 0 -0.046050769949304807 0.23401196203723451 0 -0.03692704292774221 0.2147422921961073 0 -0.025866468353912139 0.2289639569827632 0 -0.046050769949304807 0.23401196203723451 0 -0.03692704292774221 0.2147422921961073 0 -0.056178602179823331 0.21732906463454121 0 -0.03692704292774221 0.2147422921961073 0 -0.056178602179823331 0.21732906463454121 0 -0.044221089124866657 0.20193605474889509 0 -0.03692704292774221 0.2147422921961073 0 -0.044221089124866657 0.20193605474889509 0 -0.032331133115066808 0.19858524020914661 0 -0.056178602179823331 0.21732906463454121 0 -0.056949983849450658 0.19269083667038239 0 -0.044221089124866657 0.20193605474889509 0 -0.056949983849450658 0.19269083667038239 0 -0.040360849617421202 0.18777351164107661 0 -0.044221089124866657 0.20193605474889509 0 -0.040360849617421202 0.18777351164107661 0 -0.032331133115066808 0.19858524020914661 0 -0.026751027678188599 0.18229597604057349 0 -0.040360849617421202 0.18777351164107661 0 -0.044221089124866657 0.20193605474889509 0 -0.032331133115066808 0.19858524020914661 0 -0.016914194843479571 0.2076274745640635 0 -0.026751027678188599 0.18229597604057349 0 -0.032331133115066808 0.19858524020914661 0 -0.016914194843479571 0.2076274745640635 0 -0.026751027678188599 0.18229597604057349 0 -0.01405220631290922 0.19352016069679451 0 -0.016914194843479571 0.2076274745640635 0 -0.026751027678188599 0.18229597604057349 0 -0.01405220631290922 0.19352016069679451 0 -0.0012364494800765971 0.1960628175593882 0 -0.01891215499648707 0.1765136475382359 0 -0.01405220631290922 0.19352016069679451 0 -0.0012364494800765971 0.1960628175593882 0 -0.0064787008301582438 0.20475797647738719 0 -0.0012364494800765971 0.1960628175593882 0 -0.0064787008301582438 0.20475797647738719 0 0.003893562275735573 0.2064819102401671 0 -0.01405220631290922 0.19352016069679451 0 -0.0064787008301582438 0.20475797647738719 0 -0.016914194843479571 0.2076274745640635 0 -0.0045317147067566524 0.21522543551468479 0 -0.016914194843479571 0.2076274745640635 0 -0.0070773620087705444 0.23295897308755351 0 -0.0064787008301582438 0.20475797647738719 0 -0.0045317147067566524 0.21522543551468479 0 -0.016914194843479571 0.2076274745640635 0 -0.0064787008301582438 0.20475797647738719 0 -0.0045317147067566524 0.21522543551468479 0 0.003893562275735573 0.2064819102401671 0 -0.03692704292774221 0.2147422921961073 0 -0.016914194843479571 0.2076274745640635 0 -0.025866468353912139 0.2289639569827632 0 -0.03692704292774221 0.2147422921961073 0 -0.032331133115066808 0.19858524020914661 0 -0.016914194843479571 0.2076274745640635 0 -0.016914194843479571 0.2076274745640635 0 -0.025866468353912139 0.2289639569827632 0 -0.0070773620087705444 0.23295897308755351 0 -0.016914194843479571 0.2076274745640635 0 -0.0070773620087705444 0.23295897308755351 0 -0.0045317147067566524 0.21522543551468479 0 -0.0070773620087705444 0.23295897308755351 0 0.0038866256090455522 0.2239579318999283 0 -0.0070773620087705444 0.23295897308755351 0 0.001894876929373096 0.24743045501984201 0 0.0027594708259384838 0.25829047161104352 0 -0.0070773620087705444 0.23295897308755351 0 0.0027594708259384838 0.25829047161104352 0 -0.0087132352456033638 0.25173417187717928 0 -0.0070773620087705444 0.23295897308755351 0 -0.01778818590069102 0.2421293126167848 0 -0.0087132352456033638 0.25173417187717928 0 -0.0070773620087705444 0.23295897308755351 0 0.0027594708259384838 0.25829047161104352 0 -0.025866468353912139 0.2289639569827632 0 -0.0070773620087705444 0.23295897308755351 0 -0.01778818590069102 0.2421293126167848 0 -0.028053557715267439 0.25838243531431121 0 -0.033382390283993792 0.24359412621706661 0 -0.01778818590069102 0.2421293126167848 0 -0.033382390283993792 0.24359412621706661 0 -0.025866468353912139 0.2289639569827632 0 -0.01778818590069102 0.2421293126167848 0 -0.044416936009294992 0.14744373737619401 0 -0.030319635528424791 0.14770209815471691 0 -0.021396469969749188 0.1374028974533886 0 -0.044416936009294992 0.14744373737619401 0 -0.030319635528424791 0.14770209815471691 0 -0.027639103276038759 0.15537380566908321 0 -0.044416936009294992 0.14744373737619401 0 -0.038116788675066252 0.15302723042411279 0 -0.027639103276038759 0.15537380566908321 0 -0.044416936009294992 0.14744373737619401 0 -0.041458398192443832 0.13942314763129199 0 -0.021396469969749188 0.1374028974533886 0 -0.044416936009294992 0.14744373737619401 0 -0.027639103276038759 0.15537380566908321 0 -0.044416936009294992 0.14744373737619401 0 -0.021396469969749188 0.1374028974533886 0 -0.044416936009294992 0.14744373737619401 0 -0.036587860512897558 0.15696447751708351 0 -0.044416936009294992 0.14744373737619401 0 -0.047012455662473793 0.15786975055381819 0 -0.036587860512897558 0.15696447751708351 0 -0.044416936009294992 0.14744373737619401 0 -0.038116788675066252 0.15302723042411279 0 -0.036587860512897558 0.15696447751708351 0 -0.038116788675066252 0.15302723042411279 0 -0.036587860512897558 0.15696447751708351 0 -0.027639103276038759 0.15537380566908321 0 -0.038116788675066252 0.15302723042411279 0 -0.036587860512897558 0.15696447751708351 0 -0.037500573576258918 0.13069979942664511 0 -0.041458398192443832 0.13942314763129199 0 -0.021396469969749188 0.1374028974533886 0 -0.037500573576258918 0.13069979942664511 0 -0.028643554108799551 0.12806760582925611 0 -0.034668926388748328 0.1237436995229996 0 -0.037500573576258918 0.13069979942664511 0 -0.047589673205635397 0.1324549890601831 0 -0.046884900963607742 0.11986348336078891 0 -0.037500573576258918 0.13069979942664511 0 -0.041458398192443832 0.13942314763129199 0 -0.047589673205635397 0.1324549890601831 0 -0.044416936009294992 0.14744373737619401 0 -0.041458398192443832 0.13942314763129199 0 -0.047589673205635397 0.1324549890601831 0 -0.067315024607703278 0.13662092079142449 0 -0.044416936009294992 0.14744373737619401 0 -0.062016764747578973 0.12884034001808189 0 -0.044416936009294992 0.14744373737619401 0 -0.062016764747578973 0.12884034001808189 0 -0.044416936009294992 0.14744373737619401 0 -0.047589673205635397 0.1324549890601831 0 -0.062016764747578973 0.12884034001808189 0 -0.047589673205635397 0.1324549890601831 0 -0.062016764747578973 0.12884034001808189 0 -0.046884900963607742 0.11986348336078891 0 -0.067315024607703278 0.13662092079142449 0 -0.044416936009294992 0.14744373737619401 0 -0.054361576129613079 0.15178129246158931 0 -0.067315024607703278 0.13662092079142449 0 -0.044416936009294992 0.14744373737619401 0 -0.044416936009294992 0.14744373737619401 0 -0.054361576129613079 0.15178129246158931 0 -0.044416936009294992 0.14744373737619401 0 -0.054361576129613079 0.15178129246158931 0 -0.047012455662473793 0.15786975055381819 0 -0.066369438716585821 0.14892706699039879 0 -0.054361576129613079 0.15178129246158931 0 -0.057722578482997257 0.16273086802879619 0 -0.057722578482997257 0.16273086802879619 0 -0.050411583818504503 0.1777900037548745 0 -0.045636115300606919 0.16650756778262649 0 -0.054361576129613079 0.15178129246158931 0 -0.057722578482997257 0.16273086802879619 0 -0.047012455662473793 0.15786975055381819 0 -0.057722578482997257 0.16273086802879619 0 -0.047012455662473793 0.15786975055381819 0 -0.045636115300606919 0.16650756778262649 0 -0.070171110140822543 0.1782308345810468 0 -0.056949983849450658 0.19269083667038239 0 -0.050411583818504503 0.1777900037548745 0 -0.070171110140822543 0.1782308345810468 0 -0.057722578482997257 0.16273086802879619 0 -0.050411583818504503 0.1777900037548745 0 -0.056949983849450658 0.19269083667038239 0 -0.040360849617421202 0.18777351164107661 0 -0.050411583818504503 0.1777900037548745 0 -0.040360849617421202 0.18777351164107661 0 -0.050411583818504503 0.1777900037548745 0 -0.039949487385523758 0.17426630734724691 0 -0.050411583818504503 0.1777900037548745 0 -0.039949487385523758 0.17426630734724691 0 -0.045636115300606919 0.16650756778262649 0 -0.040360849617421202 0.18777351164107661 0 -0.039949487385523758 0.17426630734724691 0 -0.026751027678188599 0.18229597604057349 0 -0.039949487385523758 0.17426630734724691 0 -0.036587860512897558 0.15696447751708351 0 -0.026751027678188599 0.18229597604057349 0 -0.036587860512897558 0.15696447751708351 0 -0.026751027678188599 0.18229597604057349 0 -0.039949487385523758 0.17426630734724691 0 -0.045636115300606919 0.16650756778262649 0 -0.036587860512897558 0.15696447751708351 0 -0.047012455662473793 0.15786975055381819 0 -0.045636115300606919 0.16650756778262649 0 -0.036587860512897558 0.15696447751708351 0 -0.01891215499648707 0.1765136475382359 0 -0.010861270542782259 0.1633038739619718 0 -0.027639103276038759 0.15537380566908321 0 -0.010861270542782259 0.1633038739619718 0 -0.027639103276038759 0.15537380566908321 0 -0.036587860512897558 0.15696447751708351 0 -0.01891215499648707 0.1765136475382359 0 -0.036587860512897558 0.15696447751708351 0 -0.01891215499648707 0.1765136475382359 0 -0.027639103276038759 0.15537380566908321 0 -0.01405220631290922 0.19352016069679451 0 -0.01891215499648707 0.1765136475382359 0 -0.026751027678188599 0.18229597604057349 0 -0.036587860512897558 0.15696447751708351 0 -0.01891215499648707 0.1765136475382359 0 -0.026751027678188599 0.18229597604057349 0 -0.01891215499648707 0.1765136475382359 0 -0.010861270542782259 0.1633038739619718 0 0.00061104658230836653 0.17769045695541219 0 -0.0012364494800765971 0.1960628175593882 0 -0.01891215499648707 0.1765136475382359 0 0.00061104658230836653 0.17769045695541219 0 -0.0012364494800765971 0.1960628175593882 0 -0.01891215499648707 0.1765136475382359 0 -0.010861270542782259 0.1633038739619718 0 0.001788155555331062 0.1557637096651584 0 0.00061104658230836653 0.17769045695541219 0 -0.01542264584752753 0.14956457798035719 0 -0.015783289274076458 0.13495459563681389 0 0.001788155555331062 0.1557637096651584 0 -0.015783289274076458 0.13495459563681389 0 0.001788155555331062 0.1557637096651584 0 0.01185912902997375 0.14130758542593569 0 -0.010861270542782259 0.1633038739619718 0 -0.01542264584752753 0.14956457798035719 0 0.001788155555331062 0.1557637096651584 0 -0.015783289274076458 0.13495459563681389 0 0.001788155555331062 0.1557637096651584 0 -0.01542264584752753 0.14956457798035719 0 -0.023159931299824549 0.14839209377580129 0 -0.027639103276038759 0.15537380566908321 0 -0.010861270542782259 0.1633038739619718 0 -0.01542264584752753 0.14956457798035719 0 -0.027639103276038759 0.15537380566908321 0 -0.01542264584752753 0.14956457798035719 0 -0.023159931299824549 0.14839209377580129 0 -0.021396469969749188 0.1374028974533886 0 -0.01542264584752753 0.14956457798035719 0 -0.021396469969749188 0.1374028974533886 0 -0.015783289274076458 0.13495459563681389 0 -0.030319635528424791 0.14770209815471691 0 -0.021396469969749188 0.1374028974533886 0 -0.023159931299824549 0.14839209377580129 0 -0.030319635528424791 0.14770209815471691 0 -0.021396469969749188 0.1374028974533886 0 -0.023159931299824549 0.14839209377580129 0 -0.030319635528424791 0.14770209815471691 0 -0.027639103276038759 0.15537380566908321 0 -0.028643554108799551 0.12806760582925611 0 -0.017506847497941139 0.13291345901070739 0 -0.032144953111298558 0.1155781737325411 0 -0.037500573576258918 0.13069979942664511 0 -0.028643554108799551 0.12806760582925611 0 -0.021396469969749188 0.1374028974533886 0 -0.021396469969749188 0.1374028974533886 0 -0.015783289274076458 0.13495459563681389 0 -0.017506847497941139 0.13291345901070739 0 -0.021396469969749188 0.1374028974533886 0 -0.015783289274076458 0.13495459563681389 0 -0.021396469969749188 0.1374028974533886 0 -0.017506847497941139 0.13291345901070739 0 -0.015783289274076458 0.13495459563681389 0 -0.017506847497941139 0.13291345901070739 0 -0.028643554108799551 0.12806760582925611 0 -0.021396469969749188 0.1374028974533886 0 -0.017506847497941139 0.13291345901070739 0 -0.015783289274076458 0.13495459563681389 0 -0.017506847497941139 0.13291345901070739 0 -0.0052228475358298988 0.1187351519746004 0 -0.015783289274076458 0.13495459563681389 0 -0.0052228475358298988 0.1187351519746004 0 0.0081407562022233586 0.1245196413435004 0 -0.017506847497941139 0.13291345901070739 0 -0.0052228475358298988 0.1187351519746004 0 -0.015783289274076458 0.13495459563681389 0 0.0081407562022233586 0.1245196413435004 0 -0.0052228475358298988 0.1187351519746004 0 -0.0040597014752050652 0.1051126182356364 0 -0.02761291541641378 0.1090435214711212 0 -0.017506847497941139 0.13291345901070739 0 -0.0052228475358298988 0.1187351519746004 0 -0.019344259015361451 0.119617058157429 0 -0.0040597014752050652 0.1051126182356364 0 -0.01533391803445322 0.09737838425916874 0 0.0051087594610210148 0.080527692295617709 0 -0.0052228475358298988 0.1187351519746004 0 -0.0040597014752050652 0.1051126182356364 0 0.0092582498306486675 0.1020209346744549 0 -0.0040597014752050652 0.1051126182356364 0 -0.01533391803445322 0.09737838425916874 0 -0.02761291541641378 0.1090435214711212 0 -0.01533391803445322 0.09737838425916874 0 -0.027797722535604891 0.095528124355643507 0 -0.02761291541641378 0.1090435214711212 0 -0.0052228475358298988 0.1187351519746004 0 -0.02761291541641378 0.1090435214711212 0 -0.019344259015361451 0.119617058157429 0 -0.017506847497941139 0.13291345901070739 0 -0.019344259015361451 0.119617058157429 0 -0.032144953111298558 0.1155781737325411 0 -0.02761291541641378 0.1090435214711212 0 -0.019344259015361451 0.119617058157429 0 -0.032144953111298558 0.1155781737325411 0 -0.0052228475358298988 0.1187351519746004 0 -0.02761291541641378 0.1090435214711212 0 -0.017506847497941139 0.13291345901070739 0 -0.032144953111298558 0.1155781737325411 0 -0.0012292332505543029 0.06378464068123596 0 -0.011084303888442551 0.081696622097620714 0 -0.018620569400409771 0.06708533464306303 0 -0.0012292332505543029 0.06378464068123596 0 -0.011084303888442551 0.081696622097620714 0 0.0051087594610210148 0.080527692295617709 0 -0.01533391803445322 0.09737838425916874 0 -0.011084303888442551 0.081696622097620714 0 0.0051087594610210148 0.080527692295617709 0 -0.01533391803445322 0.09737838425916874 0 0.0051087594610210148 0.080527692295617709 0 -0.011084303888442551 0.081696622097620714 0 0.0051087594610210148 0.080527692295617709 0 -0.027797722535604891 0.095528124355643507 0 -0.011084303888442551 0.081696622097620714 0 -0.032921925083363349 0.0833654898886593 0 -0.01533391803445322 0.09737838425916874 0 -0.027797722535604891 0.095528124355643507 0 -0.011084303888442551 0.081696622097620714 0 -0.018620569400409771 0.06708533464306303 0 -0.031868141831282552 0.069818555696904067 0 -0.028283535649973771 0.053358049395037133 0 -0.018620569400409771 0.06708533464306303 0 -0.031868141831282552 0.069818555696904067 0 -0.032921925083363349 0.0833654898886593 0 -0.011084303888442551 0.081696622097620714 0 -0.018620569400409771 0.06708533464306303 0 -0.032921925083363349 0.0833654898886593 0 -0.046276495737503101 0.06795068115397529 0 -0.032921925083363349 0.0833654898886593 0 -0.055882409073029139 0.082732437330199013 0 -0.046276495737503101 0.06795068115397529 0 -0.031868141831282552 0.069818555696904067 0 -0.028283535649973771 0.053358049395037133 0 -0.046276495737503101 0.06795068115397529 0 -0.031868141831282552 0.069818555696904067 0 -0.032921925083363349 0.0833654898886593 0 -0.027797722535604891 0.095528124355643507 0 -0.032921925083363349 0.0833654898886593 0 -0.050002983296997462 0.099351890967641507 0 -0.032921925083363349 0.0833654898886593 0 -0.055882409073029139 0.082732437330199013 0 -0.050002983296997462 0.099351890967641507 0 -0.055882409073029139 0.082732437330199013 0 -0.050002983296997462 0.099351890967641507 0 -0.072393051177581158 0.089660260464161839 0 -0.046276495737503101 0.06795068115397529 0 -0.055882409073029139 0.082732437330199013 0 -0.062589921296568873 0.06642957971461419 0 -0.032144953111298558 0.1155781737325411 0 -0.050002983296997462 0.099351890967641507 0 -0.046884900963607742 0.11986348336078891 0 -0.037500573576258918 0.13069979942664511 0 -0.034668926388748328 0.1237436995229996 0 -0.046884900963607742 0.11986348336078891 0 -0.028643554108799551 0.12806760582925611 0 -0.034668926388748328 0.1237436995229996 0 -0.032144953111298558 0.1155781737325411 0 -0.034668926388748328 0.1237436995229996 0 -0.032144953111298558 0.1155781737325411 0 -0.046884900963607742 0.11986348336078891 0 -0.027797722535604891 0.095528124355643507 0 -0.02761291541641378 0.1090435214711212 0 -0.050002983296997462 0.099351890967641507 0 -0.02761291541641378 0.1090435214711212 0 -0.050002983296997462 0.099351890967641507 0 -0.02761291541641378 0.1090435214711212 0 -0.032144953111298558 0.1155781737325411 0 -0.050002983296997462 0.099351890967641507 0 -0.050002983296997462 0.099351890967641507 0 -0.072393051177581158 0.089660260464161839 0 -0.050002983296997462 0.099351890967641507 0 -0.062115440392200259 0.1100516779477724 0 -0.072393051177581158 0.089660260464161839 0 -0.062016764747578973 0.12884034001808189 0 -0.062115440392200259 0.1100516779477724 0 -0.046884900963607742 0.11986348336078891 0 -0.050002983296997462 0.099351890967641507 0 -0.062115440392200259 0.1100516779477724 0 -0.046884900963607742 0.11986348336078891 0 -0.062016764747578973 0.12884034001808189 0 -0.062115440392200259 0.1100516779477724 0 -0.07825578499994286 0.1108801308713713 0 -0.062016764747578973 0.12884034001808189 0 -0.07825578499994286 0.1108801308713713 0 -0.062016764747578973 0.12884034001808189 0 -0.075786521408142987 0.12443322189858901 0 -0.07825578499994286 0.1108801308713713 0 -0.088852304720190942 0.12644129241805541 0 -0.075786521408142987 0.12443322189858901 0 -0.083719546898917335 0.119699814685821 0 -0.083719546898917335 0.119699814685821 0 -0.07825578499994286 0.1108801308713713 0 -0.093946486761182085 0.1175508364221631 0 -0.075786521408142987 0.12443322189858901 0 -0.083719546898917335 0.119699814685821 0 -0.07825578499994286 0.1108801308713713 0 -0.088852304720190942 0.12644129241805541 0 -0.083719546898917335 0.119699814685821 0 -0.093946486761182085 0.1175508364221631 0 -0.07825578499994286 0.1108801308713713 0 -0.072393051177581158 0.089660260464161839 0 -0.094494805252306774 0.092919921724660626 0 -0.07825578499994286 0.1108801308713713 0 -0.094494805252306774 0.092919921724660626 0 -0.093946486761182085 0.1175508364221631 0 -0.07825578499994286 0.1108801308713713 0 -0.094494805252306774 0.092919921724660626 0 -0.062115440392200259 0.1100516779477724 0 -0.07825578499994286 0.1108801308713713 0 -0.072393051177581158 0.089660260464161839 0 -0.055882409073029139 0.082732437330199013 0 -0.072393051177581158 0.089660260464161839 0 -0.062589921296568873 0.06642957971461419 0 -0.072393051177581158 0.089660260464161839 0 -0.062589921296568873 0.06642957971461419 0 -0.079461892795990779 0.070449194571112136 0 -0.062589921296568873 0.06642957971461419 0 -0.079461892795990779 0.070449194571112136 0 -0.072380178782229632 0.053292134703331731 0 -0.079461892795990779 0.070449194571112136 0 -0.094783119058163612 0.079968629960679383 0 -0.095163193665411511 0.062895368012773595 0 -0.072393051177581158 0.089660260464161839 0 -0.079461892795990779 0.070449194571112136 0 -0.094783119058163612 0.079968629960679383 0 -0.072393051177581158 0.089660260464161839 0 -0.094494805252306774 0.092919921724660626 0 -0.094783119058163612 0.079968629960679383 0 -0.072393051177581158 0.089660260464161839 0 -0.094783119058163612 0.079968629960679383 0 -0.094494805252306774 0.092919921724660626 0 -0.1072570836689255 0.074569224449017327 0 -0.1143352617609841 0.070976556735617355 0 -0.094494805252306774 0.092919921724660626 0 -0.094783119058163612 0.079968629960679383 0 -0.1072570836689255 0.074569224449017327 0 -0.094494805252306774 0.092919921724660626 0 -0.094783119058163612 0.079968629960679383 0 -0.094494805252306774 0.092919921724660626 0 -0.1143352617609841 0.070976556735617355 0 -0.11134444788944529 0.091345452974062963 0 -0.094494805252306774 0.092919921724660626 0 -0.1143352617609841 0.070976556735617355 0 -0.094783119058163612 0.079968629960679383 0 -0.095163193665411511 0.062895368012773595 0 -0.094783119058163612 0.079968629960679383 0 -0.095163193665411511 0.062895368012773595 0 -0.1072570836689255 0.074569224449017327 0 -0.095163193665411511 0.062895368012773595 0 -0.1143352617609841 0.070976556735617355 0 -0.1079186055395126 0.059947093390224047 0 -0.095163193665411511 0.062895368012773595 0 -0.1072570836689255 0.074569224449017327 0 -0.1143352617609841 0.070976556735617355 0 -0.095163193665411511 0.062895368012773595 0 -0.1143352617609841 0.070976556735617355 0 -0.094783119058163612 0.079968629960679383 0 -0.1072570836689255 0.074569224449017327 0 -0.1131683311422218 0.062814464837820119 0 -0.1163519950294771 0.068746068028026575 0 -0.1143352617609841 0.070976556735617355 0 -0.1131683311422218 0.062814464837820119 0 -0.1143352617609841 0.070976556735617355 0 -0.1079186055395126 0.059947093390224047 0 -0.1131683311422218 0.062814464837820119 0 -0.1163519950294771 0.068746068028026575 0 -0.1185872066977806 0.063729502839677182 0 -0.1163519950294771 0.068746068028026575 0 -0.1143352617609841 0.070976556735617355 0 -0.12697985749263241 0.07630636069427757 0 -0.1143352617609841 0.070976556735617355 0 -0.12697985749263241 0.07630636069427757 0 -0.1143352617609841 0.070976556735617355 0 -0.1200161930876608 0.081776906418299489 0 -0.12697985749263241 0.07630636069427757 0 -0.1163519950294771 0.068746068028026575 0 -0.1143352617609841 0.070976556735617355 0 -0.12697985749263241 0.07630636069427757 0 -0.12509646681095879 0.065597408261105467 0 -0.1163519950294771 0.068746068028026575 0 -0.12509646681095879 0.065597408261105467 0 -0.1163519950294771 0.068746068028026575 0 -0.1185872066977806 0.063729502839677182 0 -0.13359630628803579 0.098968800084119873 0 -0.12697672020224329 0.087309090757334687 0 -0.11134444788944529 0.091345452974062963 0 -0.1143352617609841 0.070976556735617355 0 -0.11134444788944529 0.091345452974062963 0 -0.1200161930876608 0.081776906418299489 0 -0.12697672020224329 0.087309090757334687 0 -0.11134444788944529 0.091345452974062963 0 -0.1200161930876608 0.081776906418299489 0 -0.12697672020224329 0.087309090757334687 0 -0.12697985749263241 0.07630636069427757 0 -0.1200161930876608 0.081776906418299489 0 -0.12607259725238279 0.11330641960449821 0 -0.13359630628803579 0.098968800084119873 0 -0.11123038207674001 0.1082681122756106 0 -0.13359630628803579 0.098968800084119873 0 -0.11134444788944529 0.091345452974062963 0 -0.11123038207674001 0.1082681122756106 0 -0.13359630628803579 0.098968800084119873 0 -0.11123038207674001 0.1082681122756106 0 -0.11134444788944529 0.091345452974062963 0 -0.11123038207674001 0.1082681122756106 0 -0.1057361510920251 0.099277959283072717 0 -0.12607259725238279 0.11330641960449821 0 -0.11123038207674001 0.1082681122756106 0 -0.11706151063611089 0.1208882391850464 0 -0.12607259725238279 0.11330641960449821 0 -0.12916618827146031 0.12390190950899049 0 -0.11706151063611089 0.1208882391850464 0 -0.11473911200363 0.13153944404780621 0 -0.11706151063611089 0.1208882391850464 0 -0.10601879130899509 0.12208205668825579 0 -0.1036345166478785 0.1154037657297244 0 -0.093946486761182085 0.1175508364221631 0 -0.097511277885226108 0.1010939306234323 0 -0.11123038207674001 0.1082681122756106 0 -0.11706151063611089 0.1208882391850464 0 -0.097511277885226108 0.1010939306234323 0 -0.11706151063611089 0.1208882391850464 0 -0.1036345166478785 0.1154037657297244 0 -0.097511277885226108 0.1010939306234323 0 -0.11706151063611089 0.1208882391850464 0 -0.097511277885226108 0.1010939306234323 0 -0.11706151063611089 0.1208882391850464 0 -0.1036345166478785 0.1154037657297244 0 -0.10601879130899509 0.12208205668825579 0 -0.1039338124667491 0.13009472872812991 0 -0.10601879130899509 0.12208205668825579 0 -0.093946486761182085 0.1175508364221631 0 -0.1036345166478785 0.1154037657297244 0 -0.10601879130899509 0.12208205668825579 0 -0.093946486761182085 0.1175508364221631 0 -0.094494805252306774 0.092919921724660626 0 -0.11134444788944529 0.091345452974062963 0 -0.1057361510920251 0.099277959283072717 0 -0.094494805252306774 0.092919921724660626 0 -0.093946486761182085 0.1175508364221631 0 -0.094494805252306774 0.092919921724660626 0 -0.093946486761182085 0.1175508364221631 0 -0.097511277885226108 0.1010939306234323 0 -0.094494805252306774 0.092919921724660626 0 -0.097511277885226108 0.1010939306234323 0 -0.1057361510920251 0.099277959283072717 0 -0.11123038207674001 0.1082681122756106 0 -0.097511277885226108 0.1010939306234323 0 -0.1057361510920251 0.099277959283072717 0 -0.1001339578063882 0.022436777626384768 0 -0.09536928659882779 0.01424719335382847 0 -0.1128440433065038 0.01636018592503535 0 -0.1001339578063882 0.022436777626384768 0 -0.1128440433065038 0.01636018592503535 0 -0.1012358460944251 0.033108064834657697 0 -0.1128440433065038 0.01636018592503535 0 -0.11393466639619521 0.035004472642448957 0 -0.1012358460944251 0.033108064834657697 0 -0.1128440433065038 0.01636018592503535 0 -0.1012358460944251 0.033108064834657697 0 -0.1001339578063882 0.022436777626384768 0 -0.1012358460944251 0.033108064834657697 0 -0.091086655225796079 0.026031666392017531 0 -0.1001339578063882 0.022436777626384768 0 -0.09536928659882779 0.01424719335382847 0 -0.091086655225796079 0.026031666392017531 0 -0.10394313851700079 0.0020556251079679459 0 -0.09536928659882779 0.01424719335382847 0 -0.085958893623968774 0.001514634656162053 0 -0.10394313851700079 0.0020556251079679459 0 -0.09536928659882779 0.01424719335382847 0 -0.1128440433065038 0.01636018592503535 0 -0.1244522405185825 -0.00038769298458709092 0 -0.12424451236807239 0.027069144312366941 0 -0.1244522405185825 -0.00038769298458709092 0 -0.1128440433065038 0.01636018592503535 0 -0.12424451236807239 0.027069144312366941 0 -0.1244522405185825 -0.00038769298458709092 0 -0.1128440433065038 0.01636018592503535 0 -0.1244522405185825 -0.00038769298458709092 0 -0.10394313851700079 0.0020556251079679459 0 -0.1128440433065038 0.01636018592503535 0 -0.1128440433065038 0.01636018592503535 0 -0.12424451236807239 0.027069144312366941 0 -0.11393466639619521 0.035004472642448957 0 -0.12424451236807239 0.027069144312366941 0 -0.12075472355362291 0.04122338309529356 0 -0.11393466639619521 0.035004472642448957 0 -0.12075472355362291 0.04122338309529356 0 -0.1244920148619628 0.050381604022983993 0 -0.1151670195775447 0.0482238646449 0 -0.11393466639619521 0.035004472642448957 0 -0.1151670195775447 0.0482238646449 0 -0.10635909785250069 0.04125385698526951 0 -0.12075472355362291 0.04122338309529356 0 -0.11393466639619521 0.035004472642448957 0 -0.1151670195775447 0.0482238646449 0 -0.12509646681095879 0.065597408261105467 0 -0.1185872066977806 0.063729502839677182 0 -0.1197320338084647 0.057760070231756527 0 -0.1197320338084647 0.057760070231756527 0 -0.1244920148619628 0.050381604022983993 0 -0.1151670195775447 0.0482238646449 0 -0.1151670195775447 0.0482238646449 0 -0.1125210466915524 0.054978807834542787 0 -0.1051700993263314 0.050476507920077678 0 -0.1197320338084647 0.057760070231756527 0 -0.1151670195775447 0.0482238646449 0 -0.1125210466915524 0.054978807834542787 0 -0.1131683311422218 0.062814464837820119 0 -0.1197320338084647 0.057760070231756527 0 -0.1125210466915524 0.054978807834542787 0 -0.1131683311422218 0.062814464837820119 0 -0.1125210466915524 0.054978807834542787 0 -0.1079186055395126 0.059947093390224047 0 -0.1131683311422218 0.062814464837820119 0 -0.1185872066977806 0.063729502839677182 0 -0.1197320338084647 0.057760070231756527 0 -0.095163193665411511 0.062895368012773595 0 -0.1051700993263314 0.050476507920077678 0 -0.095336714328198874 0.041619114628837717 0 -0.095163193665411511 0.062895368012773595 0 -0.095336714328198874 0.041619114628837717 0 -0.1125210466915524 0.054978807834542787 0 -0.1079186055395126 0.059947093390224047 0 -0.1051700993263314 0.050476507920077678 0 -0.095163193665411511 0.062895368012773595 0 -0.1079186055395126 0.059947093390224047 0 -0.1051700993263314 0.050476507920077678 0 -0.11393466639619521 0.035004472642448957 0 -0.10635909785250069 0.04125385698526951 0 -0.1012358460944251 0.033108064834657697 0 -0.1051700993263314 0.050476507920077678 0 -0.10635909785250069 0.04125385698526951 0 -0.095336714328198874 0.041619114628837717 0 -0.1151670195775447 0.0482238646449 0 -0.1051700993263314 0.050476507920077678 0 -0.10635909785250069 0.04125385698526951 0 -0.095336714328198874 0.041619114628837717 0 -0.1012358460944251 0.033108064834657697 0 -0.08853862327275358 0.036894035852943478 0 -0.10635909785250069 0.04125385698526951 0 -0.095336714328198874 0.041619114628837717 0 -0.1012358460944251 0.033108064834657697 0 -0.095336714328198874 0.041619114628837717 0 -0.1012358460944251 0.033108064834657697 0 -0.1012358460944251 0.033108064834657697 0 -0.08853862327275358 0.036894035852943478 0 -0.091086655225796079 0.026031666392017531 0 -0.08853862327275358 0.036894035852943478 0 -0.081088353484909961 0.032020518526829703 0 -0.091086655225796079 0.026031666392017531 0 -0.08853862327275358 0.036894035852943478 0 -0.079654612676290371 0.043453985766932421 0 -0.089627648882346422 0.049855943744280047 0 -0.095336714328198874 0.041619114628837717 0 -0.08853862327275358 0.036894035852943478 0 -0.089627648882346422 0.049855943744280047 0 -0.095336714328198874 0.041619114628837717 0 -0.089627648882346422 0.049855943744280047 0 -0.08853862327275358 0.036894035852943478 0 -0.079654612676290371 0.043453985766932421 0 -0.081088353484909961 0.032020518526829703 0 -0.095163193665411511 0.062895368012773595 0 -0.089627648882346422 0.049855943744280047 0 -0.072380178782229632 0.053292134703331731 0 -0.095163193665411511 0.062895368012773595 0 -0.095336714328198874 0.041619114628837717 0 -0.089627648882346422 0.049855943744280047 0 -0.095163193665411511 0.062895368012773595 0 -0.072380178782229632 0.053292134703331731 0 -0.079461892795990779 0.070449194571112136 0 -0.095163193665411511 0.062895368012773595 0 -0.072380178782229632 0.053292134703331731 0 -0.079654612676290371 0.043453985766932421 0 -0.089627648882346422 0.049855943744280047 0 -0.072380178782229632 0.053292134703331731 0 -0.079654612676290371 0.043453985766932421 0 -0.072380178782229632 0.053292134703331731 0 -0.065785112224924183 0.037111289768743512 0 -0.072380178782229632 0.053292134703331731 0 -0.065785112224924183 0.037111289768743512 0 -0.049597163899048183 0.043688901393888827 0 -0.079654612676290371 0.043453985766932421 0 -0.081088353484909961 0.032020518526829703 0 -0.065785112224924183 0.037111289768743512 0 -0.081088353484909961 0.032020518526829703 0 -0.065785112224924183 0.037111289768743512 0 -0.069646162847898541 0.026335067629459381 0 -0.069646162847898541 0.026335067629459381 0 -0.076118231742993758 0.01527396050979404 0 -0.05559295393876626 0.02093450171247024 0 -0.065785112224924183 0.037111289768743512 0 -0.069646162847898541 0.026335067629459381 0 -0.05559295393876626 0.02093450171247024 0 -0.081088353484909961 0.032020518526829703 0 -0.069646162847898541 0.026335067629459381 0 -0.076118231742993758 0.01527396050979404 0 -0.081088353484909961 0.032020518526829703 0 -0.091086655225796079 0.026031666392017531 0 -0.076118231742993758 0.01527396050979404 0 -0.09536928659882779 0.01424719335382847 0 -0.091086655225796079 0.026031666392017531 0 -0.076118231742993758 0.01527396050979404 0 -0.09536928659882779 0.01424719335382847 0 -0.085958893623968774 0.001514634656162053 0 -0.076118231742993758 0.01527396050979404 0 -0.076118231742993758 0.01527396050979404 0 -0.065648076432031049 0.00090955339710942099 0 -0.05559295393876626 0.02093450171247024 0 -0.085958893623968774 0.001514634656162053 0 -0.076118231742993758 0.01527396050979404 0 -0.065648076432031049 0.00090955339710942099 0 -0.045118160941850949 -0.00049033847668307538 0 -0.065648076432031049 0.00090955339710942099 0 -0.05559295393876626 0.02093450171247024 0 -0.05559295393876626 0.02093450171247024 0 -0.041197297059898302 0.028587588038626519 0 -0.049597163899048183 0.043688901393888827 0 -0.05559295393876626 0.02093450171247024 0 -0.032784921385912158 0.01564128096370114 0 -0.041197297059898302 0.028587588038626519 0 -0.032784921385912158 0.01564128096370114 0 -0.041197297059898302 0.028587588038626519 0 -0.02681414901586664 0.034085668084445887 0 -0.045118160941850949 -0.00049033847668307538 0 -0.05559295393876626 0.02093450171247024 0 -0.032784921385912158 0.01564128096370114 0 -0.045118160941850949 -0.00049033847668307538 0 -0.027025641752002061 -0.0079319500279313396 0 -0.032784921385912158 0.01564128096370114 0 -0.062589921296568873 0.06642957971461419 0 -0.072380178782229632 0.053292134703331731 0 -0.049597163899048183 0.043688901393888827 0 -0.046276495737503101 0.06795068115397529 0 -0.062589921296568873 0.06642957971461419 0 -0.049597163899048183 0.043688901393888827 0 -0.072380178782229632 0.053292134703331731 0 -0.049597163899048183 0.043688901393888827 0 -0.065785112224924183 0.037111289768743512 0 -0.05559295393876626 0.02093450171247024 0 -0.049597163899048183 0.043688901393888827 0 -0.049597163899048183 0.043688901393888827 0 -0.02681414901586664 0.034085668084445887 0 -0.041197297059898302 0.028587588038626519 0 -0.049597163899048183 0.043688901393888827 0 -0.02681414901586664 0.034085668084445887 0 -0.049597163899048183 0.043688901393888827 0 -0.028283535649973771 0.053358049395037133 0 -0.02681414901586664 0.034085668084445887 0 -0.046276495737503101 0.06795068115397529 0 -0.028283535649973771 0.053358049395037133 0 -0.046276495737503101 0.06795068115397529 0 -0.049597163899048183 0.043688901393888827 0 -0.028283535649973771 0.053358049395037133 0 -0.028283535649973771 0.053358049395037133 0 -0.010290575562444429 0.038765417636098962 0 -0.0097640400442320502 0.053032197103308337 0 -0.018620569400409771 0.06708533464306303 0 -0.028283535649973771 0.053358049395037133 0 -0.0097640400442320502 0.053032197103308337 0 -0.028283535649973771 0.053358049395037133 0 -0.010290575562444429 0.038765417636098962 0 -0.02681414901586664 0.034085668084445887 0 -0.010290575562444429 0.038765417636098962 0 -0.020835528804160591 0.022374223573919171 0 -0.028283535649973771 0.053358049395037133 0 -0.02681414901586664 0.034085668084445887 0 -0.010290575562444429 0.038765417636098962 0 -0.010290575562444429 0.038765417636098962 0 0.0077023845250848884 0.024172785877160811 0 -0.010290575562444429 0.038765417636098962 0 -0.0034349793211087142 0.044893397967285961 0 0.0047272217829380687 0.036246676438490527 0 -0.010290575562444429 0.038765417636098962 0 -0.0034349793211087142 0.044893397967285961 0 -0.0097640400442320502 0.053032197103308337 0 -0.0012292332505543029 0.06378464068123596 0 -0.018620569400409771 0.06708533464306303 0 -0.0097640400442320502 0.053032197103308337 0 -0.0034349793211087142 0.044893397967285961 0 -0.0097640400442320502 0.053032197103308337 0 0.0015874765393035599 0.051529300691246019 0 -0.0012292332505543029 0.06378464068123596 0 -0.0097640400442320502 0.053032197103308337 0 0.0015874765393035599 0.051529300691246019 0 -0.027025641752002061 -0.0079319500279313396 0 -0.032784921385912158 0.01564128096370114 0 -0.01566814095190756 0.010235570601176981 0 -0.032784921385912158 0.01564128096370114 0 -0.02681414901586664 0.034085668084445887 0 -0.020835528804160591 0.022374223573919171 0 -0.032784921385912158 0.01564128096370114 0 -0.01566814095190756 0.010235570601176981 0 -0.020835528804160591 0.022374223573919171 0 -0.010290575562444429 0.038765417636098962 0 -0.020835528804160591 0.022374223573919171 0 -0.0077262750329500059 0.02266504195052366 0 -0.01566814095190756 0.010235570601176981 0 -0.020835528804160591 0.022374223573919171 0 -0.0077262750329500059 0.02266504195052366 0 -0.010290575562444429 0.038765417636098962 0 -0.0077262750329500059 0.02266504195052366 0 0.0077023845250848884 0.024172785877160811 0 -0.0091716063734174208 -0.003332990253060792 0 -0.01566814095190756 0.010235570601176981 0 0.001118487675879971 0.0096665619175221752 0 -0.0091716063734174208 -0.003332990253060792 0 0.001118487675879971 0.0096665619175221752 0 0.006935528729737548 -0.0054826371559186567 0 -0.01566814095190756 0.010235570601176981 0 -0.0077262750329500059 0.02266504195052366 0 0.001118487675879971 0.0096665619175221752 0 0.001118487675879971 0.0096665619175221752 0 0.0077023845250848884 0.024172785877160811 0 0.025695344612614111 0.0095801541182225364 0 0.001118487675879971 0.0096665619175221752 0 0.025695344612614111 0.0095801541182225364 0 0.006935528729737548 -0.0054826371559186567 0 -0.0077262750329500059 0.02266504195052366 0 0.001118487675879971 0.0096665619175221752 0 0.0077023845250848884 0.024172785877160811 0 0.0077023845250848884 0.024172785877160811 0 0.024648998497944961 0.02642224341189468 0 0.015911730558903318 0.034762274935307848 0 0.024648998497944961 0.02642224341189468 0 0.025695344612614111 0.0095801541182225364 0 0.038363400138324961 0.019751697241263279 0 0.0077023845250848884 0.024172785877160811 0 0.024648998497944961 0.02642224341189468 0 0.025695344612614111 0.0095801541182225364 0 0.0077023845250848884 0.024172785877160811 0 0.025695344612614111 0.0095801541182225364 0 0.025695344612614111 0.0095801541182225364 0 0.006935528729737548 -0.0054826371559186567 0 0.01459521235494949 0.061710637509134872 0 0.0047272217829380687 0.036246676438490527 0 -0.0012292332505543029 0.06378464068123596 0 0.01459521235494949 0.061710637509134872 0 0.0015874765393035599 0.051529300691246019 0 0.01459521235494949 0.061710637509134872 0 0.0015874765393035599 0.051529300691246019 0 0.0047272217829380687 0.036246676438490527 0 0.01459521235494949 0.061710637509134872 0 0.0047272217829380687 0.036246676438490527 0 0.016570281580619739 0.045526930476817662 0 -0.010290575562444429 0.038765417636098962 0 0.0077023845250848884 0.024172785877160811 0 0.0047272217829380687 0.036246676438490527 0 -0.0034349793211087142 0.044893397967285961 0 0.0015874765393035599 0.051529300691246019 0 0.0047272217829380687 0.036246676438490527 0 0.0047272217829380687 0.036246676438490527 0 0.015911730558903318 0.034762274935307848 0 0.016570281580619739 0.045526930476817662 0 0.0077023845250848884 0.024172785877160811 0 0.0047272217829380687 0.036246676438490527 0 0.015911730558903318 0.034762274935307848 0 0.024648998497944961 0.02642224341189468 0 0.015911730558903318 0.034762274935307848 0 0.025892041879535671 0.039420421904702428 0 0.024648998497944961 0.02642224341189468 0 0.025892041879535671 0.039420421904702428 0 0.038236142792751733 0.035111405712831077 0 0.015911730558903318 0.034762274935307848 0 0.025892041879535671 0.039420421904702428 0 0.016570281580619739 0.045526930476817662 0 0.025892041879535671 0.039420421904702428 0 0.016570281580619739 0.045526930476817662 0 0.021716339062575678 0.05448348331271597 0 0.01459521235494949 0.061710637509134872 0 0.016570281580619739 0.045526930476817662 0 0.021716339062575678 0.05448348331271597 0 0.01459521235494949 0.061710637509134872 0 0.021716339062575678 0.05448348331271597 0 0.030459386295035529 0.05963142741263059 0 0.01459521235494949 0.061710637509134872 0 0.030459386295035529 0.05963142741263059 0 0.021716339062575678 0.05448348331271597 0 0.030459386295035529 0.05963142741263059 0 0.032703710623893968 0.046893395464013943 0 0.025892041879535671 0.039420421904702428 0 0.021716339062575678 0.05448348331271597 0 0.032703710623893968 0.046893395464013943 0 0.030459386295035529 0.05963142741263059 0 0.032703710623893968 0.046893395464013943 0 0.047214643089571059 0.045820238977188371 0 0.030459386295035529 0.05963142741263059 0 0.04797297407010033 0.057336039788577382 0 0.030459386295035529 0.05963142741263059 0 0.04797297407010033 0.057336039788577382 0 0.027635028654909001 0.06907575978797427 0 0.030459386295035529 0.05963142741263059 0 0.047214643089571059 0.045820238977188371 0 0.04797297407010033 0.057336039788577382 0 0.030459386295035529 0.05963142741263059 0 0.047214643089571059 0.045820238977188371 0 0.038236142792751733 0.035111405712831077 0 0.047214643089571059 0.045820238977188371 0 0.051031455664035288 0.029923240364304559 0 0.032703710623893968 0.046893395464013943 0 0.038236142792751733 0.035111405712831077 0 0.047214643089571059 0.045820238977188371 0 0.025892041879535671 0.039420421904702428 0 0.032703710623893968 0.046893395464013943 0 0.038236142792751733 0.035111405712831077 0 0.062359133547200143 0.040731400683572692 0 0.047214643089571059 0.045820238977188371 0 0.063969899884107562 0.032009050541747332 0 0.047214643089571059 0.045820238977188371 0 0.063969899884107562 0.032009050541747332 0 0.047214643089571059 0.045820238977188371 0 0.051031455664035288 0.029923240364304559 0 0.063969899884107562 0.032009050541747332 0 0.062359133547200143 0.040731400683572692 0 0.04797297407010033 0.057336039788577382 0 0.072379857481358154 0.054137194478101919 0 0.04797297407010033 0.057336039788577382 0 0.072379857481358154 0.054137194478101919 0 0.062359133547200143 0.040731400683572692 0 0.04797297407010033 0.057336039788577382 0 0.062359133547200143 0.040731400683572692 0 0.047214643089571059 0.045820238977188371 0 0.04797297407010033 0.057336039788577382 0 0.04797297407010033 0.057336039788577382 0 0.072379857481358154 0.054137194478101919 0 0.06072113176624426 0.066105246874810966 0 0.040835927619124697 0.0088703260301804514 0 0.038363400138324961 0.019751697241263279 0 0.051939500327619889 0.017318508583630769 0 0.040835927619124697 0.0088703260301804514 0 0.046640351189982193 0.001482106492276504 0 0.040314465242246092 -0.002276229875846851 0 0.025695344612614111 0.0095801541182225364 0 0.040314465242246092 -0.002276229875846851 0 0.025695344612614111 0.0095801541182225364 0 0.040835927619124697 0.0088703260301804514 0 0.040314465242246092 -0.002276229875846851 0 0.025695344612614111 0.0095801541182225364 0 0.040835927619124697 0.0088703260301804514 0 0.038363400138324961 0.019751697241263279 0 0.025695344612614111 0.0095801541182225364 0 0.038363400138324961 0.019751697241263279 0 0.024648998497944961 0.02642224341189468 0 0.038236142792751733 0.035111405712831077 0 0.038363400138324961 0.019751697241263279 0 0.038363400138324961 0.019751697241263279 0 0.051031455664035288 0.029923240364304559 0 0.038236142792751733 0.035111405712831077 0 0.038363400138324961 0.019751697241263279 0 0.051031455664035288 0.029923240364304559 0 0.038363400138324961 0.019751697241263279 0 0.051939500327619889 0.017318508583630769 0 0.051031455664035288 0.029923240364304559 0 0.051031455664035288 0.029923240364304559 0 0.062107590562420073 0.0228568457980407 0 0.063969899884107562 0.032009050541747332 0 0.051939500327619889 0.017318508583630769 0 0.062107590562420073 0.0228568457980407 0 0.064696567818308529 0.01472149906873369 0 0.051939500327619889 0.017318508583630769 0 0.051031455664035288 0.029923240364304559 0 0.062107590562420073 0.0228568457980407 0 0.055514373943813228 0.0067304088365214816 0 0.075461568133428525 0.0044331687040122013 0 0.049896637954744763 -0.0073960790217490677 0 0.051939500327619889 0.017318508583630769 0 0.055514373943813228 0.0067304088365214816 0 0.064696567818308529 0.01472149906873369 0 0.040835927619124697 0.0088703260301804514 0 0.051939500327619889 0.017318508583630769 0 0.055514373943813228 0.0067304088365214816 0 0.046640351189982193 0.001482106492276504 0 0.055514373943813228 0.0067304088365214816 0 0.049896637954744763 -0.0073960790217490677 0 0.040835927619124697 0.0088703260301804514 0 0.046640351189982193 0.001482106492276504 0 0.055514373943813228 0.0067304088365214816 0 0.075461568133428525 0.0044331687040122013 0 0.064696567818308529 0.01472149906873369 0 0.08072515667864405 0.018197862106306289 0 0.055514373943813228 0.0067304088365214816 0 0.075461568133428525 0.0044331687040122013 0 0.064696567818308529 0.01472149906873369 0 0.075461568133428525 0.0044331687040122013 0 0.1010264983121123 0.016262416429773479 0 0.075461568133428525 0.0044331687040122013 0 0.1010264983121123 0.016262416429773479 0 0.098011391193308373 -0.0056982583262641584 0 0.075461568133428525 0.0044331687040122013 0 0.08072515667864405 0.018197862106306289 0 0.1010264983121123 0.016262416429773479 0 0.088041666307225416 0.02743399724937181 0 0.08072515667864405 0.018197862106306289 0 0.1010264983121123 0.016262416429773479 0 0.088041666307225416 0.02743399724937181 0 0.08072515667864405 0.018197862106306289 0 0.076745293024301803 0.02412676157856956 0 0.088041666307225416 0.02743399724937181 0 0.076745293024301803 0.02412676157856956 0 0.082258845210710349 0.03253561428057717 0 0.08072515667864405 0.018197862106306289 0 0.076745293024301803 0.02412676157856956 0 0.063969899884107562 0.032009050541747332 0 0.062107590562420073 0.0228568457980407 0 0.064696567818308529 0.01472149906873369 0 0.08072515667864405 0.018197862106306289 0 0.08072515667864405 0.018197862106306289 0 0.063969899884107562 0.032009050541747332 0 0.062107590562420073 0.0228568457980407 0 0.08072515667864405 0.018197862106306289 0 0.063969899884107562 0.032009050541747332 0 0.062359133547200143 0.040731400683572692 0 0.076745293024301803 0.02412676157856956 0 0.062359133547200143 0.040731400683572692 0 0.076745293024301803 0.02412676157856956 0 0.076375628159171968 0.038405412939545532 0 0.062359133547200143 0.040731400683572692 0 0.076745293024301803 0.02412676157856956 0 0.063969899884107562 0.032009050541747332 0 0.062359133547200143 0.040731400683572692 0 0.076375628159171968 0.038405412939545532 0 0.072379857481358154 0.054137194478101919 0 0.072379857481358154 0.054137194478101919 0 0.087872793352142223 0.040176285354821803 0 0.096786740892615686 0.050938349167624693 0 0.072379857481358154 0.054137194478101919 0 0.096786740892615686 0.050938349167624693 0 0.072379857481358154 0.054137194478101919 0 0.096786740892615686 0.050938349167624693 0 0.089592915186254174 0.067390154600646832 0 0.076375628159171968 0.038405412939545532 0 0.072379857481358154 0.054137194478101919 0 0.087872793352142223 0.040176285354821803 0 0.076375628159171968 0.038405412939545532 0 0.082258845210710349 0.03253561428057717 0 0.087872793352142223 0.040176285354821803 0 0.076745293024301803 0.02412676157856956 0 0.076375628159171968 0.038405412939545532 0 0.082258845210710349 0.03253561428057717 0 0.088041666307225416 0.02743399724937181 0 0.087872793352142223 0.040176285354821803 0 0.098246025398924644 0.032379674771496843 0 0.088041666307225416 0.02743399724937181 0 0.082258845210710349 0.03253561428057717 0 0.087872793352142223 0.040176285354821803 0 0.098246025398924644 0.032379674771496843 0 0.09859813872304253 0.041737690340159041 0 0.1063796333462841 0.038668109643535398 0 0.087872793352142223 0.040176285354821803 0 0.098246025398924644 0.032379674771496843 0 0.09859813872304253 0.041737690340159041 0 0.087872793352142223 0.040176285354821803 0 0.09859813872304253 0.041737690340159041 0 0.096786740892615686 0.050938349167624693 0 0.09859813872304253 0.041737690340159041 0 0.1037055006252459 0.04652603276331644 0 0.096786740892615686 0.050938349167624693 0 0.1037055006252459 0.04652603276331644 0 0.1091701701315707 0.045405346223324289 0 0.1063796333462841 0.038668109643535398 0 0.09859813872304253 0.041737690340159041 0 0.1037055006252459 0.04652603276331644 0 0.1063796333462841 0.038668109643535398 0 0.098246025398924644 0.032379674771496843 0 0.1063796333462841 0.038668109643535398 0 0.1080469394596527 0.029312409717345649 0 0.1063796333462841 0.038668109643535398 0 0.11369005285381351 0.036564640387925021 0 0.1080469394596527 0.029312409717345649 0 0.10140855114010359 0.056741753968867333 0 0.1082136550722141 0.059696613986540442 0 0.089592915186254174 0.067390154600646832 0 0.10140855114010359 0.056741753968867333 0 0.096786740892615686 0.050938349167624693 0 0.089592915186254174 0.067390154600646832 0 0.10140855114010359 0.056741753968867333 0 0.096786740892615686 0.050938349167624693 0 0.1040187002827474 0.052009313231975308 0 0.1037055006252459 0.04652603276331644 0 0.096786740892615686 0.050938349167624693 0 0.1040187002827474 0.052009313231975308 0 0.1037055006252459 0.04652603276331644 0 0.10828434687670541 0.049049973369521209 0 0.1040187002827474 0.052009313231975308 0 0.1037055006252459 0.04652603276331644 0 0.1091701701315707 0.045405346223324289 0 0.10828434687670541 0.049049973369521209 0 0.10828434687670541 0.049049973369521209 0 0.1040187002827474 0.052009313231975308 0 0.1085923347430168 0.054888678040205661 0 0.10140855114010359 0.056741753968867333 0 0.1040187002827474 0.052009313231975308 0 0.1085923347430168 0.054888678040205661 0 0.10140855114010359 0.056741753968867333 0 0.1085923347430168 0.054888678040205661 0 0.1082136550722141 0.059696613986540442 0 0.1082136550722141 0.059696613986540442 0 0.12683439495817461 0.052003073372435288 0 0.1085923347430168 0.054888678040205661 0 0.1082136550722141 0.059696613986540442 0 0.12683439495817461 0.052003073372435288 0 0.1082136550722141 0.059696613986540442 0 0.1213053233293625 0.063977455960140386 0 0.12683439495817461 0.052003073372435288 0 0.1085923347430168 0.054888678040205661 0 0.11545296983014219 0.044674578582556468 0 0.12683439495817461 0.052003073372435288 0 0.1085923347430168 0.054888678040205661 0 0.11545296983014219 0.044674578582556468 0 0.10828434687670541 0.049049973369521209 0 0.1085923347430168 0.054888678040205661 0 0.11545296983014219 0.044674578582556468 0 0.11545296983014219 0.044674578582556468 0 0.12683439495817461 0.052003073372435288 0 0.11545296983014219 0.044674578582556468 0 0.12659142849079691 0.028091664155532971 0 0.13015300311198849 0.040381385354086502 0 0.11369005285381351 0.036564640387925021 0 0.11545296983014219 0.044674578582556468 0 0.12659142849079691 0.028091664155532971 0 0.11369005285381351 0.036564640387925021 0 0.1080469394596527 0.029312409717345649 0 0.12659142849079691 0.028091664155532971 0 0.11545296983014219 0.044674578582556468 0 0.12659142849079691 0.028091664155532971 0 0.1091701701315707 0.045405346223324289 0 0.1063796333462841 0.038668109643535398 0 0.11316657253878901 0.043202368340974628 0 0.11369005285381351 0.036564640387925021 0 0.11316657253878901 0.043202368340974628 0 0.11545296983014219 0.044674578582556468 0 0.1063796333462841 0.038668109643535398 0 0.11369005285381351 0.036564640387925021 0 0.11316657253878901 0.043202368340974628 0 0.1091701701315707 0.045405346223324289 0 0.10828434687670541 0.049049973369521209 0 0.11545296983014219 0.044674578582556468 0 0.1091701701315707 0.045405346223324289 0 0.11316657253878901 0.043202368340974628 0 0.11545296983014219 0.044674578582556468 0 0.11316657253878901 0.043202368340974628 0 0.11545296983014219 0.044674578582556468 0 0.11545296983014219 0.044674578582556468 0 0.13015300311198849 0.040381385354086502 0 0.12683439495817461 0.052003073372435288 0 0.11882011836095251 0.0065886106746579649 0 0.1010264983121123 0.016262416429773479 0 0.12659142849079691 0.028091664155532971 0 0.1010264983121123 0.016262416429773479 0 0.12659142849079691 0.028091664155532971 0 0.1010264983121123 0.016262416429773479 0 0.1080469394596527 0.029312409717345649 0 0.12659142849079691 0.028091664155532971 0 0.11882011836095251 0.0065886106746579649 0 0.1010264983121123 0.016262416429773479 0 0.098011391193308373 -0.0056982583262641584 0 0.088041666307225416 0.02743399724937181 0 0.098246025398924644 0.032379674771496843 0 0.1010264983121123 0.016262416429773479 0 0.098246025398924644 0.032379674771496843 0 0.1010264983121123 0.016262416429773479 0 0.1080469394596527 0.029312409717345649 0 0.102028599401492 0.1079210482782756 0 0.1185648575779607 0.095458187827811403 0 0.097454497296707604 0.093489332089851121 0 0.102028599401492 0.1079210482782756 0 0.094862282777670462 0.1196438628042634 0 0.1117522404438802 0.12667258555115829 0 0.123281054128593 0.11724462113534739 0 0.1117522404438802 0.12667258555115829 0 0.13947052033133081 0.1245003570974072 0 0.102028599401492 0.1079210482782756 0 0.123281054128593 0.11724462113534739 0 0.1117522404438802 0.12667258555115829 0 0.102028599401492 0.1079210482782756 0 0.123281054128593 0.11724462113534739 0 0.102028599401492 0.1079210482782756 0 0.123281054128593 0.11724462113534739 0 0.1185648575779607 0.095458187827811403 0 0.1185648575779607 0.095458187827811403 0 0.10766661625946521 0.081617344394697103 0 0.12679961534922851 0.075073796793526271 0 0.1127439035567581 0.069567645006608142 0 0.10766661625946521 0.081617344394697103 0 0.12679961534922851 0.075073796793526271 0 0.1213053233293625 0.063977455960140386 0 0.1127439035567581 0.069567645006608142 0 0.12679961534922851 0.075073796793526271 0 0.1082136550722141 0.059696613986540442 0 0.1213053233293625 0.063977455960140386 0 0.1127439035567581 0.069567645006608142 0 0.1082136550722141 0.059696613986540442 0 0.089592915186254174 0.067390154600646832 0 0.1014387622560044 0.070574023901201433 0 0.10766661625946521 0.081617344394697103 0 0.08998097741878798 0.081820185866337797 0 0.1082136550722141 0.059696613986540442 0 0.1014387622560044 0.070574023901201433 0 0.089592915186254174 0.067390154600646832 0 0.1082136550722141 0.059696613986540442 0 0.1127439035567581 0.069567645006608142 0 0.1014387622560044 0.070574023901201433 0 0.1127439035567581 0.069567645006608142 0 0.1014387622560044 0.070574023901201433 0 0.10766661625946521 0.081617344394697103 0 0.1185648575779607 0.095458187827811403 0 0.097454497296707604 0.093489332089851121 0 0.10766661625946521 0.081617344394697103 0 0.097454497296707604 0.093489332089851121 0 0.10766661625946521 0.081617344394697103 0 0.08998097741878798 0.081820185866337797 0 0.097454497296707604 0.093489332089851121 0 0.08998097741878798 0.081820185866337797 0 0.080776144674391009 0.098597475421203867 0 0.08998097741878798 0.081820185866337797 0 0.071888117261322881 0.075707086101057836 0 0.080776144674391009 0.098597475421203867 0 0.08998097741878798 0.081820185866337797 0 0.089592915186254174 0.067390154600646832 0 0.071888117261322881 0.075707086101057836 0 0.1014387622560044 0.070574023901201433 0 0.08998097741878798 0.081820185866337797 0 0.089592915186254174 0.067390154600646832 0 0.072379857481358154 0.054137194478101919 0 0.089592915186254174 0.067390154600646832 0 0.071888117261322881 0.075707086101057836 0 0.072379857481358154 0.054137194478101919 0 0.071888117261322881 0.075707086101057836 0 0.06072113176624426 0.066105246874810966 0 0.071888117261322881 0.075707086101057836 0 0.080776144674391009 0.098597475421203867 0 0.059523689947290133 0.089273902564132146 0 0.069834633883481517 0.1065625652268001 0 0.059315065316452309 0.1025539410383776 0 0.059523689947290133 0.089273902564132146 0 0.080776144674391009 0.098597475421203867 0 0.059523689947290133 0.089273902564132146 0 0.069834633883481517 0.1065625652268001 0 0.080776144674391009 0.098597475421203867 0 0.081634330708880196 0.1151370033827101 0 0.069834633883481517 0.1065625652268001 0 0.080776144674391009 0.098597475421203867 0 0.059523689947290133 0.089273902564132146 0 0.069834633883481517 0.1065625652268001 0 0.064307476710745728 0.1098785041095611 0 0.059315065316452309 0.1025539410383776 0 0.102028599401492 0.1079210482782756 0 0.080776144674391009 0.098597475421203867 0 0.081634330708880196 0.1151370033827101 0 0.102028599401492 0.1079210482782756 0 0.080776144674391009 0.098597475421203867 0 0.102028599401492 0.1079210482782756 0 0.097454497296707604 0.093489332089851121 0 0.080776144674391009 0.098597475421203867 0 0.102028599401492 0.1079210482782756 0 0.094862282777670462 0.1196438628042634 0 0.081634330708880196 0.1151370033827101 0 0.094862282777670462 0.1196438628042634 0 0.081634330708880196 0.1151370033827101 0 0.084033960556429532 0.12884481400490949 0 0.081634330708880196 0.1151370033827101 0 0.071861500007931359 0.1232467005620789 0 0.084033960556429532 0.12884481400490949 0 0.081634330708880196 0.1151370033827101 0 0.071861500007931359 0.1232467005620789 0 0.068543873750645412 0.1149277749384955 0 0.069834633883481517 0.1065625652268001 0 0.081634330708880196 0.1151370033827101 0 0.068543873750645412 0.1149277749384955 0 0.068543873750645412 0.1149277749384955 0 0.064307476710745728 0.1098785041095611 0 0.059536333892403683 0.1154697352345713 0 0.069834633883481517 0.1065625652268001 0 0.068543873750645412 0.1149277749384955 0 0.064307476710745728 0.1098785041095611 0 0.071861500007931359 0.1232467005620789 0 0.068543873750645412 0.1149277749384955 0 0.059536333892403683 0.1154697352345713 0 0.056458373241313059 0.1220229844831647 0 0.046980594318971967 0.103944553472415 0 0.044984286063853948 0.1144984098979744 0 0.056458373241313059 0.1220229844831647 0 0.059536333892403683 0.1154697352345713 0 0.047111977694586651 0.095143209078012936 0 0.056458373241313059 0.1220229844831647 0 0.047823074661834691 0.1229743903388081 0 0.044984286063853948 0.1144984098979744 0 0.056458373241313059 0.1220229844831647 0 0.047111977694586651 0.095143209078012936 0 0.056458373241313059 0.1220229844831647 0 0.047111977694586651 0.095143209078012936 0 0.046980594318971967 0.103944553472415 0 0.059536333892403683 0.1154697352345713 0 0.059315065316452309 0.1025539410383776 0 0.048250118395506067 0.092934788779969885 0 0.064307476710745728 0.1098785041095611 0 0.059536333892403683 0.1154697352345713 0 0.059315065316452309 0.1025539410383776 0 0.059536333892403683 0.1154697352345713 0 0.047111977694586651 0.095143209078012936 0 0.048250118395506067 0.092934788779969885 0 0.059536333892403683 0.1154697352345713 0 0.048250118395506067 0.092934788779969885 0 0.059315065316452309 0.1025539410383776 0 0.059523689947290133 0.089273902564132146 0 0.048250118395506067 0.092934788779969885 0 0.046980594318971967 0.103944553472415 0 0.031997015267580219 0.10661530464401089 0 0.044984286063853948 0.1144984098979744 0 0.046980594318971967 0.103944553472415 0 0.039592722901722707 0.099159129702000026 0 0.031997015267580219 0.10661530464401089 0 0.047111977694586651 0.095143209078012936 0 0.046980594318971967 0.103944553472415 0 0.044236279529428407 0.098362398272746204 0 0.043259823202432338 0.095202700838556822 0 0.039592722901722707 0.099159129702000026 0 0.040006298791842428 0.091064350555588536 0 0.047111977694586651 0.095143209078012936 0 0.043259823202432338 0.095202700838556822 0 0.043326765309194368 0.091114650811160686 0 0.047111977694586651 0.095143209078012936 0 0.043259823202432338 0.095202700838556822 0 0.044236279529428407 0.098362398272746204 0 0.046980594318971967 0.103944553472415 0 0.044236279529428407 0.098362398272746204 0 0.039592722901722707 0.099159129702000026 0 0.043259823202432338 0.095202700838556822 0 0.044236279529428407 0.098362398272746204 0 0.039592722901722707 0.099159129702000026 0 0.039592722901722707 0.099159129702000026 0 0.040006298791842428 0.091064350555588536 0 0.033999193661208522 0.092549709374426317 0 0.039592722901722707 0.099159129702000026 0 0.031997015267580219 0.10661530464401089 0 0.033999193661208522 0.092549709374426317 0 0.031997015267580219 0.10661530464401089 0 0.044984286063853948 0.1144984098979744 0 0.040254683338031831 0.12792389191371131 0 0.031997015267580219 0.10661530464401089 0 0.027418588341799281 0.11951208787462859 0 0.040254683338031831 0.12792389191371131 0 0.031997015267580219 0.10661530464401089 0 0.040254683338031831 0.12792389191371131 0 0.047823074661834691 0.1229743903388081 0 0.044984286063853948 0.1144984098979744 0 0.040254683338031831 0.12792389191371131 0 0.071888117261322881 0.075707086101057836 0 0.050643578252195447 0.077240667131504986 0 0.06072113176624426 0.066105246874810966 0 0.071888117261322881 0.075707086101057836 0 0.050643578252195447 0.077240667131504986 0 0.04797297407010033 0.057336039788577382 0 0.050643578252195447 0.077240667131504986 0 0.06072113176624426 0.066105246874810966 0 0.059523689947290133 0.089273902564132146 0 0.048250118395506067 0.092934788779969885 0 0.038271235220189187 0.079950329707060411 0 0.050643578252195447 0.077240667131504986 0 0.059523689947290133 0.089273902564132146 0 0.038271235220189187 0.079950329707060411 0 0.059523689947290133 0.089273902564132146 0 0.038271235220189187 0.079950329707060411 0 0.071888117261322881 0.075707086101057836 0 0.050643578252195447 0.077240667131504986 0 0.059523689947290133 0.089273902564132146 0 0.050643578252195447 0.077240667131504986 0 0.038271235220189187 0.079950329707060411 0 0.029399039243067929 0.078774248161950916 0 0.043326765309194368 0.091114650811160686 0 0.040006298791842428 0.091064350555588536 0 0.038271235220189187 0.079950329707060411 0 0.048250118395506067 0.092934788779969885 0 0.043326765309194368 0.091114650811160686 0 0.038271235220189187 0.079950329707060411 0 0.047111977694586651 0.095143209078012936 0 0.048250118395506067 0.092934788779969885 0 0.043326765309194368 0.091114650811160686 0 0.043259823202432338 0.095202700838556822 0 0.043326765309194368 0.091114650811160686 0 0.040006298791842428 0.091064350555588536 0 0.040006298791842428 0.091064350555588536 0 0.033999193661208522 0.092549709374426317 0 0.035112272261912547 0.085996705185296951 0 0.033999193661208522 0.092549709374426317 0 0.035112272261912547 0.085996705185296951 0 0.030562463090829231 0.085656845023995995 0 0.040006298791842428 0.091064350555588536 0 0.035112272261912547 0.085996705185296951 0 0.038271235220189187 0.079950329707060411 0 0.035112272261912547 0.085996705185296951 0 0.038271235220189187 0.079950329707060411 0 0.029399039243067929 0.078774248161950916 0 0.035112272261912547 0.085996705185296951 0 0.029399039243067929 0.078774248161950916 0 0.030562463090829231 0.085656845023995995 0 0.04797297407010033 0.057336039788577382 0 0.027635028654909001 0.06907575978797427 0 0.029399039243067929 0.078774248161950916 0 0.04797297407010033 0.057336039788577382 0 0.050643578252195447 0.077240667131504986 0 0.029399039243067929 0.078774248161950916 0 0.050643578252195447 0.077240667131504986 0 0.029399039243067929 0.078774248161950916 0 0.04797297407010033 0.057336039788577382 0 0.029399039243067929 0.078774248161950916 0 0.01459521235494949 0.061710637509134872 0 0.030459386295035529 0.05963142741263059 0 0.017825248683011649 0.070045619055208203 0 0.01459521235494949 0.061710637509134872 0 0.017825248683011649 0.070045619055208203 0 0.030459386295035529 0.05963142741263059 0 0.017825248683011649 0.070045619055208203 0 0.030459386295035529 0.05963142741263059 0 0.017825248683011649 0.070045619055208203 0 0.027635028654909001 0.06907575978797427 0 0.027635028654909001 0.06907575978797427 0 0.021430743364398389 0.07934945609652827 0 0.029399039243067929 0.078774248161950916 0 0.017825248683011649 0.070045619055208203 0 0.027635028654909001 0.06907575978797427 0 0.021430743364398389 0.07934945609652827 0 0.017825248683011649 0.070045619055208203 0 0.021430743364398389 0.07934945609652827 0 0.023739347197128589 0.085306717374310406 0 0.0092582498306486675 0.1020209346744549 0 0.021430743364398389 0.07934945609652827 0 0.023739347197128589 0.085306717374310406 0 0.01369104835205702 0.085774757015682671 0 0.021430743364398389 0.07934945609652827 0 0.023739347197128589 0.085306717374310406 0 0.021430743364398389 0.07934945609652827 0 0.029399039243067929 0.078774248161950916 0 0.023739347197128589 0.085306717374310406 0 0.021430743364398389 0.07934945609652827 0 0.029399039243067929 0.078774248161950916 0 0.029399039243067929 0.078774248161950916 0 0.030562463090829231 0.085656845023995995 0 0.023739347197128589 0.085306717374310406 0 0.029399039243067929 0.078774248161950916 0 0.023739347197128589 0.085306717374310406 0 0.033999193661208522 0.092549709374426317 0 0.030562463090829231 0.085656845023995995 0 0.023739347197128589 0.085306717374310406 0 0.023739347197128589 0.085306717374310406 0 0.01369104835205702 0.085774757015682671 0 0.0092582498306486675 0.1020209346744549 0 0.0051087594610210148 0.080527692295617709 0 0.01369104835205702 0.085774757015682671 0 0.0092582498306486675 0.1020209346744549 0 0.021430743364398389 0.07934945609652827 0 0.0051087594610210148 0.080527692295617709 0 0.021430743364398389 0.07934945609652827 0 0.0051087594610210148 0.080527692295617709 0 0.01369104835205702 0.085774757015682671 0 -0.0012292332505543029 0.06378464068123596 0 0.01459521235494949 0.061710637509134872 0 -0.0012292332505543029 0.06378464068123596 0 0.01459521235494949 0.061710637509134872 0 0.0080955592782806732 0.069159055867407046 0 0.017825248683011649 0.070045619055208203 0 0.021430743364398389 0.07934945609652827 0 0.0051087594610210148 0.080527692295617709 0 -0.0012292332505543029 0.06378464068123596 0 0.0051087594610210148 0.080527692295617709 0 0.0080955592782806732 0.069159055867407046 0 0.017825248683011649 0.070045619055208203 0 0.0051087594610210148 0.080527692295617709 0 0.0080955592782806732 0.069159055867407046 0 0.017825248683011649 0.070045619055208203 0 0.0051087594610210148 0.080527692295617709 0 0.01459521235494949 0.061710637509134872 0 0.017825248683011649 0.070045619055208203 0 0.0080955592782806732 0.069159055867407046 0 0.019482067178466251 0.1107491432724047 0 0.017356945103072018 0.1204998149293544 0 0.027418588341799281 0.11951208787462859 0 0.017356945103072018 0.1204998149293544 0 0.027418588341799281 0.11951208787462859 0 0.028136896369567631 0.1331750506540591 0 0.031997015267580219 0.10661530464401089 0 0.019482067178466251 0.1107491432724047 0 0.027418588341799281 0.11951208787462859 0 0.031997015267580219 0.10661530464401089 0 0.033999193661208522 0.092549709374426317 0 0.023739347197128589 0.085306717374310406 0 0.023739347197128589 0.085306717374310406 0 0.02108550348152554 0.10082233348119581 0 0.0092582498306486675 0.1020209346744549 0 0.031997015267580219 0.10661530464401089 0 0.023739347197128589 0.085306717374310406 0 0.031997015267580219 0.10661530464401089 0 0.023739347197128589 0.085306717374310406 0 0.02108550348152554 0.10082233348119581 0 0.031997015267580219 0.10661530464401089 0 0.019482067178466251 0.1107491432724047 0 0.02108550348152554 0.10082233348119581 0 0.019482067178466251 0.1107491432724047 0 0.02108550348152554 0.10082233348119581 0 0.0092582498306486675 0.1020209346744549 0 -0.0040597014752050652 0.1051126182356364 0 0.0051087594610210148 0.080527692295617709 0 0.0092582498306486675 0.1020209346744549 0 0.019482067178466251 0.1107491432724047 0 0.0092582498306486675 0.1020209346744549 0 0.0097761010461718117 0.1150243840307837 0 -0.0052228475358298988 0.1187351519746004 0 0.0092582498306486675 0.1020209346744549 0 -0.0052228475358298988 0.1187351519746004 0 0.0092582498306486675 0.1020209346744549 0 0.0097761010461718117 0.1150243840307837 0 0.019482067178466251 0.1107491432724047 0 0.017356945103072018 0.1204998149293544 0 0.0097761010461718117 0.1150243840307837 0 0.017356945103072018 0.1204998149293544 0 0.0081407562022233586 0.1245196413435004 0 0.017356945103072018 0.1204998149293544 0 0.0097761010461718117 0.1150243840307837 0 0.0081407562022233586 0.1245196413435004 0 -0.0052228475358298988 0.1187351519746004 0 0.0097761010461718117 0.1150243840307837 0 0.0081407562022233586 0.1245196413435004 0 -0.0052228475358298988 0.1187351519746004 0 0.0081407562022233586 0.1245196413435004 0 -0.015783289274076458 0.13495459563681389 0 0.0081407562022233586 0.1245196413435004 0 0.01185912902997375 0.14130758542593569 0 0.017356945103072018 0.1204998149293544 0 0.0081407562022233586 0.1245196413435004 0 0.028136896369567631 0.1331750506540591 0 0.0081407562022233586 0.1245196413435004 0 0.028136896369567631 0.1331750506540591 0 0.0081407562022233586 0.1245196413435004 0 0.028136896369567631 0.1331750506540591 0 0.01185912902997375 0.14130758542593569 0 0.028136896369567631 0.1331750506540591 0 0.0267736462585265 0.15269096182544131 0 0.035919394343652343 0.14075559589415579 0 0.028136896369567631 0.1331750506540591 0 0.0267736462585265 0.15269096182544131 0 0.01185912902997375 0.14130758542593569 0 0.0267736462585265 0.15269096182544131 0 0.001788155555331062 0.1557637096651584 0 0.01185912902997375 0.14130758542593569 0 0.001788155555331062 0.1557637096651584 0 0.00061104658230836653 0.17769045695541219 0 0.019359600384737739 0.17657282369350361 0 0.001788155555331062 0.1557637096651584 0 0.019359600384737739 0.17657282369350361 0 0.00061104658230836653 0.17769045695541219 0 0.019359600384737739 0.17657282369350361 0 0.017852612557627559 0.19656860209324539 0 0.019359600384737739 0.17657282369350361 0 0.036931045214144441 0.19738193772184889 0 0.0267736462585265 0.15269096182544131 0 0.001788155555331062 0.1557637096651584 0 0.019359600384737739 0.17657282369350361 0 0.0267736462585265 0.15269096182544131 0 0.019359600384737739 0.17657282369350361 0 0.038399134829123632 0.17159850230738899 0 0.0267736462585265 0.15269096182544131 0 0.038399134829123632 0.17159850230738899 0 0.048512351408483409 0.1492324791834117 0 0.019359600384737739 0.17657282369350361 0 0.038399134829123632 0.17159850230738899 0 0.036931045214144441 0.19738193772184889 0 0.038399134829123632 0.17159850230738899 0 0.053915020648589329 0.181809847856817 0 0.036931045214144441 0.19738193772184889 0 0.053915020648589329 0.181809847856817 0 0.056298621576963533 0.16595151756685289 0 0.075151164334765874 0.17578253529346821 0 0.038399134829123632 0.17159850230738899 0 0.053915020648589329 0.181809847856817 0 0.056298621576963533 0.16595151756685289 0 0.038399134829123632 0.17159850230738899 0 0.056298621576963533 0.16595151756685289 0 0.048512351408483409 0.1492324791834117 0 0.048512351408483409 0.1492324791834117 0 0.055211699142625699 0.13746009370018761 0 0.065804768788039439 0.14890275988831639 0 0.056298621576963533 0.16595151756685289 0 0.048512351408483409 0.1492324791834117 0 0.065804768788039439 0.14890275988831639 0 0.048512351408483409 0.1492324791834117 0 0.055211699142625699 0.13746009370018761 0 0.049904412172306151 0.13036597214331841 0 0.056458373241313059 0.1220229844831647 0 0.059536333892403683 0.1154697352345713 0 0.070822549389301243 0.1380046816891726 0 0.056458373241313059 0.1220229844831647 0 0.055211699142625699 0.13746009370018761 0 0.065804768788039439 0.14890275988831639 0 0.056458373241313059 0.1220229844831647 0 0.065804768788039439 0.14890275988831639 0 0.056458373241313059 0.1220229844831647 0 0.047823074661834691 0.1229743903388081 0 0.049904412172306151 0.13036597214331841 0 0.056458373241313059 0.1220229844831647 0 0.055211699142625699 0.13746009370018761 0 0.049904412172306151 0.13036597214331841 0 0.048512351408483409 0.1492324791834117 0 0.040254683338031831 0.12792389191371131 0 0.048512351408483409 0.1492324791834117 0 0.040254683338031831 0.12792389191371131 0 0.035919394343652343 0.14075559589415579 0 0.048512351408483409 0.1492324791834117 0 0.049904412172306151 0.13036597214331841 0 0.040254683338031831 0.12792389191371131 0 0.047823074661834691 0.1229743903388081 0 0.049904412172306151 0.13036597214331841 0 0.040254683338031831 0.12792389191371131 0 0.027418588341799281 0.11951208787462859 0 0.028136896369567631 0.1331750506540591 0 0.040254683338031831 0.12792389191371131 0 0.028136896369567631 0.1331750506540591 0 0.040254683338031831 0.12792389191371131 0 0.035919394343652343 0.14075559589415579 0 0.0267736462585265 0.15269096182544131 0 0.048512351408483409 0.1492324791834117 0 0.035919394343652343 0.14075559589415579 0 0.020197736684044801 0.2291273398277828 0 0.034114961552744377 0.23516115760169301 0 0.036501911092354018 0.25177276941539839 0 0.018629400856135309 0.24429501886194191 0 0.020197736684044801 0.2291273398277828 0 0.02692674034290404 0.25134916217479408 0 0.020197736684044801 0.2291273398277828 0 0.02692674034290404 0.25134916217479408 0 0.036501911092354018 0.25177276941539839 0 0.020197736684044801 0.2291273398277828 0 0.036501911092354018 0.25177276941539839 0 0.018629400856135309 0.24429501886194191 0 0.0082785766384091443 0.23618007315607359 0 0.020197736684044801 0.2291273398277828 0 0.018629400856135309 0.24429501886194191 0 0.012944211518790589 0.24639919126045251 0 0.0082785766384091443 0.23618007315607359 0 0.012944211518790589 0.24639919126045251 0 0.001894876929373096 0.24743045501984201 0 0.0082785766384091443 0.23618007315607359 0 -0.0070773620087705444 0.23295897308755351 0 0.001894876929373096 0.24743045501984201 0 0.0082785766384091443 0.23618007315607359 0 0.0082785766384091443 0.23618007315607359 0 0.0038866256090455522 0.2239579318999283 0 0.020197736684044801 0.2291273398277828 0 0.0038866256090455522 0.2239579318999283 0 0.020197736684044801 0.2291273398277828 0 0.003893562275735573 0.2064819102401671 0 -0.0070773620087705444 0.23295897308755351 0 0.0082785766384091443 0.23618007315607359 0 0.0038866256090455522 0.2239579318999283 0 0.01643925603633389 0.21561198758054059 0 0.035370792182188207 0.216260201755786 0 0.034114961552744377 0.23516115760169301 0 0.020197736684044801 0.2291273398277828 0 0.01643925603633389 0.21561198758054059 0 0.034114961552744377 0.23516115760169301 0 0.01643925603633389 0.21561198758054059 0 0.034114961552744377 0.23516115760169301 0 0.017852612557627559 0.19656860209324539 0 0.036931045214144441 0.19738193772184889 0 0.035370792182188207 0.216260201755786 0 0.01643925603633389 0.21561198758054059 0 0.017852612557627559 0.19656860209324539 0 0.035370792182188207 0.216260201755786 0 0.020197736684044801 0.2291273398277828 0 0.003893562275735573 0.2064819102401671 0 -0.0045317147067566524 0.21522543551468479 0 0.0038866256090455522 0.2239579318999283 0 0.003893562275735573 0.2064819102401671 0 -0.0012364494800765971 0.1960628175593882 0 0.01643925603633389 0.21561198758054059 0 -0.0012364494800765971 0.1960628175593882 0 0.01643925603633389 0.21561198758054059 0 0.003893562275735573 0.2064819102401671 0 0.020197736684044801 0.2291273398277828 0 0.01643925603633389 0.21561198758054059 0 0.003893562275735573 0.2064819102401671 0 -0.0012364494800765971 0.1960628175593882 0 0.01643925603633389 0.21561198758054059 0 0.017852612557627559 0.19656860209324539 0 -0.0012364494800765971 0.1960628175593882 0 0.00061104658230836653 0.17769045695541219 0 0.017852612557627559 0.19656860209324539 0 0.019359600384737739 0.17657282369350361 0 0.017852612557627559 0.19656860209324539 0 0.036931045214144441 0.19738193772184889 0 0.053915020648589329 0.181809847856817 0 0.036931045214144441 0.19738193772184889 0 0.062795137287949193 0.19833474639452611 0 0.036931045214144441 0.19738193772184889 0 0.054502490043551163 0.2181910517501941 0 0.062795137287949193 0.19833474639452611 0 0.036931045214144441 0.19738193772184889 0 0.054502490043551163 0.2181910517501941 0 0.036931045214144441 0.19738193772184889 0 0.054502490043551163 0.2181910517501941 0 0.035370792182188207 0.216260201755786 0 0.054502490043551163 0.2181910517501941 0 0.035370792182188207 0.216260201755786 0 0.034114961552744377 0.23516115760169301 0 0.054502490043551163 0.2181910517501941 0 0.055174909047777811 0.2396291133956362 0 0.034114961552744377 0.23516115760169301 0 0.054502490043551163 0.2181910517501941 0 0.055174909047777811 0.2396291133956362 0 0.072073934872957782 0.23900016577853919 0 0.055174909047777811 0.2396291133956362 0 0.034114961552744377 0.23516115760169301 0 0.051790667069154861 0.2547103276228454 0 0.055174909047777811 0.2396291133956362 0 0.051790667069154861 0.2547103276228454 0 0.063392491700480919 0.2510828642249095 0 0.034114961552744377 0.23516115760169301 0 0.036501911092354018 0.25177276941539839 0 0.051790667069154861 0.2547103276228454 0 0.034114961552744377 0.23516115760169301 0 0.051790667069154861 0.2547103276228454 0 0.072073934872957782 0.23900016577853919 0 0.093843955428218759 0.229542086103772 0 0.089645379702363526 0.25980927980688501 0 0.072073934872957782 0.23900016577853919 0 0.089645379702363526 0.25980927980688501 0 0.055174909047777811 0.2396291133956362 0 0.072073934872957782 0.23900016577853919 0 0.063392491700480919 0.2510828642249095 0 0.072073934872957782 0.23900016577853919 0 0.063392491700480919 0.2510828642249095 0 0.074261774750864804 0.25289133929391111 0 0.054502490043551163 0.2181910517501941 0 0.072073934872957782 0.23900016577853919 0 0.054502490043551163 0.2181910517501941 0 0.072073934872957782 0.23900016577853919 0 0.07691655231929137 0.22036312128655 0 0.072073934872957782 0.23900016577853919 0 0.07691655231929137 0.22036312128655 0 0.093843955428218759 0.229542086103772 0 0.084497559881492323 0.20266231069862009 0 0.1011551627426199 0.2154511434485995 0 0.093843955428218759 0.229542086103772 0 0.084497559881492323 0.20266231069862009 0 0.093843955428218759 0.229542086103772 0 0.07691655231929137 0.22036312128655 0 0.084497559881492323 0.20266231069862009 0 0.093843955428218759 0.229542086103772 0 0.07691655231929137 0.22036312128655 0 0.062795137287949193 0.19833474639452611 0 0.084497559881492323 0.20266231069862009 0 0.054502490043551163 0.2181910517501941 0 0.07691655231929137 0.22036312128655 0 0.062795137287949193 0.19833474639452611 0 0.062795137287949193 0.19833474639452611 0 0.084497559881492323 0.20266231069862009 0 0.075151164334765874 0.17578253529346821 0 0.084497559881492323 0.20266231069862009 0 0.075151164334765874 0.17578253529346821 0 0.084497559881492323 0.20266231069862009 0 0.10184565838461331 0.1924014028594688 0 0.093394980383096363 0.18307457459837531 0 0.084497559881492323 0.20266231069862009 0 0.10184565838461331 0.1924014028594688 0 0.10260278643249959 0.20376756124449391 0 0.10184565838461331 0.1924014028594688 0 0.1105875138732399 0.1994169567440035 0 0.10260278643249959 0.20376756124449391 0 0.10184565838461331 0.1924014028594688 0 0.1131184160342838 0.18994185980391479 0 0.1105875138732399 0.1994169567440035 0 0.10184565838461331 0.1924014028594688 0 0.1131184160342838 0.18994185980391479 0 0.1054525685194168 0.18020148819897211 0 0.1131184160342838 0.18994185980391479 0 0.1210814068145178 0.19423580856195369 0 0.1131184160342838 0.18994185980391479 0 0.1210814068145178 0.19423580856195369 0 0.1196286990311512 0.18236386641526309 0 0.1210814068145178 0.19423580856195369 0 0.11958782189190099 0.20227867846385961 0 0.13241563583181001 0.2003476577346209 0 0.1131184160342838 0.18994185980391479 0 0.1210814068145178 0.19423580856195369 0 0.11958782189190099 0.20227867846385961 0 0.1131184160342838 0.18994185980391479 0 0.11958782189190099 0.20227867846385961 0 0.1105875138732399 0.1994169567440035 0 0.11958782189190099 0.20227867846385961 0 0.1105875138732399 0.1994169567440035 0 0.11467542950451071 0.21015036581969679 0 0.11958782189190099 0.20227867846385961 0 0.11467542950451071 0.21015036581969679 0 0.12714211421566091 0.2115365522170618 0 0.11467542950451071 0.21015036581969679 0 0.1287590091161889 0.22454109023782651 0 0.12714211421566091 0.2115365522170618 0 0.11467542950451071 0.21015036581969679 0 0.1011551627426199 0.2154511434485995 0 0.1117838155087727 0.22779371718329239 0 0.084497559881492323 0.20266231069862009 0 0.10260278643249959 0.20376756124449391 0 0.1011551627426199 0.2154511434485995 0 0.1105875138732399 0.1994169567440035 0 0.11467542950451071 0.21015036581969679 0 0.10260278643249959 0.20376756124449391 0 0.11467542950451071 0.21015036581969679 0 0.10260278643249959 0.20376756124449391 0 0.1011551627426199 0.2154511434485995 0 0.1011551627426199 0.2154511434485995 0 0.093843955428218759 0.229542086103772 0 0.1117838155087727 0.22779371718329239 0 0.11467542950451071 0.21015036581969679 0 0.1117838155087727 0.22779371718329239 0 0.1287590091161889 0.22454109023782651 0 0.1117838155087727 0.22779371718329239 0 0.1287590091161889 0.22454109023782651 0 0.116065923487036 0.25155424759680489 0 0.093843955428218759 0.229542086103772 0 0.089645379702363526 0.25980927980688501 0 0.116065923487036 0.25155424759680489 0 0.093843955428218759 0.229542086103772 0 0.1117838155087727 0.22779371718329239 0 0.116065923487036 0.25155424759680489 0 0.085867858697711436 0.14453522140638461 0 0.070822549389301243 0.1380046816891726 0 0.082108764886198796 0.1605396281437739 0 0.085867858697711436 0.14453522140638461 0 0.082108764886198796 0.1605396281437739 0 0.098061838006449922 0.1524476624703702 0 0.085867858697711436 0.14453522140638461 0 0.084033960556429532 0.12884481400490949 0 0.098019367542785563 0.1407790739484335 0 0.085867858697711436 0.14453522140638461 0 0.084033960556429532 0.12884481400490949 0 0.070822549389301243 0.1380046816891726 0 0.071861500007931359 0.1232467005620789 0 0.059536333892403683 0.1154697352345713 0 0.070822549389301243 0.1380046816891726 0 0.059536333892403683 0.1154697352345713 0 0.070822549389301243 0.1380046816891726 0 0.056458373241313059 0.1220229844831647 0 0.070822549389301243 0.1380046816891726 0 0.065804768788039439 0.14890275988831639 0 0.071861500007931359 0.1232467005620789 0 0.084033960556429532 0.12884481400490949 0 0.070822549389301243 0.1380046816891726 0 0.070822549389301243 0.1380046816891726 0 0.082108764886198796 0.1605396281437739 0 0.070822549389301243 0.1380046816891726 0 0.065804768788039439 0.14890275988831639 0 0.082108764886198796 0.1605396281437739 0 0.056298621576963533 0.16595151756685289 0 0.065804768788039439 0.14890275988831639 0 0.075151164334765874 0.17578253529346821 0 0.065804768788039439 0.14890275988831639 0 0.075151164334765874 0.17578253529346821 0 0.082108764886198796 0.1605396281437739 0 0.065804768788039439 0.14890275988831639 0 0.075151164334765874 0.17578253529346821 0 0.053915020648589329 0.181809847856817 0 0.062795137287949193 0.19833474639452611 0 0.075151164334765874 0.17578253529346821 0 0.075151164334765874 0.17578253529346821 0 0.093394980383096363 0.18307457459837531 0 0.082108764886198796 0.1605396281437739 0 0.084497559881492323 0.20266231069862009 0 0.075151164334765874 0.17578253529346821 0 0.093394980383096363 0.18307457459837531 0 0.093394980383096363 0.18307457459837531 0 0.082108764886198796 0.1605396281437739 0 0.1017810834163356 0.16778327145988009 0 0.093394980383096363 0.18307457459837531 0 0.082108764886198796 0.1605396281437739 0 0.082108764886198796 0.1605396281437739 0 0.1017810834163356 0.16778327145988009 0 0.098061838006449922 0.1524476624703702 0 0.1017810834163356 0.16778327145988009 0 0.1094413004412432 0.1568441156191657 0 0.098061838006449922 0.1524476624703702 0 0.10184565838461331 0.1924014028594688 0 0.093394980383096363 0.18307457459837531 0 0.1054525685194168 0.18020148819897211 0 0.093394980383096363 0.18307457459837531 0 0.1017810834163356 0.16778327145988009 0 0.1054525685194168 0.18020148819897211 0 0.1017810834163356 0.16778327145988009 0 0.1054525685194168 0.18020148819897211 0 0.1143103312636523 0.17467474260035151 0 0.1131184160342838 0.18994185980391479 0 0.1132877880089454 0.18182979361660931 0 0.1196286990311512 0.18236386641526309 0 0.1131184160342838 0.18994185980391479 0 0.1054525685194168 0.18020148819897211 0 0.1132877880089454 0.18182979361660931 0 0.1054525685194168 0.18020148819897211 0 0.1132877880089454 0.18182979361660931 0 0.1143103312636523 0.17467474260035151 0 0.1132877880089454 0.18182979361660931 0 0.1143103312636523 0.17467474260035151 0 0.1196286990311512 0.18236386641526309 0 0.1143103312636523 0.17467474260035151 0 0.1229466648353691 0.17360959233997481 0 0.1196286990311512 0.18236386641526309 0 0.1229466648353691 0.17360959233997481 0 0.1196286990311512 0.18236386641526309 0 0.1315359285025598 0.17914174819028489 0 0.1210814068145178 0.19423580856195369 0 0.1196286990311512 0.18236386641526309 0 0.1315359285025598 0.17914174819028489 0 0.1017810834163356 0.16778327145988009 0 0.1143103312636523 0.17467474260035151 0 0.11826309888899959 0.1638296446882945 0 0.1017810834163356 0.16778327145988009 0 0.1094413004412432 0.1568441156191657 0 0.11826309888899959 0.1638296446882945 0 0.1094413004412432 0.1568441156191657 0 0.11826309888899959 0.1638296446882945 0 0.12116198843957229 0.15461983439099389 0 0.1143103312636523 0.17467474260035151 0 0.1229466648353691 0.17360959233997481 0 0.11826309888899959 0.1638296446882945 0 0.1229466648353691 0.17360959233997481 0 0.11826309888899959 0.1638296446882945 0 0.1286748755814317 0.16568949079043779 0 0.11826309888899959 0.1638296446882945 0 0.12116198843957229 0.15461983439099389 0 0.1286748755814317 0.16568949079043779 0 0.12116198843957229 0.15461983439099389 0 0.1235319134973574 0.14279740261083959 0 0.11069945258584669 0.14552439304262721 0 0.1094413004412432 0.1568441156191657 0 0.12116198843957229 0.15461983439099389 0 0.11069945258584669 0.14552439304262721 0 0.1094413004412432 0.1568441156191657 0 0.11069945258584669 0.14552439304262721 0 0.098061838006449922 0.1524476624703702 0 0.11069945258584669 0.14552439304262721 0 0.098019367542785563 0.1407790739484335 0 0.098061838006449922 0.1524476624703702 0 0.085867858697711436 0.14453522140638461 0 0.098019367542785563 0.1407790739484335 0 0.098061838006449922 0.1524476624703702 0 0.084033960556429532 0.12884481400490949 0 0.1117522404438802 0.12667258555115829 0 0.094862282777670462 0.1196438628042634 0 0.084033960556429532 0.12884481400490949 0 0.1117522404438802 0.12667258555115829 0 0.084033960556429532 0.12884481400490949 0 0.098019367542785563 0.1407790739484335 0 0.1117522404438802 0.12667258555115829 0 0.11069945258584669 0.14552439304262721 0 0.098019367542785563 0.1407790739484335 0 0.1117522404438802 0.12667258555115829 0 0.1235319134973574 0.14279740261083959 0 0.11069945258584669 0.14552439304262721 0 0.1117522404438802 0.12667258555115829 0 0.1235319134973574 0.14279740261083959 0 0.1117522404438802 0.12667258555115829 0 0.1338250830151082 0.13680555700437169 0 0.1117522404438802 0.12667258555115829 0 0.1338250830151082 0.13680555700437169 0 0.13947052033133081 0.1245003570974072 0 0.1117522404438802 0.12667258555115829 0 0.13947052033133081 0.1245003570974072 0 0.1338250830151082 0.13680555700437169 0 0.14773514824261011 0.13994704674368119 0 0.13947052033133081 0.1245003570974072 0 0.14773514824261011 0.13994704674368119 0 0.13947052033133081 0.1245003570974072 0 0.16718880021878149 0.12232812864365609 0 0.14773514824261011 0.13994704674368119 0 0.1492794596183103 0.15557552201751701 0 0.16307655427518189 0.1461583771030025 0 0.14773514824261011 0.13994704674368119 0 0.1492794596183103 0.15557552201751701 0 0.13636128964255501 0.15303395959459851 0 0.1235319134973574 0.14279740261083959 0 0.1338250830151082 0.13680555700437169 0 0.13636128964255501 0.15303395959459851 0 0.1338250830151082 0.13680555700437169 0 0.14773514824261011 0.13994704674368119 0 0.13636128964255501 0.15303395959459851 0 0.12116198843957229 0.15461983439099389 0 0.1235319134973574 0.14279740261083959 0 0.13636128964255501 0.15303395959459851 0 0.12116198843957229 0.15461983439099389 0 0.13636128964255501 0.15303395959459851 0 0.1286748755814317 0.16568949079043779 0 0.13636128964255501 0.15303395959459851 0 0.1286748755814317 0.16568949079043779 0 0.1402599975996246 0.1687496010839549 0 0.1286748755814317 0.16568949079043779 0 0.1402599975996246 0.1687496010839549 0 0.1315359285025598 0.17914174819028489 0 0.1210814068145178 0.19423580856195369 0 0.1315359285025598 0.17914174819028489 0 0.14172685770208041 0.18088834424850889 0 0.1229466648353691 0.17360959233997481 0 0.1286748755814317 0.16568949079043779 0 0.1315359285025598 0.17914174819028489 0 0.1402599975996246 0.1687496010839549 0 0.1315359285025598 0.17914174819028489 0 0.14172685770208041 0.18088834424850889 0 0.1315359285025598 0.17914174819028489 0 0.14172685770208041 0.18088834424850889 0 0.14172685770208041 0.18088834424850889 0 0.1589643083315804 0.1699886255623487 0 0.15664227980061579 0.1834446584897341 0 0.14172685770208041 0.18088834424850889 0 0.1589643083315804 0.1699886255623487 0 0.1402599975996246 0.1687496010839549 0 0.14172685770208041 0.18088834424850889 0 0.1589643083315804 0.1699886255623487 0 0.14172685770208041 0.18088834424850889 0 0.15664227980061579 0.1834446584897341 0 0.14735069213281321 0.19092796682168489 0 0.14172685770208041 0.18088834424850889 0 0.15664227980061579 0.1834446584897341 0 0.1492794596183103 0.15557552201751701 0 0.1402599975996246 0.1687496010839549 0 0.1589643083315804 0.1699886255623487 0 0.1492794596183103 0.15557552201751701 0 0.13636128964255501 0.15303395959459851 0 0.1402599975996246 0.1687496010839549 0 0.1492794596183103 0.15557552201751701 0 0.1589643083315804 0.1699886255623487 0 0.16307655427518189 0.1461583771030025 0 0.1589643083315804 0.1699886255623487 0 0.1832181015668064 0.15465227861531949 0 0.16307655427518189 0.1461583771030025 0 0.1589643083315804 0.1699886255623487 0 0.16307655427518189 0.1461583771030025 0 0.1589643083315804 0.1699886255623487 0 0.1832181015668064 0.15465227861531949 0 0.1589643083315804 0.1699886255623487 0 0.15664227980061579 0.1834446584897341 0 0.17367876449497299 0.17356388092826039 0 0.15664227980061579 0.1834446584897341 0 0.17803712215301101 0.18711146321258301 0 0.15664227980061579 0.1834446584897341 0 0.17367876449497299 0.17356388092826039 0 0.17803712215301101 0.18711146321258301 0 0.1589643083315804 0.1699886255623487 0 0.15664227980061579 0.1834446584897341 0 0.17367876449497299 0.17356388092826039 0 0.17803712215301101 0.18711146321258301 0 0.1915320106228488 0.17262237876131631 0 0.1589643083315804 0.1699886255623487 0 0.17367876449497299 0.17356388092826039 0 0.1832181015668064 0.15465227861531949 0 0.17367876449497299 0.17356388092826039 0 0.1832181015668064 0.15465227861531949 0 0.1915320106228488 0.17262237876131631 0 0.1832181015668064 0.15465227861531949 0 0.18154761934540289 0.13534417850528041 0 0.16307655427518189 0.1461583771030025 0 0.18154761934540289 0.13534417850528041 0 0.19370351113240411 0.1202502215829211 0 0.16718880021878149 0.12232812864365609 0 0.16307655427518189 0.1461583771030025 0 0.16718880021878149 0.12232812864365609 0 0.14773514824261011 0.13994704674368119 0 0.16307655427518189 0.1461583771030025 0 0.16718880021878149 0.12232812864365609 0 0.18154761934540289 0.13534417850528041 0 0.16307655427518189 0.1461583771030025 0 0.16718880021878149 0.12232812864365609 0 0.14248646727170791 0.24329921538672239 0 0.16890701105638031 0.23504418317664161 0 0.14248646727170791 0.24329921538672239 0 0.116065923487036 0.25155424759680489 0 0.14248646727170791 0.24329921538672239 0 0.1287590091161889 0.22454109023782651 0 0.116065923487036 0.25155424759680489 0 0.14248646727170791 0.24329921538672239 0 0.1287590091161889 0.22454109023782651 0 0.14216045677169509 0.2226427774354276 0 0.1287590091161889 0.22454109023782651 0 0.14216045677169509 0.2226427774354276 0 0.13903299807830019 0.21154409335764149 0 0.14248646727170791 0.24329921538672239 0 0.14216045677169509 0.2226427774354276 0 0.16890701105638031 0.23504418317664161 0 0.14216045677169509 0.2226427774354276 0 0.1513137794066001 0.21432303737238931 0 0.16890701105638031 0.23504418317664161 0 0.15183105921464751 0.210852851725322 0 0.13241563583181001 0.2003476577346209 0 0.15183105921464751 0.210852851725322 0 0.13903299807830019 0.21154409335764149 0 0.13241563583181001 0.2003476577346209 0 0.1513137794066001 0.21432303737238931 0 0.15183105921464751 0.210852851725322 0 0.14522842943996589 0.21534193400985699 0 0.1513137794066001 0.21432303737238931 0 0.15183105921464751 0.210852851725322 0 0.15183105921464751 0.210852851725322 0 0.14522842943996589 0.21534193400985699 0 0.13903299807830019 0.21154409335764149 0 0.14216045677169509 0.2226427774354276 0 0.1513137794066001 0.21432303737238931 0 0.14522842943996589 0.21534193400985699 0 0.14216045677169509 0.2226427774354276 0 0.14522842943996589 0.21534193400985699 0 0.13903299807830019 0.21154409335764149 0 0.1287590091161889 0.22454109023782651 0 0.13903299807830019 0.21154409335764149 0 0.12714211421566091 0.2115365522170618 0 0.11958782189190099 0.20227867846385961 0 0.12714211421566091 0.2115365522170618 0 0.13241563583181001 0.2003476577346209 0 0.13903299807830019 0.21154409335764149 0 0.12714211421566091 0.2115365522170618 0 0.13241563583181001 0.2003476577346209 0 0.1210814068145178 0.19423580856195369 0 0.13241563583181001 0.2003476577346209 0 0.13808072668616231 0.19149491569441959 0 0.1210814068145178 0.19423580856195369 0 0.14172685770208041 0.18088834424850889 0 0.13808072668616231 0.19149491569441959 0 0.1210814068145178 0.19423580856195369 0 0.14172685770208041 0.18088834424850889 0 0.1210814068145178 0.19423580856195369 0 0.13241563583181001 0.2003476577346209 0 0.15664227980061579 0.1834446584897341 0 0.15183105921464751 0.210852851725322 0 0.14735069213281321 0.19092796682168489 0 0.14172685770208041 0.18088834424850889 0 0.13808072668616231 0.19149491569441959 0 0.14735069213281321 0.19092796682168489 0 0.15183105921464751 0.210852851725322 0 0.13808072668616231 0.19149491569441959 0 0.14735069213281321 0.19092796682168489 0 0.15664227980061579 0.1834446584897341 0 0.15183105921464751 0.210852851725322 0 0.15183105921464751 0.210852851725322 0 0.13241563583181001 0.2003476577346209 0 0.13808072668616231 0.19149491569441959 0 0.15183105921464751 0.210852851725322 0 0.13808072668616231 0.19149491569441959 0 0.15664227980061579 0.1834446584897341 0 0.17803712215301101 0.18711146321258301 0 0.17078007948547791 0.20461318166966591 0 0.15664227980061579 0.1834446584897341 0 0.15183105921464751 0.210852851725322 0 0.17078007948547791 0.20461318166966591 0 0.17803712215301101 0.18711146321258301 0 0.18699821765939811 0.20575379358823331 0 0.17078007948547791 0.20461318166966591 0 0.18699821765939811 0.20575379358823331 0 0.18150256540618689 0.21619068467845909 0 0.17078007948547791 0.20461318166966591 0 0.18150256540618689 0.21619068467845909 0 0.17078007948547791 0.20461318166966591 0 0.1696832039875637 0.2204437538389574 0 0.15183105921464751 0.210852851725322 0 0.1696832039875637 0.2204437538389574 0 0.15183105921464751 0.210852851725322 0 0.17078007948547791 0.20461318166966591 0 0.1696832039875637 0.2204437538389574 0 0.15183105921464751 0.210852851725322 0 0.16890701105638031 0.23504418317664161 0 0.15183105921464751 0.210852851725322 0 0.1696832039875637 0.2204437538389574 0 0.16890701105638031 0.23504418317664161 0 0.1513137794066001 0.21432303737238931 0 0.15183105921464751 0.210852851725322 0 0.16890701105638031 0.23504418317664161 0 0.1696832039875637 0.2204437538389574 0 0.1730962958839812 0.23373525170759399 0 0.16890701105638031 0.23504418317664161 0 0.18150256540618689 0.21619068467845909 0 0.1696832039875637 0.2204437538389574 0 0.1874551123034256 0.23002704556275291 0 0.1696832039875637 0.2204437538389574 0 0.1874551123034256 0.23002704556275291 0 0.1730962958839812 0.23373525170759399 0 0.1696832039875637 0.2204437538389574 0 0.1874551123034256 0.23002704556275291 0 0.16890701105638031 0.23504418317664161 0 0.18564289691528729 0.25868749876629671 0 0.1821848497420967 0.24129823675235251 0 0.16890701105638031 0.23504418317664161 0 0.18564289691528729 0.25868749876629671 0 0.1730962958839812 0.23373525170759399 0 0.1821848497420967 0.24129823675235251 0 0.16890701105638031 0.23504418317664161 0 0.1874551123034256 0.23002704556275291 0 0.1730962958839812 0.23373525170759399 0 0.1821848497420967 0.24129823675235251 0 0.14248646727170791 0.24329921538672239 0 0.16890701105638031 0.23504418317664161 0 0.1631161995596529 0.25657386530356069 0 0.1730962958839812 0.23373525170759399 0 0.16890701105638031 0.23504418317664161 0 0.2052270206192876 0.23961033728654851 0 0.2245441737887168 0.23093760545441711 0 0.21458810326103989 0.25029177234766842 0 0.2052270206192876 0.23961033728654851 0 0.2050239072751949 0.2492833193895482 0 0.21458810326103989 0.25029177234766842 0 0.2052270206192876 0.23961033728654851 0 0.2050239072751949 0.2492833193895482 0 0.1956251304139873 0.24830732682566101 0 0.1874551123034256 0.23002704556275291 0 0.1821848497420967 0.24129823675235251 0 0.1956251304139873 0.24830732682566101 0 0.1874551123034256 0.23002704556275291 0 0.2052270206192876 0.23961033728654851 0 0.1821848497420967 0.24129823675235251 0 0.1956251304139873 0.24830732682566101 0 0.18564289691528729 0.25868749876629671 0 0.1874551123034256 0.23002704556275291 0 0.2052270206192876 0.23961033728654851 0 0.1956251304139873 0.24830732682566101 0 0.1874551123034256 0.23002704556275291 0 0.2052270206192876 0.23961033728654851 0 0.20110338325899621 0.22697869990708769 0 0.18150256540618689 0.21619068467845909 0 0.1874551123034256 0.23002704556275291 0 0.19422843088031849 0.2167901493339745 0 0.1874551123034256 0.23002704556275291 0 0.20110338325899621 0.22697869990708769 0 0.19422843088031849 0.2167901493339745 0 0.20110338325899621 0.22697869990708769 0 0.2086865974780466 0.21738525977654841 0 0.19422843088031849 0.2167901493339745 0 0.2052270206192876 0.23961033728654851 0 0.21155197229915221 0.22775520817690251 0 0.2245441737887168 0.23093760545441711 0 0.20110338325899621 0.22697869990708769 0 0.21155197229915221 0.22775520817690251 0 0.2086865974780466 0.21738525977654841 0 0.2052270206192876 0.23961033728654851 0 0.20110338325899621 0.22697869990708769 0 0.21155197229915221 0.22775520817690251 0 0.21155197229915221 0.22775520817690251 0 0.2086865974780466 0.21738525977654841 0 0.22156171208109349 0.2232889965660497 0 0.211417792929007 0.20448623071467029 0 0.2086865974780466 0.21738525977654841 0 0.22411523440486891 0.2128525325182862 0 0.2086865974780466 0.21738525977654841 0 0.22411523440486891 0.2128525325182862 0 0.22156171208109349 0.2232889965660497 0 0.211417792929007 0.20448623071467029 0 0.2086865974780466 0.21738525977654841 0 0.19996516513116139 0.20542151256053021 0 0.2086865974780466 0.21738525977654841 0 0.19422843088031849 0.2167901493339745 0 0.19996516513116139 0.20542151256053021 0 0.18699821765939811 0.20575379358823331 0 0.18150256540618689 0.21619068467845909 0 0.19422843088031849 0.2167901493339745 0 0.18699821765939811 0.20575379358823331 0 0.19422843088031849 0.2167901493339745 0 0.19996516513116139 0.20542151256053021 0 0.18699821765939811 0.20575379358823331 0 0.19996516513116139 0.20542151256053021 0 0.19943196450540629 0.19077826793543179 0 0.17803712215301101 0.18711146321258301 0 0.19943196450540629 0.19077826793543179 0 0.17803712215301101 0.18711146321258301 0 0.18699821765939811 0.20575379358823331 0 0.19943196450540629 0.19077826793543179 0 0.211417792929007 0.20448623071467029 0 0.19943196450540629 0.19077826793543179 0 0.22082680685780151 0.19444507265828059 0 0.19943196450540629 0.19077826793543179 0 0.22082680685780151 0.19444507265828059 0 0.211417792929007 0.20448623071467029 0 0.19996516513116139 0.20542151256053021 0 0.19943196450540629 0.19077826793543179 0 0.22082680685780151 0.19444507265828059 0 0.2418323282778008 0.1922485172988235 0 0.23200417938957321 0.20455559625434991 0 0.22082680685780151 0.19444507265828059 0 0.2418323282778008 0.1922485172988235 0 0.2298041727050075 0.1787595393801808 0 0.2418323282778008 0.1922485172988235 0 0.24124234801782149 0.21867626254200909 0 0.2418323282778008 0.1922485172988235 0 0.24124234801782149 0.21867626254200909 0 0.25471258750952741 0.20148162901819469 0 0.2418323282778008 0.1922485172988235 0 0.24124234801782149 0.21867626254200909 0 0.23200417938957321 0.20455559625434991 0 0.24124234801782149 0.21867626254200909 0 0.25357276657721323 0.21641202867955539 0 0.25471258750952741 0.20148162901819469 0 0.24124234801782149 0.21867626254200909 0 0.22411523440486891 0.2128525325182862 0 0.2303270751280653 0.22194856436908961 0 0.211417792929007 0.20448623071467029 0 0.22082680685780151 0.19444507265828059 0 0.22411523440486891 0.2128525325182862 0 0.22082680685780151 0.19444507265828059 0 0.23200417938957321 0.20455559625434991 0 0.22411523440486891 0.2128525325182862 0 0.24124234801782149 0.21867626254200909 0 0.23200417938957321 0.20455559625434991 0 0.22411523440486891 0.2128525325182862 0 0.22411523440486891 0.2128525325182862 0 0.22156171208109349 0.2232889965660497 0 0.2303270751280653 0.22194856436908961 0 0.22156171208109349 0.2232889965660497 0 0.2245441737887168 0.23093760545441711 0 0.2301452193877111 0.22885480910105491 0 0.21155197229915221 0.22775520817690251 0 0.22156171208109349 0.2232889965660497 0 0.2245441737887168 0.23093760545441711 0 0.2301452193877111 0.22885480910105491 0 0.23408043491912681 0.23335190051361199 0 0.23787356880598759 0.22384871304106421 0 0.2301452193877111 0.22885480910105491 0 0.23408043491912681 0.23335190051361199 0 0.2258394828391487 0.23585902185418811 0 0.2245441737887168 0.23093760545441711 0 0.2301452193877111 0.22885480910105491 0 0.2258394828391487 0.23585902185418811 0 0.2301452193877111 0.22885480910105491 0 0.2303270751280653 0.22194856436908961 0 0.23787356880598759 0.22384871304106421 0 0.22156171208109349 0.2232889965660497 0 0.2301452193877111 0.22885480910105491 0 0.2303270751280653 0.22194856436908961 0 0.24124234801782149 0.21867626254200909 0 0.2303270751280653 0.22194856436908961 0 0.23787356880598759 0.22384871304106421 0 0.24124234801782149 0.21867626254200909 0 0.23787356880598759 0.22384871304106421 0 0.25357276657721323 0.21641202867955539 0 0.23408043491912681 0.23335190051361199 0 0.24868260911088891 0.2303107595792985 0 0.25357276657721323 0.21641202867955539 0 0.23408043491912681 0.23335190051361199 0 0.23787356880598759 0.22384871304106421 0 0.25357276657721323 0.21641202867955539 0 0.23408043491912681 0.23335190051361199 0 0.25357276657721323 0.21641202867955539 0 0.24868260911088891 0.2303107595792985 0 0.2392512687495113 0.23539683186585869 0 0.2471090749199483 0.2357199094212839 0 0.23408043491912681 0.23335190051361199 0 0.24868260911088891 0.2303107595792985 0 0.2392512687495113 0.23539683186585869 0 0.23408043491912681 0.23335190051361199 0 0.2356673672060029 0.23553231024254659 0 0.23369101455560959 0.23545012385447089 0 0.2356673672060029 0.23553231024254659 0 0.23652425047500741 0.24096462129343871 0 0.23369101455560959 0.23545012385447089 0 0.23652425047500741 0.24096462129343871 0 0.2392512687495113 0.23539683186585869 0 0.24523436150048811 0.24199469982198529 0 0.2356673672060029 0.23553231024254659 0 0.23652425047500741 0.24096462129343871 0 0.2392512687495113 0.23539683186585869 0 0.23408043491912681 0.23335190051361199 0 0.2356673672060029 0.23553231024254659 0 0.2392512687495113 0.23539683186585869 0 0.24523436150048811 0.24199469982198529 0 0.2471090749199483 0.2357199094212839 0 0.25452501640087027 0.2374112721999547 0 0.2392512687495113 0.23539683186585869 0 0.24523436150048811 0.24199469982198529 0 0.2471090749199483 0.2357199094212839 0 0.24523436150048811 0.24199469982198529 0 0.23995652529561701 0.25039133628829258 0 0.25404003316197471 0.25208422786308371 0 0.23652425047500741 0.24096462129343871 0 0.24523436150048811 0.24199469982198529 0 0.23995652529561701 0.25039133628829258 0 0.23652425047500741 0.24096462129343871 0 0.23169913173193779 0.25404958449575432 0 0.23995652529561701 0.25039133628829258 0 0.23369101455560959 0.23545012385447089 0 0.2170338530129477 0.25958452376210089 0 0.21458810326103989 0.25029177234766842 0 0.23408043491912681 0.23335190051361199 0 0.23369101455560959 0.23545012385447089 0 0.21458810326103989 0.25029177234766842 0 0.23408043491912681 0.23335190051361199 0 0.21458810326103989 0.25029177234766842 0 0.2245441737887168 0.23093760545441711 0 0.21458810326103989 0.25029177234766842 0 0.23408043491912681 0.23335190051361199 0 0.2258394828391487 0.23585902185418811 0 0.21458810326103989 0.25029177234766842 0 0.23369101455560959 0.23545012385447089 0 0.2170338530129477 0.25958452376210089 0 0.23169913173193779 0.25404958449575432 0 0.23652425047500741 0.24096462129343871 0 0.23369101455560959 0.23545012385447089 0 0.23169913173193779 0.25404958449575432 0 0.23369101455560959 0.23545012385447089 0 0.2170338530129477 0.25958452376210089 0 0.2245441737887168 0.23093760545441711 0 0.2258394828391487 0.23585902185418811 0 0.21458810326103989 0.25029177234766842 0 0.2074718948020329 0.13931593166829101 0 0.2035930282546865 0.1573108976369578 0 0.22801201431925219 0.15227861461809999 0 0.2074718948020329 0.13931593166829101 0 0.22815060196587239 0.13250420183309389 0 0.2202182220460269 0.1181723145221887 0 0.2074718948020329 0.13931593166829101 0 0.2202182220460269 0.1181723145221887 0 0.19370351113240411 0.1202502215829211 0 0.18154761934540289 0.13534417850528041 0 0.2074718948020329 0.13931593166829101 0 0.19370351113240411 0.1202502215829211 0 0.1832181015668064 0.15465227861531949 0 0.2074718948020329 0.13931593166829101 0 0.1832181015668064 0.15465227861531949 0 0.18154761934540289 0.13534417850528041 0 0.2074718948020329 0.13931593166829101 0 0.1832181015668064 0.15465227861531949 0 0.2074718948020329 0.13931593166829101 0 0.2035930282546865 0.1573108976369578 0 0.1832181015668064 0.15465227861531949 0 0.1915320106228488 0.17262237876131631 0 0.2035930282546865 0.1573108976369578 0 0.1915320106228488 0.17262237876131631 0 0.21309098299550949 0.1707274381193544 0 0.2035930282546865 0.1573108976369578 0 0.19943196450540629 0.19077826793543179 0 0.1915320106228488 0.17262237876131631 0 0.21309098299550949 0.1707274381193544 0 0.17803712215301101 0.18711146321258301 0 0.19943196450540629 0.19077826793543179 0 0.1915320106228488 0.17262237876131631 0 0.19943196450540629 0.19077826793543179 0 0.22082680685780151 0.19444507265828059 0 0.21309098299550949 0.1707274381193544 0 0.21309098299550949 0.1707274381193544 0 0.2035930282546865 0.1573108976369578 0 0.22801201431925219 0.15227861461809999 0 0.2298041727050075 0.1787595393801808 0 0.2424223085377801 0.16582077205563811 0 0.22801201431925219 0.15227861461809999 0 0.21309098299550949 0.1707274381193544 0 0.2298041727050075 0.1787595393801808 0 0.22801201431925219 0.15227861461809999 0 0.22082680685780151 0.19444507265828059 0 0.21309098299550949 0.1707274381193544 0 0.2298041727050075 0.1787595393801808 0 0.2418323282778008 0.1922485172988235 0 0.2424223085377801 0.16582077205563811 0 0.2418323282778008 0.1922485172988235 0 0.2424223085377801 0.16582077205563811 0 0.26032431562704572 0.18342712708893841 0 0.2418323282778008 0.1922485172988235 0 0.2298041727050075 0.1787595393801808 0 0.2424223085377801 0.16582077205563811 0 0.2424223085377801 0.16582077205563811 0 0.24301228879775941 0.13939302681245261 0 0.2424223085377801 0.16582077205563811 0 0.24301228879775941 0.13939302681245261 0 0.25486404381895789 0.1523024957907583 0 0.22801201431925219 0.15227861461809999 0 0.23648687609860089 0.13476882232929049 0 0.24301228879775941 0.13939302681245261 0 0.2424223085377801 0.16582077205563811 0 0.22801201431925219 0.15227861461809999 0 0.24301228879775941 0.13939302681245261 0 0.2074718948020329 0.13931593166829101 0 0.22801201431925219 0.15227861461809999 0 0.22815060196587239 0.13250420183309389 0 0.22815060196587239 0.13250420183309389 0 0.24420216851797599 0.1292372680552665 0 0.2202182220460269 0.1181723145221887 0 0.22801201431925219 0.15227861461809999 0 0.22815060196587239 0.13250420183309389 0 0.23648687609860089 0.13476882232929049 0 0.22815060196587239 0.13250420183309389 0 0.23648687609860089 0.13476882232929049 0 0.24420216851797599 0.1292372680552665 0 0.23648687609860089 0.13476882232929049 0 0.24301228879775941 0.13939302681245261 0 0.24420216851797599 0.1292372680552665 0 0.24646482385440791 0.1109165710353929 0 0.23770217468454991 0.11680213067385049 0 0.255186127323073 0.11543194682551421 0 0.24420216851797599 0.1292372680552665 0 0.23770217468454991 0.11680213067385049 0 0.255186127323073 0.11543194682551421 0 0.23770217468454991 0.11680213067385049 0 0.255186127323073 0.11543194682551421 0 0.23770217468454991 0.11680213067385049 0 0.24055722746134861 0.1095612663226197 0 0.23538797832625211 0.10692464088038291 0 0.24646482385440791 0.1109165710353929 0 0.23770217468454991 0.11680213067385049 0 0.24055722746134861 0.1095612663226197 0 0.24174744587836799 0.1033548466348798 0 0.22816008327650389 0.097918375238235045 0 0.24736227196270541 0.090270970101712061 0 0.22816008327650389 0.097918375238235045 0 0.24736227196270541 0.090270970101712061 0 0.24174744587836799 0.1033548466348798 0 0.24736227196270541 0.090270970101712061 0 0.25459763100830068 0.096141582858552177 0 0.24174744587836799 0.1033548466348798 0 0.25459763100830068 0.096141582858552177 0 0.24646482385440791 0.1109165710353929 0 0.24174744587836799 0.1033548466348798 0 0.25655208948606423 0.10927836717886751 0 0.24174744587836799 0.1033548466348798 0 0.25655208948606423 0.10927836717886751 0 0.24646482385440791 0.1109165710353929 0 0.24055722746134861 0.1095612663226197 0 0.24174744587836799 0.1033548466348798 0 0.23538797832625211 0.10692464088038291 0 0.24174744587836799 0.1033548466348798 0 0.22816008327650389 0.097918375238235045 0 0.24055722746134861 0.1095612663226197 0 0.23538797832625211 0.10692464088038291 0 0.24174744587836799 0.1033548466348798 0 0.23538797832625211 0.10692464088038291 0 0.24174744587836799 0.1033548466348798 0 0.24174744587836799 0.1033548466348798 0 0.22816008327650389 0.097918375238235045 0 0.23538797832625211 0.10692464088038291 0 0.22816008327650389 0.097918375238235045 0 0.22436085098549791 0.1097634104313145 0 0.23770217468454991 0.11680213067385049 0 0.2202182220460269 0.1181723145221887 0 0.23770217468454991 0.11680213067385049 0 0.2202182220460269 0.1181723145221887 0 0.22436085098549791 0.1097634104313145 0 0.24420216851797599 0.1292372680552665 0 0.23770217468454991 0.11680213067385049 0 0.2202182220460269 0.1181723145221887 0 0.24420216851797599 0.1292372680552665 0 0.2202182220460269 0.1181723145221887 0 0.23770217468454991 0.11680213067385049 0 0.23538797832625211 0.10692464088038291 0 0.22436085098549791 0.1097634104313145 0 0.2202182220460269 0.1181723145221887 0 0.20033579659415629 0.10899959084191641 0 0.19370351113240411 0.1202502215829211 0 0.2202182220460269 0.1181723145221887 0 0.20033579659415629 0.10899959084191641 0 0.2202182220460269 0.1181723145221887 0 0.19370351113240411 0.1202502215829211 0 0.2202182220460269 0.1181723145221887 0 0.22436085098549791 0.1097634104313145 0 0.20033579659415629 0.10899959084191641 0 0.22816008327650389 0.097918375238235045 0 0.22436085098549791 0.1097634104313145 0 0.20033579659415629 0.10899959084191641 0 0.22816008327650389 0.097918375238235045 0 0.20033579659415629 0.10899959084191641 0 0.2016134769563831 0.087296750559026068 0 0.22816008327650389 0.097918375238235045 0 0.20033579659415629 0.10899959084191641 0 0.20033579659415629 0.10899959084191641 0 0.18422746814952201 0.1154148446289336 0 0.1860496622757298 0.1024087067025775 0 0.20033579659415629 0.10899959084191641 0 0.2016134769563831 0.087296750559026068 0 0.1860496622757298 0.1024087067025775 0 0.20033579659415629 0.10899959084191641 0 0.1860496622757298 0.1024087067025775 0 0.20033579659415629 0.10899959084191641 0 0.19370351113240411 0.1202502215829211 0 0.18422746814952201 0.1154148446289336 0 0.20033579659415629 0.10899959084191641 0 0.18422746814952201 0.1154148446289336 0 0.19220101611619109 0.069455466931817506 0 0.2016134769563831 0.087296750559026068 0 0.22553753830923129 0.072562856517635971 0 0.19220101611619109 0.069455466931817506 0 0.22553753830923129 0.072562856517635971 0 0.20371280465575431 0.054854742933563613 0 0.19220101611619109 0.069455466931817506 0 0.2016134769563831 0.087296750559026068 0 0.17506687063626211 0.076675125879817507 0 0.2016134769563831 0.087296750559026068 0 0.17506687063626211 0.076675125879817507 0 0.2016134769563831 0.087296750559026068 0 0.1860496622757298 0.1024087067025775 0 0.17954517331912459 0.085943521096986275 0 0.22816008327650389 0.097918375238235045 0 0.2016134769563831 0.087296750559026068 0 0.22553753830923129 0.072562856517635971 0 0.22816008327650389 0.097918375238235045 0 0.2016134769563831 0.087296750559026068 0 0.22553753830923129 0.072562856517635971 0 0.20371280465575431 0.054854742933563613 0 0.22816008327650389 0.097918375238235045 0 0.22553753830923129 0.072562856517635971 0 0.24736227196270541 0.090270970101712061 0 0.22553753830923129 0.072562856517635971 0 0.24736227196270541 0.090270970101712061 0 0.22553753830923129 0.072562856517635971 0 0.24736227196270541 0.090270970101712061 0 0.24874122334595 0.07170785510379532 0 0.22553753830923129 0.072562856517635971 0 0.24874122334595 0.07170785510379532 0 0.24629062771517271 0.052820950830226497 0 0.24629062771517271 0.052820950830226497 0 0.22540450977275331 0.044226989078737088 0 0.24629062771517271 0.052820950830226497 0 0.2492733855269578 0.041579555173777823 0 0.22540450977275331 0.044226989078737088 0 0.2492733855269578 0.041579555173777823 0 0.23050941707716249 0.025621187905106171 0 0.2492733855269578 0.041579555173777823 0 0.22540450977275331 0.044226989078737088 0 0.23050941707716249 0.025621187905106171 0 0.22540450977275331 0.044226989078737088 0 0.23050941707716249 0.025621187905106171 0 0.21805144048265651 0.031797176764528597 0 0.22553753830923129 0.072562856517635971 0 0.24629062771517271 0.052820950830226497 0 0.22540450977275331 0.044226989078737088 0 0.23790413247208811 0.0091049515404343275 0 0.25322369798355371 0.0032948183560677501 0 0.2464198669495459 -0.012097030270161889 0 0.23790413247208811 0.0091049515404343275 0 0.25442723867738032 0.016379625870619269 0 0.25322369798355371 0.0032948183560677501 0 0.2492733855269578 0.041579555173777823 0 0.24818833723327199 0.02644705719899533 0 0.23050941707716249 0.025621187905106171 0 0.23790413247208811 0.0091049515404343275 0 0.24818833723327199 0.02644705719899533 0 0.25442723867738032 0.016379625870619269 0 0.23790413247208811 0.0091049515404343275 0 0.24818833723327199 0.02644705719899533 0 0.23050941707716249 0.025621187905106171 0 0.23050941707716249 0.025621187905106171 0 0.2117734432503762 0.02170750274702346 0 0.21805144048265651 0.031797176764528597 0 0.23050941707716249 0.025621187905106171 0 0.21174544862736719 0.0096628206364345465 0 0.23050941707716249 0.025621187905106171 0 0.22518260227175371 0.0072623370788317187 0 0.21174544862736719 0.0096628206364345465 0 0.23790413247208811 0.0091049515404343275 0 0.22518260227175371 0.0072623370788317187 0 0.2300866381754704 -0.0072438550720441714 0 0.23790413247208811 0.0091049515404343275 0 0.23050941707716249 0.025621187905106171 0 0.22518260227175371 0.0072623370788317187 0 0.21174544862736719 0.0096628206364345465 0 0.2117734432503762 0.02170750274702346 0 0.20589386385567829 -0.0063134785331596111 0 0.2117734432503762 0.02170750274702346 0 0.19985428483697371 0.01027601627170664 0 0.20589386385567829 -0.0063134785331596111 0 0.2117734432503762 0.02170750274702346 0 0.20589386385567829 -0.0063134785331596111 0 0.22518260227175371 0.0072623370788317187 0 0.21174544862736719 0.0096628206364345465 0 0.2185782736923042 -0.0038367730406402641 0 0.23050941707716249 0.025621187905106171 0 0.21174544862736719 0.0096628206364345465 0 0.2117734432503762 0.02170750274702346 0 0.2117734432503762 0.02170750274702346 0 0.19994459845139961 0.023663902980434019 0 0.19985428483697371 0.01027601627170664 0 0.2117734432503762 0.02170750274702346 0 0.21805144048265651 0.031797176764528597 0 0.20451839183033399 0.035633027327247678 0 0.2117734432503762 0.02170750274702346 0 0.19994459845139961 0.023663902980434019 0 0.20451839183033399 0.035633027327247678 0 0.19994459845139961 0.023663902980434019 0 0.20451839183033399 0.035633027327247678 0 0.1836322738879155 0.027039065575756291 0 0.19994459845139961 0.023663902980434019 0 0.19985428483697371 0.01027601627170664 0 0.1836322738879155 0.027039065575756291 0 0.19985428483697371 0.01027601627170664 0 0.20589386385567829 -0.0063134785331596111 0 0.18863989258252481 -0.001979820774580698 0 0.19985428483697371 0.01027601627170664 0 0.1836322738879155 0.027039065575756291 0 0.18863989258252481 -0.001979820774580698 0 0.22553753830923129 0.072562856517635971 0 0.22540450977275331 0.044226989078737088 0 0.20371280465575431 0.054854742933563613 0 0.22540450977275331 0.044226989078737088 0 0.20451839183033399 0.035633027327247678 0 0.22540450977275331 0.044226989078737088 0 0.21805144048265651 0.031797176764528597 0 0.20451839183033399 0.035633027327247678 0 0.22540450977275331 0.044226989078737088 0 0.20371280465575431 0.054854742933563613 0 0.20451839183033399 0.035633027327247678 0 0.20451839183033399 0.035633027327247678 0 0.1818880710022803 0.03714662934948755 0 0.1836322738879155 0.027039065575756291 0 0.20371280465575431 0.054854742933563613 0 0.20451839183033399 0.035633027327247678 0 0.1818880710022803 0.03714662934948755 0 0.20371280465575431 0.054854742933563613 0 0.1818880710022803 0.03714662934948755 0 0.20451839183033399 0.035633027327247678 0 0.1836322738879155 0.027039065575756291 0 0.20371280465575431 0.054854742933563613 0 0.17847747081927551 0.05691087761465332 0 0.1818880710022803 0.03714662934948755 0 0.19220101611619109 0.069455466931817506 0 0.20371280465575431 0.054854742933563613 0 0.17847747081927551 0.05691087761465332 0 0.17847747081927551 0.05691087761465332 0 0.1818880710022803 0.03714662934948755 0 0.17847747081927551 0.05691087761465332 0 0.1818880710022803 0.03714662934948755 0 0.1636569447874848 0.036789081642687432 0 0.1818880710022803 0.03714662934948755 0 0.1836322738879155 0.027039065575756291 0 0.1818880710022803 0.03714662934948755 0 0.1636569447874848 0.036789081642687432 0 0.1620242678869008 0.02102957209859084 0 0.17847747081927551 0.05691087761465332 0 0.1636569447874848 0.036789081642687432 0 0.15962551614652079 0.053115759904931073 0 0.17847747081927551 0.05691087761465332 0 0.15962551614652079 0.053115759904931073 0 0.16641746421004469 0.065589342706300277 0 0.15962551614652079 0.053115759904931073 0 0.15045482833334159 0.067212260357143019 0 0.16641746421004469 0.065589342706300277 0 0.1716695151525548 0.011722155214289249 0 0.17506184651935949 -0.0021247232161890161 0 0.18863989258252481 -0.001979820774580698 0 0.1836322738879155 0.027039065575756291 0 0.18863989258252481 -0.001979820774580698 0 0.1836322738879155 0.027039065575756291 0 0.1716695151525548 0.011722155214289249 0 0.18863989258252481 -0.001979820774580698 0 0.1818880710022803 0.03714662934948755 0 0.1730573255808272 0.02268781650565178 0 0.1620242678869008 0.02102957209859084 0 0.1818880710022803 0.03714662934948755 0 0.1620242678869008 0.02102957209859084 0 0.1730573255808272 0.02268781650565178 0 0.1836322738879155 0.027039065575756291 0 0.1716695151525548 0.011722155214289249 0 0.1730573255808272 0.02268781650565178 0 0.1836322738879155 0.027039065575756291 0 0.1818880710022803 0.03714662934948755 0 0.1730573255808272 0.02268781650565178 0 0.1836322738879155 0.027039065575756291 0 0.1636569447874848 0.036789081642687432 0 0.1620242678869008 0.02102957209859084 0 0.15032019737810451 0.03113296745297477 0 0.1730573255808272 0.02268781650565178 0 0.1620242678869008 0.02102957209859084 0 0.1716695151525548 0.011722155214289249 0 0.1620242678869008 0.02102957209859084 0 0.1716695151525548 0.011722155214289249 0 0.15871689523486121 0.010399441389301141 0 0.1716695151525548 0.011722155214289249 0 0.15871689523486121 0.010399441389301141 0 0.1628037813635097 0.0015330777282007481 0 0.15871689523486121 0.010399441389301141 0 0.1628037813635097 0.0015330777282007481 0 0.15453230216132671 0.0032055715019124438 0 0.1716695151525548 0.011722155214289249 0 0.1628037813635097 0.0015330777282007481 0 0.17506184651935949 -0.0021247232161890161 0 0.1620242678869008 0.02102957209859084 0 0.14216046477152491 0.0049125148476896544 0 0.15871689523486121 0.010399441389301141 0 0.14216046477152491 0.0049125148476896544 0 0.15453230216132671 0.0032055715019124438 0 0.14216046477152491 0.0049125148476896544 0 0.15453230216132671 0.0032055715019124438 0 0.15849764294065671 -0.0060544572746906826 0 0.1620242678869008 0.02102957209859084 0 0.15871689523486121 0.010399441389301141 0 0.14216046477152491 0.0049125148476896544 0 0.1620242678869008 0.02102957209859084 0 0.14216046477152491 0.0049125148476896544 0 0.1432298655490542 0.02239521632663263 0 0.1620242678869008 0.02102957209859084 0 0.1432298655490542 0.02239521632663263 0 0.15032019737810451 0.03113296745297477 0 0.1432298655490542 0.02239521632663263 0 0.15032019737810451 0.03113296745297477 0 0.1366405524080008 0.032741533152345258 0 0.1432298655490542 0.02239521632663263 0 0.12659142849079691 0.028091664155532971 0 0.1366405524080008 0.032741533152345258 0 0.14216046477152491 0.0049125148476896544 0 0.1432298655490542 0.02239521632663263 0 0.12659142849079691 0.028091664155532971 0 0.14216046477152491 0.0049125148476896544 0 0.12659142849079691 0.028091664155532971 0 0.1323442420055404 0.014884056975098 0 0.14216046477152491 0.0049125148476896544 0 0.12659142849079691 0.028091664155532971 0 0.11882011836095251 0.0065886106746579649 0 0.12659142849079691 0.028091664155532971 0 0.1323442420055404 0.014884056975098 0 0.12659142849079691 0.028091664155532971 0 0.1366405524080008 0.032741533152345258 0 0.11882011836095251 0.0065886106746579649 0 0.1323442420055404 0.014884056975098 0 0.13735218555535891 0.001011181807127467 0 0.1323442420055404 0.014884056975098 0 0.13735218555535891 0.001011181807127467 0 0.14216046477152491 0.0049125148476896544 0 0.1323442420055404 0.014884056975098 0 0.13735218555535891 0.001011181807127467 0 0.14216046477152491 0.0049125148476896544 0 0.13735218555535891 0.001011181807127467 0 0.15962551614652079 0.053115759904931073 0 0.1452456698728295 0.044396077507560729 0 0.15045482833334159 0.067212260357143019 0 0.1452456698728295 0.044396077507560729 0 0.12683439495817461 0.052003073372435288 0 0.15045482833334159 0.067212260357143019 0 0.1636569447874848 0.036789081642687432 0 0.15032019737810451 0.03113296745297477 0 0.1452456698728295 0.044396077507560729 0 0.1636569447874848 0.036789081642687432 0 0.15962551614652079 0.053115759904931073 0 0.1452456698728295 0.044396077507560729 0 0.1636569447874848 0.036789081642687432 0 0.1452456698728295 0.044396077507560729 0 0.15032019737810451 0.03113296745297477 0 0.1452456698728295 0.044396077507560729 0 0.1366405524080008 0.032741533152345258 0 0.1452456698728295 0.044396077507560729 0 0.13015300311198849 0.040381385354086502 0 0.12683439495817461 0.052003073372435288 0 0.1452456698728295 0.044396077507560729 0 0.1366405524080008 0.032741533152345258 0 0.13015300311198849 0.040381385354086502 0 0.12659142849079691 0.028091664155532971 0 0.1366405524080008 0.032741533152345258 0 0.13015300311198849 0.040381385354086502 0 0.12683439495817461 0.052003073372435288 0 0.13134854049252651 0.064566646620811727 0 0.15045482833334159 0.067212260357143019 0 0.1452456698728295 0.044396077507560729 0 0.12683439495817461 0.052003073372435288 0 0.12683439495817461 0.052003073372435288 0 0.15045482833334159 0.067212260357143019 0 0.1213053233293625 0.063977455960140386 0 0.12683439495817461 0.052003073372435288 0 0.13134854049252651 0.064566646620811727 0 0.13134854049252651 0.064566646620811727 0 0.12679961534922851 0.075073796793526271 0 0.15045482833334159 0.067212260357143019 0 0.1213053233293625 0.063977455960140386 0 0.13134854049252651 0.064566646620811727 0 0.12679961534922851 0.075073796793526271 0 0.12679961534922851 0.075073796793526271 0 0.15045482833334159 0.067212260357143019 0 0.1492815716532653 0.085445809678383625 0 0.1185648575779607 0.095458187827811403 0 0.12679961534922851 0.075073796793526271 0 0.13332649773741079 0.089989738391902788 0 0.1492815716532653 0.085445809678383625 0 0.13332649773741079 0.089989738391902788 0 0.13865994636918871 0.10398115926788989 0 0.12679961534922851 0.075073796793526271 0 0.1492815716532653 0.085445809678383625 0 0.12679961534922851 0.075073796793526271 0 0.1492815716532653 0.085445809678383625 0 0.13332649773741079 0.089989738391902788 0 0.123281054128593 0.11724462113534739 0 0.1185648575779607 0.095458187827811403 0 0.13865994636918871 0.10398115926788989 0 0.1185648575779607 0.095458187827811403 0 0.13332649773741079 0.089989738391902788 0 0.13865994636918871 0.10398115926788989 0 0.123281054128593 0.11724462113534739 0 0.13865994636918871 0.10398115926788989 0 0.13947052033133081 0.1245003570974072 0 0.13947052033133081 0.1245003570974072 0 0.15026369300765779 0.1129544164764977 0 0.16718880021878149 0.12232812864365609 0 0.13947052033133081 0.1245003570974072 0 0.16718880021878149 0.12232812864365609 0 0.13865994636918871 0.10398115926788989 0 0.13947052033133081 0.1245003570974072 0 0.15026369300765779 0.1129544164764977 0 0.1492815716532653 0.085445809678383625 0 0.13865994636918871 0.10398115926788989 0 0.15573550511132991 0.1010080208970377 0 0.13865994636918871 0.10398115926788989 0 0.15026369300765779 0.1129544164764977 0 0.15573550511132991 0.1010080208970377 0 0.15573550511132991 0.1010080208970377 0 0.17176352795730221 0.095817822563241214 0 0.16718880021878149 0.12232812864365609 0 0.17176352795730221 0.095817822563241214 0 0.16718880021878149 0.12232812864365609 0 0.1492815716532653 0.085445809678383625 0 0.15573550511132991 0.1010080208970377 0 0.17176352795730221 0.095817822563241214 0 0.15026369300765779 0.1129544164764977 0 0.15573550511132991 0.1010080208970377 0 0.16718880021878149 0.12232812864365609 0 0.16718880021878149 0.12232812864365609 0 0.18422746814952201 0.1154148446289336 0 0.17176352795730221 0.095817822563241214 0 0.16718880021878149 0.12232812864365609 0 0.18422746814952201 0.1154148446289336 0 0.19370351113240411 0.1202502215829211 0 0.16718880021878149 0.12232812864365609 0 0.19370351113240411 0.1202502215829211 0 0.16718880021878149 0.12232812864365609 0 0.18422746814952201 0.1154148446289336 0 0.17176352795730221 0.095817822563241214 0 0.18422746814952201 0.1154148446289336 0 0.1860496622757298 0.1024087067025775 0 0.17176352795730221 0.095817822563241214 0 0.1860496622757298 0.1024087067025775 0 0.17954517331912459 0.085943521096986275 0 0.17176352795730221 0.095817822563241214 0 0.1860496622757298 0.1024087067025775 0 0.2016134769563831 0.087296750559026068 0 0.17954517331912459 0.085943521096986275 0 0.17506687063626211 0.076675125879817507 0 0.17176352795730221 0.095817822563241214 0 0.17407526170850959 0.082421447341849294 0 0.17176352795730221 0.095817822563241214 0 0.17954517331912459 0.085943521096986275 0 0.17407526170850959 0.082421447341849294 0 0.17954517331912459 0.085943521096986275 0 0.17407526170850959 0.082421447341849294 0 0.17506687063626211 0.076675125879817507 0 0.17407526170850959 0.082421447341849294 0 0.17506687063626211 0.076675125879817507 0 0.17954517331912459 0.085943521096986275 0 0.17407526170850959 0.082421447341849294 0 0.17847747081927551 0.05691087761465332 0 0.17506687063626211 0.076675125879817507 0 0.19220101611619109 0.069455466931817506 0 0.17847747081927551 0.05691087761465332 0 0.17506687063626211 0.076675125879817507 0 0.17847747081927551 0.05691087761465332 0 0.17506687063626211 0.076675125879817507 0 0.16641746421004469 0.065589342706300277 0 0.17407526170850959 0.082421447341849294 0 0.17506687063626211 0.076675125879817507 0 0.16846263511482451 0.074032689774956653 0 0.15045482833334159 0.067212260357143019 0 0.16846263511482451 0.074032689774956653 0 0.16641746421004469 0.065589342706300277 0 0.17506687063626211 0.076675125879817507 0 0.16846263511482451 0.074032689774956653 0 0.16641746421004469 0.065589342706300277 0 0.15045482833334159 0.067212260357143019 0 0.17407526170850959 0.082421447341849294 0 0.16846263511482451 0.074032689774956653 0 0.17506687063626211 0.076675125879817507 0 0.16846263511482451 0.074032689774956653 0 0.15045482833334159 0.067212260357143019 0 0.17407526170850959 0.082421447341849294 0 0.1492815716532653 0.085445809678383625 0 0.17176352795730221 0.095817822563241214 0 0.1492815716532653 0.085445809678383625 0 0.17176352795730221 0.095817822563241214 0 0.17407526170850959 0.082421447341849294 0 0.15045482833334159 0.067212260357143019 0 0.1492815716532653 0.085445809678383625 0 0.17407526170850959 0.082421447341849294 0 0.094789198081262169 0.47221984895451657 0 0.09870107108427445 0.5 0 0.1248616532684987 0.47476888169724352 0 0.09870107108427445 0.5 0 0.1248616532684987 0.47476888169724352 0 0.1287333349596296 0.50000000000000233 0 0.1248616532684987 0.47476888169724352 0 0.1154926134483955 0.45328817880533262 0 0.094789198081262169 0.47221984895451657 0 0.1248616532684987 0.47476888169724352 0 0.1154926134483955 0.45328817880533262 0 0.1248616532684987 0.47476888169724352 0 0.1205619018159948 0.44674810255646558 0 0.1248616532684987 0.47476888169724352 0 0.1154926134483955 0.45328817880533262 0 0.1205619018159948 0.44674810255646558 0 0.1154926134483955 0.45328817880533262 0 0.106123573628292 0.43180747591342172 0 0.1154926134483955 0.45328817880533262 0 0.1205619018159948 0.44674810255646558 0 0.106123573628292 0.43180747591342172 0 0.1154926134483955 0.45328817880533262 0 0.096722182691352548 0.44869154901932268 0 0.106123573628292 0.43180747591342172 0 0.094789198081262169 0.47221984895451657 0 0.1154926134483955 0.45328817880533262 0 0.096722182691352548 0.44869154901932268 0 0.094789198081262169 0.47221984895451657 0 0.077453222292990773 0.45016302493177879 0 0.067202034968243438 0.47028323083424428 0 0.094789198081262169 0.47221984895451657 0 0.096722182691352548 0.44869154901932268 0 0.077453222292990773 0.45016302493177879 0 0.096722182691352548 0.44869154901932268 0 0.077453222292990773 0.45016302493177879 0 0.085233479690329184 0.42595657570789891 0 0.077453222292990773 0.45016302493177879 0 0.085233479690329184 0.42595657570789891 0 0.077453222292990773 0.45016302493177879 0 0.055846149836862702 0.43889490050586683 0 0.065639666334966471 0.42409002317344818 0 0.077453222292990773 0.45016302493177879 0 0.067202034968243438 0.47028323083424428 0 0.051776939420019832 0.45519588853091181 0 0.094789198081262169 0.47221984895451657 0 0.067202034968243438 0.47028323083424428 0 0.068668807208919325 0.5 0 0.094789198081262169 0.47221984895451657 0 0.09870107108427445 0.5 0 0.068668807208919325 0.5 0 0.068668807208919325 0.5 0 0.043814234576468783 0.4752156274217324 0 0.038636543333564137 0.5 0 0.067202034968243438 0.47028323083424428 0 0.068668807208919325 0.5 0 0.043814234576468783 0.4752156274217324 0 0.038636543333564137 0.5 0 0.0095498935665802413 0.47810272379952351 0 0.0086042794582089632 0.5 0 0.043814234576468783 0.4752156274217324 0 0.038636543333564137 0.5 0 0.0095498935665802413 0.47810272379952351 0 0.043814234576468783 0.4752156274217324 0 0.0095498935665802413 0.47810272379952351 0 0.02936257191825143 0.45548825099001988 0 -0.0044763741368290672 0.43313315307665529 0 0.006403582431216831 0.45126676372832991 0 0.01131617767293759 0.43066417693356068 0 0.006403582431216831 0.45126676372832991 0 0.024585063983693121 0.43937755350337049 0 0.01131617767293759 0.43066417693356068 0 -0.0062093312902834459 0.46527566221073008 0 0.0095498935665802413 0.47810272379952351 0 0.006403582431216831 0.45126676372832991 0 0.0095498935665802413 0.47810272379952351 0 0.006403582431216831 0.45126676372832991 0 0.02936257191825143 0.45548825099001988 0 0.02936257191825143 0.45548825099001988 0 0.024585063983693121 0.43937755350337049 0 0.039439570502417587 0.44016889882154447 0 0.006403582431216831 0.45126676372832991 0 0.02936257191825143 0.45548825099001988 0 0.024585063983693121 0.43937755350337049 0 0.02936257191825143 0.45548825099001988 0 0.039439570502417587 0.44016889882154447 0 0.051776939420019832 0.45519588853091181 0 0.043814234576468783 0.4752156274217324 0 0.02936257191825143 0.45548825099001988 0 0.051776939420019832 0.45519588853091181 0 0.067202034968243438 0.47028323083424428 0 0.043814234576468783 0.4752156274217324 0 0.051776939420019832 0.45519588853091181 0 0.039439570502417587 0.44016889882154447 0 0.051776939420019832 0.45519588853091181 0 0.055846149836862702 0.43889490050586683 0 0.077453222292990773 0.45016302493177879 0 0.051776939420019832 0.45519588853091181 0 0.055846149836862702 0.43889490050586683 0 0.055846149836862702 0.43889490050586683 0 0.044352211855280779 0.42435697566478181 0 0.065639666334966471 0.42409002317344818 0 0.054179592762823331 0.4124556941646933 0 0.065774511826563423 0.40583773171119408 0 0.065639666334966471 0.42409002317344818 0 0.054179592762823331 0.4124556941646933 0 0.044352211855280779 0.42435697566478181 0 0.042551786202842029 0.40583695196884878 0 0.054179592762823331 0.4124556941646933 0 0.044352211855280779 0.42435697566478181 0 0.065639666334966471 0.42409002317344818 0 0.054179592762823331 0.4124556941646933 0 0.052579787594463898 0.40215678830519391 0 0.065774511826563423 0.40583773171119408 0 0.054179592762823331 0.4124556941646933 0 0.042551786202842029 0.40583695196884878 0 0.052579787594463898 0.40215678830519391 0 0.031615607723292562 0.41237007764590089 0 0.044352211855280779 0.42435697566478181 0 0.042551786202842029 0.40583695196884878 0 0.031615607723292562 0.41237007764590089 0 0.044352211855280779 0.42435697566478181 0 0.029348552931666359 0.42650056435783129 0 0.039439570502417587 0.44016889882154447 0 0.055846149836862702 0.43889490050586683 0 0.044352211855280779 0.42435697566478181 0 0.039439570502417587 0.44016889882154447 0 0.044352211855280779 0.42435697566478181 0 0.029348552931666359 0.42650056435783129 0 0.024585063983693121 0.43937755350337049 0 0.039439570502417587 0.44016889882154447 0 0.029348552931666359 0.42650056435783129 0 0.024585063983693121 0.43937755350337049 0 0.029348552931666359 0.42650056435783129 0 0.01131617767293759 0.43066417693356068 0 0.029348552931666359 0.42650056435783129 0 0.019479081626689841 0.41692126840220728 0 0.01131617767293759 0.43066417693356068 0 0.031615607723292562 0.41237007764590089 0 0.029348552931666359 0.42650056435783129 0 0.019479081626689841 0.41692126840220728 0 0.031615607723292562 0.41237007764590089 0 0.019479081626689841 0.41692126840220728 0 0.02210553341445062 0.40298972327242938 0 0.019479081626689841 0.41692126840220728 0 0.0046995574085186929 0.41194005205042061 0 0.02210553341445062 0.40298972327242938 0 0.019479081626689841 0.41692126840220728 0 0.0046995574085186929 0.41194005205042061 0 0.01131617767293759 0.43066417693356068 0 -0.0044763741368290672 0.43313315307665529 0 0.0046995574085186929 0.41194005205042061 0 0.01131617767293759 0.43066417693356068 0 -0.0068648610501423502 0.39382000907293813 0 0.0053185270157129726 0.37689571945341471 0 0.0079727676898529512 0.39395805239723503 0 0.0053185270157129726 0.37689571945341471 0 0.0079727676898529512 0.39395805239723503 0 0.017055050774382831 0.3783760363496293 0 0.0053185270157129726 0.37689571945341471 0 0.017055050774382831 0.3783760363496293 0 0.014905446519761849 0.37011919055753012 0 -0.0068648610501423502 0.39382000907293813 0 0.0046995574085186929 0.41194005205042061 0 0.0079727676898529512 0.39395805239723503 0 0.0046995574085186929 0.41194005205042061 0 0.0079727676898529512 0.39395805239723503 0 0.02210553341445062 0.40298972327242938 0 0.0079727676898529512 0.39395805239723503 0 0.02210553341445062 0.40298972327242938 0 0.02735486101880703 0.39232044610694311 0 0.031615607723292562 0.41237007764590089 0 0.02210553341445062 0.40298972327242938 0 0.03492587150599015 0.39714318271575322 0 0.02210553341445062 0.40298972327242938 0 0.02735486101880703 0.39232044610694311 0 0.03492587150599015 0.39714318271575322 0 0.0079727676898529512 0.39395805239723503 0 0.02735486101880703 0.39232044610694311 0 0.033420514628485373 0.38302977191180709 0 0.017055050774382831 0.3783760363496293 0 0.033420514628485373 0.38302977191180709 0 0.023779055828078009 0.37097747554075361 0 0.0079727676898529512 0.39395805239723503 0 0.017055050774382831 0.3783760363496293 0 0.033420514628485373 0.38302977191180709 0 0.0079727676898529512 0.39395805239723503 0 0.033420514628485373 0.38302977191180709 0 0.02735486101880703 0.39232044610694311 0 0.032859848824407727 0.38560668074253002 0 0.033420514628485373 0.38302977191180709 0 0.02735486101880703 0.39232044610694311 0 0.032859848824407727 0.38560668074253002 0 0.032844630049655758 0.3911952656019041 0 0.033420514628485373 0.38302977191180709 0 0.040531910439000007 0.38820627445006711 0 0.055078026168592691 0.37372917012189599 0 0.033420514628485373 0.38302977191180709 0 0.055078026168592691 0.37372917012189599 0 0.032859848824407727 0.38560668074253002 0 0.033420514628485373 0.38302977191180709 0 0.032859848824407727 0.38560668074253002 0 0.040531910439000007 0.38820627445006711 0 0.032844630049655758 0.3911952656019041 0 0.032859848824407727 0.38560668074253002 0 0.033420514628485373 0.38302977191180709 0 0.040531910439000007 0.38820627445006711 0 0.031615607723292562 0.41237007764590089 0 0.03492587150599015 0.39714318271575322 0 0.042551786202842029 0.40583695196884878 0 0.040531910439000007 0.38820627445006711 0 0.03492587150599015 0.39714318271575322 0 0.032844630049655758 0.3911952656019041 0 0.02735486101880703 0.39232044610694311 0 0.03492587150599015 0.39714318271575322 0 0.032844630049655758 0.3911952656019041 0 0.040531910439000007 0.38820627445006711 0 0.03492587150599015 0.39714318271575322 0 0.044409534997012647 0.39663533348309749 0 0.040531910439000007 0.38820627445006711 0 0.044409534997012647 0.39663533348309749 0 0.05145831924276717 0.38983346997562462 0 0.044409534997012647 0.39663533348309749 0 0.042551786202842029 0.40583695196884878 0 0.052579787594463898 0.40215678830519391 0 0.03492587150599015 0.39714318271575322 0 0.044409534997012647 0.39663533348309749 0 0.042551786202842029 0.40583695196884878 0 0.052579787594463898 0.40215678830519391 0 0.065929237187869999 0.38841376689227869 0 0.065774511826563423 0.40583773171119408 0 0.044409534997012647 0.39663533348309749 0 0.052579787594463898 0.40215678830519391 0 0.05145831924276717 0.38983346997562462 0 0.052579787594463898 0.40215678830519391 0 0.05145831924276717 0.38983346997562462 0 0.065929237187869999 0.38841376689227869 0 0.05145831924276717 0.38983346997562462 0 0.065929237187869999 0.38841376689227869 0 0.055078026168592691 0.37372917012189599 0 0.040531910439000007 0.38820627445006711 0 0.05145831924276717 0.38983346997562462 0 0.055078026168592691 0.37372917012189599 0 0.065929237187869999 0.38841376689227869 0 0.07065435961583541 0.37741521318853999 0 0.055078026168592691 0.37372917012189599 0 0.065929237187869999 0.38841376689227869 0 0.07065435961583541 0.37741521318853999 0 0.084874637398179506 0.3830893474080016 0 0.065929237187869999 0.38841376689227869 0 0.084874637398179506 0.3830893474080016 0 0.078183007061163587 0.39730645121706609 0 0.084874637398179506 0.3830893474080016 0 0.09301373708766289 0.40175012648401748 0 0.1017514530376761 0.37456476915266362 0 0.084874637398179506 0.3830893474080016 0 0.1017514530376761 0.37456476915266362 0 0.089894590955766338 0.37016501712229671 0 0.084874637398179506 0.3830893474080016 0 0.09301373708766289 0.40175012648401748 0 0.084874637398179506 0.3830893474080016 0 0.09301373708766289 0.40175012648401748 0 0.078183007061163587 0.39730645121706609 0 0.09301373708766289 0.40175012648401748 0 0.078183007061163587 0.39730645121706609 0 0.0779125114683729 0.4107996813321716 0 0.065929237187869999 0.38841376689227869 0 0.078183007061163587 0.39730645121706609 0 0.065774511826563423 0.40583773171119408 0 0.078183007061163587 0.39730645121706609 0 0.065774511826563423 0.40583773171119408 0 0.0779125114683729 0.4107996813321716 0 0.065774511826563423 0.40583773171119408 0 0.0779125114683729 0.4107996813321716 0 0.065639666334966471 0.42409002317344818 0 0.0779125114683729 0.4107996813321716 0 0.065639666334966471 0.42409002317344818 0 0.085233479690329184 0.42595657570789891 0 0.077453222292990773 0.45016302493177879 0 0.065639666334966471 0.42409002317344818 0 0.085233479690329184 0.42595657570789891 0 0.09301373708766289 0.40175012648401748 0 0.085233479690329184 0.42595657570789891 0 0.09301373708766289 0.40175012648401748 0 0.0779125114683729 0.4107996813321716 0 0.085233479690329184 0.42595657570789891 0 0.09301373708766289 0.40175012648401748 0 0.085233479690329184 0.42595657570789891 0 0.096641093798834857 0.4103746730739769 0 0.096641093798834857 0.4103746730739769 0 0.106123573628292 0.43180747591342172 0 0.096641093798834857 0.4103746730739769 0 0.1162621503634904 0.41872732341568758 0 0.11303311796937431 0.39768424579749467 0 0.096641093798834857 0.4103746730739769 0 0.106123573628292 0.43180747591342172 0 0.1162621503634904 0.41872732341568758 0 0.096641093798834857 0.4103746730739769 0 0.1162621503634904 0.41872732341568758 0 0.085233479690329184 0.42595657570789891 0 0.096641093798834857 0.4103746730739769 0 0.106123573628292 0.43180747591342172 0 0.096722182691352548 0.44869154901932268 0 0.085233479690329184 0.42595657570789891 0 0.106123573628292 0.43180747591342172 0 0.1205619018159948 0.44674810255646558 0 0.1162621503634904 0.41872732341568758 0 0.1205619018159948 0.44674810255646558 0 0.106123573628292 0.43180747591342172 0 0.1162621503634904 0.41872732341568758 0 0.1162621503634904 0.41872732341568758 0 0.11303311796937431 0.39768424579749467 0 0.11303311796937431 0.39768424579749467 0 0.1231373165426977 0.3806134049577457 0 0.1271742827044339 0.39597619803598749 0 0.1162621503634904 0.41872732341568758 0 0.11303311796937431 0.39768424579749467 0 0.1271742827044339 0.39597619803598749 0 0.11303311796937431 0.39768424579749467 0 0.1098040855752573 0.37664116817930182 0 0.11303311796937431 0.39768424579749467 0 0.1098040855752573 0.37664116817930182 0 0.1231373165426977 0.3806134049577457 0 0.09301373708766289 0.40175012648401748 0 0.10162794664532369 0.38287681265592 0 0.1017514530376761 0.37456476915266362 0 0.11303311796937431 0.39768424579749467 0 0.1098040855752573 0.37664116817930182 0 0.10162794664532369 0.38287681265592 0 0.09301373708766289 0.40175012648401748 0 0.1017514530376761 0.37456476915266362 0 0.09301373708766289 0.40175012648401748 0 0.096641093798834857 0.4103746730739769 0 0.10162794664532369 0.38287681265592 0 0.096641093798834857 0.4103746730739769 0 0.10162794664532369 0.38287681265592 0 0.096641093798834857 0.4103746730739769 0 0.11303311796937431 0.39768424579749467 0 0.10162794664532369 0.38287681265592 0 0.09301373708766289 0.40175012648401748 0 0.096641093798834857 0.4103746730739769 0 0.10657505318114149 0.3555980905611088 0 0.1040837309638282 0.33936254988137232 0 0.10657505318114149 0.3555980905611088 0 0.096269577202366938 0.34885221845001108 0 0.090674694454237537 0.35844253683721511 0 0.10657505318114149 0.3555980905611088 0 0.1081370103155585 0.34698533999968961 0 0.1040837309638282 0.33936254988137232 0 0.10657505318114149 0.3555980905611088 0 0.096269577202366938 0.34885221845001108 0 0.1040837309638282 0.33936254988137232 0 0.10657505318114149 0.3555980905611088 0 0.1081370103155585 0.34698533999968961 0 0.1081370103155585 0.34698533999968961 0 0.1105857944332822 0.35159063999376577 0 0.10657505318114149 0.3555980905611088 0 0.1081370103155585 0.34698533999968961 0 0.1105857944332822 0.35159063999376577 0 0.10657505318114149 0.3555980905611088 0 0.097223947907205094 0.36469260341832099 0 0.090674694454237537 0.35844253683721511 0 0.1098040855752573 0.37664116817930182 0 0.10657505318114149 0.3555980905611088 0 0.1098040855752573 0.37664116817930182 0 0.10162794664532369 0.38287681265592 0 0.10657505318114149 0.3555980905611088 0 0.10657505318114149 0.3555980905611088 0 0.097223947907205094 0.36469260341832099 0 0.1017514530376761 0.37456476915266362 0 0.10162794664532369 0.38287681265592 0 0.10657505318114149 0.3555980905611088 0 0.10162794664532369 0.38287681265592 0 0.10657505318114149 0.3555980905611088 0 0.1017514530376761 0.37456476915266362 0 0.097223947907205094 0.36469260341832099 0 0.1017514530376761 0.37456476915266362 0 0.089894590955766338 0.37016501712229671 0 0.1231373165426977 0.3806134049577457 0 0.1176766025370503 0.36283148293627721 0 0.13271547193899449 0.36524458735671972 0 0.1098040855752573 0.37664116817930182 0 0.10657505318114149 0.3555980905611088 0 0.1176766025370503 0.36283148293627721 0 0.1098040855752573 0.37664116817930182 0 0.1231373165426977 0.3806134049577457 0 0.1176766025370503 0.36283148293627721 0 0.1176766025370503 0.36283148293627721 0 0.1232256624926347 0.35239419723674059 0 0.13271547193899449 0.36524458735671972 0 0.10657505318114149 0.3555980905611088 0 0.1176766025370503 0.36283148293627721 0 0.1105857944332822 0.35159063999376577 0 0.1176766025370503 0.36283148293627721 0 0.1232256624926347 0.35239419723674059 0 0.1105857944332822 0.35159063999376577 0 0.1081370103155585 0.34698533999968961 0 0.1105857944332822 0.35159063999376577 0 0.1168368962248217 0.34531303274388031 0 0.1232256624926347 0.35239419723674059 0 0.1105857944332822 0.35159063999376577 0 0.1168368962248217 0.34531303274388031 0 0.1232256624926347 0.35239419723674059 0 0.1168368962248217 0.34531303274388031 0 0.1260676383484185 0.3399282146226113 0 0.1081370103155585 0.34698533999968961 0 0.1173014636805894 0.33730338313169689 0 0.1117137236550247 0.32726307032677399 0 0.1081370103155585 0.34698533999968961 0 0.1117137236550247 0.32726307032677399 0 0.1168368962248217 0.34531303274388031 0 0.1173014636805894 0.33730338313169689 0 0.1260676383484185 0.3399282146226113 0 0.1173014636805894 0.33730338313169689 0 0.12375204985912221 0.32702725796552912 0 0.1260676383484185 0.3399282146226113 0 0.1173014636805894 0.33730338313169689 0 0.12375204985912221 0.32702725796552912 0 0.1117137236550247 0.32726307032677399 0 0.1081370103155585 0.34698533999968961 0 0.1168368962248217 0.34531303274388031 0 0.1173014636805894 0.33730338313169689 0 0.1117137236550247 0.32726307032677399 0 0.11529043699448981 0.30754080065385803 0 0.1117137236550247 0.32726307032677399 0 0.1095765413243488 0.31862098055757049 0 0.11529043699448981 0.30754080065385803 0 0.1214195525311879 0.31440901896845502 0 0.1117137236550247 0.32726307032677399 0 0.11529043699448981 0.30754080065385803 0 0.1214195525311879 0.31440901896845502 0 0.12375204985912221 0.32702725796552912 0 0.12817088130983889 0.317450689473041 0 0.1214195525311879 0.31440901896845502 0 0.12375204985912221 0.32702725796552912 0 0.1117137236550247 0.32726307032677399 0 0.1040837309638282 0.33936254988137232 0 0.090103400857782137 0.31307047550514489 0 0.1040837309638282 0.33936254988137232 0 0.1025673515982234 0.32948055280164651 0 0.090103400857782137 0.31307047550514489 0 0.10278173829001019 0.3206216626476312 0 0.1025673515982234 0.32948055280164651 0 0.090103400857782137 0.31307047550514489 0 0.1095765413243488 0.31862098055757049 0 0.10278173829001019 0.3206216626476312 0 0.099947674014671917 0.31467323404701991 0 0.1095765413243488 0.31862098055757049 0 0.099947674014671917 0.31467323404701991 0 0.09732687347400408 0.30507295899279041 0 0.1117137236550247 0.32726307032677399 0 0.1095765413243488 0.31862098055757049 0 0.10278173829001019 0.3206216626476312 0 0.1117137236550247 0.32726307032677399 0 0.10278173829001019 0.3206216626476312 0 0.1025673515982234 0.32948055280164651 0 0.10278173829001019 0.3206216626476312 0 0.099947674014671917 0.31467323404701991 0 0.090103400857782137 0.31307047550514489 0 0.096269577202366938 0.34885221845001108 0 0.1040837309638282 0.33936254988137232 0 0.085896102217652828 0.34083244099607402 0 0.1081370103155585 0.34698533999968961 0 0.1117137236550247 0.32726307032677399 0 0.1040837309638282 0.33936254988137232 0 0.1081370103155585 0.34698533999968961 0 0.1040837309638282 0.33936254988137232 0 0.1117137236550247 0.32726307032677399 0 0.1040837309638282 0.33936254988137232 0 0.1025673515982234 0.32948055280164651 0 0.1040837309638282 0.33936254988137232 0 0.1025673515982234 0.32948055280164651 0 0.1040837309638282 0.33936254988137232 0 0.085896102217652828 0.34083244099607402 0 0.090103400857782137 0.31307047550514489 0 0.085896102217652828 0.34083244099607402 0 0.090103400857782137 0.31307047550514489 0 0.073944851781294785 0.32640562720437011 0 0.073944851781294785 0.32640562720437011 0 0.05926959110604698 0.32438382341666039 0 0.066452600317618793 0.30933520022964911 0 0.090103400857782137 0.31307047550514489 0 0.073944851781294785 0.32640562720437011 0 0.066452600317618793 0.30933520022964911 0 0.068002564407373206 0.3444061958743222 0 0.05926959110604698 0.32438382341666039 0 0.085896102217652828 0.34083244099607402 0 0.073944851781294785 0.32640562720437011 0 0.068002564407373206 0.3444061958743222 0 0.073944851781294785 0.32640562720437011 0 0.068002564407373206 0.3444061958743222 0 0.05926959110604698 0.32438382341666039 0 0.068002564407373206 0.3444061958743222 0 0.081709153938225559 0.35166937446406898 0 0.076735537708699481 0.364428568331984 0 0.068002564407373206 0.3444061958743222 0 0.076735537708699481 0.364428568331984 0 0.068002564407373206 0.3444061958743222 0 0.076735537708699481 0.364428568331984 0 0.058880509289504487 0.35752542115937253 0 0.085896102217652828 0.34083244099607402 0 0.068002564407373206 0.3444061958743222 0 0.081709153938225559 0.35166937446406898 0 0.081709153938225559 0.35166937446406898 0 0.090674694454237537 0.35844253683721511 0 0.076735537708699481 0.364428568331984 0 0.096269577202366938 0.34885221845001108 0 0.081709153938225559 0.35166937446406898 0 0.090674694454237537 0.35844253683721511 0 0.096269577202366938 0.34885221845001108 0 0.085896102217652828 0.34083244099607402 0 0.081709153938225559 0.35166937446406898 0 0.084874637398179506 0.3830893474080016 0 0.089894590955766338 0.37016501712229671 0 0.076735537708699481 0.364428568331984 0 0.084874637398179506 0.3830893474080016 0 0.076735537708699481 0.364428568331984 0 0.097223947907205094 0.36469260341832099 0 0.090674694454237537 0.35844253683721511 0 0.089894590955766338 0.37016501712229671 0 0.090674694454237537 0.35844253683721511 0 0.089894590955766338 0.37016501712229671 0 0.076735537708699481 0.364428568331984 0 0.090674694454237537 0.35844253683721511 0 0.076735537708699481 0.364428568331984 0 0.076735537708699481 0.364428568331984 0 0.055078026168592691 0.37372917012189599 0 0.058880509289504487 0.35752542115937253 0 0.07065435961583541 0.37741521318853999 0 0.084874637398179506 0.3830893474080016 0 0.076735537708699481 0.364428568331984 0 0.07065435961583541 0.37741521318853999 0 0.076735537708699481 0.364428568331984 0 0.055078026168592691 0.37372917012189599 0 0.076735537708699481 0.364428568331984 0 0.055078026168592691 0.37372917012189599 0 0.055078026168592691 0.37372917012189599 0 0.058880509289504487 0.35752542115937253 0 0.039125882353897343 0.35680699826087081 0 0.068002564407373206 0.3444061958743222 0 0.058880509289504487 0.35752542115937253 0 0.05148455776782021 0.34576385860545072 0 0.058880509289504487 0.35752542115937253 0 0.05148455776782021 0.34576385860545072 0 0.039125882353897343 0.35680699826087081 0 0.039125882353897343 0.35680699826087081 0 0.031548662582759998 0.36398682567210089 0 0.025752053585936779 0.33511492304397028 0 0.05148455776782021 0.34576385860545072 0 0.039125882353897343 0.35680699826087081 0 0.044831250079309708 0.3305842246099347 0 0.033420514628485373 0.38302977191180709 0 0.039125882353897343 0.35680699826087081 0 0.031548662582759998 0.36398682567210089 0 0.033420514628485373 0.38302977191180709 0 0.055078026168592691 0.37372917012189599 0 0.039125882353897343 0.35680699826087081 0 0.033420514628485373 0.38302977191180709 0 0.039125882353897343 0.35680699826087081 0 0.033420514628485373 0.38302977191180709 0 0.031548662582759998 0.36398682567210089 0 0.023779055828078009 0.37097747554075361 0 0.017055050774382831 0.3783760363496293 0 0.023779055828078009 0.37097747554075361 0 0.014905446519761849 0.37011919055753012 0 0.023779055828078009 0.37097747554075361 0 0.019349684376360511 0.36318206543595072 0 0.014905446519761849 0.37011919055753012 0 0.031548662582759998 0.36398682567210089 0 0.019349684376360511 0.36318206543595072 0 0.019690074755218789 0.35178644121934483 0 0.031548662582759998 0.36398682567210089 0 0.023779055828078009 0.37097747554075361 0 0.019349684376360511 0.36318206543595072 0 0.031548662582759998 0.36398682567210089 0 0.025752053585936779 0.33511492304397028 0 0.031548662582759998 0.36398682567210089 0 0.019690074755218789 0.35178644121934483 0 0.025752053585936779 0.33511492304397028 0 0.019349684376360511 0.36318206543595072 0 0.019690074755218789 0.35178644121934483 0 0.0119730942360182 0.35563939605115702 0 0.0119730942360182 0.35563939605115702 0 0.0038095970876644218 0.35606187191015221 0 0.0077169544749549623 0.36306791211952738 0 -0.0077202170519437719 0.34710906184019069 0 0.0082446038140756572 0.34376242611402219 0 0.0038095970876644218 0.35606187191015221 0 0.0119730942360182 0.35563939605115702 0 0.0082446038140756572 0.34376242611402219 0 0.0038095970876644218 0.35606187191015221 0 0.019690074755218789 0.35178644121934483 0 0.0119730942360182 0.35563939605115702 0 0.0082446038140756572 0.34376242611402219 0 -0.0045677851665312944 0.36532665559408428 0 0.0038095970876644218 0.35606187191015221 0 0.0077169544749549623 0.36306791211952738 0 -0.0087141207398781558 0.37710904293520409 0 0.0053185270157129726 0.37689571945341471 0 0.0077169544749549623 0.36306791211952738 0 0.0053185270157129726 0.37689571945341471 0 0.0077169544749549623 0.36306791211952738 0 0.014905446519761849 0.37011919055753012 0 0.019349684376360511 0.36318206543595072 0 0.0077169544749549623 0.36306791211952738 0 0.014905446519761849 0.37011919055753012 0 0.019349684376360511 0.36318206543595072 0 0.0119730942360182 0.35563939605115702 0 0.0077169544749549623 0.36306791211952738 0 -0.009249588209606344 0.30814111102660002 0 0.0094307060340404689 0.32376070079746733 0 0.01995544458911469 0.30624302041583928 0 -0.005758602284471958 0.33512988219008361 0 0.0082446038140756572 0.34376242611402219 0 0.0094307060340404689 0.32376070079746733 0 0.0082446038140756572 0.34376242611402219 0 0.0094307060340404689 0.32376070079746733 0 0.025752053585936779 0.33511492304397028 0 0.019690074755218789 0.35178644121934483 0 0.0082446038140756572 0.34376242611402219 0 0.025752053585936779 0.33511492304397028 0 0.025752053585936779 0.33511492304397028 0 0.01995544458911469 0.30624302041583928 0 0.025752053585936779 0.33511492304397028 0 0.034898059553693392 0.31581284699138767 0 0.01995544458911469 0.30624302041583928 0 0.0094307060340404689 0.32376070079746733 0 0.025752053585936779 0.33511492304397028 0 0.01995544458911469 0.30624302041583928 0 0.034898059553693392 0.31581284699138767 0 0.044831250079309708 0.3305842246099347 0 0.05053661780472133 0.30436145095899841 0 0.025752053585936779 0.33511492304397028 0 0.034898059553693392 0.31581284699138767 0 0.044831250079309708 0.3305842246099347 0 0.039125882353897343 0.35680699826087081 0 0.025752053585936779 0.33511492304397028 0 0.044831250079309708 0.3305842246099347 0 0.039125882353897343 0.35680699826087081 0 0.044831250079309708 0.3305842246099347 0 0.068002564407373206 0.3444061958743222 0 0.05148455776782021 0.34576385860545072 0 0.05926959110604698 0.32438382341666039 0 0.05148455776782021 0.34576385860545072 0 0.044831250079309708 0.3305842246099347 0 0.05926959110604698 0.32438382341666039 0 0.044831250079309708 0.3305842246099347 0 0.05053661780472133 0.30436145095899841 0 0.044831250079309708 0.3305842246099347 0 0.05926959110604698 0.32438382341666039 0 0.05053661780472133 0.30436145095899841 0 0.05926959110604698 0.32438382341666039 0 0.05053661780472133 0.30436145095899841 0 0.05926959110604698 0.32438382341666039 0 0.05053661780472133 0.30436145095899841 0 0.066452600317618793 0.30933520022964911 0 0.059204269303370749 0.30137448027593422 0 0.05053661780472133 0.30436145095899841 0 0.066452600317618793 0.30933520022964911 0 0.04765756321016474 0.29776054867416191 0 0.05053661780472133 0.30436145095899841 0 0.052561166870736087 0.29505630281458828 0 0.059204269303370749 0.30137448027593422 0 0.05053661780472133 0.30436145095899841 0 0.052561166870736087 0.29505630281458828 0 0.05053661780472133 0.30436145095899841 0 0.052561166870736087 0.29505630281458828 0 0.04765756321016474 0.29776054867416191 0 0.05053661780472133 0.30436145095899841 0 0.052561166870736087 0.29505630281458828 0 0.036977033779240318 0.28312664447104818 0 0.062988366650143207 0.29302398426469728 0 0.036977033779240318 0.28312664447104818 0 0.048149862160842181 0.27985089866820428 0 0.062988366650143207 0.29302398426469728 0 0.036977033779240318 0.28312664447104818 0 0.062988366650143207 0.29302398426469728 0 0.048149862160842181 0.27985089866820428 0 0.054778979573680928 0.27715841955607551 0 0.062988366650143207 0.29302398426469728 0 0.059204269303370749 0.30137448027593422 0 0.052561166870736087 0.29505630281458828 0 0.062988366650143207 0.29302398426469728 0 0.04765756321016474 0.29776054867416191 0 0.036186098738389023 0.29603891009636157 0 0.036977033779240318 0.28312664447104818 0 0.04765756321016474 0.29776054867416191 0 0.052561166870736087 0.29505630281458828 0 0.036977033779240318 0.28312664447104818 0 0.036186098738389023 0.29603891009636157 0 0.036977033779240318 0.28312664447104818 0 0.027757552790527541 0.29644954410470781 0 0.034898059553693392 0.31581284699138767 0 0.05053661780472133 0.30436145095899841 0 0.039754971674175903 0.30430037111620312 0 0.04765756321016474 0.29776054867416191 0 0.05053661780472133 0.30436145095899841 0 0.039754971674175903 0.30430037111620312 0 0.04765756321016474 0.29776054867416191 0 0.036186098738389023 0.29603891009636157 0 0.039754971674175903 0.30430037111620312 0 0.036186098738389023 0.29603891009636157 0 0.039754971674175903 0.30430037111620312 0 0.028740536311392211 0.30567206060121932 0 0.034898059553693392 0.31581284699138767 0 0.039754971674175903 0.30430037111620312 0 0.028740536311392211 0.30567206060121932 0 0.034898059553693392 0.31581284699138767 0 0.028740536311392211 0.30567206060121932 0 0.01995544458911469 0.30624302041583928 0 0.028740536311392211 0.30567206060121932 0 0.01995544458911469 0.30624302041583928 0 0.01995544458911469 0.30624302041583928 0 0.027757552790527541 0.29644954410470781 0 0.016928650534501429 0.29116708493907051 0 0.01995544458911469 0.30624302041583928 0 0.016928650534501429 0.29116708493907051 0 0.036186098738389023 0.29603891009636157 0 0.028740536311392211 0.30567206060121932 0 0.027757552790527541 0.29644954410470781 0 0.028740536311392211 0.30567206060121932 0 0.01995544458911469 0.30624302041583928 0 0.027757552790527541 0.29644954410470781 0 0.036977033779240318 0.28312664447104818 0 0.016928650534501429 0.29116708493907051 0 0.013901856479889301 0.2760911494623014 0 0.036977033779240318 0.28312664447104818 0 0.027757552790527541 0.29644954410470781 0 0.016928650534501429 0.29116708493907051 0 0.016928650534501429 0.29116708493907051 0 0.0075090435902615098 0.27971283806045072 0 0.013901856479889301 0.2760911494623014 0 0.016928650534501429 0.29116708493907051 0 0.013901856479889301 0.2760911494623014 0 0.016928650534501429 0.29116708493907051 0 0.002380999114604244 0.28599596302517022 0 0.0075090435902615098 0.27971283806045072 0 0.016928650534501429 0.29116708493907051 0 0.002380999114604244 0.28599596302517022 0 0.0038021096493471361 0.29689124930627131 0 0.01995544458911469 0.30624302041583928 0 0.016928650534501429 0.29116708493907051 0 0.0038021096493471361 0.29689124930627131 0 -0.009249588209606344 0.30814111102660002 0 0.01995544458911469 0.30624302041583928 0 -0.009249588209606344 0.30814111102660002 0 0.01995544458911469 0.30624302041583928 0 0.0038021096493471361 0.29689124930627131 0 0.012944211518790589 0.24639919126045251 0 0.001894876929373096 0.24743045501984201 0 0.027350481215018482 0.26092432701142793 0 0.001894876929373096 0.24743045501984201 0 0.01235577794179212 0.26160751525750708 0 0.027350481215018482 0.26092432701142793 0 0.001894876929373096 0.24743045501984201 0 0.027350481215018482 0.26092432701142793 0 0.01235577794179212 0.26160751525750708 0 0.0066431973405819862 0.26423936680728111 0 0.01332705073189009 0.26743114199411 0 0.001894876929373096 0.24743045501984201 0 0.01235577794179212 0.26160751525750708 0 0.0027594708259384838 0.25829047161104352 0 0.01235577794179212 0.26160751525750708 0 0.0027594708259384838 0.25829047161104352 0 0.0066431973405819862 0.26423936680728111 0 -0.00067809962666212902 0.26216505597133072 0 0.0027594708259384838 0.25829047161104352 0 0.0066431973405819862 0.26423936680728111 0 -0.00067809962666212902 0.26216505597133072 0 0.0066431973405819862 0.26423936680728111 0 0.010965700908337589 0.27322930467739909 0 -0.001267499687089951 0.2776013217203892 0 0.0075090435902615098 0.27971283806045072 0 0.010965700908337589 0.27322930467739909 0 -0.001267499687089951 0.2776013217203892 0 0.002380999114604244 0.28599596302517022 0 0.0075090435902615098 0.27971283806045072 0 0.0075090435902615098 0.27971283806045072 0 0.013901856479889301 0.2760911494623014 0 0.010965700908337589 0.27322930467739909 0 0.010965700908337589 0.27322930467739909 0 0.01332705073189009 0.26743114199411 0 0.022419763759722669 0.26962443384228668 0 0.0066431973405819862 0.26423936680728111 0 0.010965700908337589 0.27322930467739909 0 0.01332705073189009 0.26743114199411 0 0.036977033779240318 0.28312664447104818 0 0.010965700908337589 0.27322930467739909 0 0.022419763759722669 0.26962443384228668 0 0.01235577794179212 0.26160751525750708 0 0.01332705073189009 0.26743114199411 0 0.022419763759722669 0.26962443384228668 0 0.036977033779240318 0.28312664447104818 0 0.013901856479889301 0.2760911494623014 0 0.010965700908337589 0.27322930467739909 0 0.036977033779240318 0.28312664447104818 0 0.010965700908337589 0.27322930467739909 0 0.036977033779240318 0.28312664447104818 0 0.022419763759722669 0.26962443384228668 0 0.032397819765571212 0.27218151163944088 0 0.022419763759722669 0.26962443384228668 0 0.027350481215018482 0.26092432701142793 0 0.032397819765571212 0.27218151163944088 0 0.018629400856135309 0.24429501886194191 0 0.012944211518790589 0.24639919126045251 0 0.027350481215018482 0.26092432701142793 0 0.018629400856135309 0.24429501886194191 0 0.027350481215018482 0.26092432701142793 0 0.02692674034290404 0.25134916217479408 0 0.01235577794179212 0.26160751525750708 0 0.022419763759722669 0.26962443384228668 0 0.027350481215018482 0.26092432701142793 0 0.027350481215018482 0.26092432701142793 0 0.02692674034290404 0.25134916217479408 0 0.036501911092354018 0.25177276941539839 0 0.027350481215018482 0.26092432701142793 0 0.036501911092354018 0.25177276941539839 0 0.052806085500663583 0.27441819900301412 0 0.036501911092354018 0.25177276941539839 0 0.052806085500663583 0.27441819900301412 0 0.027350481215018482 0.26092432701142793 0 0.039536256484267153 0.27410031615862712 0 0.052806085500663583 0.27441819900301412 0 0.027350481215018482 0.26092432701142793 0 0.052806085500663583 0.27441819900301412 0 0.036977033779240318 0.28312664447104818 0 0.032397819765571212 0.27218151163944088 0 0.039536256484267153 0.27410031615862712 0 0.027350481215018482 0.26092432701142793 0 0.032397819765571212 0.27218151163944088 0 0.039536256484267153 0.27410031615862712 0 0.039536256484267153 0.27410031615862712 0 0.048149862160842181 0.27985089866820428 0 0.052806085500663583 0.27441819900301412 0 0.036977033779240318 0.28312664447104818 0 0.039536256484267153 0.27410031615862712 0 0.048149862160842181 0.27985089866820428 0 0.052806085500663583 0.27441819900301412 0 0.051790667069154861 0.2547103276228454 0 0.069466372585565969 0.27425949764399721 0 0.052806085500663583 0.27441819900301412 0 0.054778979573680928 0.27715841955607551 0 0.076123070751733898 0.28677840112891878 0 0.048149862160842181 0.27985089866820428 0 0.052806085500663583 0.27441819900301412 0 0.054778979573680928 0.27715841955607551 0 0.052806085500663583 0.27441819900301412 0 0.054778979573680928 0.27715841955607551 0 0.051790667069154861 0.2547103276228454 0 0.069466372585565969 0.27425949764399721 0 0.036501911092354018 0.25177276941539839 0 0.052806085500663583 0.27441819900301412 0 0.051790667069154861 0.2547103276228454 0 0.051790667069154861 0.2547103276228454 0 0.062472563593505302 0.26110660749064829 0 0.069466372585565969 0.27425949764399721 0 0.051790667069154861 0.2547103276228454 0 0.062472563593505302 0.26110660749064829 0 0.063392491700480919 0.2510828642249095 0 0.07090317009537217 0.25886987532900169 0 0.089645379702363526 0.25980927980688501 0 0.066829182329119829 0.26693814307945207 0 0.063392491700480919 0.2510828642249095 0 0.07090317009537217 0.25886987532900169 0 0.074261774750864804 0.25289133929391111 0 0.062472563593505302 0.26110660749064829 0 0.063392491700480919 0.2510828642249095 0 0.07090317009537217 0.25886987532900169 0 0.062472563593505302 0.26110660749064829 0 0.07090317009537217 0.25886987532900169 0 0.066829182329119829 0.26693814307945207 0 0.07090317009537217 0.25886987532900169 0 0.074261774750864804 0.25289133929391111 0 0.089645379702363526 0.25980927980688501 0 0.072073934872957782 0.23900016577853919 0 0.074261774750864804 0.25289133929391111 0 0.089645379702363526 0.25980927980688501 0 0.089645379702363526 0.25980927980688501 0 0.066829182329119829 0.26693814307945207 0 0.089645379702363526 0.25980927980688501 0 0.084738505220855201 0.27427167124983992 0 0.066829182329119829 0.26693814307945207 0 0.084738505220855201 0.27427167124983992 0 0.069466372585565969 0.27425949764399721 0 0.085077205623658711 0.29152493742801078 0 0.084738505220855201 0.27427167124983992 0 0.095910340366493346 0.28464594086445177 0 0.099818528257267281 0.27185690653089678 0 0.089645379702363526 0.25980927980688501 0 0.084738505220855201 0.27427167124983992 0 0.099818528257267281 0.27185690653089678 0 0.084738505220855201 0.27427167124983992 0 0.066829182329119829 0.26693814307945207 0 0.069466372585565969 0.27425949764399721 0 0.052806085500663583 0.27441819900301412 0 0.069466372585565969 0.27425949764399721 0 0.076123070751733898 0.28677840112891878 0 0.052806085500663583 0.27441819900301412 0 0.076123070751733898 0.28677840112891878 0 0.069466372585565969 0.27425949764399721 0 0.076123070751733898 0.28677840112891878 0 0.062472563593505302 0.26110660749064829 0 0.069466372585565969 0.27425949764399721 0 0.062472563593505302 0.26110660749064829 0 0.066829182329119829 0.26693814307945207 0 0.069466372585565969 0.27425949764399721 0 0.069466372585565969 0.27425949764399721 0 0.085077205623658711 0.29152493742801078 0 0.069466372585565969 0.27425949764399721 0 0.076123070751733898 0.28677840112891878 0 0.085077205623658711 0.29152493742801078 0 0.062988366650143207 0.29302398426469728 0 0.076123070751733898 0.28677840112891878 0 0.066452600317618793 0.30933520022964911 0 0.054778979573680928 0.27715841955607551 0 0.062988366650143207 0.29302398426469728 0 0.076123070751733898 0.28677840112891878 0 0.090103400857782137 0.31307047550514489 0 0.076123070751733898 0.28677840112891878 0 0.066452600317618793 0.30933520022964911 0 0.059204269303370749 0.30137448027593422 0 0.062988366650143207 0.29302398426469728 0 0.066452600317618793 0.30933520022964911 0 0.090103400857782137 0.31307047550514489 0 0.076123070751733898 0.28677840112891878 0 0.085077205623658711 0.29152493742801078 0 0.090103400857782137 0.31307047550514489 0 0.076123070751733898 0.28677840112891878 0 0.090103400857782137 0.31307047550514489 0 0.085077205623658711 0.29152493742801078 0 0.09732687347400408 0.30507295899279041 0 0.085077205623658711 0.29152493742801078 0 0.09732687347400408 0.30507295899279041 0 0.084738505220855201 0.27427167124983992 0 0.085077205623658711 0.29152493742801078 0 0.095910340366493346 0.28464594086445177 0 0.076123070751733898 0.28677840112891878 0 0.085077205623658711 0.29152493742801078 0 0.085077205623658711 0.29152493742801078 0 0.095910340366493346 0.28464594086445177 0 0.10018382130907411 0.29953286904093468 0 0.085077205623658711 0.29152493742801078 0 0.10018382130907411 0.29953286904093468 0 0.095910340366493346 0.28464594086445177 0 0.10809736708577181 0.28553666446189058 0 0.10018382130907411 0.29953286904093468 0 0.10809736708577181 0.28553666446189058 0 0.10018382130907411 0.29953286904093468 0 0.10959494141679089 0.29761357018739809 0 0.099947674014671917 0.31467323404701991 0 0.090103400857782137 0.31307047550514489 0 0.09732687347400408 0.30507295899279041 0 0.085077205623658711 0.29152493742801078 0 0.09732687347400408 0.30507295899279041 0 0.10018382130907411 0.29953286904093468 0 0.09732687347400408 0.30507295899279041 0 0.10018382130907411 0.29953286904093468 0 0.1055944182754792 0.3076919023112884 0 0.10018382130907411 0.29953286904093468 0 0.11529043699448981 0.30754080065385803 0 0.10959494141679089 0.29761357018739809 0 0.10018382130907411 0.29953286904093468 0 0.11529043699448981 0.30754080065385803 0 0.1095765413243488 0.31862098055757049 0 0.09732687347400408 0.30507295899279041 0 0.1055944182754792 0.3076919023112884 0 0.10018382130907411 0.29953286904093468 0 0.1055944182754792 0.3076919023112884 0 0.11529043699448981 0.30754080065385803 0 0.1095765413243488 0.31862098055757049 0 0.09732687347400408 0.30507295899279041 0 0.1095765413243488 0.31862098055757049 0 0.1055944182754792 0.3076919023112884 0 0.11529043699448981 0.30754080065385803 0 0.11529043699448981 0.30754080065385803 0 0.11637637905870279 0.30155283343175482 0 0.11810871752106521 0.30621928700195911 0 0.11529043699448981 0.30754080065385803 0 0.10959494141679089 0.29761357018739809 0 0.11637637905870279 0.30155283343175482 0 0.10959494141679089 0.29761357018739809 0 0.11637637905870279 0.30155283343175482 0 0.1164892219926046 0.29243334627748818 0 0.11529043699448981 0.30754080065385803 0 0.11637637905870279 0.30155283343175482 0 0.11637637905870279 0.30155283343175482 0 0.1222906650571363 0.2985709440566281 0 0.1164892219926046 0.29243334627748818 0 0.1222906650571363 0.2985709440566281 0 0.1206025954822835 0.30378795350269022 0 0.1243783730770044 0.30485679470236721 0 0.11637637905870279 0.30155283343175482 0 0.1222906650571363 0.2985709440566281 0 0.1206025954822835 0.30378795350269022 0 0.11637637905870279 0.30155283343175482 0 0.1206025954822835 0.30378795350269022 0 0.11810871752106521 0.30621928700195911 0 0.1206025954822835 0.30378795350269022 0 0.11810871752106521 0.30621928700195911 0 0.1213521300308707 0.30775440284793348 0 0.11529043699448981 0.30754080065385803 0 0.11810871752106521 0.30621928700195911 0 0.11930841490252821 0.30912172642276631 0 0.11810871752106521 0.30621928700195911 0 0.1213521300308707 0.30775440284793348 0 0.11930841490252821 0.30912172642276631 0 0.1243783730770044 0.30485679470236721 0 0.1213521300308707 0.30775440284793348 0 0.1244342991148414 0.30898461385241399 0 0.1206025954822835 0.30378795350269022 0 0.1243783730770044 0.30485679470236721 0 0.1213521300308707 0.30775440284793348 0 0.1214195525311879 0.31440901896845502 0 0.1244342991148414 0.30898461385241399 0 0.12900107104525951 0.30968741412501871 0 0.1214195525311879 0.31440901896845502 0 0.1213521300308707 0.30775440284793348 0 0.1244342991148414 0.30898461385241399 0 0.1214195525311879 0.31440901896845502 0 0.11529043699448981 0.30754080065385803 0 0.11930841490252821 0.30912172642276631 0 0.1214195525311879 0.31440901896845502 0 0.1213521300308707 0.30775440284793348 0 0.11930841490252821 0.30912172642276631 0 0.10809736708577181 0.28553666446189058 0 0.1164892219926046 0.29243334627748818 0 0.1210835213650209 0.28058702695229848 0 0.10809736708577181 0.28553666446189058 0 0.10959494141679089 0.29761357018739809 0 0.1164892219926046 0.29243334627748818 0 0.1222906650571363 0.2985709440566281 0 0.1164892219926046 0.29243334627748818 0 0.12596292383497329 0.28976449579057961 0 0.1164892219926046 0.29243334627748818 0 0.1210835213650209 0.28058702695229848 0 0.12596292383497329 0.28976449579057961 0 0.10809736708577181 0.28553666446189058 0 0.1210835213650209 0.28058702695229848 0 0.1147979612748997 0.2707881575742877 0 0.1210835213650209 0.28058702695229848 0 0.1147979612748997 0.2707881575742877 0 0.12791172371537049 0.26609555254785411 0 0.1147979612748997 0.2707881575742877 0 0.116065923487036 0.25155424759680489 0 0.099818528257267281 0.27185690653089678 0 0.1147979612748997 0.2707881575742877 0 0.116065923487036 0.25155424759680489 0 0.12791172371537049 0.26609555254785411 0 0.089645379702363526 0.25980927980688501 0 0.116065923487036 0.25155424759680489 0 0.089645379702363526 0.25980927980688501 0 0.116065923487036 0.25155424759680489 0 0.099818528257267281 0.27185690653089678 0 0.089645379702363526 0.25980927980688501 0 0.099818528257267281 0.27185690653089678 0 0.095910340366493346 0.28464594086445177 0 0.10809736708577181 0.28553666446189058 0 0.099818528257267281 0.27185690653089678 0 0.10809736708577181 0.28553666446189058 0 0.1147979612748997 0.2707881575742877 0 0.099818528257267281 0.27185690653089678 0 0.14627836463393121 0.26809473379089088 0 0.14256315404166739 0.2804585798755338 0 0.1332419302865058 0.27890394506169119 0 0.14627836463393121 0.26809473379089088 0 0.14256315404166739 0.2804585798755338 0 0.15383705453569649 0.27951082009548711 0 0.14627836463393121 0.26809473379089088 0 0.15383705453569649 0.27951082009548711 0 0.1609818760820641 0.2708255403471686 0 0.14248646727170791 0.24329921538672239 0 0.14627836463393121 0.26809473379089088 0 0.1631161995596529 0.25657386530356069 0 0.14248646727170791 0.24329921538672239 0 0.116065923487036 0.25155424759680489 0 0.12791172371537049 0.26609555254785411 0 0.14248646727170791 0.24329921538672239 0 0.14627836463393121 0.26809473379089088 0 0.12791172371537049 0.26609555254785411 0 0.14627836463393121 0.26809473379089088 0 0.12791172371537049 0.26609555254785411 0 0.1332419302865058 0.27890394506169119 0 0.1210835213650209 0.28058702695229848 0 0.12791172371537049 0.26609555254785411 0 0.1332419302865058 0.27890394506169119 0 0.1332419302865058 0.27890394506169119 0 0.12596292383497329 0.28976449579057961 0 0.13463915166403909 0.29011289163129678 0 0.1210835213650209 0.28058702695229848 0 0.1332419302865058 0.27890394506169119 0 0.12596292383497329 0.28976449579057961 0 0.1222906650571363 0.2985709440566281 0 0.12596292383497329 0.28976449579057961 0 0.12923992476061211 0.29615108028493942 0 0.12596292383497329 0.28976449579057961 0 0.12923992476061211 0.29615108028493942 0 0.13463915166403909 0.29011289163129678 0 0.13463915166403909 0.29011289163129678 0 0.13544399911061031 0.29845687749894129 0 0.1416447250157222 0.29544082675589128 0 0.12923992476061211 0.29615108028493942 0 0.13463915166403909 0.29011289163129678 0 0.13544399911061031 0.29845687749894129 0 0.14256315404166739 0.2804585798755338 0 0.1332419302865058 0.27890394506169119 0 0.13463915166403909 0.29011289163129678 0 0.1243783730770044 0.30485679470236721 0 0.1244342991148414 0.30898461385241399 0 0.12900107104525951 0.30968741412501871 0 0.1243783730770044 0.30485679470236721 0 0.12900107104525951 0.30968741412501871 0 0.1290658347258283 0.30205966601357243 0 0.12900107104525951 0.30968741412501871 0 0.1290658347258283 0.30205966601357243 0 0.1340409753043473 0.30463488541353972 0 0.1222906650571363 0.2985709440566281 0 0.1243783730770044 0.30485679470236721 0 0.1290658347258283 0.30205966601357243 0 0.1222906650571363 0.2985709440566281 0 0.12923992476061211 0.29615108028493942 0 0.1290658347258283 0.30205966601357243 0 0.12923992476061211 0.29615108028493942 0 0.1290658347258283 0.30205966601357243 0 0.13544399911061031 0.29845687749894129 0 0.13544399911061031 0.29845687749894129 0 0.14170706289926879 0.30357921339911909 0 0.1416447250157222 0.29544082675589128 0 0.13544399911061031 0.29845687749894129 0 0.1340409753043473 0.30463488541353972 0 0.14170706289926879 0.30357921339911909 0 0.1290658347258283 0.30205966601357243 0 0.13544399911061031 0.29845687749894129 0 0.1340409753043473 0.30463488541353972 0 0.13598458437900529 0.30983158877234418 0 0.14130712994747449 0.31140798331507108 0 0.14170706289926879 0.30357921339911909 0 0.12900107104525951 0.30968741412501871 0 0.1340409753043473 0.30463488541353972 0 0.13598458437900529 0.30983158877234418 0 0.1340409753043473 0.30463488541353972 0 0.13598458437900529 0.30983158877234418 0 0.14170706289926879 0.30357921339911909 0 0.13598458437900529 0.30983158877234418 0 0.14130712994747449 0.31140798331507108 0 0.13528824775885559 0.3155805734405937 0 0.12900107104525951 0.30968741412501871 0 0.13598458437900529 0.30983158877234418 0 0.13528824775885559 0.3155805734405937 0 0.1483486037307668 0.31106151759990119 0 0.14130712994747449 0.31140798331507108 0 0.14170706289926879 0.30357921339911909 0 0.1483486037307668 0.31106151759990119 0 0.14170706289926879 0.30357921339911909 0 0.1513591925520972 0.30423422291399321 0 0.14170706289926879 0.30357921339911909 0 0.14924189349128261 0.29698436464102829 0 0.1513591925520972 0.30423422291399321 0 0.14170706289926879 0.30357921339911909 0 0.14924189349128261 0.29698436464102829 0 0.1416447250157222 0.29544082675589128 0 0.1513591925520972 0.30423422291399321 0 0.15847128754916129 0.30901971199088751 0 0.1567398971697517 0.30020769771567818 0 0.14924189349128261 0.29698436464102829 0 0.1513591925520972 0.30423422291399321 0 0.1567398971697517 0.30020769771567818 0 0.1483486037307668 0.31106151759990119 0 0.1513591925520972 0.30423422291399321 0 0.15847128754916129 0.30901971199088751 0 0.1483486037307668 0.31106151759990119 0 0.15847128754916129 0.30901971199088751 0 0.1531779528472626 0.31690967251270458 0 0.14256315404166739 0.2804585798755338 0 0.15383705453569649 0.27951082009548711 0 0.14728728951424691 0.28871625735014939 0 0.14256315404166739 0.2804585798755338 0 0.13463915166403909 0.29011289163129678 0 0.14728728951424691 0.28871625735014939 0 0.14924189349128261 0.29698436464102829 0 0.14728728951424691 0.28871625735014939 0 0.1416447250157222 0.29544082675589128 0 0.13463915166403909 0.29011289163129678 0 0.14728728951424691 0.28871625735014939 0 0.1416447250157222 0.29544082675589128 0 0.14924189349128261 0.29698436464102829 0 0.1576814993112734 0.29111844862325259 0 0.1567398971697517 0.30020769771567818 0 0.14924189349128261 0.29698436464102829 0 0.14728728951424691 0.28871625735014939 0 0.1576814993112734 0.29111844862325259 0 0.15383705453569649 0.27951082009548711 0 0.14728728951424691 0.28871625735014939 0 0.1576814993112734 0.29111844862325259 0 0.15383705453569649 0.27951082009548711 0 0.1576814993112734 0.29111844862325259 0 0.16532030222413041 0.28061774918364429 0 0.1576814993112734 0.29111844862325259 0 0.1689979645595176 0.28949488405725932 0 0.16532030222413041 0.28061774918364429 0 0.1576814993112734 0.29111844862325259 0 0.1689979645595176 0.28949488405725932 0 0.16694561294494401 0.29968174040922901 0 0.1689979645595176 0.28949488405725932 0 0.16694561294494401 0.29968174040922901 0 0.17866142019044989 0.29199773726540068 0 0.1689979645595176 0.28949488405725932 0 0.17498255083596301 0.28300150235233201 0 0.16532030222413041 0.28061774918364429 0 0.1576814993112734 0.29111844862325259 0 0.1567398971697517 0.30020769771567818 0 0.16694561294494401 0.29968174040922901 0 0.15847128754916129 0.30901971199088751 0 0.1567398971697517 0.30020769771567818 0 0.16694561294494401 0.29968174040922901 0 0.16694561294494401 0.29968174040922901 0 0.17666858027807311 0.3015349886251833 0 0.1707678241303611 0.31259989648156872 0 0.15847128754916129 0.30901971199088751 0 0.16694561294494401 0.29968174040922901 0 0.1707678241303611 0.31259989648156872 0 0.17666858027807311 0.3015349886251833 0 0.18371952992762389 0.30785332357736089 0 0.1707678241303611 0.31259989648156872 0 0.16694561294494401 0.29968174040922901 0 0.17666858027807311 0.3015349886251833 0 0.17866142019044989 0.29199773726540068 0 0.17666858027807311 0.3015349886251833 0 0.18371952992762389 0.30785332357736089 0 0.1898902111984884 0.29891268329407239 0 0.18371952992762389 0.30785332357736089 0 0.1898902111984884 0.29891268329407239 0 0.17666858027807311 0.3015349886251833 0 0.17866142019044989 0.29199773726540068 0 0.1898902111984884 0.29891268329407239 0 0.17498255083596301 0.28300150235233201 0 0.17866142019044989 0.29199773726540068 0 0.1849298445554361 0.28099903695767547 0 0.1689979645595176 0.28949488405725932 0 0.17498255083596301 0.28300150235233201 0 0.17866142019044989 0.29199773726540068 0 0.17866142019044989 0.29199773726540068 0 0.18677859260729601 0.28760164196875848 0 0.1898902111984884 0.29891268329407239 0 0.17866142019044989 0.29199773726540068 0 0.18677859260729601 0.28760164196875848 0 0.1849298445554361 0.28099903695767547 0 0.1849298445554361 0.28099903695767547 0 0.17528279401001801 0.2714166079934146 0 0.19094745617081291 0.27038549871767581 0 0.17528279401001801 0.2714166079934146 0 0.18564289691528729 0.25868749876629671 0 0.19094745617081291 0.27038549871767581 0 0.17498255083596301 0.28300150235233201 0 0.1849298445554361 0.28099903695767547 0 0.17528279401001801 0.2714166079934146 0 0.17528279401001801 0.2714166079934146 0 0.16532030222413041 0.28061774918364429 0 0.1609818760820641 0.2708255403471686 0 0.17498255083596301 0.28300150235233201 0 0.17528279401001801 0.2714166079934146 0 0.16532030222413041 0.28061774918364429 0 0.17528279401001801 0.2714166079934146 0 0.1609818760820641 0.2708255403471686 0 0.1631161995596529 0.25657386530356069 0 0.15383705453569649 0.27951082009548711 0 0.16532030222413041 0.28061774918364429 0 0.1609818760820641 0.2708255403471686 0 0.14627836463393121 0.26809473379089088 0 0.1609818760820641 0.2708255403471686 0 0.1631161995596529 0.25657386530356069 0 0.16890701105638031 0.23504418317664161 0 0.1631161995596529 0.25657386530356069 0 0.18564289691528729 0.25868749876629671 0 0.17528279401001801 0.2714166079934146 0 0.1631161995596529 0.25657386530356069 0 0.18564289691528729 0.25868749876629671 0 0.1956251304139873 0.24830732682566101 0 0.18564289691528729 0.25868749876629671 0 0.20465537480646501 0.25892384109831479 0 0.18564289691528729 0.25868749876629671 0 0.19094745617081291 0.27038549871767581 0 0.20465537480646501 0.25892384109831479 0 0.2050239072751949 0.2492833193895482 0 0.1956251304139873 0.24830732682566101 0 0.20465537480646501 0.25892384109831479 0 0.19094745617081291 0.27038549871767581 0 0.20212350544635149 0.27452240688285762 0 0.1917381003592612 0.28136787577326228 0 0.1849298445554361 0.28099903695767547 0 0.19094745617081291 0.27038549871767581 0 0.1917381003592612 0.28136787577326228 0 0.19094745617081291 0.27038549871767581 0 0.20212350544635149 0.27452240688285762 0 0.20465537480646501 0.25892384109831479 0 0.21559138507808229 0.27635001083075639 0 0.2170338530129477 0.25958452376210089 0 0.2223889939606305 0.26849190584137572 0 0.20212350544635149 0.27452240688285762 0 0.2170338530129477 0.25958452376210089 0 0.20037669147028589 0.28371892366973078 0 0.2170338530129477 0.25958452376210089 0 0.20037669147028589 0.28371892366973078 0 0.21559138507808229 0.27635001083075639 0 0.2170338530129477 0.25958452376210089 0 0.20037669147028589 0.28371892366973078 0 0.20212350544635149 0.27452240688285762 0 0.20465537480646501 0.25892384109831479 0 0.21458810326103989 0.25029177234766842 0 0.20212350544635149 0.27452240688285762 0 0.2170338530129477 0.25958452376210089 0 0.21458810326103989 0.25029177234766842 0 0.20212350544635149 0.27452240688285762 0 0.21458810326103989 0.25029177234766842 0 0.2050239072751949 0.2492833193895482 0 0.20465537480646501 0.25892384109831479 0 0.21458810326103989 0.25029177234766842 0 0.20465537480646501 0.25892384109831479 0 0.21458810326103989 0.25029177234766842 0 0.23169913173193779 0.25404958449575432 0 0.22942687348362151 0.26728355318502178 0 0.24090080429007341 0.26281353644332878 0 0.23169913173193779 0.25404958449575432 0 0.2249153238939712 0.26221153605608138 0 0.22942687348362151 0.26728355318502178 0 0.2170338530129477 0.25958452376210089 0 0.2249153238939712 0.26221153605608138 0 0.2223889939606305 0.26849190584137572 0 0.2170338530129477 0.25958452376210089 0 0.23169913173193779 0.25404958449575432 0 0.2249153238939712 0.26221153605608138 0 0.2223889939606305 0.26849190584137572 0 0.2255322572178127 0.27738204478537232 0 0.22942687348362151 0.26728355318502178 0 0.2249153238939712 0.26221153605608138 0 0.2223889939606305 0.26849190584137572 0 0.22942687348362151 0.26728355318502178 0 0.21559138507808229 0.27635001083075639 0 0.2255322572178127 0.27738204478537232 0 0.21985426169801439 0.28935406669317137 0 0.21559138507808229 0.27635001083075639 0 0.2223889939606305 0.26849190584137572 0 0.2255322572178127 0.27738204478537232 0 0.2255322572178127 0.27738204478537232 0 0.23621117140834261 0.27732665952701641 0 0.23095623596381579 0.2876536505458 0 0.2255322572178127 0.27738204478537232 0 0.22942687348362151 0.26728355318502178 0 0.23621117140834261 0.27732665952701641 0 0.23621117140834261 0.27732665952701641 0 0.24818821145747599 0.27522177653690871 0 0.24090080429007341 0.26281353644332878 0 0.22942687348362151 0.26728355318502178 0 0.23621117140834261 0.27732665952701641 0 0.24090080429007341 0.26281353644332878 0 0.24818821145747599 0.27522177653690871 0 0.24090080429007341 0.26281353644332878 0 0.25530776412370298 0.26639583896058622 0 0.23995652529561701 0.25039133628829258 0 0.24090080429007341 0.26281353644332878 0 0.25404003316197471 0.25208422786308371 0 0.23169913173193779 0.25404958449575432 0 0.23995652529561701 0.25039133628829258 0 0.24090080429007341 0.26281353644332878 0 0.23765651747073049 0.31117848176507701 0 0.2454028482605469 0.29267792886045368 0 0.25114017462525878 0.31153615041935723 0 0.23765651747073049 0.31117848176507701 0 0.2454028482605469 0.29267792886045368 0 0.2283396740985745 0.30195705682751389 0 0.2454028482605469 0.29267792886045368 0 0.23095623596381579 0.2876536505458 0 0.2283396740985745 0.30195705682751389 0 0.23621117140834261 0.27732665952701641 0 0.24818821145747599 0.27522177653690871 0 0.2454028482605469 0.29267792886045368 0 0.23621117140834261 0.27732665952701641 0 0.2454028482605469 0.29267792886045368 0 0.23095623596381579 0.2876536505458 0 0.2255322572178127 0.27738204478537232 0 0.23095623596381579 0.2876536505458 0 0.21985426169801439 0.28935406669317137 0 0.23095623596381579 0.2876536505458 0 0.21985426169801439 0.28935406669317137 0 0.2283396740985745 0.30195705682751389 0 0.2283396740985745 0.30195705682751389 0 0.2184758680590754 0.31184724711422762 0 0.22801070301179061 0.32060690690137728 0 0.21985426169801439 0.28935406669317137 0 0.2283396740985745 0.30195705682751389 0 0.21670572119465931 0.30172893354768798 0 0.23765651747073049 0.31117848176507701 0 0.2283396740985745 0.30195705682751389 0 0.22801070301179061 0.32060690690137728 0 0.2283396740985745 0.30195705682751389 0 0.2184758680590754 0.31184724711422762 0 0.21670572119465931 0.30172893354768798 0 0.2184758680590754 0.31184724711422762 0 0.21670572119465931 0.30172893354768798 0 0.20632342479934371 0.30585855598863948 0 0.21670572119465931 0.30172893354768798 0 0.20632342479934371 0.30585855598863948 0 0.21141614329998781 0.29390938293380992 0 0.20632342479934371 0.30585855598863948 0 0.21141614329998781 0.29390938293380992 0 0.2042452804315445 0.29308429151921322 0 0.21559138507808229 0.27635001083075639 0 0.21985426169801439 0.28935406669317137 0 0.2104384150331686 0.28649738738125968 0 0.21985426169801439 0.28935406669317137 0 0.21141614329998781 0.29390938293380992 0 0.2104384150331686 0.28649738738125968 0 0.21985426169801439 0.28935406669317137 0 0.21670572119465931 0.30172893354768798 0 0.21141614329998781 0.29390938293380992 0 0.21141614329998781 0.29390938293380992 0 0.2042452804315445 0.29308429151921322 0 0.2104384150331686 0.28649738738125968 0 0.2042452804315445 0.29308429151921322 0 0.2104384150331686 0.28649738738125968 0 0.20037669147028589 0.28371892366973078 0 0.21559138507808229 0.27635001083075639 0 0.2104384150331686 0.28649738738125968 0 0.20037669147028589 0.28371892366973078 0 0.20212350544635149 0.27452240688285762 0 0.20037669147028589 0.28371892366973078 0 0.1898902111984884 0.29891268329407239 0 0.18677859260729601 0.28760164196875848 0 0.1917381003592612 0.28136787577326228 0 0.1898902111984884 0.29891268329407239 0 0.20037669147028589 0.28371892366973078 0 0.1976595376627992 0.29976589533378561 0 0.1898902111984884 0.29891268329407239 0 0.2042452804315445 0.29308429151921322 0 0.20037669147028589 0.28371892366973078 0 0.1976595376627992 0.29976589533378561 0 0.20212350544635149 0.27452240688285762 0 0.1898902111984884 0.29891268329407239 0 0.20212350544635149 0.27452240688285762 0 0.1917381003592612 0.28136787577326228 0 0.1898902111984884 0.29891268329407239 0 0.20037669147028589 0.28371892366973078 0 0.1898902111984884 0.29891268329407239 0 0.18677859260729601 0.28760164196875848 0 0.1849298445554361 0.28099903695767547 0 0.1917381003592612 0.28136787577326228 0 0.20632342479934371 0.30585855598863948 0 0.19412409721151189 0.30848045781950378 0 0.19635424873152091 0.31866253726922511 0 0.20632342479934371 0.30585855598863948 0 0.1976595376627992 0.29976589533378561 0 0.19412409721151189 0.30848045781950378 0 0.20632342479934371 0.30585855598863948 0 0.2042452804315445 0.29308429151921322 0 0.1976595376627992 0.29976589533378561 0 0.18371952992762389 0.30785332357736089 0 0.1976595376627992 0.29976589533378561 0 0.1898902111984884 0.29891268329407239 0 0.18371952992762389 0.30785332357736089 0 0.19412409721151189 0.30848045781950378 0 0.19635424873152091 0.31866253726922511 0 0.18371952992762389 0.30785332357736089 0 0.1976595376627992 0.29976589533378561 0 0.19412409721151189 0.30848045781950378 0 0.19635424873152091 0.31866253726922511 0 0.19329834396814641 0.33328399686629978 0 0.21150607161232149 0.3245036863190196 0 0.19635424873152091 0.31866253726922511 0 0.19329834396814641 0.33328399686629978 0 0.1818581672390053 0.32281790922797782 0 0.19329834396814641 0.33328399686629978 0 0.20841238186686439 0.34472105417207632 0 0.1876990638134575 0.35190483133425488 0 0.19329834396814641 0.33328399686629978 0 0.21150607161232149 0.3245036863190196 0 0.20841238186686439 0.34472105417207632 0 0.21150607161232149 0.3245036863190196 0 0.22736457019319431 0.33776348264759248 0 0.20841238186686439 0.34472105417207632 0 0.20632342479934371 0.30585855598863948 0 0.19635424873152091 0.31866253726922511 0 0.21150607161232149 0.3245036863190196 0 0.2184758680590754 0.31184724711422762 0 0.20632342479934371 0.30585855598863948 0 0.21150607161232149 0.3245036863190196 0 0.21150607161232149 0.3245036863190196 0 0.22801070301179061 0.32060690690137728 0 0.22736457019319431 0.33776348264759248 0 0.2184758680590754 0.31184724711422762 0 0.21150607161232149 0.3245036863190196 0 0.22801070301179061 0.32060690690137728 0 0.22801070301179061 0.32060690690137728 0 0.22736457019319431 0.33776348264759248 0 0.24490867605631639 0.32967072069511189 0 0.22736457019319431 0.33776348264759248 0 0.24490867605631639 0.32967072069511189 0 0.24521693247762111 0.35027114815259558 0 0.23765651747073049 0.31117848176507701 0 0.22801070301179061 0.32060690690137728 0 0.24490867605631639 0.32967072069511189 0 0.23765651747073049 0.31117848176507701 0 0.24490867605631639 0.32967072069511189 0 0.25114017462525878 0.31153615041935723 0 0.24305895760768401 0.36641304215893011 0 0.24521693247762111 0.35027114815259558 0 0.22613265613425179 0.35680737964537468 0 0.22736457019319431 0.33776348264759248 0 0.24521693247762111 0.35027114815259558 0 0.22613265613425179 0.35680737964537468 0 0.22736457019319431 0.33776348264759248 0 0.22613265613425179 0.35680737964537468 0 0.20841238186686439 0.34472105417207632 0 0.22613265613425179 0.35680737964537468 0 0.20200890290724041 0.36500873302905812 0 0.22860253219506471 0.37841014948266538 0 0.24305895760768401 0.36641304215893011 0 0.22613265613425179 0.35680737964537468 0 0.22860253219506471 0.37841014948266538 0 0.20200890290724041 0.36500873302905812 0 0.22860253219506471 0.37841014948266538 0 0.22613265613425179 0.35680737964537468 0 0.20841238186686439 0.34472105417207632 0 0.20200890290724041 0.36500873302905812 0 0.20841238186686439 0.34472105417207632 0 0.1876990638134575 0.35190483133425488 0 0.20200890290724041 0.36500873302905812 0 0.1876990638134575 0.35190483133425488 0 0.20200890290724041 0.36500873302905812 0 0.17637045729064621 0.37495278481954358 0 0.1876990638134575 0.35190483133425488 0 0.17637045729064621 0.37495278481954358 0 0.16909864488713719 0.35514267549568418 0 0.15975417249048229 0.36968310563447321 0 0.16909864488713719 0.35514267549568418 0 0.14990537096685039 0.36070173528474042 0 0.17637045729064621 0.37495278481954358 0 0.15975417249048229 0.36968310563447321 0 0.16909864488713719 0.35514267549568418 0 0.16909864488713719 0.35514267549568418 0 0.1770056519607103 0.33831974362286749 0 0.1619384281755652 0.34052596047808847 0 0.16909864488713719 0.35514267549568418 0 0.14990537096685039 0.36070173528474042 0 0.15416632756111201 0.34898696826244741 0 0.16909864488713719 0.35514267549568418 0 0.1619384281755652 0.34052596047808847 0 0.15416632756111201 0.34898696826244741 0 0.1876990638134575 0.35190483133425488 0 0.16909864488713719 0.35514267549568418 0 0.1770056519607103 0.33831974362286749 0 0.19329834396814641 0.33328399686629978 0 0.1770056519607103 0.33831974362286749 0 0.1818581672390053 0.32281790922797782 0 0.19329834396814641 0.33328399686629978 0 0.1876990638134575 0.35190483133425488 0 0.1770056519607103 0.33831974362286749 0 0.1770056519607103 0.33831974362286749 0 0.1818581672390053 0.32281790922797782 0 0.1657389141743941 0.32607447656151611 0 0.1818581672390053 0.32281790922797782 0 0.1707678241303611 0.31259989648156872 0 0.1657389141743941 0.32607447656151611 0 0.18371952992762389 0.30785332357736089 0 0.19635424873152091 0.31866253726922511 0 0.1818581672390053 0.32281790922797782 0 0.18371952992762389 0.30785332357736089 0 0.1818581672390053 0.32281790922797782 0 0.1707678241303611 0.31259989648156872 0 0.1707678241303611 0.31259989648156872 0 0.1657389141743941 0.32607447656151611 0 0.16084478468494731 0.31759224325908281 0 0.1657389141743941 0.32607447656151611 0 0.15632698434060879 0.32309477146443721 0 0.16084478468494731 0.31759224325908281 0 0.1657389141743941 0.32607447656151611 0 0.15632698434060879 0.32309477146443721 0 0.1534459738215358 0.33116830427909388 0 0.15847128754916129 0.30901971199088751 0 0.1707678241303611 0.31259989648156872 0 0.16084478468494731 0.31759224325908281 0 0.15847128754916129 0.30901971199088751 0 0.16084478468494731 0.31759224325908281 0 0.1531779528472626 0.31690967251270458 0 0.15632698434060879 0.32309477146443721 0 0.16084478468494731 0.31759224325908281 0 0.1531779528472626 0.31690967251270458 0 0.1770056519607103 0.33831974362286749 0 0.1657389141743941 0.32607447656151611 0 0.1619384281755652 0.34052596047808847 0 0.1657389141743941 0.32607447656151611 0 0.1619384281755652 0.34052596047808847 0 0.1534459738215358 0.33116830427909388 0 0.1619384281755652 0.34052596047808847 0 0.14537830609435001 0.34101383565047871 0 0.15416632756111201 0.34898696826244741 0 0.1619384281755652 0.34052596047808847 0 0.1534459738215358 0.33116830427909388 0 0.14537830609435001 0.34101383565047871 0 0.1534459738215358 0.33116830427909388 0 0.1427633336259623 0.33140140495610498 0 0.14842729617490411 0.32372916070978858 0 0.1534459738215358 0.33116830427909388 0 0.1427633336259623 0.33140140495610498 0 0.14537830609435001 0.34101383565047871 0 0.1427633336259623 0.33140140495610498 0 0.14537830609435001 0.34101383565047871 0 0.13654253772275141 0.33890423694427602 0 0.1483486037307668 0.31106151759990119 0 0.1531779528472626 0.31690967251270458 0 0.14487070829517959 0.31682928085866202 0 0.1531779528472626 0.31690967251270458 0 0.14842729617490411 0.32372916070978858 0 0.14487070829517959 0.31682928085866202 0 0.15632698434060879 0.32309477146443721 0 0.1534459738215358 0.33116830427909388 0 0.14842729617490411 0.32372916070978858 0 0.15632698434060879 0.32309477146443721 0 0.1531779528472626 0.31690967251270458 0 0.14842729617490411 0.32372916070978858 0 0.1427633336259623 0.33140140495610498 0 0.14842729617490411 0.32372916070978858 0 0.1402378637359267 0.32270884290342983 0 0.14842729617490411 0.32372916070978858 0 0.14487070829517959 0.31682928085866202 0 0.1402378637359267 0.32270884290342983 0 0.1483486037307668 0.31106151759990119 0 0.14130712994747449 0.31140798331507108 0 0.14487070829517959 0.31682928085866202 0 0.14130712994747449 0.31140798331507108 0 0.14487070829517959 0.31682928085866202 0 0.13528824775885559 0.3155805734405937 0 0.14487070829517959 0.31682928085866202 0 0.13528824775885559 0.3155805734405937 0 0.1402378637359267 0.32270884290342983 0 0.13528824775885559 0.3155805734405937 0 0.1330765722643745 0.32249408610517011 0 0.1402378637359267 0.32270884290342983 0 0.1330765722643745 0.32249408610517011 0 0.1402378637359267 0.32270884290342983 0 0.13309473665224339 0.33072661256584468 0 0.12375204985912221 0.32702725796552912 0 0.1330765722643745 0.32249408610517011 0 0.13309473665224339 0.33072661256584468 0 0.12375204985912221 0.32702725796552912 0 0.1330765722643745 0.32249408610517011 0 0.12817088130983889 0.317450689473041 0 0.13528824775885559 0.3155805734405937 0 0.1330765722643745 0.32249408610517011 0 0.12817088130983889 0.317450689473041 0 0.1214195525311879 0.31440901896845502 0 0.12900107104525951 0.30968741412501871 0 0.12817088130983889 0.317450689473041 0 0.12900107104525951 0.30968741412501871 0 0.13528824775885559 0.3155805734405937 0 0.12817088130983889 0.317450689473041 0 0.14537830609435001 0.34101383565047871 0 0.13654253772275141 0.33890423694427602 0 0.13685475473781181 0.34959577292381833 0 0.13654253772275141 0.33890423694427602 0 0.1260676383484185 0.3399282146226113 0 0.13685475473781181 0.34959577292381833 0 0.1427633336259623 0.33140140495610498 0 0.13654253772275141 0.33890423694427602 0 0.13309473665224339 0.33072661256584468 0 0.1427633336259623 0.33140140495610498 0 0.1402378637359267 0.32270884290342983 0 0.13309473665224339 0.33072661256584468 0 0.12375204985912221 0.32702725796552912 0 0.13309473665224339 0.33072661256584468 0 0.1260676383484185 0.3399282146226113 0 0.13654253772275141 0.33890423694427602 0 0.13309473665224339 0.33072661256584468 0 0.1260676383484185 0.3399282146226113 0 0.1232256624926347 0.35239419723674059 0 0.13685475473781181 0.34959577292381833 0 0.13271547193899449 0.36524458735671972 0 0.1232256624926347 0.35239419723674059 0 0.1260676383484185 0.3399282146226113 0 0.13685475473781181 0.34959577292381833 0 0.13685475473781181 0.34959577292381833 0 0.13271547193899449 0.36524458735671972 0 0.14990537096685039 0.36070173528474042 0 0.13271547193899449 0.36524458735671972 0 0.14727668153694909 0.37350977329143831 0 0.1384203385310763 0.3853027474406937 0 0.13271547193899449 0.36524458735671972 0 0.14727668153694909 0.37350977329143831 0 0.14990537096685039 0.36070173528474042 0 0.15975417249048229 0.36968310563447321 0 0.14727668153694909 0.37350977329143831 0 0.14990537096685039 0.36070173528474042 0 0.14537830609435001 0.34101383565047871 0 0.13685475473781181 0.34959577292381833 0 0.15416632756111201 0.34898696826244741 0 0.13685475473781181 0.34959577292381833 0 0.14990537096685039 0.36070173528474042 0 0.15416632756111201 0.34898696826244741 0 0.15196678808574959 0.39634912392256672 0 0.1402717845598023 0.40641241395674649 0 0.16129649351817349 0.40676751558544272 0 0.15196678808574959 0.39634912392256672 0 0.1384203385310763 0.3853027474406937 0 0.1402717845598023 0.40641241395674649 0 0.15196678808574959 0.39634912392256672 0 0.15611970777082879 0.38410855928095938 0 0.1384203385310763 0.3853027474406937 0 0.14727668153694909 0.37350977329143831 0 0.15611970777082879 0.38410855928095938 0 0.1384203385310763 0.3853027474406937 0 0.15975417249048229 0.36968310563447321 0 0.14727668153694909 0.37350977329143831 0 0.15611970777082879 0.38410855928095938 0 0.1231373165426977 0.3806134049577457 0 0.13271547193899449 0.36524458735671972 0 0.1384203385310763 0.3853027474406937 0 0.1231373165426977 0.3806134049577457 0 0.1384203385310763 0.3853027474406937 0 0.1271742827044339 0.39597619803598749 0 0.1384203385310763 0.3853027474406937 0 0.1271742827044339 0.39597619803598749 0 0.1402717845598023 0.40641241395674649 0 0.1162621503634904 0.41872732341568758 0 0.1271742827044339 0.39597619803598749 0 0.1402717845598023 0.40641241395674649 0 0.1162621503634904 0.41872732341568758 0 0.1402717845598023 0.40641241395674649 0 0.14380353536204241 0.43078456768362461 0 0.1162621503634904 0.41872732341568758 0 0.14380353536204241 0.43078456768362461 0 0.1205619018159948 0.44674810255646558 0 0.1162621503634904 0.41872732341568758 0 0.13914808732176639 0.43525501877606959 0 0.1162621503634904 0.41872732341568758 0 0.13914808732176639 0.43525501877606959 0 0.14380353536204241 0.43078456768362461 0 0.1402717845598023 0.40641241395674649 0 0.16129649351817349 0.40676751558544272 0 0.1583102357697074 0.42239552662274649 0 0.1402717845598023 0.40641241395674649 0 0.14380353536204241 0.43078456768362461 0 0.1583102357697074 0.42239552662274649 0 0.16129649351817349 0.40676751558544272 0 0.17483444504792359 0.42517132393635743 0 0.1767108048052333 0.40648620419478521 0 0.16129649351817349 0.40676751558544272 0 0.1583102357697074 0.42239552662274649 0 0.17483444504792359 0.42517132393635743 0 0.1583102357697074 0.42239552662274649 0 0.17483444504792359 0.42517132393635743 0 0.1713449203605947 0.44284181195156158 0 0.14380353536204241 0.43078456768362461 0 0.1713449203605947 0.44284181195156158 0 0.14380353536204241 0.43078456768362461 0 0.1583102357697074 0.42239552662274649 0 0.1713449203605947 0.44284181195156158 0 0.17483444504792359 0.42517132393635743 0 0.18216746451451801 0.43740730714955978 0 0.1713449203605947 0.44284181195156158 0 0.17483444504792359 0.42517132393635743 0 0.1713449203605947 0.44284181195156158 0 0.17483444504792359 0.42517132393635743 0 0.1894098998784805 0.41329321868770491 0 0.19020123220431809 0.42989189963497759 0 0.17483444504792359 0.42517132393635743 0 0.18216746451451801 0.43740730714955978 0 0.19020123220431809 0.42989189963497759 0 0.17483444504792359 0.42517132393635743 0 0.1767108048052333 0.40648620419478521 0 0.1894098998784805 0.41329321868770491 0 0.1767108048052333 0.40648620419478521 0 0.16971698500113649 0.39319336099264368 0 0.18829620058045249 0.39400560177177729 0 0.1767108048052333 0.40648620419478521 0 0.18829620058045249 0.39400560177177729 0 0.1894098998784805 0.41329321868770491 0 0.15196678808574959 0.39634912392256672 0 0.15611970777082879 0.38410855928095938 0 0.16971698500113649 0.39319336099264368 0 0.15196678808574959 0.39634912392256672 0 0.16129649351817349 0.40676751558544272 0 0.16971698500113649 0.39319336099264368 0 0.16129649351817349 0.40676751558544272 0 0.1767108048052333 0.40648620419478521 0 0.16971698500113649 0.39319336099264368 0 0.17637045729064621 0.37495278481954358 0 0.15975417249048229 0.36968310563447321 0 0.15611970777082879 0.38410855928095938 0 0.17637045729064621 0.37495278481954358 0 0.15611970777082879 0.38410855928095938 0 0.16971698500113649 0.39319336099264368 0 0.17637045729064621 0.37495278481954358 0 0.16971698500113649 0.39319336099264368 0 0.18829620058045249 0.39400560177177729 0 0.20200890290724041 0.36500873302905812 0 0.18829620058045249 0.39400560177177729 0 0.21022739730807871 0.38998636848418261 0 0.20200890290724041 0.36500873302905812 0 0.17637045729064621 0.37495278481954358 0 0.18829620058045249 0.39400560177177729 0 0.18829620058045249 0.39400560177177729 0 0.21022739730807871 0.38998636848418261 0 0.20498907662426999 0.40636669370009521 0 0.18829620058045249 0.39400560177177729 0 0.20498907662426999 0.40636669370009521 0 0.1894098998784805 0.41329321868770491 0 0.21022739730807871 0.38998636848418261 0 0.225418264115859 0.4045632601918206 0 0.20498907662426999 0.40636669370009521 0 0.20200890290724041 0.36500873302905812 0 0.21022739730807871 0.38998636848418261 0 0.22860253219506471 0.37841014948266538 0 0.21022739730807871 0.38998636848418261 0 0.22860253219506471 0.37841014948266538 0 0.225418264115859 0.4045632601918206 0 0.225418264115859 0.4045632601918206 0 0.2490748840761759 0.41447913741323361 0 0.25519616148288887 0.39181156593627298 0 0.22860253219506471 0.37841014948266538 0 0.225418264115859 0.4045632601918206 0 0.25519616148288887 0.39181156593627298 0 0.22860253219506471 0.37841014948266538 0 0.25519616148288887 0.39181156593627298 0 0.24305895760768401 0.36641304215893011 0 0.22860253219506471 0.37841014948266538 0 0.25519616148288887 0.39181156593627298 0 0.2490748840761759 0.41447913741323361 0 0.23040520055063371 0.42472223384156732 0 0.24517769652138269 0.43868647355565088 0 0.225418264115859 0.4045632601918206 0 0.2490748840761759 0.41447913741323361 0 0.23040520055063371 0.42472223384156732 0 0.225418264115859 0.4045632601918206 0 0.23040520055063371 0.42472223384156732 0 0.20794960100346549 0.42683021087399747 0 0.23040520055063371 0.42472223384156732 0 0.20794960100346549 0.42683021087399747 0 0.2229924843016429 0.43948176305630821 0 0.23040520055063371 0.42472223384156732 0 0.2229924843016429 0.43948176305630821 0 0.24517769652138269 0.43868647355565088 0 0.225418264115859 0.4045632601918206 0 0.20794960100346549 0.42683021087399747 0 0.20498907662426999 0.40636669370009521 0 0.20794960100346549 0.42683021087399747 0 0.20498907662426999 0.40636669370009521 0 0.1894098998784805 0.41329321868770491 0 0.20794960100346549 0.42683021087399747 0 0.19020123220431809 0.42989189963497759 0 0.19426067079655579 0.44330707928475449 0 0.20794960100346549 0.42683021087399747 0 0.1894098998784805 0.41329321868770491 0 0.19020123220431809 0.42989189963497759 0 0.18216746451451801 0.43740730714955978 0 0.19020123220431809 0.42989189963497759 0 0.19426067079655579 0.44330707928475449 0 0.19426067079655579 0.44330707928475449 0 0.1940681668251448 0.45640187690020761 0 0.18254949088188149 0.4477470207382499 0 0.19426067079655579 0.44330707928475449 0 0.1940681668251448 0.45640187690020761 0 0.20814429074563079 0.44944136850783811 0 0.1940681668251448 0.45640187690020761 0 0.20814429074563079 0.44944136850783811 0 0.2039949308663013 0.472197178379127 0 0.1940681668251448 0.45640187690020761 0 0.2039949308663013 0.472197178379127 0 0.18608081776579821 0.46867989557539208 0 0.1940681668251448 0.45640187690020761 0 0.18608081776579821 0.46867989557539208 0 0.18254949088188149 0.4477470207382499 0 0.20814429074563079 0.44944136850783811 0 0.22852149564367849 0.45772005811557609 0 0.2039949308663013 0.472197178379127 0 0.20794960100346549 0.42683021087399747 0 0.19426067079655579 0.44330707928475449 0 0.20814429074563079 0.44944136850783811 0 0.20794960100346549 0.42683021087399747 0 0.20814429074563079 0.44944136850783811 0 0.2229924843016429 0.43948176305630821 0 0.2229924843016429 0.43948176305630821 0 0.22852149564367849 0.45772005811557609 0 0.24517769652138269 0.43868647355565088 0 0.20814429074563079 0.44944136850783811 0 0.2229924843016429 0.43948176305630821 0 0.22852149564367849 0.45772005811557609 0 0.22852149564367849 0.45772005811557609 0 0.2480713074063006 0.45455858161591112 0 0.2508124586903176 0.47172026355836871 0 0.22852149564367849 0.45772005811557609 0 0.2480713074063006 0.45455858161591112 0 0.24517769652138269 0.43868647355565088 0 0.24658834009167641 0.5 0 0.2268462464291012 0.47913099520174052 0 0.2508124586903176 0.47172026355836871 0 0.22852149564367849 0.45772005811557609 0 0.2268462464291012 0.47913099520174052 0 0.2508124586903176 0.47172026355836871 0 0.22852149564367849 0.45772005811557609 0 0.2268462464291012 0.47913099520174052 0 0.2039949308663013 0.472197178379127 0 0.24658834009167641 0.5 0 0.2268462464291012 0.47913099520174052 0 0.21774471386125249 0.5 0 0.2039949308663013 0.472197178379127 0 0.18890108763082861 0.5 0 0.18608081776579821 0.46867989557539208 0 0.21774471386125249 0.5 0 0.2039949308663013 0.472197178379127 0 0.18890108763082861 0.5 0 0.2268462464291012 0.47913099520174052 0 0.21774471386125249 0.5 0 0.2039949308663013 0.472197178379127 0 0.18890108763082861 0.5 0 0.16570119088049859 0.47142090597577962 0 0.18608081776579821 0.46867989557539208 0 0.18890108763082861 0.5 0 0.1600574614004048 0.499999999999998 0 0.16570119088049859 0.47142090597577962 0 0.1600574614004048 0.499999999999998 0 0.16570119088049859 0.47142090597577962 0 0.1600574614004048 0.499999999999998 0 0.16570119088049859 0.47142090597577962 0 0.1473140710794911 0.47841155746419622 0 0.16570119088049859 0.47142090597577962 0 0.18608081776579821 0.46867989557539208 0 0.18254949088188149 0.4477470207382499 0 0.16570119088049859 0.47142090597577962 0 0.18254949088188149 0.4477470207382499 0 0.1713449203605947 0.44284181195156158 0 0.18216746451451801 0.43740730714955978 0 0.19426067079655579 0.44330707928475449 0 0.18254949088188149 0.4477470207382499 0 0.18254949088188149 0.4477470207382499 0 0.1713449203605947 0.44284181195156158 0 0.18216746451451801 0.43740730714955978 0 0.18254949088188149 0.4477470207382499 0 0.1713449203605947 0.44284181195156158 0 0.16570119088049859 0.47142090597577962 0 0.1713449203605947 0.44284181195156158 0 0.16570119088049859 0.47142090597577962 0 0.1713449203605947 0.44284181195156158 0 0.15076126992746861 0.45128164001408699 0 0.16570119088049859 0.47142090597577962 0 0.14979107830043681 0.4659705410046826 0 0.15076126992746861 0.45128164001408699 0 0.14979107830043681 0.4659705410046826 0 0.15076126992746861 0.45128164001408699 0 0.13538778131428869 0.46276806056466779 0 0.13914808732176639 0.43525501877606959 0 0.14380353536204241 0.43078456768362461 0 0.15076126992746861 0.45128164001408699 0 0.14380353536204241 0.43078456768362461 0 0.1713449203605947 0.44284181195156158 0 0.15076126992746861 0.45128164001408699 0 0.13914808732176639 0.43525501877606959 0 0.15076126992746861 0.45128164001408699 0 0.13538778131428869 0.46276806056466779 0 0.13914808732176639 0.43525501877606959 0 0.13538778131428869 0.46276806056466779 0 0.1205619018159948 0.44674810255646558 0 0.13914808732176639 0.43525501877606959 0 0.13538778131428869 0.46276806056466779 0 0.1248616532684987 0.47476888169724352 0 0.1205619018159948 0.44674810255646558 0 0.13538778131428869 0.46276806056466779 0 0.13538778131428869 0.46276806056466779 0 0.13162747530681079 0.49028110235326611 0 0.1248616532684987 0.47476888169724352 0 0.13538778131428869 0.46276806056466779 0 0.13162747530681079 0.49028110235326611 0 0.13538778131428869 0.46276806056466779 0 0.13162747530681079 0.49028110235326611 0 0.1473140710794911 0.47841155746419622 0 0.1248616532684987 0.47476888169724352 0 0.13162747530681079 0.49028110235326611 0 0.1248616532684987 0.47476888169724352 0 0.1287333349596296 0.50000000000000233 0 0.1248616532684987 0.47476888169724352 0 0.13162747530681079 0.49028110235326611 0 0.1287333349596296 0.50000000000000233 0 0.13162747530681079 0.49028110235326611 0 0.1302991587401483 0.50000000000000044 0 0.13162747530681079 0.49028110235326611 0 0.1302991587401483 0.50000000000000044 0 0.13586647714571501 0.50000000000000044 0 0.13162747530681079 0.49028110235326611 0 0.1287333349596296 0.50000000000000233 0 0.1302991587401483 0.50000000000000044 0 0.13162747530681079 0.49028110235326611 0 0.13586647714571501 0.50000000000000044 0 0.14406777576738011 0.49099847585001533 0 0.13162747530681079 0.49028110235326611 0 0.13586647714571501 0.50000000000000044 0 0.1600574614004048 0.499999999999998 0 0.13586647714571501 0.50000000000000044 0 0.14406777576738011 0.49099847585001533 0 0.1600574614004048 0.499999999999998 0 0.14406777576738011 0.49099847585001533 0 0.1473140710794911 0.47841155746419622 0 0.13162747530681079 0.49028110235326611 0 0.14406777576738011 0.49099847585001533 0 0.1473140710794911 0.47841155746419622 0 0.16570119088049859 0.47142090597577962 0 0.14979107830043681 0.4659705410046826 0 0.1473140710794911 0.47841155746419622 0 0.14979107830043681 0.4659705410046826 0 0.13538778131428869 0.46276806056466779 0 0.1473140710794911 0.47841155746419622 0 0.3484716028812469 0.46927922019571022 0 0.3639431844790027 0.47792576209206161 0 0.36215729707138089 0.45952194433731441 0 0.3484716028812469 0.46927922019571022 0 0.34825454286986979 0.4866410253547736 0 0.3639431844790027 0.47792576209206161 0 0.34825454286986979 0.4866410253547736 0 0.36196284501337178 0.5 0 0.3639431844790027 0.47792576209206161 0 0.34825454286986979 0.4866410253547736 0 0.36196284501337178 0.5 0 0.33311921878294798 0.5 0 0.36196284501337178 0.5 0 0.3639431844790027 0.47792576209206161 0 0.38120033573297152 0.48442634992442057 0 0.3639431844790027 0.47792576209206161 0 0.37844435483634198 0.4675903904274426 0 0.38120033573297152 0.48442634992442057 0 0.3639431844790027 0.47792576209206161 0 0.36215729707138089 0.45952194433731441 0 0.37844435483634198 0.4675903904274426 0 0.36215729707138089 0.45952194433731441 0 0.37809165231809289 0.44568724501072521 0 0.37844435483634198 0.4675903904274426 0 0.36215729707138089 0.45952194433731441 0 0.35494335133579169 0.44207750056399991 0 0.37809165231809289 0.44568724501072521 0 0.35494335133579169 0.44207750056399991 0 0.365542703577178 0.42914551292816783 0 0.37809165231809289 0.44568724501072521 0 0.35494335133579169 0.44207750056399991 0 0.33746945485668051 0.4332718215327816 0 0.35494335133579169 0.44207750056399991 0 0.33933393763431879 0.44574212964051668 0 0.33746945485668051 0.4332718215327816 0 0.36215729707138089 0.45952194433731441 0 0.35494335133579169 0.44207750056399991 0 0.34904963657780902 0.45457154773394731 0 0.35494335133579169 0.44207750056399991 0 0.34904963657780902 0.45457154773394731 0 0.33933393763431879 0.44574212964051668 0 0.3484716028812469 0.46927922019571022 0 0.36215729707138089 0.45952194433731441 0 0.34904963657780902 0.45457154773394731 0 0.3484716028812469 0.46927922019571022 0 0.34904963657780902 0.45457154773394731 0 0.33768006752307722 0.45817683321967928 0 0.33768006752307722 0.45817683321967928 0 0.32516604183334019 0.44948070643492349 0 0.3263791186886712 0.4718105620932988 0 0.3484716028812469 0.46927922019571022 0 0.33768006752307722 0.45817683321967928 0 0.3263791186886712 0.4718105620932988 0 0.33933393763431879 0.44574212964051668 0 0.32516604183334019 0.44948070643492349 0 0.33457771181584611 0.43369686048393857 0 0.32516604183334019 0.44948070643492349 0 0.33457771181584611 0.43369686048393857 0 0.33933393763431879 0.44574212964051668 0 0.33457771181584611 0.43369686048393857 0 0.33746945485668051 0.4332718215327816 0 0.34904963657780902 0.45457154773394731 0 0.33768006752307722 0.45817683321967928 0 0.33933393763431879 0.44574212964051668 0 0.33768006752307722 0.45817683321967928 0 0.33933393763431879 0.44574212964051668 0 0.32516604183334019 0.44948070643492349 0 0.32516604183334019 0.44948070643492349 0 0.30610823095482448 0.43788140873538328 0 0.33457771181584611 0.43369686048393857 0 0.32516604183334019 0.44948070643492349 0 0.30909376894118562 0.45443190325323968 0 0.30610823095482448 0.43788140873538328 0 0.32516604183334019 0.44948070643492349 0 0.3263791186886712 0.4718105620932988 0 0.30909376894118562 0.45443190325323968 0 0.3263791186886712 0.4718105620932988 0 0.30059931196992168 0.47005809262963882 0 0.31153103284441203 0.48323920778459489 0 0.3484716028812469 0.46927922019571022 0 0.34825454286986979 0.4866410253547736 0 0.3263791186886712 0.4718105620932988 0 0.34825454286986979 0.4866410253547736 0 0.3263791186886712 0.4718105620932988 0 0.33311921878294798 0.5 0 0.3263791186886712 0.4718105620932988 0 0.33311921878294798 0.5 0 0.31153103284441203 0.48323920778459489 0 0.33311921878294798 0.5 0 0.30427559255252412 0.5 0 0.31153103284441203 0.48323920778459489 0 0.30427559255252412 0.5 0 0.31153103284441203 0.48323920778459489 0 0.29110307967174748 0.48580921065493432 0 0.30059931196992168 0.47005809262963882 0 0.31153103284441203 0.48323920778459489 0 0.29110307967174748 0.48580921065493432 0 0.30059931196992168 0.47005809262963882 0 0.29110307967174748 0.48580921065493432 0 0.27585954767988607 0.47408041721782612 0 0.30427559255252412 0.5 0 0.29110307967174748 0.48580921065493432 0 0.27543196632210021 0.5 0 0.27543196632210021 0.5 0 0.27585954767988607 0.47408041721782612 0 0.26198527678341299 0.48673919500437729 0 0.29110307967174748 0.48580921065493432 0 0.27543196632210021 0.5 0 0.27585954767988607 0.47408041721782612 0 0.27585954767988607 0.47408041721782612 0 0.2508124586903176 0.47172026355836871 0 0.26198527678341299 0.48673919500437729 0 0.24658834009167641 0.5 0 0.2508124586903176 0.47172026355836871 0 0.26198527678341299 0.48673919500437729 0 0.24658834009167641 0.5 0 0.27543196632210021 0.5 0 0.26198527678341299 0.48673919500437729 0 0.2480713074063006 0.45455858161591112 0 0.24517769652138269 0.43868647355565088 0 0.26777357876982372 0.45010753123404867 0 0.24517769652138269 0.43868647355565088 0 0.26777357876982372 0.45010753123404867 0 0.26600993858745892 0.42808938636359573 0 0.2480713074063006 0.45455858161591112 0 0.2508124586903176 0.47172026355836871 0 0.26777357876982372 0.45010753123404867 0 0.27585954767988607 0.47408041721782612 0 0.2508124586903176 0.47172026355836871 0 0.26777357876982372 0.45010753123404867 0 0.27585954767988607 0.47408041721782612 0 0.26777357876982372 0.45010753123404867 0 0.28975077836376328 0.45156795454144122 0 0.26777357876982372 0.45010753123404867 0 0.28975077836376328 0.45156795454144122 0 0.28607917402868899 0.43188291486824332 0 0.28975077836376328 0.45156795454144122 0 0.30610823095482448 0.43788140873538328 0 0.28607917402868899 0.43188291486824332 0 0.30059931196992168 0.47005809262963882 0 0.27585954767988607 0.47408041721782612 0 0.28975077836376328 0.45156795454144122 0 0.3263791186886712 0.4718105620932988 0 0.30059931196992168 0.47005809262963882 0 0.30909376894118562 0.45443190325323968 0 0.30059931196992168 0.47005809262963882 0 0.28975077836376328 0.45156795454144122 0 0.30909376894118562 0.45443190325323968 0 0.28975077836376328 0.45156795454144122 0 0.30909376894118562 0.45443190325323968 0 0.30610823095482448 0.43788140873538328 0 0.30610823095482448 0.43788140873538328 0 0.30869255759955722 0.41877018355733042 0 0.28607917402868899 0.43188291486824332 0 0.3075810200549029 0.4073564129674252 0 0.30869255759955722 0.41877018355733042 0 0.30232024370737348 0.40459188745546998 0 0.31142364564813352 0.41093370315849659 0 0.3075810200549029 0.4073564129674252 0 0.31015955469665918 0.40201373970895371 0 0.31142364564813352 0.41093370315849659 0 0.3075810200549029 0.4073564129674252 0 0.30869255759955722 0.41877018355733042 0 0.30869255759955722 0.41877018355733042 0 0.29605666041485018 0.40551048050067168 0 0.30232024370737348 0.40459188745546998 0 0.30869255759955722 0.41877018355733042 0 0.2819443595412231 0.40529087474680159 0 0.30869255759955722 0.41877018355733042 0 0.2819443595412231 0.40529087474680159 0 0.29605666041485018 0.40551048050067168 0 0.30869255759955722 0.41877018355733042 0 0.28607917402868899 0.43188291486824332 0 0.2819443595412231 0.40529087474680159 0 0.2490748840761759 0.41447913741323361 0 0.26600993858745892 0.42808938636359573 0 0.2819443595412231 0.40529087474680159 0 0.26777357876982372 0.45010753123404867 0 0.28607917402868899 0.43188291486824332 0 0.26600993858745892 0.42808938636359573 0 0.28607917402868899 0.43188291486824332 0 0.26600993858745892 0.42808938636359573 0 0.2819443595412231 0.40529087474680159 0 0.2490748840761759 0.41447913741323361 0 0.24517769652138269 0.43868647355565088 0 0.26600993858745892 0.42808938636359573 0 0.2490748840761759 0.41447913741323361 0 0.25519616148288887 0.39181156593627298 0 0.2819443595412231 0.40529087474680159 0 0.25519616148288887 0.39181156593627298 0 0.2618259464583832 0.36726095095448358 0 0.25519616148288887 0.39181156593627298 0 0.27405714121884811 0.38409687161834088 0 0.2618259464583832 0.36726095095448358 0 0.24305895760768401 0.36641304215893011 0 0.25519616148288887 0.39181156593627298 0 0.2618259464583832 0.36726095095448358 0 0.2490748840761759 0.41447913741323361 0 0.25519616148288887 0.39181156593627298 0 0.27405714121884811 0.38409687161834088 0 0.2819443595412231 0.40529087474680159 0 0.28762179706039948 0.39125587461843808 0 0.25519616148288887 0.39181156593627298 0 0.2819443595412231 0.40529087474680159 0 0.25519616148288887 0.39181156593627298 0 0.27405714121884811 0.38409687161834088 0 0.2819443595412231 0.40529087474680159 0 0.27405714121884811 0.38409687161834088 0 0.28403056220722062 0.37531448917755911 0 0.2737626695690904 0.37327007608818358 0 0.27405714121884811 0.38409687161834088 0 0.28403056220722062 0.37531448917755911 0 0.28762179706039948 0.39125587461843808 0 0.29405085274881382 0.37834813740539031 0 0.28762179706039948 0.39125587461843808 0 0.30049862001061489 0.39881078008944609 0 0.28403056220722062 0.37531448917755911 0 0.29405085274881382 0.37834813740539031 0 0.28762179706039948 0.39125587461843808 0 0.2819443595412231 0.40529087474680159 0 0.28762179706039948 0.39125587461843808 0 0.29316512877403511 0.40022580951085568 0 0.28762179706039948 0.39125587461843808 0 0.29316512877403511 0.40022580951085568 0 0.30049862001061489 0.39881078008944609 0 0.2819443595412231 0.40529087474680159 0 0.29316512877403511 0.40022580951085568 0 0.29605666041485018 0.40551048050067168 0 0.29316512877403511 0.40022580951085568 0 0.29605666041485018 0.40551048050067168 0 0.30042223720462058 0.4004666581126537 0 0.29605666041485018 0.40551048050067168 0 0.30232024370737348 0.40459188745546998 0 0.30042223720462058 0.4004666581126537 0 0.29316512877403511 0.40022580951085568 0 0.30042223720462058 0.4004666581126537 0 0.30049862001061489 0.39881078008944609 0 0.30042223720462058 0.4004666581126537 0 0.30049862001061489 0.39881078008944609 0 0.30232024370737348 0.40459188745546998 0 0.30049862001061489 0.39881078008944609 0 0.30232024370737348 0.40459188745546998 0 0.30049862001061489 0.39881078008944609 0 0.30430913302558388 0.40020258685778032 0 0.30232024370737348 0.40459188745546998 0 0.30042223720462058 0.4004666581126537 0 0.30049862001061489 0.39881078008944609 0 0.30049862001061489 0.39881078008944609 0 0.30098622665836988 0.38824011406760628 0 0.30049862001061489 0.39881078008944609 0 0.30430913302558388 0.40020258685778032 0 0.30098622665836988 0.38824011406760628 0 0.30098622665836988 0.38824011406760628 0 0.30110064445947421 0.38575968774854158 0 0.31262554991773928 0.39787599139405988 0 0.31015955469665918 0.40201373970895371 0 0.30098622665836988 0.38824011406760628 0 0.30110064445947421 0.38575968774854158 0 0.31262554991773928 0.39787599139405988 0 0.30430913302558388 0.40020258685778032 0 0.31015955469665918 0.40201373970895371 0 0.30098622665836988 0.38824011406760628 0 0.31015955469665918 0.40201373970895371 0 0.30098622665836988 0.38824011406760628 0 0.31262554991773928 0.39787599139405988 0 0.3075810200549029 0.4073564129674252 0 0.30232024370737348 0.40459188745546998 0 0.30430913302558388 0.40020258685778032 0 0.3075810200549029 0.4073564129674252 0 0.30430913302558388 0.40020258685778032 0 0.31015955469665918 0.40201373970895371 0 0.29405085274881382 0.37834813740539031 0 0.30049862001061489 0.39881078008944609 0 0.29405085274881382 0.37834813740539031 0 0.30049862001061489 0.39881078008944609 0 0.30098622665836988 0.38824011406760628 0 0.30110064445947421 0.38575968774854158 0 0.30177514978199971 0.3711373061071076 0 0.30110064445947421 0.38575968774854158 0 0.3104817065657739 0.3858680532317833 0 0.30177514978199971 0.3711373061071076 0 0.29405085274881382 0.37834813740539031 0 0.30110064445947421 0.38575968774854158 0 0.30177514978199971 0.3711373061071076 0 0.29405085274881382 0.37834813740539031 0 0.30110064445947421 0.38575968774854158 0 0.29405085274881382 0.37834813740539031 0 0.30098622665836988 0.38824011406760628 0 0.30110064445947421 0.38575968774854158 0 0.29405085274881382 0.37834813740539031 0 0.30098622665836988 0.38824011406760628 0 0.30098622665836988 0.38824011406760628 0 0.30110064445947421 0.38575968774854158 0 0.30110064445947421 0.38575968774854158 0 0.3104817065657739 0.3858680532317833 0 0.31262554991773928 0.39787599139405988 0 0.3104817065657739 0.3858680532317833 0 0.30177514978199971 0.3711373061071076 0 0.3104817065657739 0.3858680532317833 0 0.31717345926189522 0.3709258031848055 0 0.30177514978199971 0.3711373061071076 0 0.3104817065657739 0.3858680532317833 0 0.3376156911696272 0.37620073599141618 0 0.3104817065657739 0.3858680532317833 0 0.3376156911696272 0.37620073599141618 0 0.31717345926189522 0.3709258031848055 0 0.3104817065657739 0.3858680532317833 0 0.3376156911696272 0.37620073599141618 0 0.3351802944883514 0.39738750443412002 0 0.3376156911696272 0.37620073599141618 0 0.3351802944883514 0.39738750443412002 0 0.34879159400795012 0.38769315231290841 0 0.3351802944883514 0.39738750443412002 0 0.33658962428999861 0.41133204962483783 0 0.34988972217452752 0.40801784569160632 0 0.3351802944883514 0.39738750443412002 0 0.32415045537600512 0.40999229503957763 0 0.33658962428999861 0.41133204962483783 0 0.3351802944883514 0.39738750443412002 0 0.31909953512109351 0.40044867980609039 0 0.32415045537600512 0.40999229503957763 0 0.3104817065657739 0.3858680532317833 0 0.3351802944883514 0.39738750443412002 0 0.31909953512109351 0.40044867980609039 0 0.3104817065657739 0.3858680532317833 0 0.31909953512109351 0.40044867980609039 0 0.3104817065657739 0.3858680532317833 0 0.31262554991773928 0.39787599139405988 0 0.31909953512109351 0.40044867980609039 0 0.31262554991773928 0.39787599139405988 0 0.32415045537600512 0.40999229503957763 0 0.31015955469665918 0.40201373970895371 0 0.31262554991773928 0.39787599139405988 0 0.32415045537600512 0.40999229503957763 0 0.31262554991773928 0.39787599139405988 0 0.31909953512109351 0.40044867980609039 0 0.32415045537600512 0.40999229503957763 0 0.31015955469665918 0.40201373970895371 0 0.31933288273494848 0.41578736535030097 0 0.32415045537600512 0.40999229503957763 0 0.31142364564813352 0.41093370315849659 0 0.31015955469665918 0.40201373970895371 0 0.31933288273494848 0.41578736535030097 0 0.30869255759955722 0.41877018355733042 0 0.31933288273494848 0.41578736535030097 0 0.32906281765607392 0.42006619542527468 0 0.31015955469665918 0.40201373970895371 0 0.31933288273494848 0.41578736535030097 0 0.31142364564813352 0.41093370315849659 0 0.30869255759955722 0.41877018355733042 0 0.31933288273494848 0.41578736535030097 0 0.31933288273494848 0.41578736535030097 0 0.32415045537600512 0.40999229503957763 0 0.32906281765607392 0.42006619542527468 0 0.30869255759955722 0.41877018355733042 0 0.33457771181584611 0.43369686048393857 0 0.33544075565789128 0.43224949236785898 0 0.30869255759955722 0.41877018355733042 0 0.33544075565789128 0.43224949236785898 0 0.30610823095482448 0.43788140873538328 0 0.30869255759955722 0.41877018355733042 0 0.33457771181584611 0.43369686048393857 0 0.30869255759955722 0.41877018355733042 0 0.33544075565789128 0.43224949236785898 0 0.32906281765607392 0.42006619542527468 0 0.30610823095482448 0.43788140873538328 0 0.33457771181584611 0.43369686048393857 0 0.33457771181584611 0.43369686048393857 0 0.33544075565789128 0.43224949236785898 0 0.33746945485668051 0.4332718215327816 0 0.33457771181584611 0.43369686048393857 0 0.33544075565789128 0.43224949236785898 0 0.33544075565789128 0.43224949236785898 0 0.33746945485668051 0.4332718215327816 0 0.35001853239939229 0.42365555934674631 0 0.33544075565789128 0.43224949236785898 0 0.33746945485668051 0.4332718215327816 0 0.33457771181584611 0.43369686048393857 0 0.33746945485668051 0.4332718215327816 0 0.33544075565789128 0.43224949236785898 0 0.33658962428999861 0.41133204962483783 0 0.34988972217452752 0.40801784569160632 0 0.33544075565789128 0.43224949236785898 0 0.32906281765607392 0.42006619542527468 0 0.33658962428999861 0.41133204962483783 0 0.33544075565789128 0.43224949236785898 0 0.34988972217452752 0.40801784569160632 0 0.32415045537600512 0.40999229503957763 0 0.32906281765607392 0.42006619542527468 0 0.33658962428999861 0.41133204962483783 0 0.33544075565789128 0.43224949236785898 0 0.34988972217452752 0.40801784569160632 0 0.35001853239939229 0.42365555934674631 0 0.34988972217452752 0.40801784569160632 0 0.36165970526353591 0.41519797525725338 0 0.36412400085156282 0.39702719229323191 0 0.34988972217452752 0.40801784569160632 0 0.35001853239939229 0.42365555934674631 0 0.36165970526353591 0.41519797525725338 0 0.35494335133579169 0.44207750056399991 0 0.33746945485668051 0.4332718215327816 0 0.365542703577178 0.42914551292816783 0 0.33746945485668051 0.4332718215327816 0 0.35001853239939229 0.42365555934674631 0 0.365542703577178 0.42914551292816783 0 0.33746945485668051 0.4332718215327816 0 0.365542703577178 0.42914551292816783 0 0.35001853239939229 0.42365555934674631 0 0.365542703577178 0.42914551292816783 0 0.36165970526353591 0.41519797525725338 0 0.365542703577178 0.42914551292816783 0 0.36165970526353591 0.41519797525725338 0 0.37744029411777058 0.41252948965876268 0 0.36165970526353591 0.41519797525725338 0 0.36412400085156282 0.39702719229323191 0 0.37744029411777058 0.41252948965876268 0 0.36412400085156282 0.39702719229323191 0 0.38026367080056678 0.39066664182047522 0 0.37744029411777058 0.41252948965876268 0 0.34988972217452752 0.40801784569160632 0 0.36412400085156282 0.39702719229323191 0 0.36433868869116592 0.38378619901535488 0 0.36433868869116592 0.38378619901535488 0 0.3773824667175657 0.37546563606013739 0 0.38026367080056678 0.39066664182047522 0 0.36433868869116592 0.38378619901535488 0 0.36474967577348072 0.36653341875104961 0 0.3773824667175657 0.37546563606013739 0 0.36412400085156282 0.39702719229323191 0 0.36433868869116592 0.38378619901535488 0 0.38026367080056678 0.39066664182047522 0 0.36433868869116592 0.38378619901535488 0 0.36474967577348072 0.36653341875104961 0 0.36412400085156282 0.39702719229323191 0 0.36433868869116592 0.38378619901535488 0 0.3376156911696272 0.37620073599141618 0 0.34879159400795012 0.38769315231290841 0 0.36474967577348072 0.36653341875104961 0 0.36433868869116592 0.38378619901535488 0 0.34879159400795012 0.38769315231290841 0 0.36474967577348072 0.36653341875104961 0 0.3351802944883514 0.39738750443412002 0 0.34988972217452752 0.40801784569160632 0 0.34879159400795012 0.38769315231290841 0 0.34988972217452752 0.40801784569160632 0 0.36433868869116592 0.38378619901535488 0 0.34988972217452752 0.40801784569160632 0 0.36433868869116592 0.38378619901535488 0 0.34879159400795012 0.38769315231290841 0 0.34699100967064078 0.35539672769273539 0 0.36474967577348072 0.36653341875104961 0 0.36518945593320651 0.34509967395937191 0 0.34699100967064078 0.35539672769273539 0 0.36518945593320651 0.34509967395937191 0 0.348137396692076 0.34077307725183559 0 0.3376156911696272 0.37620073599141618 0 0.34699100967064078 0.35539672769273539 0 0.36474967577348072 0.36653341875104961 0 0.3376156911696272 0.37620073599141618 0 0.36474967577348072 0.36653341875104961 0 0.36474967577348072 0.36653341875104961 0 0.36518945593320651 0.34509967395937191 0 0.36474967577348072 0.36653341875104961 0 0.36518945593320651 0.34509967395937191 0 0.3855881021147175 0.35910908792858098 0 0.36518945593320651 0.34509967395937191 0 0.36562923609293069 0.32366592916769399 0 0.36518945593320651 0.34509967395937191 0 0.36562923609293069 0.32366592916769399 0 0.348137396692076 0.34077307725183559 0 0.36518945593320651 0.34509967395937191 0 0.36562923609293069 0.32366592916769399 0 0.38128435600444488 0.32837669887387311 0 0.36562923609293069 0.32366592916769399 0 0.36606901625265492 0.30223218437601618 0 0.38242981621443428 0.31397380775534678 0 0.36562923609293069 0.32366592916769399 0 0.36606901625265492 0.30223218437601618 0 0.36562923609293069 0.32366592916769399 0 0.34238706329751362 0.32476320095938682 0 0.35183379698966949 0.31056891257481539 0 0.36562923609293069 0.32366592916769399 0 0.348137396692076 0.34077307725183559 0 0.34238706329751362 0.32476320095938682 0 0.348137396692076 0.34077307725183559 0 0.33072504187423118 0.34237289876026822 0 0.34238706329751362 0.32476320095938682 0 0.33072504187423118 0.34237289876026822 0 0.34238706329751362 0.32476320095938682 0 0.32122702449841589 0.32177081607522939 0 0.34238706329751362 0.32476320095938682 0 0.33644502425256478 0.30910566618648461 0 0.35183379698966949 0.31056891257481539 0 0.34238706329751362 0.32476320095938682 0 0.32122702449841589 0.32177081607522939 0 0.33644502425256478 0.30910566618648461 0 0.32122702449841589 0.32177081607522939 0 0.31445651652981632 0.33878768779705848 0 0.30372390616191358 0.32889084998335888 0 0.33072504187423118 0.34237289876026822 0 0.32122702449841589 0.32177081607522939 0 0.31445651652981632 0.33878768779705848 0 0.33072504187423118 0.34237289876026822 0 0.31445651652981632 0.33878768779705848 0 0.31594857135045817 0.35062531106266931 0 0.33072504187423118 0.34237289876026822 0 0.31594857135045817 0.35062531106266931 0 0.32442852787466708 0.36030442639367111 0 0.31594857135045817 0.35062531106266931 0 0.32442852787466708 0.36030442639367111 0 0.31156622091740832 0.36111849420004938 0 0.34699100967064078 0.35539672769273539 0 0.348137396692076 0.34077307725183559 0 0.33072504187423118 0.34237289876026822 0 0.34699100967064078 0.35539672769273539 0 0.33072504187423118 0.34237289876026822 0 0.32442852787466708 0.36030442639367111 0 0.3376156911696272 0.37620073599141618 0 0.34699100967064078 0.35539672769273539 0 0.32442852787466708 0.36030442639367111 0 0.3376156911696272 0.37620073599141618 0 0.32442852787466708 0.36030442639367111 0 0.31717345926189522 0.3709258031848055 0 0.32442852787466708 0.36030442639367111 0 0.31717345926189522 0.3709258031848055 0 0.31156622091740832 0.36111849420004938 0 0.30177514978199971 0.3711373061071076 0 0.30274952797195698 0.35001407804523332 0 0.31717345926189522 0.3709258031848055 0 0.31156622091740832 0.36111849420004938 0 0.30177514978199971 0.3711373061071076 0 0.31156622091740832 0.36111849420004938 0 0.30177514978199971 0.3711373061071076 0 0.30274952797195698 0.35001407804523332 0 0.30177514978199971 0.3711373061071076 0 0.30274952797195698 0.35001407804523332 0 0.29106955940472562 0.3530243656434488 0 0.31445651652981632 0.33878768779705848 0 0.31594857135045817 0.35062531106266931 0 0.30274952797195698 0.35001407804523332 0 0.31594857135045817 0.35062531106266931 0 0.31156622091740832 0.36111849420004938 0 0.30274952797195698 0.35001407804523332 0 0.29106955940472562 0.3530243656434488 0 0.28705150305193838 0.35613499197806497 0 0.28036396902745148 0.33491142517978989 0 0.28705150305193838 0.35613499197806497 0 0.28036396902745148 0.33491142517978989 0 0.28705150305193838 0.35613499197806497 0 0.27644360280618341 0.34191623842927221 0 0.28036396902745148 0.33491142517978989 0 0.29106955940472562 0.3530243656434488 0 0.28036396902745148 0.33491142517978989 0 0.30274952797195698 0.35001407804523332 0 0.29106955940472562 0.3530243656434488 0 0.29374099595638509 0.3392252011883215 0 0.28705150305193838 0.35613499197806497 0 0.28458867991473008 0.36361942358965982 0 0.27543832275303448 0.34988028840297991 0 0.29405085274881382 0.37834813740539031 0 0.28705150305193838 0.35613499197806497 0 0.28458867991473008 0.36361942358965982 0 0.29405085274881382 0.37834813740539031 0 0.28705150305193838 0.35613499197806497 0 0.30177514978199971 0.3711373061071076 0 0.29106955940472562 0.3530243656434488 0 0.29405085274881382 0.37834813740539031 0 0.30177514978199971 0.3711373061071076 0 0.28705150305193838 0.35613499197806497 0 0.30177514978199971 0.3711373061071076 0 0.29106955940472562 0.3530243656434488 0 0.28705150305193838 0.35613499197806497 0 0.29405085274881382 0.37834813740539031 0 0.28458867991473008 0.36361942358965982 0 0.28403056220722062 0.37531448917755911 0 0.2815017213106239 0.3651550498314205 0 0.27898286169525299 0.37041503512408969 0 0.29405085274881382 0.37834813740539031 0 0.2815017213106239 0.3651550498314205 0 0.28403056220722062 0.37531448917755911 0 0.29405085274881382 0.37834813740539031 0 0.2815017213106239 0.3651550498314205 0 0.29405085274881382 0.37834813740539031 0 0.28458867991473008 0.36361942358965982 0 0.2815017213106239 0.3651550498314205 0 0.28403056220722062 0.37531448917755911 0 0.27898286169525299 0.37041503512408969 0 0.2737626695690904 0.37327007608818358 0 0.27663649369407689 0.36792052539919551 0 0.2737626695690904 0.37327007608818358 0 0.27125000512352843 0.36234153133647429 0 0.27405714121884811 0.38409687161834088 0 0.2737626695690904 0.37327007608818358 0 0.2618259464583832 0.36726095095448358 0 0.2815017213106239 0.3651550498314205 0 0.27898286169525299 0.37041503512408969 0 0.27663649369407689 0.36792052539919551 0 0.27898286169525299 0.37041503512408969 0 0.27663649369407689 0.36792052539919551 0 0.2737626695690904 0.37327007608818358 0 0.2737626695690904 0.37327007608818358 0 0.27125000512352843 0.36234153133647429 0 0.2618259464583832 0.36726095095448358 0 0.27125000512352843 0.36234153133647429 0 0.26895258987243392 0.3519619622574508 0 0.2618259464583832 0.36726095095448358 0 0.2815017213106239 0.3651550498314205 0 0.27125000512352843 0.36234153133647429 0 0.26895258987243392 0.3519619622574508 0 0.2815017213106239 0.3651550498314205 0 0.27663649369407689 0.36792052539919551 0 0.27125000512352843 0.36234153133647429 0 0.28458867991473008 0.36361942358965982 0 0.2815017213106239 0.3651550498314205 0 0.27543832275303448 0.34988028840297991 0 0.2815017213106239 0.3651550498314205 0 0.26895258987243392 0.3519619622574508 0 0.28458867991473008 0.36361942358965982 0 0.27543832275303448 0.34988028840297991 0 0.26895258987243392 0.3519619622574508 0 0.2618259464583832 0.36726095095448358 0 0.2684557314338783 0.34271033597269462 0 0.2815017213106239 0.3651550498314205 0 0.27543832275303448 0.34988028840297991 0 0.26895258987243392 0.3519619622574508 0 0.28705150305193838 0.35613499197806497 0 0.27543832275303448 0.34988028840297991 0 0.27644360280618341 0.34191623842927221 0 0.27543832275303448 0.34988028840297991 0 0.2684557314338783 0.34271033597269462 0 0.27644360280618341 0.34191623842927221 0 0.27543832275303448 0.34988028840297991 0 0.26895258987243392 0.3519619622574508 0 0.2684557314338783 0.34271033597269462 0 0.2618259464583832 0.36726095095448358 0 0.2684557314338783 0.34271033597269462 0 0.24521693247762111 0.35027114815259558 0 0.2618259464583832 0.36726095095448358 0 0.2684557314338783 0.34271033597269462 0 0.24305895760768401 0.36641304215893011 0 0.24521693247762111 0.35027114815259558 0 0.2618259464583832 0.36726095095448358 0 0.24490867605631639 0.32967072069511189 0 0.26050839607327853 0.32387463406168998 0 0.25114017462525878 0.31153615041935723 0 0.26050839607327853 0.32387463406168998 0 0.25114017462525878 0.31153615041935723 0 0.26342424027676908 0.31148804944983333 0 0.24490867605631639 0.32967072069511189 0 0.26050839607327853 0.32387463406168998 0 0.2684557314338783 0.34271033597269462 0 0.24490867605631639 0.32967072069511189 0 0.24521693247762111 0.35027114815259558 0 0.2684557314338783 0.34271033597269462 0 0.26050839607327853 0.32387463406168998 0 0.2684557314338783 0.34271033597269462 0 0.27508551640937329 0.31815972099090539 0 0.2684557314338783 0.34271033597269462 0 0.27508551640937329 0.31815972099090539 0 0.2684557314338783 0.34271033597269462 0 0.27787730485363338 0.33070420273373929 0 0.27508551640937329 0.31815972099090539 0 0.2684557314338783 0.34271033597269462 0 0.27644360280618341 0.34191623842927221 0 0.27787730485363338 0.33070420273373929 0 0.27644360280618341 0.34191623842927221 0 0.28036396902745148 0.33491142517978989 0 0.27787730485363338 0.33070420273373929 0 0.28036396902745148 0.33491142517978989 0 0.27787730485363338 0.33070420273373929 0 0.28036396902745148 0.33491142517978989 0 0.27787730485363338 0.33070420273373929 0 0.27508551640937329 0.31815972099090539 0 0.28036396902745148 0.33491142517978989 0 0.27508551640937329 0.31815972099090539 0 0.26050839607327853 0.32387463406168998 0 0.27508551640937329 0.31815972099090539 0 0.26342424027676908 0.31148804944983333 0 0.27584787744150779 0.31533663815394608 0 0.27508551640937329 0.31815972099090539 0 0.2839587577339367 0.31315639516335231 0 0.27584787744150779 0.31533663815394608 0 0.27508551640937329 0.31815972099090539 0 0.28036396902745148 0.33491142517978989 0 0.27508551640937329 0.31815972099090539 0 0.28884331716543121 0.32432796479040632 0 0.27508551640937329 0.31815972099090539 0 0.2839587577339367 0.31315639516335231 0 0.28884331716543121 0.32432796479040632 0 0.2839587577339367 0.31315639516335231 0 0.28884331716543121 0.32432796479040632 0 0.29436859405188742 0.31561290386725788 0 0.28884331716543121 0.32432796479040632 0 0.29436859405188742 0.31561290386725788 0 0.30372390616191358 0.32889084998335888 0 0.29106955940472562 0.3530243656434488 0 0.28036396902745148 0.33491142517978989 0 0.29374099595638509 0.3392252011883215 0 0.28036396902745148 0.33491142517978989 0 0.28884331716543121 0.32432796479040632 0 0.29374099595638509 0.3392252011883215 0 0.28884331716543121 0.32432796479040632 0 0.29374099595638509 0.3392252011883215 0 0.30372390616191358 0.32889084998335888 0 0.30274952797195698 0.35001407804523332 0 0.29374099595638509 0.3392252011883215 0 0.30372390616191358 0.32889084998335888 0 0.31445651652981632 0.33878768779705848 0 0.30274952797195698 0.35001407804523332 0 0.30372390616191358 0.32889084998335888 0 0.30274952797195698 0.35001407804523332 0 0.30372390616191358 0.32889084998335888 0 0.29436859405188742 0.31561290386725788 0 0.30372390616191358 0.32889084998335888 0 0.30469828435187041 0.30776762192148471 0 0.32122702449841589 0.32177081607522939 0 0.30372390616191358 0.32889084998335888 0 0.30469828435187041 0.30776762192148471 0 0.30372390616191358 0.32889084998335888 0 0.30469828435187041 0.30776762192148471 0 0.30469828435187041 0.30776762192148471 0 0.29887142377560671 0.29447355700322281 0 0.31975384086217118 0.29390073052843008 0 0.30469828435187041 0.30776762192148471 0 0.29887142377560671 0.29447355700322281 0 0.29061870484628499 0.30392168747768772 0 0.29887142377560671 0.29447355700322281 0 0.29803417524575498 0.27809430922643119 0 0.31975384086217118 0.29390073052843008 0 0.29887142377560671 0.29447355700322281 0 0.28125211357195179 0.28868343586208051 0 0.29803417524575498 0.27809430922643119 0 0.29887142377560671 0.29447355700322281 0 0.28125211357195179 0.28868343586208051 0 0.29061870484628499 0.30392168747768772 0 0.29436859405188742 0.31561290386725788 0 0.30469828435187041 0.30776762192148471 0 0.29061870484628499 0.30392168747768772 0 0.2839587577339367 0.31315639516335231 0 0.29436859405188742 0.31561290386725788 0 0.29061870484628499 0.30392168747768772 0 0.28125211357195179 0.28868343586208051 0 0.29061870484628499 0.30392168747768772 0 0.27979091010679558 0.3031930520058399 0 0.2839587577339367 0.31315639516335231 0 0.29061870484628499 0.30392168747768772 0 0.27979091010679558 0.3031930520058399 0 0.27584787744150779 0.31533663815394608 0 0.2839587577339367 0.31315639516335231 0 0.27979091010679558 0.3031930520058399 0 0.27584787744150779 0.31533663815394608 0 0.27979091010679558 0.3031930520058399 0 0.26696287399916629 0.2923816923273807 0 0.27508551640937329 0.31815972099090539 0 0.26696287399916629 0.2923816923273807 0 0.27508551640937329 0.31815972099090539 0 0.26696287399916629 0.2923816923273807 0 0.26342424027676908 0.31148804944983333 0 0.27584787744150779 0.31533663815394608 0 0.27508551640937329 0.31815972099090539 0 0.26696287399916629 0.2923816923273807 0 0.28125211357195179 0.28868343586208051 0 0.26696287399916629 0.2923816923273807 0 0.26185531842249993 0.2787869231154117 0 0.28125211357195179 0.28868343586208051 0 0.27979091010679558 0.3031930520058399 0 0.26696287399916629 0.2923816923273807 0 0.2454028482605469 0.29267792886045368 0 0.26696287399916629 0.2923816923273807 0 0.26185531842249993 0.2787869231154117 0 0.24818821145747599 0.27522177653690871 0 0.2454028482605469 0.29267792886045368 0 0.26185531842249993 0.2787869231154117 0 0.26696287399916629 0.2923816923273807 0 0.25114017462525878 0.31153615041935723 0 0.26342424027676908 0.31148804944983333 0 0.2454028482605469 0.29267792886045368 0 0.26696287399916629 0.2923816923273807 0 0.25114017462525878 0.31153615041935723 0 0.25404003316197471 0.25208422786308371 0 0.25530776412370298 0.26639583896058622 0 0.27103688063193948 0.26427270241964718 0 0.24090080429007341 0.26281353644332878 0 0.25404003316197471 0.25208422786308371 0 0.25530776412370298 0.26639583896058622 0 0.25530776412370298 0.26639583896058622 0 0.26185531842249993 0.2787869231154117 0 0.27103688063193948 0.26427270241964718 0 0.24818821145747599 0.27522177653690871 0 0.25530776412370298 0.26639583896058622 0 0.26185531842249993 0.2787869231154117 0 0.28125211357195179 0.28868343586208051 0 0.26185531842249993 0.2787869231154117 0 0.27103688063193948 0.26427270241964718 0 0.25404003316197471 0.25208422786308371 0 0.27103688063193948 0.26427270241964718 0 0.27355486584907379 0.24364475180805101 0 0.27103688063193948 0.26427270241964718 0 0.29692855903906679 0.25537037528416417 0 0.27355486584907379 0.24364475180805101 0 0.27103688063193948 0.26427270241964718 0 0.29803417524575498 0.27809430922643119 0 0.29692855903906679 0.25537037528416417 0 0.28125211357195179 0.28868343586208051 0 0.27103688063193948 0.26427270241964718 0 0.29803417524575498 0.27809430922643119 0 0.29803417524575498 0.27809430922643119 0 0.29692855903906679 0.25537037528416417 0 0.32239972953691409 0.26902358330948362 0 0.29692855903906679 0.25537037528416417 0 0.32239972953691409 0.26902358330948362 0 0.32448256229391081 0.244023600812113 0 0.34859232732963041 0.2656914204712259 0 0.32448256229391081 0.244023600812113 0 0.35052125483258301 0.2434514759103418 0 0.32239972953691409 0.26902358330948362 0 0.34859232732963041 0.2656914204712259 0 0.32448256229391081 0.244023600812113 0 0.32239972953691409 0.26902358330948362 0 0.34580587121379802 0.29027056413174801 0 0.34859232732963041 0.2656914204712259 0 0.32239972953691409 0.26902358330948362 0 0.34859232732963041 0.2656914204712259 0 0.29803417524575498 0.27809430922643119 0 0.32239972953691409 0.26902358330948362 0 0.31975384086217118 0.29390073052843008 0 0.32122702449841589 0.32177081607522939 0 0.30469828435187041 0.30776762192148471 0 0.31975384086217118 0.29390073052843008 0 0.32122702449841589 0.32177081607522939 0 0.31975384086217118 0.29390073052843008 0 0.33644502425256478 0.30910566618648461 0 0.31975384086217118 0.29390073052843008 0 0.33644502425256478 0.30910566618648461 0 0.34580587121379802 0.29027056413174801 0 0.32239972953691409 0.26902358330948362 0 0.31975384086217118 0.29390073052843008 0 0.34580587121379802 0.29027056413174801 0 0.34580587121379802 0.29027056413174801 0 0.35183379698966949 0.31056891257481539 0 0.36606901625265492 0.30223218437601618 0 0.33644502425256478 0.30910566618648461 0 0.34580587121379802 0.29027056413174801 0 0.35183379698966949 0.31056891257481539 0 0.36562923609293069 0.32366592916769399 0 0.35183379698966949 0.31056891257481539 0 0.36606901625265492 0.30223218437601618 0 0.36606901625265492 0.30223218437601618 0 0.37288852905391068 0.28307277276217568 0 0.38313639778678782 0.29894980138166888 0 0.34580587121379802 0.29027056413174801 0 0.36606901625265492 0.30223218437601618 0 0.37288852905391068 0.28307277276217568 0 0.37288852905391068 0.28307277276217568 0 0.37478492512234668 0.26235925763296819 0 0.34859232732963041 0.2656914204712259 0 0.37478492512234668 0.26235925763296819 0 0.34859232732963041 0.2656914204712259 0 0.37478492512234668 0.26235925763296819 0 0.34859232732963041 0.2656914204712259 0 0.35052125483258301 0.2434514759103418 0 0.34580587121379802 0.29027056413174801 0 0.37288852905391068 0.28307277276217568 0 0.34859232732963041 0.2656914204712259 0 0.40237095019481112 0.27711100542787093 0 0.40097752291506289 0.25902709479471048 0 0.38795285511664351 0.27501277358291848 0 0.40237095019481112 0.27711100542787093 0 0.38795285511664351 0.27501277358291848 0 0.39245341439736259 0.28869000139839213 0 0.37478492512234668 0.26235925763296819 0 0.40097752291506289 0.25902709479471048 0 0.37478492512234668 0.26235925763296819 0 0.40097752291506289 0.25902709479471048 0 0.38795285511664351 0.27501277358291848 0 0.37478492512234668 0.26235925763296819 0 0.40097752291506289 0.25902709479471048 0 0.39333580902427501 0.24081282939082621 0 0.37288852905391068 0.28307277276217568 0 0.37478492512234668 0.26235925763296819 0 0.38795285511664351 0.27501277358291848 0 0.37288852905391068 0.28307277276217568 0 0.38795285511664351 0.27501277358291848 0 0.39245341439736259 0.28869000139839213 0 0.37288852905391068 0.28307277276217568 0 0.38313639778678782 0.29894980138166888 0 0.39245341439736259 0.28869000139839213 0 0.38313639778678782 0.29894980138166888 0 0.40184121301557668 0.30678024061641418 0 0.38242981621443428 0.31397380775534678 0 0.36606901625265492 0.30223218437601618 0 0.38313639778678782 0.29894980138166888 0 0.38242981621443428 0.31397380775534678 0 0.38313639778678782 0.29894980138166888 0 0.40184121301557668 0.30678024061641418 0 0.39245341439736259 0.28869000139839213 0 0.40184121301557668 0.30678024061641418 0 0.39245341439736259 0.28869000139839213 0 0.4080647950624654 0.29173952990842672 0 0.40237095019481112 0.27711100542787093 0 0.39245341439736259 0.28869000139839213 0 0.4080647950624654 0.29173952990842672 0 0.4080647950624654 0.29173952990842672 0 0.42111158276914429 0.29961990628964941 0 0.41801819212357011 0.2740782959756311 0 0.42111158276914429 0.29961990628964941 0 0.41801819212357011 0.2740782959756311 0 0.42111158276914429 0.29961990628964941 0 0.41431845905081632 0.31211616404088999 0 0.42420497341471841 0.32516151660366771 0 0.40184121301557668 0.30678024061641418 0 0.41169384258873692 0.3030193229363472 0 0.41431845905081632 0.31211616404088999 0 0.4080647950624654 0.29173952990842672 0 0.41169384258873692 0.3030193229363472 0 0.42111158276914429 0.29961990628964941 0 0.40184121301557668 0.30678024061641418 0 0.4080647950624654 0.29173952990842672 0 0.41169384258873692 0.3030193229363472 0 0.41169384258873692 0.3030193229363472 0 0.42111158276914429 0.29961990628964941 0 0.41431845905081632 0.31211616404088999 0 0.42111158276914429 0.29961990628964941 0 0.42420497341471841 0.32516151660366771 0 0.42111158276914429 0.29961990628964941 0 0.42968026012840121 0.30115694743242971 0 0.43130474666914309 0.31304161877190062 0 0.42968026012840121 0.30115694743242971 0 0.44258646999382029 0.30990113159980692 0 0.42968026012840121 0.30115694743242971 0 0.44258646999382029 0.30990113159980692 0 0.43130474666914309 0.31304161877190062 0 0.42111158276914429 0.29961990628964941 0 0.42800801910193731 0.28582653817902792 0 0.41801819212357011 0.2740782959756311 0 0.42968026012840121 0.30115694743242971 0 0.42800801910193731 0.28582653817902792 0 0.44797459424715858 0.28113195035900113 0 0.42111158276914429 0.29961990628964941 0 0.42968026012840121 0.30115694743242971 0 0.42800801910193731 0.28582653817902792 0 0.4349067289361882 0.26981889711766149 0 0.41801819212357011 0.2740782959756311 0 0.42717012070777932 0.25569493195645271 0 0.42800801910193731 0.28582653817902792 0 0.4349067289361882 0.26981889711766149 0 0.44797459424715858 0.28113195035900113 0 0.42800801910193731 0.28582653817902792 0 0.4349067289361882 0.26981889711766149 0 0.41801819212357011 0.2740782959756311 0 0.40237095019481112 0.27711100542787093 0 0.4080647950624654 0.29173952990842672 0 0.41801819212357011 0.2740782959756311 0 0.40237095019481112 0.27711100542787093 0 0.40097752291506289 0.25902709479471048 0 0.41801819212357011 0.2740782959756311 0 0.40097752291506289 0.25902709479471048 0 0.42717012070777932 0.25569493195645271 0 0.40097752291506289 0.25902709479471048 0 0.41801819212357011 0.2740782959756311 0 0.42717012070777932 0.25569493195645271 0 0.40097752291506289 0.25902709479471048 0 0.42717012070777932 0.25569493195645271 0 0.41286841049430861 0.24788583003777651 0 0.42717012070777932 0.25569493195645271 0 0.45336271850049548 0.25236276911819511 0 0.42717012070777932 0.25569493195645271 0 0.45336271850049548 0.25236276911819511 0 0.44134696414428898 0.24814556957704689 0 0.4349067289361882 0.26981889711766149 0 0.42717012070777932 0.25569493195645271 0 0.45336271850049548 0.25236276911819511 0 0.44797459424715858 0.28113195035900113 0 0.45336271850049548 0.25236276911819511 0 0.4349067289361882 0.26981889711766149 0 0.44797459424715858 0.28113195035900113 0 0.45336271850049548 0.25236276911819511 0 0.44797459424715858 0.28113195035900113 0 0.46860043072286323 0.26090172283992602 0 0.47518926652314969 0.27560515809727743 0 0.44797459424715858 0.28113195035900113 0 0.45336271850049548 0.25236276911819511 0 0.46860043072286323 0.26090172283992602 0 0.45336271850049548 0.25236276911819511 0 0.46860043072286323 0.26090172283992602 0 0.48180965237011408 0.2487438147612096 0 0.45336271850049548 0.25236276911819511 0 0.48180965237011408 0.2487438147612096 0 0.46860043072286323 0.26090172283992602 0 0.48241006781490819 0.26268970127635521 0 0.48180965237011408 0.2487438147612096 0 0.46860043072286323 0.26090172283992602 0 0.48241006781490819 0.26268970127635521 0 0.47518926652314969 0.27560515809727743 0 0.48241006781490819 0.26268970127635521 0 0.47518926652314969 0.27560515809727743 0 0.48864569132575902 0.27555399191102209 0 0.48864569132575902 0.27555399191102209 0 0.5 0.25788891558126559 0 0.5 0.28784398070901179 0 0.48241006781490819 0.26268970127635521 0 0.5 0.25788891558126559 0 0.48180965237011408 0.2487438147612096 0 0.48241006781490819 0.26268970127635521 0 0.48864569132575902 0.27555399191102209 0 0.5 0.25788891558126559 0 0.49687855588093471 0.30562269631142192 0 0.5 0.28784398070901179 0 0.5 0.31779904583675789 0 0.48491490847636098 0.30901068293115042 0 0.49687855588093471 0.30562269631142192 0 0.48562912229073679 0.29374220389120048 0 0.48491490847636098 0.30901068293115042 0 0.49687855588093471 0.30562269631142192 0 0.48893996521802741 0.32077530068026477 0 0.48864569132575902 0.27555399191102209 0 0.5 0.28784398070901179 0 0.48562912229073679 0.29374220389120048 0 0.49687855588093471 0.30562269631142192 0 0.5 0.28784398070901179 0 0.48562912229073679 0.29374220389120048 0 0.47518926652314969 0.27560515809727743 0 0.48864569132575902 0.27555399191102209 0 0.48562912229073679 0.29374220389120048 0 0.47518926652314969 0.27560515809727743 0 0.48562912229073679 0.29374220389120048 0 0.46816558308298489 0.29083511245767268 0 0.48562912229073679 0.29374220389120048 0 0.47222103054853309 0.30536857664361422 0 0.46816558308298489 0.29083511245767268 0 0.48491490847636098 0.30901068293115042 0 0.48562912229073679 0.29374220389120048 0 0.47222103054853309 0.30536857664361422 0 0.48491490847636098 0.30901068293115042 0 0.47222103054853309 0.30536857664361422 0 0.47648252662976798 0.31886183994020412 0 0.47222103054853309 0.30536857664361422 0 0.45866337291811637 0.30169365927876157 0 0.46179392227446953 0.32291451832445861 0 0.45866337291811637 0.30169365927876157 0 0.44258646999382029 0.30990113159980692 0 0.46179392227446953 0.32291451832445861 0 0.47222103054853309 0.30536857664361422 0 0.45866337291811637 0.30169365927876157 0 0.46816558308298489 0.29083511245767268 0 0.44797459424715858 0.28113195035900113 0 0.45866337291811637 0.30169365927876157 0 0.46816558308298489 0.29083511245767268 0 0.44797459424715858 0.28113195035900113 0 0.47518926652314969 0.27560515809727743 0 0.46816558308298489 0.29083511245767268 0 0.44797459424715858 0.28113195035900113 0 0.44258646999382029 0.30990113159980692 0 0.42968026012840121 0.30115694743242971 0 0.44797459424715858 0.28113195035900113 0 0.44258646999382029 0.30990113159980692 0 0.44797459424715858 0.28113195035900113 0 0.45866337291811637 0.30169365927876157 0 0.44258646999382029 0.30990113159980692 0 0.44258646999382029 0.30990113159980692 0 0.46179392227446953 0.32291451832445861 0 0.44258646999382029 0.30990113159980692 0 0.43894044703962998 0.32936859193394902 0 0.46179392227446953 0.32291451832445861 0 0.44258646999382029 0.30990113159980692 0 0.43894044703962998 0.32936859193394902 0 0.44258646999382029 0.30990113159980692 0 0.43894044703962998 0.32936859193394902 0 0.43130474666914309 0.31304161877190062 0 0.43894044703962998 0.32936859193394902 0 0.45181909328986353 0.33594590439129729 0 0.43529442408543872 0.34883605226809089 0 0.43894044703962998 0.32936859193394902 0 0.45181909328986353 0.33594590439129729 0 0.46179392227446953 0.32291451832445861 0 0.45181909328986353 0.33594590439129729 0 0.46495921083649527 0.33796731498031379 0 0.45493863887308472 0.34850758154427958 0 0.45181909328986353 0.33594590439129729 0 0.46495921083649527 0.33796731498031379 0 0.46179392227446953 0.32291451832445861 0 0.47648252662976798 0.31886183994020412 0 0.48100137455512032 0.33592790504910791 0 0.48893996521802741 0.32077530068026477 0 0.46179392227446953 0.32291451832445861 0 0.47648252662976798 0.31886183994020412 0 0.48100137455512032 0.33592790504910791 0 0.47222103054853309 0.30536857664361422 0 0.46179392227446953 0.32291451832445861 0 0.47648252662976798 0.31886183994020412 0 0.48491490847636098 0.30901068293115042 0 0.47648252662976798 0.31886183994020412 0 0.48893996521802741 0.32077530068026477 0 0.46179392227446953 0.32291451832445861 0 0.48100137455512032 0.33592790504910791 0 0.46495921083649527 0.33796731498031379 0 0.48100137455512032 0.33592790504910791 0 0.47458285366073072 0.34817911082046721 0 0.46495921083649527 0.33796731498031379 0 0.46179392227446953 0.32291451832445861 0 0.48100137455512032 0.33592790504910791 0 0.48100137455512032 0.33592790504910791 0 0.47458285366073072 0.34817911082046721 0 0.48100137455512032 0.33592790504910791 0 0.48893996521802741 0.32077530068026477 0 0.48100137455512032 0.33592790504910791 0 0.4984937498586452 0.34777929695842291 0 0.5 0.31779904583675789 0 0.48893996521802741 0.32077530068026477 0 0.4984937498586452 0.34777929695842291 0 0.5 0.31779904583675789 0 0.4984937498586452 0.34777929695842291 0 0.50000000000000433 0.34775411096450393 0 0.48100137455512032 0.33592790504910791 0 0.48893996521802741 0.32077530068026477 0 0.4984937498586452 0.34777929695842291 0 0.49687855588093471 0.30562269631142192 0 0.48893996521802741 0.32077530068026477 0 0.49687855588093471 0.30562269631142192 0 0.5 0.31779904583675789 0 0.48893996521802741 0.32077530068026477 0 0.5 0.37175840028027313 0 0.48688174284785979 0.35971936811564431 0 0.50000000000000433 0.34775411096450393 0 0.5 0.37175840028027313 0 0.48688174284785979 0.35971936811564431 0 0.48177296974371542 0.3780796821533936 0 0.48100137455512032 0.33592790504910791 0 0.4984937498586452 0.34777929695842291 0 0.47458285366073072 0.34817911082046721 0 0.48688174284785979 0.35971936811564431 0 0.4984937498586452 0.34777929695842291 0 0.47458285366073072 0.34817911082046721 0 0.48688174284785979 0.35971936811564431 0 0.4984937498586452 0.34777929695842291 0 0.50000000000000433 0.34775411096450393 0 0.4984937498586452 0.34777929695842291 0 0.47458285366073072 0.34817911082046721 0 0.4984937498586452 0.34777929695842291 0 0.50000000000000433 0.34775411096450393 0 0.48688174284785979 0.35971936811564431 0 0.47458285366073072 0.34817911082046721 0 0.46644088382406917 0.36371991056145853 0 0.47458285366073072 0.34817911082046721 0 0.46644088382406917 0.36371991056145853 0 0.46644088382406917 0.36371991056145853 0 0.45829891398740957 0.37926071030245079 0 0.48177296974371542 0.3780796821533936 0 0.48688174284785979 0.35971936811564431 0 0.46644088382406917 0.36371991056145853 0 0.48177296974371542 0.3780796821533936 0 0.46644088382406917 0.36371991056145853 0 0.45829891398740957 0.37926071030245079 0 0.46644088382406917 0.36371991056145853 0 0.45450488254489102 0.36219879314378839 0 0.45829891398740957 0.37926071030245079 0 0.46495921083649527 0.33796731498031379 0 0.47458285366073072 0.34817911082046721 0 0.45493863887308472 0.34850758154427958 0 0.47458285366073072 0.34817911082046721 0 0.45493863887308472 0.34850758154427958 0 0.47458285366073072 0.34817911082046721 0 0.46644088382406917 0.36371991056145853 0 0.45493863887308472 0.34850758154427958 0 0.46644088382406917 0.36371991056145853 0 0.45450488254489102 0.36219879314378839 0 0.45493863887308472 0.34850758154427958 0 0.45181909328986353 0.33594590439129729 0 0.45493863887308472 0.34850758154427958 0 0.43529442408543872 0.34883605226809089 0 0.45493863887308472 0.34850758154427958 0 0.44448268479035308 0.35511800724889642 0 0.43529442408543872 0.34883605226809089 0 0.45493863887308472 0.34850758154427958 0 0.43529442408543872 0.34883605226809089 0 0.45450488254489102 0.36219879314378839 0 0.45493863887308472 0.34850758154427958 0 0.44448268479035308 0.35511800724889642 0 0.44448268479035308 0.35511800724889642 0 0.44279863902385319 0.36498191861006751 0 0.43487683942449812 0.35106569067825599 0 0.44448268479035308 0.35511800724889642 0 0.43529442408543872 0.34883605226809089 0 0.43487683942449812 0.35106569067825599 0 0.45450488254489102 0.36219879314378839 0 0.44279863902385319 0.36498191861006751 0 0.45829891398740957 0.37926071030245079 0 0.44279863902385319 0.36498191861006751 0 0.45829891398740957 0.37926071030245079 0 0.45450488254489102 0.36219879314378839 0 0.44448268479035308 0.35511800724889642 0 0.44279863902385319 0.36498191861006751 0 0.42892444364691579 0.3641293946929936 0 0.42225433889660879 0.37545697575276449 0 0.43605286711449009 0.38080977408974359 0 0.44279863902385319 0.36498191861006751 0 0.42892444364691579 0.3641293946929936 0 0.43605286711449009 0.38080977408974359 0 0.44279863902385319 0.36498191861006751 0 0.42892444364691579 0.3641293946929936 0 0.42729836406029548 0.35070312691768563 0 0.42892444364691579 0.3641293946929936 0 0.41660844069210962 0.35988002802349189 0 0.42225433889660879 0.37545697575276449 0 0.41660844069210962 0.35988002802349189 0 0.40918213701441342 0.3736144609854074 0 0.42225433889660879 0.37545697575276449 0 0.41660844069210962 0.35988002802349189 0 0.40918213701441342 0.3736144609854074 0 0.40205795884979889 0.36380219258680641 0 0.40642652845595439 0.35168475710611302 0 0.41593005466970517 0.35003896004439389 0 0.41338688547046137 0.33788792813028518 0 0.41660844069210962 0.35988002802349189 0 0.40642652845595439 0.35168475710611302 0 0.40205795884979889 0.36380219258680641 0 0.41660844069210962 0.35988002802349189 0 0.40642652845595439 0.35168475710611302 0 0.41593005466970517 0.35003896004439389 0 0.41660844069210962 0.35988002802349189 0 0.41593005466970517 0.35003896004439389 0 0.42729836406029548 0.35070312691768563 0 0.42729836406029548 0.35070312691768563 0 0.41338688547046137 0.33788792813028518 0 0.41593005466970517 0.35003896004439389 0 0.42729836406029548 0.35070312691768563 0 0.41338688547046137 0.33788792813028518 0 0.42892444364691579 0.3641293946929936 0 0.41660844069210962 0.35988002802349189 0 0.42729836406029548 0.35070312691768563 0 0.42892444364691579 0.3641293946929936 0 0.42729836406029548 0.35070312691768563 0 0.44279863902385319 0.36498191861006751 0 0.42729836406029548 0.35070312691768563 0 0.43487683942449812 0.35106569067825599 0 0.44279863902385319 0.36498191861006751 0 0.42729836406029548 0.35070312691768563 0 0.43109136567724748 0.3489063315667284 0 0.43529442408543872 0.34883605226809089 0 0.42729836406029548 0.35070312691768563 0 0.43109136567724748 0.3489063315667284 0 0.43487683942449812 0.35106569067825599 0 0.43109136567724748 0.3489063315667284 0 0.43529442408543872 0.34883605226809089 0 0.43487683942449812 0.35106569067825599 0 0.43529442408543872 0.34883605226809089 0 0.43487683942449812 0.35106569067825599 0 0.42729836406029548 0.35070312691768563 0 0.42420497341471841 0.32516151660366771 0 0.43894044703962998 0.32936859193394902 0 0.43529442408543872 0.34883605226809089 0 0.43894044703962998 0.32936859193394902 0 0.43109136567724748 0.3489063315667284 0 0.43529442408543872 0.34883605226809089 0 0.42729836406029548 0.35070312691768563 0 0.43109136567724748 0.3489063315667284 0 0.42420497341471841 0.32516151660366771 0 0.43894044703962998 0.32936859193394902 0 0.43109136567724748 0.3489063315667284 0 0.42420497341471841 0.32516151660366771 0 0.43894044703962998 0.32936859193394902 0 0.43130474666914309 0.31304161877190062 0 0.42420497341471841 0.32516151660366771 0 0.42111158276914429 0.29961990628964941 0 0.43130474666914309 0.31304161877190062 0 0.42420497341471841 0.32516151660366771 0 0.40184121301557668 0.30678024061641418 0 0.41431845905081632 0.31211616404088999 0 0.41140534993910638 0.32360132811636988 0 0.41431845905081632 0.31211616404088999 0 0.42420497341471841 0.32516151660366771 0 0.41140534993910638 0.32360132811636988 0 0.42729836406029548 0.35070312691768563 0 0.42420497341471841 0.32516151660366771 0 0.41338688547046137 0.33788792813028518 0 0.42420497341471841 0.32516151660366771 0 0.41140534993910638 0.32360132811636988 0 0.41338688547046137 0.33788792813028518 0 0.41140534993910638 0.32360132811636988 0 0.41338688547046137 0.33788792813028518 0 0.39947540688062583 0.32507272934288628 0 0.41338688547046137 0.33788792813028518 0 0.39947540688062583 0.32507272934288628 0 0.40642652845595439 0.35168475710611302 0 0.41338688547046137 0.33788792813028518 0 0.39105145014164849 0.3414869239971704 0 0.41338688547046137 0.33788792813028518 0 0.39105145014164849 0.3414869239971704 0 0.39947540688062583 0.32507272934288628 0 0.40184121301557668 0.30678024061641418 0 0.41140534993910638 0.32360132811636988 0 0.39947540688062583 0.32507272934288628 0 0.40184121301557668 0.30678024061641418 0 0.39947540688062583 0.32507272934288628 0 0.38242981621443428 0.31397380775534678 0 0.36562923609293069 0.32366592916769399 0 0.38242981621443428 0.31397380775534678 0 0.38128435600444488 0.32837669887387311 0 0.39947540688062583 0.32507272934288628 0 0.38242981621443428 0.31397380775534678 0 0.38128435600444488 0.32837669887387311 0 0.39105145014164849 0.3414869239971704 0 0.39947540688062583 0.32507272934288628 0 0.38128435600444488 0.32837669887387311 0 0.36518945593320651 0.34509967395937191 0 0.39105145014164849 0.3414869239971704 0 0.38128435600444488 0.32837669887387311 0 0.36518945593320651 0.34509967395937191 0 0.39105145014164849 0.3414869239971704 0 0.3855881021147175 0.35910908792858098 0 0.36474967577348072 0.36653341875104961 0 0.3855881021147175 0.35910908792858098 0 0.3855881021147175 0.35910908792858098 0 0.39248458597179969 0.37472262889043839 0 0.3773824667175657 0.37546563606013739 0 0.36474967577348072 0.36653341875104961 0 0.3855881021147175 0.35910908792858098 0 0.3773824667175657 0.37546563606013739 0 0.40918213701441342 0.3736144609854074 0 0.39248458597179969 0.37472262889043839 0 0.40205795884979889 0.36380219258680641 0 0.3855881021147175 0.35910908792858098 0 0.39248458597179969 0.37472262889043839 0 0.40205795884979889 0.36380219258680641 0 0.40642652845595439 0.35168475710611302 0 0.39105145014164849 0.3414869239971704 0 0.3855881021147175 0.35910908792858098 0 0.40642652845595439 0.35168475710611302 0 0.3855881021147175 0.35910908792858098 0 0.40642652845595439 0.35168475710611302 0 0.3855881021147175 0.35910908792858098 0 0.40205795884979889 0.36380219258680641 0 0.39221066862400811 0.40518894945558848 0 0.39940032860097008 0.38986983405391068 0 0.41033309730305728 0.40785957742124029 0 0.40918213701441342 0.3736144609854074 0 0.39248458597179969 0.37472262889043839 0 0.39940032860097008 0.38986983405391068 0 0.39248458597179969 0.37472262889043839 0 0.39940032860097008 0.38986983405391068 0 0.38026367080056678 0.39066664182047522 0 0.39248458597179969 0.37472262889043839 0 0.3773824667175657 0.37546563606013739 0 0.38026367080056678 0.39066664182047522 0 0.39221066862400811 0.40518894945558848 0 0.39940032860097008 0.38986983405391068 0 0.38026367080056678 0.39066664182047522 0 0.39221066862400811 0.40518894945558848 0 0.38026367080056678 0.39066664182047522 0 0.37744029411777058 0.41252948965876268 0 0.39221066862400811 0.40518894945558848 0 0.37744029411777058 0.41252948965876268 0 0.39361595229767549 0.42501920432355378 0 0.365542703577178 0.42914551292816783 0 0.39361595229767549 0.42501920432355378 0 0.37809165231809289 0.44568724501072521 0 0.365542703577178 0.42914551292816783 0 0.37744029411777058 0.41252948965876268 0 0.39361595229767549 0.42501920432355378 0 0.365542703577178 0.42914551292816783 0 0.39361595229767549 0.42501920432355378 0 0.39361595229767549 0.42501920432355378 0 0.41035062152962531 0.4256058815429955 0 0.40092741287151468 0.44093224530230651 0 0.39361595229767549 0.42501920432355378 0 0.40092741287151468 0.44093224530230651 0 0.37809165231809289 0.44568724501072521 0 0.39361595229767549 0.42501920432355378 0 0.41033309730305728 0.40785957742124029 0 0.41035062152962531 0.4256058815429955 0 0.39221066862400811 0.40518894945558848 0 0.39361595229767549 0.42501920432355378 0 0.41033309730305728 0.40785957742124029 0 0.41033309730305728 0.40785957742124029 0 0.41035062152962531 0.4256058815429955 0 0.42646345733135449 0.42088686527347441 0 0.41035062152962531 0.4256058815429955 0 0.4216403136361262 0.43569606407888728 0 0.42646345733135449 0.42088686527347441 0 0.41035062152962531 0.4256058815429955 0 0.4216403136361262 0.43569606407888728 0 0.40092741287151468 0.44093224530230651 0 0.43504649219903713 0.43385430946487219 0 0.42646345733135449 0.42088686527347441 0 0.44292677264660579 0.42392515796168401 0 0.4216403136361262 0.43569606407888728 0 0.43504649219903713 0.43385430946487219 0 0.42646345733135449 0.42088686527347441 0 0.4216403136361262 0.43569606407888728 0 0.43504649219903713 0.43385430946487219 0 0.4309855774719657 0.44262377444488737 0 0.41033309730305728 0.40785957742124029 0 0.42646345733135449 0.42088686527347441 0 0.43473852811684172 0.40482082561786309 0 0.42646345733135449 0.42088686527347441 0 0.43473852811684172 0.40482082561786309 0 0.44292677264660579 0.42392515796168401 0 0.43473852811684172 0.40482082561786309 0 0.42003555557297712 0.38799376876492359 0 0.43605286711449009 0.38080977408974359 0 0.41033309730305728 0.40785957742124029 0 0.43473852811684172 0.40482082561786309 0 0.42003555557297712 0.38799376876492359 0 0.39940032860097008 0.38986983405391068 0 0.41033309730305728 0.40785957742124029 0 0.42003555557297712 0.38799376876492359 0 0.40918213701441342 0.3736144609854074 0 0.39940032860097008 0.38986983405391068 0 0.42003555557297712 0.38799376876492359 0 0.40918213701441342 0.3736144609854074 0 0.42003555557297712 0.38799376876492359 0 0.42225433889660879 0.37545697575276449 0 0.42003555557297712 0.38799376876492359 0 0.42225433889660879 0.37545697575276449 0 0.43605286711449009 0.38080977408974359 0 0.44279863902385319 0.36498191861006751 0 0.43605286711449009 0.38080977408974359 0 0.45829891398740957 0.37926071030245079 0 0.43605286711449009 0.38080977408974359 0 0.44916269767969552 0.39669925538146661 0 0.45829891398740957 0.37926071030245079 0 0.43473852811684172 0.40482082561786309 0 0.43605286711449009 0.38080977408974359 0 0.44916269767969552 0.39669925538146661 0 0.43473852811684172 0.40482082561786309 0 0.44916269767969552 0.39669925538146661 0 0.45819524916971172 0.41557138043250991 0 0.44916269767969552 0.39669925538146661 0 0.47914945699370431 0.3984681476517854 0 0.45819524916971172 0.41557138043250991 0 0.44916269767969552 0.39669925538146661 0 0.45829891398740957 0.37926071030245079 0 0.47914945699370431 0.3984681476517854 0 0.45829891398740957 0.37926071030245079 0 0.47914945699370431 0.3984681476517854 0 0.44916269767969552 0.39669925538146661 0 0.45829891398740957 0.37926071030245079 0 0.45829891398740957 0.37926071030245079 0 0.48177296974371542 0.3780796821533936 0 0.47914945699370431 0.3984681476517854 0 0.47914945699370431 0.3984681476517854 0 0.5 0.39471699264069632 0 0.49999999999999928 0.41767558500111929 0 0.48177296974371542 0.3780796821533936 0 0.47914945699370431 0.3984681476517854 0 0.5 0.39471699264069632 0 0.5 0.37175840028027313 0 0.48177296974371542 0.3780796821533936 0 0.5 0.39471699264069632 0 0.48950419912568011 0.43203648207583117 0 0.49999999999999928 0.41767558500111929 0 0.47941257652712138 0.42859526255965119 0 0.48950419912568011 0.43203648207583117 0 0.49999999999999928 0.41767558500111929 0 0.50000000000000022 0.44212157098762489 0 0.49999999999999928 0.41767558500111929 0 0.47638758820359789 0.4177788365799131 0 0.47941257652712138 0.42859526255965119 0 0.47914945699370431 0.3984681476517854 0 0.49999999999999928 0.41767558500111929 0 0.47638758820359789 0.4177788365799131 0 0.47914945699370431 0.3984681476517854 0 0.49999999999999928 0.41767558500111929 0 0.47914945699370431 0.3984681476517854 0 0.47638758820359789 0.4177788365799131 0 0.45819524916971172 0.41557138043250991 0 0.47638758820359789 0.4177788365799131 0 0.46959145424244531 0.42892785421681912 0 0.47941257652712138 0.42859526255965119 0 0.48950419912568011 0.43203648207583117 0 0.47941257652712138 0.42859526255965119 0 0.47860421997559988 0.43975350975492877 0 0.46959145424244531 0.42892785421681912 0 0.47941257652712138 0.42859526255965119 0 0.47860421997559988 0.43975350975492877 0 0.46959145424244531 0.42892785421681912 0 0.45720843995119947 0.43738544852223271 0 0.45819524916971172 0.41557138043250991 0 0.46959145424244531 0.42892785421681912 0 0.45720843995119947 0.43738544852223271 0 0.47860421997559988 0.43975350975492877 0 0.47638758820359789 0.4177788365799131 0 0.46959145424244531 0.42892785421681912 0 0.45819524916971172 0.41557138043250991 0 0.43473852811684172 0.40482082561786309 0 0.45819524916971172 0.41557138043250991 0 0.44292677264660579 0.42392515796168401 0 0.45720843995119947 0.43738544852223271 0 0.45819524916971172 0.41557138043250991 0 0.44292677264660579 0.42392515796168401 0 0.45720843995119947 0.43738544852223271 0 0.44292677264660579 0.42392515796168401 0 0.44501475256406542 0.43710487641451851 0 0.43504649219903713 0.43385430946487219 0 0.44292677264660579 0.42392515796168401 0 0.44501475256406542 0.43710487641451851 0 0.44501475256406542 0.43710487641451851 0 0.44086930591740259 0.443703986550611 0 0.44426520485267701 0.44828521544284999 0 0.43504649219903713 0.43385430946487219 0 0.44501475256406542 0.43710487641451851 0 0.44086930591740259 0.443703986550611 0 0.44576605402647751 0.45131382091928901 0 0.43097115028835131 0.45382894378787952 0 0.4371491165808723 0.44919465112914592 0 0.44086930591740259 0.443703986550611 0 0.44106718496795649 0.44783878756079798 0 0.4371491165808723 0.44919465112914592 0 0.44106718496795649 0.44783878756079798 0 0.44576605402647751 0.45131382091928901 0 0.4371491165808723 0.44919465112914592 0 0.44086930591740259 0.443703986550611 0 0.44426520485267701 0.44828521544284999 0 0.44106718496795649 0.44783878756079798 0 0.44426520485267701 0.44828521544284999 0 0.44576605402647751 0.45131382091928901 0 0.44086930591740259 0.443703986550611 0 0.44106718496795649 0.44783878756079798 0 0.44426520485267701 0.44828521544284999 0 0.45720843995119947 0.43738544852223271 0 0.44501475256406542 0.43710487641451851 0 0.44426520485267701 0.44828521544284999 0 0.44576605402647751 0.45131382091928901 0 0.44334270512280699 0.46695283516179431 0 0.45751300038554987 0.46615712058798953 0 0.44426520485267701 0.44828521544284999 0 0.45751300038554987 0.46615712058798953 0 0.44576605402647751 0.45131382091928901 0 0.44334270512280699 0.46695283516179431 0 0.42744619309891668 0.4675425472795256 0 0.44426520485267701 0.44828521544284999 0 0.44576605402647751 0.45131382091928901 0 0.45751300038554987 0.46615712058798953 0 0.44426520485267701 0.44828521544284999 0 0.45751300038554987 0.46615712058798953 0 0.47213260242633898 0.44992772785007767 0 0.44426520485267701 0.44828521544284999 0 0.47213260242633898 0.44992772785007767 0 0.45720843995119947 0.43738544852223271 0 0.47860421997559988 0.43975350975492877 0 0.45720843995119947 0.43738544852223271 0 0.44426520485267701 0.44828521544284999 0 0.47213260242633898 0.44992772785007767 0 0.47213260242633898 0.44992772785007767 0 0.47860421997559988 0.43975350975492877 0 0.50000000000000067 0.45157024025730719 0 0.45720843995119947 0.43738544852223271 0 0.47213260242633898 0.44992772785007767 0 0.47860421997559988 0.43975350975492877 0 0.47213260242633898 0.44992772785007767 0 0.48064266697128027 0.4673483066551633 0 0.50000000000000067 0.45157024025730719 0 0.45751300038554987 0.46615712058798953 0 0.47213260242633898 0.44992772785007767 0 0.48064266697128027 0.4673483066551633 0 0.48064266697128027 0.4673483066551633 0 0.5 0.46843982966384828 0 0.50000000000000067 0.45157024025730719 0 0.47860421997559988 0.43975350975492877 0 0.50000000000000022 0.44212157098762489 0 0.47860421997559988 0.43975350975492877 0 0.50000000000000067 0.45157024025730719 0 0.50000000000000022 0.44212157098762489 0 0.47213260242633898 0.44992772785007767 0 0.50000000000000067 0.45157024025730719 0 0.48950419912568011 0.43203648207583117 0 0.47860421997559988 0.43975350975492877 0 0.50000000000000022 0.44212157098762489 0 0.48834007405180069 0.49233461120087918 0 0.50000000000000222 0.48530941907038949 0 0.47076079591842229 0.48402902573312923 0 0.48834007405180069 0.49233461120087918 0 0.5 0.5 0 0.48259950028877657 0.49999999999999922 0 0.50000000000000222 0.48530941907038949 0 0.47076079591842229 0.48402902573312923 0 0.48834007405180069 0.49233461120087918 0 0.5 0.5 0 0.50000000000000222 0.48530941907038949 0 0.50000000000000222 0.48530941907038949 0 0.48785086572242647 0.47628164528063233 0 0.47076079591842229 0.48402902573312923 0 0.48064266697128027 0.4673483066551633 0 0.5 0.46843982966384828 0 0.48785086572242647 0.47628164528063233 0 0.5 0.46843982966384828 0 0.50000000000000222 0.48530941907038949 0 0.48785086572242647 0.47628164528063233 0 0.45751300038554987 0.46615712058798953 0 0.48064266697128027 0.4673483066551633 0 0.47076079591842229 0.48402902573312923 0 0.48064266697128027 0.4673483066551633 0 0.48785086572242647 0.47628164528063233 0 0.47076079591842229 0.48402902573312923 0 0.47076079591842229 0.48402902573312923 0 0.48259950028877657 0.49999999999999922 0 0.45965124302753141 0.5 0 0.48834007405180069 0.49233461120087918 0 0.47076079591842229 0.48402902573312923 0 0.48259950028877657 0.49999999999999922 0 0.47076079591842229 0.48402902573312923 0 0.48259950028877657 0.49999999999999922 0 0.47076079591842229 0.48402902573312923 0 0.45965124302753141 0.5 0 0.44264557298028417 0.48279785186037327 0 0.45751300038554987 0.46615712058798953 0 0.47076079591842229 0.48402902573312923 0 0.47076079591842229 0.48402902573312923 0 0.44264557298028417 0.48279785186037327 0 0.45751300038554987 0.46615712058798953 0 0.47076079591842229 0.48402902573312923 0 0.44264557298028417 0.48279785186037327 0 0.44334270512280699 0.46695283516179431 0 0.44264557298028417 0.48279785186037327 0 0.42744619309891668 0.4675425472795256 0 0.44334270512280699 0.46695283516179431 0 0.45751300038554987 0.46615712058798953 0 0.44264557298028417 0.48279785186037327 0 0.45965124302753141 0.5 0 0.44264557298028417 0.48279785186037327 0 0.43670298576628619 0.5 0 0.44264557298028417 0.48279785186037327 0 0.42814010978677508 0.48883471415535268 0 0.41453035004214622 0.48156667798761449 0 0.43670298576628619 0.5 0 0.42814010978677508 0.48883471415535268 0 0.41868153035838401 0.49097432677342312 0 0.44264557298028417 0.48279785186037327 0 0.43670298576628619 0.5 0 0.42814010978677508 0.48883471415535268 0 0.43670298576628619 0.5 0 0.41375472850504103 0.5 0 0.41868153035838401 0.49097432677342312 0 0.41375472850504103 0.5 0 0.41868153035838401 0.49097432677342312 0 0.40912633217135602 0.48377127363976219 0 0.42814010978677508 0.48883471415535268 0 0.41868153035838401 0.49097432677342312 0 0.41453035004214622 0.48156667798761449 0 0.41868153035838401 0.49097432677342312 0 0.40912633217135602 0.48377127363976219 0 0.41453035004214622 0.48156667798761449 0 0.40882198151684829 0.470458307354371 0 0.40912633217135602 0.48377127363976219 0 0.42744619309891668 0.4675425472795256 0 0.40912633217135602 0.48377127363976219 0 0.42744619309891668 0.4675425472795256 0 0.40912633217135602 0.48377127363976219 0 0.41453035004214622 0.48156667798761449 0 0.42744619309891668 0.4675425472795256 0 0.40882198151684829 0.470458307354371 0 0.40912633217135602 0.48377127363976219 0 0.40257181831080802 0.47789339995616598 0 0.44264557298028417 0.48279785186037327 0 0.41453035004214622 0.48156667798761449 0 0.44264557298028417 0.48279785186037327 0 0.41453035004214622 0.48156667798761449 0 0.42744619309891668 0.4675425472795256 0 0.44576605402647751 0.45131382091928901 0 0.42744619309891668 0.4675425472795256 0 0.44576605402647751 0.45131382091928901 0 0.43097115028835131 0.45382894378787952 0 0.42744619309891668 0.4675425472795256 0 0.43097115028835131 0.45382894378787952 0 0.42744619309891668 0.4675425472795256 0 0.41709851720120961 0.46055572465752248 0 0.44086930591740259 0.443703986550611 0 0.4309855774719657 0.44262377444488737 0 0.4371491165808723 0.44919465112914592 0 0.43504649219903713 0.43385430946487219 0 0.44086930591740259 0.443703986550611 0 0.4309855774719657 0.44262377444488737 0 0.43097115028835131 0.45382894378787952 0 0.4309855774719657 0.44262377444488737 0 0.4371491165808723 0.44919465112914592 0 0.43097115028835131 0.45382894378787952 0 0.4309855774719657 0.44262377444488737 0 0.41665312800777271 0.44940921386284588 0 0.4216403136361262 0.43569606407888728 0 0.4309855774719657 0.44262377444488737 0 0.41665312800777271 0.44940921386284588 0 0.41665312800777271 0.44940921386284588 0 0.4029362549212489 0.45832899449672349 0 0.40092741287151468 0.44093224530230651 0 0.4216403136361262 0.43569606407888728 0 0.41665312800777271 0.44940921386284588 0 0.40092741287151468 0.44093224530230651 0 0.40882198151684829 0.470458307354371 0 0.42744619309891668 0.4675425472795256 0 0.41709851720120961 0.46055572465752248 0 0.43097115028835131 0.45382894378787952 0 0.41665312800777271 0.44940921386284588 0 0.41709851720120961 0.46055572465752248 0 0.41665312800777271 0.44940921386284588 0 0.41709851720120961 0.46055572465752248 0 0.4029362549212489 0.45832899449672349 0 0.40882198151684829 0.470458307354371 0 0.41709851720120961 0.46055572465752248 0 0.4029362549212489 0.45832899449672349 0 0.40882198151684829 0.470458307354371 0 0.4029362549212489 0.45832899449672349 0 0.3944208343110962 0.47305259584339332 0 0.4029362549212489 0.45832899449672349 0 0.38943508825963058 0.45629052964312111 0 0.3944208343110962 0.47305259584339332 0 0.4029362549212489 0.45832899449672349 0 0.40092741287151468 0.44093224530230651 0 0.38943508825963058 0.45629052964312111 0 0.40092741287151468 0.44093224530230651 0 0.37809165231809289 0.44568724501072521 0 0.38943508825963058 0.45629052964312111 0 0.37809165231809289 0.44568724501072521 0 0.38943508825963058 0.45629052964312111 0 0.37844435483634198 0.4675903904274426 0 0.38943508825963058 0.45629052964312111 0 0.37844435483634198 0.4675903904274426 0 0.3944208343110962 0.47305259584339332 0 0.37844435483634198 0.4675903904274426 0 0.38120033573297152 0.48442634992442057 0 0.3944208343110962 0.47305259584339332 0 0.38120033573297152 0.48442634992442057 0 0.3944208343110962 0.47305259584339332 0 0.39562515835400552 0.48382872387274839 0 0.36196284501337178 0.5 0 0.38120033573297152 0.48442634992442057 0 0.39080647124379558 0.49999999999999922 0 0.38120033573297152 0.48442634992442057 0 0.39080647124379558 0.49999999999999922 0 0.39562515835400552 0.48382872387274839 0 0.40912633217135602 0.48377127363976219 0 0.39080647124379558 0.49999999999999922 0 0.40912633217135602 0.48377127363976219 0 0.39080647124379558 0.49999999999999922 0 0.39562515835400552 0.48382872387274839 0 0.41375472850504103 0.5 0 0.40912633217135602 0.48377127363976219 0 0.39080647124379558 0.49999999999999922 0 0.40912633217135602 0.48377127363976219 0 0.40257181831080802 0.47789339995616598 0 0.39562515835400552 0.48382872387274839 0 0.40882198151684829 0.470458307354371 0 0.40257181831080802 0.47789339995616598 0 0.3944208343110962 0.47305259584339332 0 0.40257181831080802 0.47789339995616598 0 0.3944208343110962 0.47305259584339332 0 0.39562515835400552 0.48382872387274839 0 0.34137977846588119 0.091947059702449957 0 0.3184977734976509 0.082531855017860187 0 0.34137977846588119 0.091947059702449957 0 0.33853514524224232 0.092154422351098803 0 0.3184977734976509 0.082531855017860187 0 0.33853514524224232 0.092154422351098803 0 0.3184977734976509 0.082531855017860187 0 0.3305269393921435 0.093893314460775035 0 0.34137977846588119 0.091947059702449957 0 0.33488127772135701 0.070909675734900868 0 0.3184977734976509 0.082531855017860187 0 0.33488127772135701 0.070909675734900868 0 0.35624300874513559 0.071190975121652081 0 0.33828509493208109 0.051113002016081502 0 0.3184977734976509 0.082531855017860187 0 0.31750720709783492 0.060828210965220328 0 0.30506359630307739 0.067813250175554993 0 0.33488127772135701 0.070909675734900868 0 0.32846421329825382 0.059059627678852658 0 0.31750720709783492 0.060828210965220328 0 0.33488127772135701 0.070909675734900868 0 0.3184977734976509 0.082531855017860187 0 0.31750720709783492 0.060828210965220328 0 0.3184977734976509 0.082531855017860187 0 0.3254096333834442 0.096971455496547829 0 0.3305269393921435 0.093893314460775035 0 0.3184977734976509 0.082531855017860187 0 0.3254096333834442 0.096971455496547829 0 0.31111548734401751 0.094174984339189319 0 0.3254096333834442 0.096971455496547829 0 0.33219394353324039 0.1121017755840282 0 0.31111548734401751 0.094174984339189319 0 0.33219394353324039 0.1121017755840282 0 0.31111548734401751 0.094174984339189319 0 0.33219394353324039 0.1121017755840282 0 0.31151194808720201 0.1150643222194616 0 0.31111548734401751 0.094174984339189319 0 0.33219394353324039 0.1121017755840282 0 0.31151194808720201 0.1150643222194616 0 0.32387679174541939 0.1297141718462434 0 0.33219394353324039 0.1121017755840282 0 0.32387679174541939 0.1297141718462434 0 0.35327239972246333 0.1300285668288671 0 0.33219394353324039 0.1121017755840282 0 0.35327239972246333 0.1300285668288671 0 0.33219394353324039 0.1121017755840282 0 0.34279585490336462 0.1026082003979065 0 0.35159211237321392 0.11222190062690381 0 0.33853514524224232 0.092154422351098803 0 0.3305269393921435 0.093893314460775035 0 0.33650548478629722 0.09727411407467923 0 0.3254096333834442 0.096971455496547829 0 0.33351858274250701 0.1005678965871936 0 0.3305269393921435 0.093893314460775035 0 0.33351858274250701 0.1005678965871936 0 0.3305269393921435 0.093893314460775035 0 0.33650548478629722 0.09727411407467923 0 0.3254096333834442 0.096971455496547829 0 0.33219394353324039 0.1121017755840282 0 0.33351858274250701 0.1005678965871936 0 0.33219394353324039 0.1121017755840282 0 0.33351858274250701 0.1005678965871936 0 0.34279585490336462 0.1026082003979065 0 0.33351858274250701 0.1005678965871936 0 0.34279585490336462 0.1026082003979065 0 0.33650548478629722 0.09727411407467923 0 0.33853514524224232 0.092154422351098803 0 0.34279585490336462 0.1026082003979065 0 0.33650548478629722 0.09727411407467923 0 0.34279585490336462 0.1026082003979065 0 0.35159211237321392 0.11222190062690381 0 0.36426178343411147 0.1013622643870397 0 0.33853514524224232 0.092154422351098803 0 0.34279585490336462 0.1026082003979065 0 0.36426178343411147 0.1013622643870397 0 0.34137977846588119 0.091947059702449957 0 0.33853514524224232 0.092154422351098803 0 0.36426178343411147 0.1013622643870397 0 0.33853514524224232 0.092154422351098803 0 0.36426178343411147 0.1013622643870397 0 0.34137977846588119 0.091947059702449957 0 0.36426178343411147 0.1013622643870397 0 0.33219394353324039 0.1121017755840282 0 0.35159211237321392 0.11222190062690381 0 0.35327239972246333 0.1300285668288671 0 0.35159211237321392 0.11222190062690381 0 0.36649271172908648 0.1176987398754743 0 0.35327239972246333 0.1300285668288671 0 0.35159211237321392 0.11222190062690381 0 0.36649271172908648 0.1176987398754743 0 0.36426178343411147 0.1013622643870397 0 0.36649271172908648 0.1176987398754743 0 0.36938385952287339 0.13266757129752671 0 0.38138511069115272 0.12353481432135879 0 0.36649271172908648 0.1176987398754743 0 0.36426178343411147 0.1013622643870397 0 0.3795225325030368 0.1068242515199407 0 0.36426178343411147 0.1013622643870397 0 0.3795225325030368 0.1068242515199407 0 0.36426178343411147 0.1013622643870397 0 0.3742009225581896 0.091268948227223284 0 0.3795225325030368 0.1068242515199407 0 0.3742009225581896 0.091268948227223284 0 0.35754778501084228 0.087847667021068221 0 0.35624300874513559 0.071190975121652081 0 0.36426178343411147 0.1013622643870397 0 0.3742009225581896 0.091268948227223284 0 0.35754778501084228 0.087847667021068221 0 0.3742009225581896 0.091268948227223284 0 0.35624300874513559 0.071190975121652081 0 0.34137977846588119 0.091947059702449957 0 0.35754778501084228 0.087847667021068221 0 0.35624300874513559 0.071190975121652081 0 0.34137977846588119 0.091947059702449957 0 0.36426178343411147 0.1013622643870397 0 0.35754778501084228 0.087847667021068221 0 0.34137977846588119 0.091947059702449957 0 0.33488127772135701 0.070909675734900868 0 0.35624300874513559 0.071190975121652081 0 0.3742009225581896 0.091268948227223284 0 0.35624300874513559 0.071190975121652081 0 0.37575225644292037 0.071709270247263784 0 0.35624300874513559 0.071190975121652081 0 0.36737709041569239 0.056764699852256018 0 0.37575225644292037 0.071709270247263784 0 0.36737709041569239 0.056764699852256018 0 0.36443667806580698 0.054513224756226962 0 0.39058826119953283 0.057913447496371839 0 0.36443667806580698 0.054513224756226962 0 0.36984281421283938 0.03924660656396721 0 0.37608467898805159 0.048096788967416412 0 0.36984281421283938 0.03924660656396721 0 0.35576481933353549 0.041718099984820838 0 0.3798040161112804 0.028996110171619349 0 0.35576481933353549 0.041718099984820838 0 0.36136411866671431 0.026161729739540451 0 0.37786156531075732 0.02725125369877367 0 0.35576481933353549 0.041718099984820838 0 0.3798040161112804 0.028996110171619349 0 0.37786156531075732 0.02725125369877367 0 0.35576481933353549 0.041718099984820838 0 0.3798040161112804 0.028996110171619349 0 0.36984281421283938 0.03924660656396721 0 0.37726993283737248 0.041439113600633092 0 0.37608467898805159 0.048096788967416412 0 0.36984281421283938 0.03924660656396721 0 0.37675727284589372 0.036323400775862158 0 0.37726993283737248 0.041439113600633092 0 0.36443667806580698 0.054513224756226962 0 0.36984281421283938 0.03924660656396721 0 0.35576481933353549 0.041718099984820838 0 0.35576481933353549 0.041718099984820838 0 0.36136411866671431 0.026161729739540451 0 0.34099279295720591 0.031691385536231111 0 0.35576481933353549 0.041718099984820838 0 0.34539840685914608 0.044617690611648012 0 0.34099279295720591 0.031691385536231111 0 0.35624300874513559 0.071190975121652081 0 0.34416591963185211 0.055615952208139578 0 0.33828509493208109 0.051113002016081502 0 0.36443667806580698 0.054513224756226962 0 0.34416591963185211 0.055615952208139578 0 0.33828509493208109 0.051113002016081502 0 0.36737709041569239 0.056764699852256018 0 0.34416591963185211 0.055615952208139578 0 0.35624300874513559 0.071190975121652081 0 0.33828509493208109 0.051113002016081502 0 0.35624300874513559 0.071190975121652081 0 0.36737709041569239 0.056764699852256018 0 0.34416591963185211 0.055615952208139578 0 0.36443667806580698 0.054513224756226962 0 0.33828509493208109 0.051113002016081502 0 0.36443667806580698 0.054513224756226962 0 0.34539840685914608 0.044617690611648012 0 0.33828509493208109 0.051113002016081502 0 0.36443667806580698 0.054513224756226962 0 0.35576481933353549 0.041718099984820838 0 0.34539840685914608 0.044617690611648012 0 0.36737709041569239 0.056764699852256018 0 0.36443667806580698 0.054513224756226962 0 0.34416591963185211 0.055615952208139578 0 0.35686418876597309 0.010252504770385159 0 0.37537418671591988 0.012891754799621079 0 0.3700201466167648 -0.002195575246397889 0 0.35686418876597309 0.010252504770385159 0 0.37786156531075732 0.02725125369877367 0 0.36136411866671431 0.026161729739540451 0 0.35686418876597309 0.010252504770385159 0 0.37786156531075732 0.02725125369877367 0 0.35686418876597309 0.010252504770385159 0 0.37537418671591988 0.012891754799621079 0 0.37786156531075732 0.02725125369877367 0 0.36136411866671431 0.026161729739540451 0 0.35686418876597309 0.010252504770385159 0 0.34167945108238768 0.015605415956853899 0 0.36136411866671431 0.026161729739540451 0 0.34167945108238768 0.015605415956853899 0 0.34099279295720591 0.031691385536231111 0 0.35686418876597309 0.010252504770385159 0 0.34167945108238768 0.015605415956853899 0 0.33586681222118892 -0.0067462441580033658 0 0.35686418876597309 0.010252504770385159 0 0.33586681222118892 -0.0067462441580033658 0 0.34167945108238768 0.015605415956853899 0 0.32490055802469708 0.021190940670656921 0 0.33586681222118892 -0.0067462441580033658 0 0.34167945108238768 0.015605415956853899 0 0.32490055802469708 0.021190940670656921 0 0.34099279295720591 0.031691385536231111 0 0.32490055802469708 0.021190940670656921 0 0.34099279295720591 0.031691385536231111 0 0.32801258046435111 0.036170166979635328 0 0.32490055802469708 0.021190940670656921 0 0.31497710433926901 0.036033128519756527 0 0.30595588987094691 0.026092456194660541 0 0.32490055802469708 0.021190940670656921 0 0.31046320235639918 0.0067575729804437252 0 0.30595588987094691 0.026092456194660541 0 0.32490055802469708 0.021190940670656921 0 0.32801258046435111 0.036170166979635328 0 0.31497710433926901 0.036033128519756527 0 0.32490055802469708 0.021190940670656921 0 0.31046320235639918 0.0067575729804437252 0 0.33586681222118892 -0.0067462441580033658 0 0.33488127772135701 0.070909675734900868 0 0.32846421329825382 0.059059627678852658 0 0.33828509493208109 0.051113002016081502 0 0.33828509493208109 0.051113002016081502 0 0.33632782521092219 0.048924662700562782 0 0.31456469921871788 0.048028881697348168 0 0.34539840685914608 0.044617690611648012 0 0.33828509493208109 0.051113002016081502 0 0.33632782521092219 0.048924662700562782 0 0.33828509493208109 0.051113002016081502 0 0.33632782521092219 0.048924662700562782 0 0.34539840685914608 0.044617690611648012 0 0.33609782728063148 0.04111054955314445 0 0.34099279295720591 0.031691385536231111 0 0.34539840685914608 0.044617690611648012 0 0.33632782521092219 0.048924662700562782 0 0.33609782728063148 0.04111054955314445 0 0.33609782728063148 0.04111054955314445 0 0.34099279295720591 0.031691385536231111 0 0.32801258046435111 0.036170166979635328 0 0.33632782521092219 0.048924662700562782 0 0.33609782728063148 0.04111054955314445 0 0.33051084790212298 0.042529329228536181 0 0.33632782521092219 0.048924662700562782 0 0.33051084790212298 0.042529329228536181 0 0.32327528761916352 0.043108517346294839 0 0.33609782728063148 0.04111054955314445 0 0.33051084790212298 0.042529329228536181 0 0.32801258046435111 0.036170166979635328 0 0.33632782521092219 0.048924662700562782 0 0.32327528761916352 0.043108517346294839 0 0.31456469921871788 0.048028881697348168 0 0.33051084790212298 0.042529329228536181 0 0.32327528761916352 0.043108517346294839 0 0.32801258046435111 0.036170166979635328 0 0.32327528761916352 0.043108517346294839 0 0.32801258046435111 0.036170166979635328 0 0.31497710433926901 0.036033128519756527 0 0.32327528761916352 0.043108517346294839 0 0.31497710433926901 0.036033128519756527 0 0.31456469921871788 0.048028881697348168 0 0.33828509493208109 0.051113002016081502 0 0.31456469921871788 0.048028881697348168 0 0.32846421329825382 0.059059627678852658 0 0.33828509493208109 0.051113002016081502 0 0.31456469921871788 0.048028881697348168 0 0.32846421329825382 0.059059627678852658 0 0.31456469921871788 0.048028881697348168 0 0.31750720709783492 0.060828210965220328 0 0.31456469921871788 0.048028881697348168 0 0.31750720709783492 0.060828210965220328 0 0.30386903740065402 0.05697431224277244 0 0.31750720709783492 0.060828210965220328 0 0.30386903740065402 0.05697431224277244 0 0.30506359630307739 0.067813250175554993 0 0.31456469921871788 0.048028881697348168 0 0.30386903740065402 0.05697431224277244 0 0.29084430350535467 0.044944761378613682 0 0.30386903740065402 0.05697431224277244 0 0.29325963230024937 0.057606978803657879 0 0.29690158384745241 0.06457818982176422 0 0.31456469921871788 0.048028881697348168 0 0.30257644158749403 0.037675663858353942 0 0.29084430350535467 0.044944761378613682 0 0.31456469921871788 0.048028881697348168 0 0.29084430350535467 0.044944761378613682 0 0.30257644158749403 0.037675663858353942 0 0.28728110375769011 0.032980092644635972 0 0.30595588987094691 0.026092456194660541 0 0.31497710433926901 0.036033128519756527 0 0.31456469921871788 0.048028881697348168 0 0.30257644158749403 0.037675663858353942 0 0.31497710433926901 0.036033128519756527 0 0.30257644158749403 0.037675663858353942 0 0.30595588987094691 0.026092456194660541 0 0.28728110375769011 0.032980092644635972 0 0.28354425329012439 0.021068516806879451 0 0.27754771987688809 0.040797440569893019 0 0.30257644158749403 0.037675663858353942 0 0.29084430350535467 0.044944761378613682 0 0.28728110375769011 0.032980092644635972 0 0.28728110375769011 0.032980092644635972 0 0.2844924432277231 0.043204628682168907 0 0.27754771987688809 0.040797440569893019 0 0.29084430350535467 0.044944761378613682 0 0.28728110375769011 0.032980092644635972 0 0.2844924432277231 0.043204628682168907 0 0.2844924432277231 0.043204628682168907 0 0.28229664577095948 0.054096220135532967 0 0.27754771987688809 0.040797440569893019 0 0.29084430350535467 0.044944761378613682 0 0.2844924432277231 0.043204628682168907 0 0.28229664577095948 0.054096220135532967 0 0.29084430350535467 0.044944761378613682 0 0.28229664577095948 0.054096220135532967 0 0.29325963230024937 0.057606978803657879 0 0.28229664577095948 0.054096220135532967 0 0.28695696052130792 0.062426000594819037 0 0.29325963230024937 0.057606978803657879 0 0.28229664577095948 0.054096220135532967 0 0.28695696052130792 0.062426000594819037 0 0.27961998430175328 0.060695812266760227 0 0.28695696052130792 0.062426000594819037 0 0.29325963230024937 0.057606978803657879 0 0.29690158384745241 0.06457818982176422 0 0.30386903740065402 0.05697431224277244 0 0.29084430350535467 0.044944761378613682 0 0.29325963230024937 0.057606978803657879 0 0.31046320235639918 0.0067575729804437252 0 0.29633736445586178 0.016145334388179639 0 0.2895407867033607 0.0013395930438658619 0 0.31046320235639918 0.0067575729804437252 0 0.30595588987094691 0.026092456194660541 0 0.29633736445586178 0.016145334388179639 0 0.28728110375769011 0.032980092644635972 0 0.29633736445586178 0.016145334388179639 0 0.28354425329012439 0.021068516806879451 0 0.28728110375769011 0.032980092644635972 0 0.30595588987094691 0.026092456194660541 0 0.29633736445586178 0.016145334388179639 0 0.29633736445586178 0.016145334388179639 0 0.28354425329012439 0.021068516806879451 0 0.2895407867033607 0.0013395930438658619 0 0.28354425329012439 0.021068516806879451 0 0.2895407867033607 0.0013395930438658619 0 0.27605408581287011 0.0090157940159830471 0 0.28354425329012439 0.021068516806879451 0 0.2895407867033607 0.0013395930438658619 0 0.2895407867033607 0.0013395930438658619 0 0.27605408581287011 0.0090157940159830471 0 0.26778398551549509 -0.0036893303100333872 0 0.27605408581287011 0.0090157940159830471 0 0.26417056773795178 0.0090152440179189393 0 0.26778398551549509 -0.0036893303100333872 0 0.27605408581287011 0.0090157940159830471 0 0.26936383070045983 0.02007531215695801 0 0.26417056773795178 0.0090152440179189393 0 0.28354425329012439 0.021068516806879451 0 0.27754771987688809 0.040797440569893019 0 0.28354425329012439 0.021068516806879451 0 0.27605408581287011 0.0090157940159830471 0 0.26936383070045983 0.02007531215695801 0 0.28354425329012439 0.021068516806879451 0 0.26936383070045983 0.02007531215695801 0 0.27332262009486957 0.033728107725222278 0 0.26936383070045983 0.02007531215695801 0 0.26667678125960848 0.028969541142501901 0 0.27332262009486957 0.033728107725222278 0 0.26936383070045983 0.02007531215695801 0 0.26667678125960848 0.028969541142501901 0 0.25978705670837199 0.02772172808684556 0 0.26667678125960848 0.028969541142501901 0 0.25978705670837199 0.02772172808684556 0 0.26423361753473251 0.034353016600981737 0 0.24818833723327199 0.02644705719899533 0 0.25978705670837199 0.02772172808684556 0 0.25442723867738032 0.016379625870619269 0 0.24818833723327199 0.02644705719899533 0 0.25978705670837199 0.02772172808684556 0 0.25704478259505842 0.035809011079610743 0 0.26936383070045983 0.02007531215695801 0 0.25978705670837199 0.02772172808684556 0 0.25442723867738032 0.016379625870619269 0 0.26936383070045983 0.02007531215695801 0 0.25442723867738032 0.016379625870619269 0 0.26417056773795178 0.0090152440179189393 0 0.25442723867738032 0.016379625870619269 0 0.26417056773795178 0.0090152440179189393 0 0.25322369798355371 0.0032948183560677501 0 0.26417056773795178 0.0090152440179189393 0 0.25322369798355371 0.0032948183560677501 0 0.26778398551549509 -0.0036893303100333872 0 0.28229664577095948 0.054096220135532967 0 0.27155118646365262 0.060526364332906778 0 0.27754771987688809 0.040797440569893019 0 0.26803735397675288 0.057537922442449492 0 0.27155118646365262 0.060526364332906778 0 0.27754771987688809 0.040797440569893019 0 0.27155118646365262 0.060526364332906778 0 0.27754771987688809 0.040797440569893019 0 0.26803735397675288 0.057537922442449492 0 0.26717674565759131 0.061414912581717808 0 0.27155118646365262 0.060526364332906778 0 0.26803735397675288 0.057537922442449492 0 0.26717674565759131 0.061414912581717808 0 0.26717674565759131 0.061414912581717808 0 0.27082486665434358 0.062915996334918609 0 0.26717674565759131 0.061414912581717808 0 0.27155118646365262 0.060526364332906778 0 0.27082486665434358 0.062915996334918609 0 0.27155118646365262 0.060526364332906778 0 0.27082486665434358 0.062915996334918609 0 0.26803735397675288 0.057537922442449492 0 0.27155118646365262 0.060526364332906778 0 0.27155118646365262 0.060526364332906778 0 0.27961998430175328 0.060695812266760227 0 0.27767514445109232 0.065734664003783444 0 0.28229664577095948 0.054096220135532967 0 0.27155118646365262 0.060526364332906778 0 0.27961998430175328 0.060695812266760227 0 0.28354425329012439 0.021068516806879451 0 0.27754771987688809 0.040797440569893019 0 0.27332262009486957 0.033728107725222278 0 0.26803735397675288 0.057537922442449492 0 0.27754771987688809 0.040797440569893019 0 0.27332262009486957 0.033728107725222278 0 0.26803735397675288 0.057537922442449492 0 0.27332262009486957 0.033728107725222278 0 0.26337349528673171 0.044011131262296957 0 0.26803735397675288 0.057537922442449492 0 0.27332262009486957 0.033728107725222278 0 0.26667678125960848 0.028969541142501901 0 0.27332262009486957 0.033728107725222278 0 0.26423361753473251 0.034353016600981737 0 0.27332262009486957 0.033728107725222278 0 0.26337349528673171 0.044011131262296957 0 0.26423361753473251 0.034353016600981737 0 0.25978705670837199 0.02772172808684556 0 0.26423361753473251 0.034353016600981737 0 0.25704478259505842 0.035809011079610743 0 0.26337349528673171 0.044011131262296957 0 0.26423361753473251 0.034353016600981737 0 0.25704478259505842 0.035809011079610743 0 0.2492733855269578 0.041579555173777823 0 0.24818833723327199 0.02644705719899533 0 0.25704478259505842 0.035809011079610743 0 0.2492733855269578 0.041579555173777823 0 0.26337349528673171 0.044011131262296957 0 0.25704478259505842 0.035809011079610743 0 0.2492733855269578 0.041579555173777823 0 0.26803735397675288 0.057537922442449492 0 0.26337349528673171 0.044011131262296957 0 0.2492733855269578 0.041579555173777823 0 0.26803735397675288 0.057537922442449492 0 0.24629062771517271 0.052820950830226497 0 0.2492733855269578 0.041579555173777823 0 0.26803735397675288 0.057537922442449492 0 0.24874122334595 0.07170785510379532 0 0.24629062771517271 0.052820950830226497 0 0.26717674565759131 0.061414912581717808 0 0.24629062771517271 0.052820950830226497 0 0.26717674565759131 0.061414912581717808 0 0.24629062771517271 0.052820950830226497 0 0.26803735397675288 0.057537922442449492 0 0.26717674565759131 0.061414912581717808 0 0.24874122334595 0.07170785510379532 0 0.26717674565759131 0.061414912581717808 0 0.26207170159221099 0.084412837492877896 0 0.26717674565759131 0.061414912581717808 0 0.26207170159221099 0.084412837492877896 0 0.26717674565759131 0.061414912581717808 0 0.26459661937193729 0.083407271434054076 0 0.26207170159221099 0.084412837492877896 0 0.24736227196270541 0.090270970101712061 0 0.24874122334595 0.07170785510379532 0 0.26207170159221099 0.084412837492877896 0 0.24736227196270541 0.090270970101712061 0 0.26207170159221099 0.084412837492877896 0 0.24736227196270541 0.090270970101712061 0 0.26016144869860108 0.09301841504440217 0 0.25459763100830068 0.096141582858552177 0 0.24736227196270541 0.090270970101712061 0 0.26207170159221099 0.084412837492877896 0 0.26016144869860108 0.09301841504440217 0 0.24736227196270541 0.090270970101712061 0 0.25459763100830068 0.096141582858552177 0 0.26459661937193729 0.083407271434054076 0 0.26207170159221099 0.084412837492877896 0 0.26207170159221099 0.084412837492877896 0 0.26016144869860108 0.09301841504440217 0 0.26459661937193729 0.083407271434054076 0 0.2619867778419176 0.09199379318438361 0 0.26207170159221099 0.084412837492877896 0 0.2619867778419176 0.09199379318438361 0 0.26016144869860108 0.09301841504440217 0 0.26459661937193729 0.083407271434054076 0 0.26207170159221099 0.084412837492877896 0 0.2619867778419176 0.09199379318438361 0 0.2619867778419176 0.09199379318438361 0 0.26016144869860108 0.09301841504440217 0 0.26459661937193729 0.083407271434054076 0 0.28765643041333783 0.074223541376674432 0 0.26459661937193729 0.083407271434054076 0 0.27601190449835611 0.084120993139366301 0 0.28765643041333783 0.074223541376674432 0 0.2619867778419176 0.09199379318438361 0 0.27601190449835611 0.084120993139366301 0 0.27597760534302263 0.093816081557894046 0 0.2619867778419176 0.09199379318438361 0 0.27601190449835611 0.084120993139366301 0 0.26459661937193729 0.083407271434054076 0 0.2619867778419176 0.09199379318438361 0 0.27601190449835611 0.084120993139366301 0 0.27601190449835611 0.084120993139366301 0 0.28527214605629803 0.093542631019163408 0 0.27597760534302263 0.093816081557894046 0 0.26459661937193729 0.083407271434054076 0 0.27082486665434358 0.062915996334918609 0 0.26717674565759131 0.061414912581717808 0 0.26459661937193729 0.083407271434054076 0 0.27082486665434358 0.062915996334918609 0 0.26459661937193729 0.083407271434054076 0 0.27082486665434358 0.062915996334918609 0 0.27767514445109232 0.065734664003783444 0 0.26459661937193729 0.083407271434054076 0 0.27767514445109232 0.065734664003783444 0 0.28765643041333783 0.074223541376674432 0 0.27155118646365262 0.060526364332906778 0 0.27082486665434358 0.062915996334918609 0 0.27767514445109232 0.065734664003783444 0 0.27082486665434358 0.062915996334918609 0 0.27767514445109232 0.065734664003783444 0 0.27155118646365262 0.060526364332906778 0 0.27767514445109232 0.065734664003783444 0 0.27767514445109232 0.065734664003783444 0 0.28765643041333783 0.074223541376674432 0 0.27767514445109232 0.065734664003783444 0 0.29306802488508721 0.072068336257275281 0 0.28695696052130792 0.062426000594819037 0 0.27961998430175328 0.060695812266760227 0 0.27767514445109232 0.065734664003783444 0 0.28695696052130792 0.062426000594819037 0 0.27767514445109232 0.065734664003783444 0 0.29306802488508721 0.072068336257275281 0 0.28695696052130792 0.062426000594819037 0 0.29306802488508721 0.072068336257275281 0 0.29690158384745241 0.06457818982176422 0 0.29561576852942001 0.073116650333272012 0 0.29306802488508721 0.072068336257275281 0 0.29561576852942001 0.073116650333272012 0 0.29306802488508721 0.072068336257275281 0 0.29003703115479512 0.076248193094349867 0 0.29306802488508721 0.072068336257275281 0 0.28765643041333783 0.074223541376674432 0 0.29306802488508721 0.072068336257275281 0 0.29003703115479512 0.076248193094349867 0 0.28765643041333783 0.074223541376674432 0 0.29561576852942001 0.073116650333272012 0 0.29003703115479512 0.076248193094349867 0 0.27767514445109232 0.065734664003783444 0 0.29306802488508721 0.072068336257275281 0 0.28765643041333783 0.074223541376674432 0 0.29003703115479512 0.076248193094349867 0 0.28765643041333783 0.074223541376674432 0 0.27601190449835611 0.084120993139366301 0 0.29003703115479512 0.076248193094349867 0 0.27601190449835611 0.084120993139366301 0 0.29003703115479512 0.076248193094349867 0 0.28765643041333783 0.074223541376674432 0 0.27601190449835611 0.084120993139366301 0 0.29003703115479512 0.076248193094349867 0 0.28870857493654689 0.086239244916881869 0 0.27601190449835611 0.084120993139366301 0 0.28870857493654689 0.086239244916881869 0 0.28527214605629803 0.093542631019163408 0 0.28870857493654689 0.086239244916881869 0 0.28527214605629803 0.093542631019163408 0 0.29246213629446111 0.095768124011444758 0 0.28870857493654689 0.086239244916881869 0 0.29698271976236568 0.089899813846382556 0 0.29246213629446111 0.095768124011444758 0 0.29003703115479512 0.076248193094349867 0 0.28870857493654689 0.086239244916881869 0 0.29698271976236568 0.089899813846382556 0 0.29561576852942001 0.073116650333272012 0 0.29003703115479512 0.076248193094349867 0 0.31111548734401751 0.094174984339189319 0 0.29003703115479512 0.076248193094349867 0 0.31111548734401751 0.094174984339189319 0 0.29003703115479512 0.076248193094349867 0 0.29698271976236568 0.089899813846382556 0 0.31111548734401751 0.094174984339189319 0 0.3184977734976509 0.082531855017860187 0 0.29561576852942001 0.073116650333272012 0 0.31111548734401751 0.094174984339189319 0 0.3184977734976509 0.082531855017860187 0 0.29561576852942001 0.073116650333272012 0 0.3184977734976509 0.082531855017860187 0 0.29561576852942001 0.073116650333272012 0 0.30506359630307739 0.067813250175554993 0 0.31750720709783492 0.060828210965220328 0 0.30506359630307739 0.067813250175554993 0 0.29306802488508721 0.072068336257275281 0 0.30506359630307739 0.067813250175554993 0 0.29690158384745241 0.06457818982176422 0 0.30386903740065402 0.05697431224277244 0 0.30506359630307739 0.067813250175554993 0 0.29690158384745241 0.06457818982176422 0 0.29306802488508721 0.072068336257275281 0 0.30506359630307739 0.067813250175554993 0 0.29561576852942001 0.073116650333272012 0 0.30506359630307739 0.067813250175554993 0 0.29561576852942001 0.073116650333272012 0 0.29306802488508721 0.072068336257275281 0 0.30506359630307739 0.067813250175554993 0 0.31151194808720201 0.1150643222194616 0 0.30247500772594699 0.1071381656543656 0 0.29129275041579278 0.1172303442398579 0 0.31151194808720201 0.1150643222194616 0 0.29622008012258699 0.12991313160987961 0 0.32387679174541939 0.1297141718462434 0 0.31151194808720201 0.1150643222194616 0 0.29129275041579278 0.1172303442398579 0 0.29622008012258699 0.12991313160987961 0 0.31151194808720201 0.1150643222194616 0 0.31111548734401751 0.094174984339189319 0 0.30247500772594699 0.1071381656543656 0 0.31111548734401751 0.094174984339189319 0 0.30128354362195031 0.098124169066782854 0 0.30247500772594699 0.1071381656543656 0 0.29698271976236568 0.089899813846382556 0 0.30128354362195031 0.098124169066782854 0 0.29246213629446111 0.095768124011444758 0 0.29698271976236568 0.089899813846382556 0 0.31111548734401751 0.094174984339189319 0 0.30128354362195031 0.098124169066782854 0 0.30128354362195031 0.098124169066782854 0 0.30247500772594699 0.1071381656543656 0 0.29260899031297011 0.10538418601464609 0 0.29260899031297011 0.10538418601464609 0 0.29246213629446111 0.095768124011444758 0 0.28702757351663483 0.1001100210532227 0 0.30128354362195031 0.098124169066782854 0 0.29260899031297011 0.10538418601464609 0 0.29246213629446111 0.095768124011444758 0 0.28527214605629803 0.093542631019163408 0 0.29246213629446111 0.095768124011444758 0 0.28702757351663483 0.1001100210532227 0 0.28527214605629803 0.093542631019163408 0 0.28702757351663483 0.1001100210532227 0 0.28108272677848523 0.099874609951530163 0 0.29260899031297011 0.10538418601464609 0 0.28356239405763972 0.106033323917978 0 0.28664880997705461 0.11131452551203889 0 0.29260899031297011 0.10538418601464609 0 0.28702757351663483 0.1001100210532227 0 0.28356239405763972 0.106033323917978 0 0.28702757351663483 0.1001100210532227 0 0.28356239405763972 0.106033323917978 0 0.28108272677848523 0.099874609951530163 0 0.28356239405763972 0.106033323917978 0 0.2814598539497668 0.10990299155730229 0 0.28664880997705461 0.11131452551203889 0 0.27786688771157569 0.1150217509861922 0 0.29622008012258699 0.12991313160987961 0 0.28664880997705461 0.11131452551203889 0 0.29129275041579278 0.1172303442398579 0 0.27786688771157569 0.1150217509861922 0 0.27786688771157569 0.1150217509861922 0 0.27913813953766042 0.12972245958528131 0 0.29622008012258699 0.12991313160987961 0 0.29129275041579278 0.1172303442398579 0 0.27786688771157569 0.1150217509861922 0 0.29622008012258699 0.12991313160987961 0 0.2814598539497668 0.10990299155730229 0 0.28664880997705461 0.11131452551203889 0 0.27786688771157569 0.1150217509861922 0 0.30247500772594699 0.1071381656543656 0 0.29260899031297011 0.10538418601464609 0 0.29129275041579278 0.1172303442398579 0 0.29260899031297011 0.10538418601464609 0 0.28664880997705461 0.11131452551203889 0 0.29129275041579278 0.1172303442398579 0 0.27418517611644572 0.1163335826691398 0 0.26638390190257438 0.1102685147937751 0 0.25655208948606423 0.10927836717886751 0 0.27786688771157569 0.1150217509861922 0 0.27418517611644572 0.1163335826691398 0 0.27913813953766042 0.12972245958528131 0 0.27418517611644572 0.1163335826691398 0 0.27248198541775659 0.12784311929978001 0 0.27913813953766042 0.12972245958528131 0 0.2814598539497668 0.10990299155730229 0 0.27786688771157569 0.1150217509861922 0 0.27702128122739278 0.10689832557857171 0 0.27786688771157569 0.1150217509861922 0 0.27418517611644572 0.1163335826691398 0 0.26638390190257438 0.1102685147937751 0 0.27418517611644572 0.1163335826691398 0 0.26888095198589312 0.11979825388229511 0 0.26487973471170051 0.1148861259760711 0 0.27418517611644572 0.1163335826691398 0 0.26888095198589312 0.11979825388229511 0 0.27248198541775659 0.12784311929978001 0 0.26888095198589312 0.11979825388229511 0 0.26519442307348812 0.1188177922564181 0 0.26487973471170051 0.1148861259760711 0 0.26888095198589312 0.11979825388229511 0 0.26562400985315288 0.1251654340079911 0 0.27248198541775659 0.12784311929978001 0 0.26888095198589312 0.11979825388229511 0 0.26519442307348812 0.1188177922564181 0 0.26562400985315288 0.1251654340079911 0 0.27786688771157569 0.1150217509861922 0 0.26638390190257438 0.1102685147937751 0 0.25872482925013801 0.09949030162923457 0 0.27786688771157569 0.1150217509861922 0 0.25872482925013801 0.09949030162923457 0 0.27786688771157569 0.1150217509861922 0 0.27150352658480642 0.1040925172930806 0 0.25872482925013801 0.09949030162923457 0 0.28527214605629803 0.093542631019163408 0 0.27597760534302263 0.093816081557894046 0 0.28108272677848523 0.099874609951530163 0 0.27597760534302263 0.093816081557894046 0 0.28108272677848523 0.099874609951530163 0 0.27461357126647679 0.10027579108255071 0 0.27786688771157569 0.1150217509861922 0 0.27702128122739278 0.10689832557857171 0 0.27150352658480642 0.1040925172930806 0 0.27461357126647679 0.10027579108255071 0 0.27702128122739278 0.10689832557857171 0 0.27150352658480642 0.1040925172930806 0 0.28356239405763972 0.106033323917978 0 0.28108272677848523 0.099874609951530163 0 0.27702128122739278 0.10689832557857171 0 0.28108272677848523 0.099874609951530163 0 0.27461357126647679 0.10027579108255071 0 0.27702128122739278 0.10689832557857171 0 0.28356239405763972 0.106033323917978 0 0.2814598539497668 0.10990299155730229 0 0.27702128122739278 0.10689832557857171 0 0.2619867778419176 0.09199379318438361 0 0.27597760534302263 0.093816081557894046 0 0.26850219741802223 0.0981363484555835 0 0.27150352658480642 0.1040925172930806 0 0.26850219741802223 0.0981363484555835 0 0.25872482925013801 0.09949030162923457 0 0.27461357126647679 0.10027579108255071 0 0.27150352658480642 0.1040925172930806 0 0.26850219741802223 0.0981363484555835 0 0.27597760534302263 0.093816081557894046 0 0.27461357126647679 0.10027579108255071 0 0.26850219741802223 0.0981363484555835 0 0.2619867778419176 0.09199379318438361 0 0.26850219741802223 0.0981363484555835 0 0.25872482925013801 0.09949030162923457 0 0.2619867778419176 0.09199379318438361 0 0.26016144869860108 0.09301841504440217 0 0.25872482925013801 0.09949030162923457 0 0.2619867778419176 0.09199379318438361 0 0.25872482925013801 0.09949030162923457 0 0.26016144869860108 0.09301841504440217 0 0.25872482925013801 0.09949030162923457 0 0.26016144869860108 0.09301841504440217 0 0.25872482925013801 0.09949030162923457 0 0.25459763100830068 0.096141582858552177 0 0.26638390190257438 0.1102685147937751 0 0.25872482925013801 0.09949030162923457 0 0.26054083413963042 0.1068609537315081 0 0.26638390190257438 0.1102685147937751 0 0.26054083413963042 0.1068609537315081 0 0.25655208948606423 0.10927836717886751 0 0.25872482925013801 0.09949030162923457 0 0.258042440935632 0.10497087790269199 0 0.26054083413963042 0.1068609537315081 0 0.25872482925013801 0.09949030162923457 0 0.258042440935632 0.10497087790269199 0 0.258042440935632 0.10497087790269199 0 0.26054083413963042 0.1068609537315081 0 0.25655208948606423 0.10927836717886751 0 0.25872482925013801 0.09949030162923457 0 0.25655208948606423 0.10927836717886751 0 0.25872482925013801 0.09949030162923457 0 0.25655208948606423 0.10927836717886751 0 0.25459763100830068 0.096141582858552177 0 0.24174744587836799 0.1033548466348798 0 0.25655208948606423 0.10927836717886751 0 0.25459763100830068 0.096141582858552177 0 0.25872482925013801 0.09949030162923457 0 0.258042440935632 0.10497087790269199 0 0.25655208948606423 0.10927836717886751 0 0.25872482925013801 0.09949030162923457 0 0.25459763100830068 0.096141582858552177 0 0.26016144869860108 0.09301841504440217 0 0.25459763100830068 0.096141582858552177 0 0.27418517611644572 0.1163335826691398 0 0.25655208948606423 0.10927836717886751 0 0.26487973471170051 0.1148861259760711 0 0.27418517611644572 0.1163335826691398 0 0.25655208948606423 0.10927836717886751 0 0.2613903323121034 0.11972876860365821 0 0.25824300399834771 0.11754386918627879 0 0.25813574029091341 0.12532111527980791 0 0.2613903323121034 0.11972876860365821 0 0.25824300399834771 0.11754386918627879 0 0.26064106818342869 0.11649387083006101 0 0.2613903323121034 0.11972876860365821 0 0.26303182906276251 0.1167652494283456 0 0.26064106818342869 0.11649387083006101 0 0.2613903323121034 0.11972876860365821 0 0.25813574029091341 0.12532111527980791 0 0.26562400985315288 0.1251654340079911 0 0.2613903323121034 0.11972876860365821 0 0.26519442307348812 0.1188177922564181 0 0.26562400985315288 0.1251654340079911 0 0.2613903323121034 0.11972876860365821 0 0.26519442307348812 0.1188177922564181 0 0.26303182906276251 0.1167652494283456 0 0.26487973471170051 0.1148861259760711 0 0.2618287337373767 0.1148464313763837 0 0.2589676606418963 0.1122376160430168 0 0.25655208948606423 0.10927836717886751 0 0.26487973471170051 0.1148861259760711 0 0.2589676606418963 0.1122376160430168 0 0.26519442307348812 0.1188177922564181 0 0.26487973471170051 0.1148861259760711 0 0.26303182906276251 0.1167652494283456 0 0.26487973471170051 0.1148861259760711 0 0.2618287337373767 0.1148464313763837 0 0.26303182906276251 0.1167652494283456 0 0.2618287337373767 0.1148464313763837 0 0.26303182906276251 0.1167652494283456 0 0.26064106818342869 0.11649387083006101 0 0.2618287337373767 0.1148464313763837 0 0.26064106818342869 0.11649387083006101 0 0.26015078570541528 0.1146524558252945 0 0.2618287337373767 0.1148464313763837 0 0.2589676606418963 0.1122376160430168 0 0.26015078570541528 0.1146524558252945 0 0.2589676606418963 0.1122376160430168 0 0.26015078570541528 0.1146524558252945 0 0.25777400528710798 0.1147846643059361 0 0.25824300399834771 0.11754386918627879 0 0.26015078570541528 0.1146524558252945 0 0.25777400528710798 0.1147846643059361 0 0.25824300399834771 0.11754386918627879 0 0.26064106818342869 0.11649387083006101 0 0.26015078570541528 0.1146524558252945 0 0.24646482385440791 0.1109165710353929 0 0.25655208948606423 0.10927836717886751 0 0.255186127323073 0.11543194682551421 0 0.25824300399834771 0.11754386918627879 0 0.25777400528710798 0.1147846643059361 0 0.255186127323073 0.11543194682551421 0 0.2589676606418963 0.1122376160430168 0 0.25777400528710798 0.1147846643059361 0 0.255186127323073 0.11543194682551421 0 0.25655208948606423 0.10927836717886751 0 0.255186127323073 0.11543194682551421 0 0.25655208948606423 0.10927836717886751 0 0.2589676606418963 0.1122376160430168 0 0.255186127323073 0.11543194682551421 0 0.255186127323073 0.11543194682551421 0 0.25238596385504641 0.12804651946228041 0 0.24420216851797599 0.1292372680552665 0 0.255186127323073 0.11543194682551421 0 0.25238596385504641 0.12804651946228041 0 0.255186127323073 0.11543194682551421 0 0.25238596385504641 0.12804651946228041 0 0.25813574029091341 0.12532111527980791 0 0.25824300399834771 0.11754386918627879 0 0.255186127323073 0.11543194682551421 0 0.25813574029091341 0.12532111527980791 0 0.25238596385504641 0.12804651946228041 0 0.25813574029091341 0.12532111527980791 0 0.26818611498992623 0.1403022215883418 0 0.24420216851797599 0.1292372680552665 0 0.26818611498992623 0.1403022215883418 0 0.24301228879775941 0.13939302681245261 0 0.24420216851797599 0.1292372680552665 0 0.26818611498992623 0.1403022215883418 0 0.24420216851797599 0.1292372680552665 0 0.25238596385504641 0.12804651946228041 0 0.26818611498992623 0.1403022215883418 0 0.25813574029091341 0.12532111527980791 0 0.26562400985315288 0.1251654340079911 0 0.26818611498992623 0.1403022215883418 0 0.27248198541775659 0.12784311929978001 0 0.26818611498992623 0.1403022215883418 0 0.27913813953766042 0.12972245958528131 0 0.26562400985315288 0.1251654340079911 0 0.27248198541775659 0.12784311929978001 0 0.26818611498992623 0.1403022215883418 0 0.26818611498992623 0.1403022215883418 0 0.27913813953766042 0.12972245958528131 0 0.28414721419066807 0.1482284927670183 0 0.26818611498992623 0.1403022215883418 0 0.26583546295036609 0.16369396270660089 0 0.28414721419066807 0.1482284927670183 0 0.26818611498992623 0.1403022215883418 0 0.25486404381895789 0.1523024957907583 0 0.26583546295036609 0.16369396270660089 0 0.24301228879775941 0.13939302681245261 0 0.26818611498992623 0.1403022215883418 0 0.25486404381895789 0.1523024957907583 0 0.2424223085377801 0.16582077205563811 0 0.25486404381895789 0.1523024957907583 0 0.26583546295036609 0.16369396270660089 0 0.2424223085377801 0.16582077205563811 0 0.26032431562704572 0.18342712708893841 0 0.26583546295036609 0.16369396270660089 0 0.26032431562704572 0.18342712708893841 0 0.27712404590978218 0.18082877805207789 0 0.26583546295036609 0.16369396270660089 0 0.27712404590978218 0.18082877805207789 0 0.26583546295036609 0.16369396270660089 0 0.28977860037431658 0.16805367250728201 0 0.26583546295036609 0.16369396270660089 0 0.28977860037431658 0.16805367250728201 0 0.28414721419066807 0.1482284927670183 0 0.27712404590978218 0.18082877805207789 0 0.28977860037431658 0.16805367250728201 0 0.29478084704188562 0.18627619782702401 0 0.28977860037431658 0.16805367250728201 0 0.29478084704188562 0.18627619782702401 0 0.31259037162619269 0.16725562300018509 0 0.29478084704188562 0.18627619782702401 0 0.31732062797233113 0.1926592597090995 0 0.31259037162619269 0.16725562300018509 0 0.28977860037431658 0.16805367250728201 0 0.29946190776947251 0.15165108642358641 0 0.31259037162619269 0.16725562300018509 0 0.29946190776947251 0.15165108642358641 0 0.31457327253359829 0.14480451223356691 0 0.31259037162619269 0.16725562300018509 0 0.29946190776947251 0.15165108642358641 0 0.29622008012258699 0.12991313160987961 0 0.31457327253359829 0.14480451223356691 0 0.29622008012258699 0.12991313160987961 0 0.31457327253359829 0.14480451223356691 0 0.29622008012258699 0.12991313160987961 0 0.32387679174541939 0.1297141718462434 0 0.31457327253359829 0.14480451223356691 0 0.27913813953766042 0.12972245958528131 0 0.29622008012258699 0.12991313160987961 0 0.28414721419066807 0.1482284927670183 0 0.29946190776947251 0.15165108642358641 0 0.29622008012258699 0.12991313160987961 0 0.28414721419066807 0.1482284927670183 0 0.28977860037431658 0.16805367250728201 0 0.29946190776947251 0.15165108642358641 0 0.28414721419066807 0.1482284927670183 0 0.27355486584907379 0.24364475180805101 0 0.25452501640087027 0.2374112721999547 0 0.26408278890255732 0.22479217687295791 0 0.25404003316197471 0.25208422786308371 0 0.27355486584907379 0.24364475180805101 0 0.25452501640087027 0.2374112721999547 0 0.24523436150048811 0.24199469982198529 0 0.25404003316197471 0.25208422786308371 0 0.25452501640087027 0.2374112721999547 0 0.24868260911088891 0.2303107595792985 0 0.2471090749199483 0.2357199094212839 0 0.25452501640087027 0.2374112721999547 0 0.24868260911088891 0.2303107595792985 0 0.25452501640087027 0.2374112721999547 0 0.26408278890255732 0.22479217687295791 0 0.24868260911088891 0.2303107595792985 0 0.26408278890255732 0.22479217687295791 0 0.25357276657721323 0.21641202867955539 0 0.27355486584907379 0.24364475180805101 0 0.26408278890255732 0.22479217687295791 0 0.28109637724199782 0.22150209212538899 0 0.26408278890255732 0.22479217687295791 0 0.28109637724199782 0.22150209212538899 0 0.27306509823529962 0.19947215684549871 0 0.26408278890255732 0.22479217687295791 0 0.25357276657721323 0.21641202867955539 0 0.27306509823529962 0.19947215684549871 0 0.25357276657721323 0.21641202867955539 0 0.25471258750952741 0.20148162901819469 0 0.27306509823529962 0.19947215684549871 0 0.25357276657721323 0.21641202867955539 0 0.27306509823529962 0.19947215684549871 0 0.2418323282778008 0.1922485172988235 0 0.26032431562704572 0.18342712708893841 0 0.25471258750952741 0.20148162901819469 0 0.26032431562704572 0.18342712708893841 0 0.25471258750952741 0.20148162901819469 0 0.27306509823529962 0.19947215684549871 0 0.26032431562704572 0.18342712708893841 0 0.27712404590978218 0.18082877805207789 0 0.27306509823529962 0.19947215684549871 0 0.29478084704188562 0.18627619782702401 0 0.27306509823529962 0.19947215684549871 0 0.29788838547339219 0.20777731020547871 0 0.27712404590978218 0.18082877805207789 0 0.29478084704188562 0.18627619782702401 0 0.27306509823529962 0.19947215684549871 0 0.29478084704188562 0.18627619782702401 0 0.29788838547339219 0.20777731020547871 0 0.31732062797233113 0.1926592597090995 0 0.29788838547339219 0.20777731020547871 0 0.31916040529159301 0.2166328624030785 0 0.31732062797233113 0.1926592597090995 0 0.28109637724199782 0.22150209212538899 0 0.27306509823529962 0.19947215684549871 0 0.29788838547339219 0.20777731020547871 0 0.28109637724199782 0.22150209212538899 0 0.29788838547339219 0.20777731020547871 0 0.29668368374297521 0.23238313674276659 0 0.27355486584907379 0.24364475180805101 0 0.28109637724199782 0.22150209212538899 0 0.29668368374297521 0.23238313674276659 0 0.29788838547339219 0.20777731020547871 0 0.29668368374297521 0.23238313674276659 0 0.31916040529159301 0.2166328624030785 0 0.29692855903906679 0.25537037528416417 0 0.29668368374297521 0.23238313674276659 0 0.32448256229391081 0.244023600812113 0 0.29692855903906679 0.25537037528416417 0 0.27355486584907379 0.24364475180805101 0 0.29668368374297521 0.23238313674276659 0 0.32448256229391081 0.244023600812113 0 0.33724611662768478 0.226971671205 0 0.35052125483258301 0.2434514759103418 0 0.32448256229391081 0.244023600812113 0 0.33724611662768478 0.226971671205 0 0.31916040529159301 0.2166328624030785 0 0.29668368374297521 0.23238313674276659 0 0.32448256229391081 0.244023600812113 0 0.31916040529159301 0.2166328624030785 0 0.33724611662768478 0.226971671205 0 0.31916040529159301 0.2166328624030785 0 0.34036716376080012 0.20191553243135291 0 0.31916040529159301 0.2166328624030785 0 0.31732062797233113 0.1926592597090995 0 0.34036716376080012 0.20191553243135291 0 0.31732062797233113 0.1926592597090995 0 0.34036716376080012 0.20191553243135291 0 0.33327910971122948 0.1769249887409369 0 0.34036716376080012 0.20191553243135291 0 0.33327910971122948 0.1769249887409369 0 0.35363051640006049 0.1838751638919715 0 0.34036716376080012 0.20191553243135291 0 0.36940151407566268 0.20038014978660379 0 0.35363051640006049 0.1838751638919715 0 0.36940151407566268 0.20038014978660379 0 0.35418005050780299 0.2186338278764331 0 0.36970064025412291 0.2313836502337521 0 0.34036716376080012 0.20191553243135291 0 0.36940151407566268 0.20038014978660379 0 0.35418005050780299 0.2186338278764331 0 0.33724611662768478 0.226971671205 0 0.34036716376080012 0.20191553243135291 0 0.35418005050780299 0.2186338278764331 0 0.33724611662768478 0.226971671205 0 0.35418005050780299 0.2186338278764331 0 0.35052125483258301 0.2434514759103418 0 0.35418005050780299 0.2186338278764331 0 0.36970064025412291 0.2313836502337521 0 0.35052125483258301 0.2434514759103418 0 0.37478492512234668 0.26235925763296819 0 0.36970064025412291 0.2313836502337521 0 0.35052125483258301 0.2434514759103418 0 0.33497932682518311 0.1519205034936916 0 0.32387679174541939 0.1297141718462434 0 0.35327239972246333 0.1300285668288671 0 0.33497932682518311 0.1519205034936916 0 0.31457327253359829 0.14480451223356691 0 0.31259037162619269 0.16725562300018509 0 0.33497932682518311 0.1519205034936916 0 0.32387679174541939 0.1297141718462434 0 0.31457327253359829 0.14480451223356691 0 0.33497932682518311 0.1519205034936916 0 0.31259037162619269 0.16725562300018509 0 0.33327910971122948 0.1769249887409369 0 0.31732062797233113 0.1926592597090995 0 0.31259037162619269 0.16725562300018509 0 0.33327910971122948 0.1769249887409369 0 0.33497932682518311 0.1519205034936916 0 0.33327910971122948 0.1769249887409369 0 0.34907151432127381 0.16521020144779211 0 0.34907151432127381 0.16521020144779211 0 0.35363051640006049 0.1838751638919715 0 0.37277469716236061 0.17385369407461371 0 0.33327910971122948 0.1769249887409369 0 0.34907151432127381 0.16521020144779211 0 0.35363051640006049 0.1838751638919715 0 0.36940151407566268 0.20038014978660379 0 0.35363051640006049 0.1838751638919715 0 0.37277469716236061 0.17385369407461371 0 0.37277469716236061 0.17385369407461371 0 0.36285879787080821 0.15032831482926681 0 0.3843829660287168 0.1587008111838667 0 0.34907151432127381 0.16521020144779211 0 0.37277469716236061 0.17385369407461371 0 0.36285879787080821 0.15032831482926681 0 0.36285879787080821 0.15032831482926681 0 0.36938385952287339 0.13266757129752671 0 0.38232915319187621 0.14145147187989651 0 0.33497932682518311 0.1519205034936916 0 0.36285879787080821 0.15032831482926681 0 0.35327239972246333 0.1300285668288671 0 0.33497932682518311 0.1519205034936916 0 0.34907151432127381 0.16521020144779211 0 0.36285879787080821 0.15032831482926681 0 0.36649271172908648 0.1176987398754743 0 0.35327239972246333 0.1300285668288671 0 0.36938385952287339 0.13266757129752671 0 0.36285879787080821 0.15032831482926681 0 0.35327239972246333 0.1300285668288671 0 0.36938385952287339 0.13266757129752671 0 0.39421974672685411 0.13240309148155921 0 0.38232915319187621 0.14145147187989651 0 0.38138511069115272 0.12353481432135879 0 0.36938385952287339 0.13266757129752671 0 0.38232915319187621 0.14145147187989651 0 0.38138511069115272 0.12353481432135879 0 0.39421974672685411 0.13240309148155921 0 0.41199731756477831 0.13352747615702071 0 0.3942733283070321 0.11371104406223111 0 0.39421974672685411 0.13240309148155921 0 0.40120830104283178 0.15077536395034899 0 0.41199731756477831 0.13352747615702071 0 0.39421974672685411 0.13240309148155921 0 0.40120830104283178 0.15077536395034899 0 0.38232915319187621 0.14145147187989651 0 0.36285879787080821 0.15032831482926681 0 0.38232915319187621 0.14145147187989651 0 0.3843829660287168 0.1587008111838667 0 0.40120830104283178 0.15077536395034899 0 0.38232915319187621 0.14145147187989651 0 0.3843829660287168 0.1587008111838667 0 0.37277469716236061 0.17385369407461371 0 0.3843829660287168 0.1587008111838667 0 0.39936082591505218 0.176604797209717 0 0.37277469716236061 0.17385369407461371 0 0.39936082591505218 0.176604797209717 0 0.38992891259608609 0.19548318162929729 0 0.40120830104283178 0.15077536395034899 0 0.39936082591505218 0.176604797209717 0 0.41410660213767347 0.1652382216241598 0 0.40120830104283178 0.15077536395034899 0 0.3843829660287168 0.1587008111838667 0 0.39936082591505218 0.176604797209717 0 0.40120830104283178 0.15077536395034899 0 0.41410660213767347 0.1652382216241598 0 0.42972130682252457 0.1533439082518103 0 0.39936082591505218 0.176604797209717 0 0.41410660213767347 0.1652382216241598 0 0.42626679864566441 0.18172907206941921 0 0.42626679864566441 0.18172907206941921 0 0.42972130682252457 0.1533439082518103 0 0.45055708181009879 0.1690731760043504 0 0.41410660213767347 0.1652382216241598 0 0.42626679864566441 0.18172907206941921 0 0.42972130682252457 0.1533439082518103 0 0.42972130682252457 0.1533439082518103 0 0.43054248402473921 0.1250848439374013 0 0.44904083753606949 0.1441389705362057 0 0.42972130682252457 0.1533439082518103 0 0.43054248402473921 0.1250848439374013 0 0.41199731756477831 0.13352747615702071 0 0.43054248402473921 0.1250848439374013 0 0.41199731756477831 0.13352747615702071 0 0.41135066019799099 0.1182158826350982 0 0.40120830104283178 0.15077536395034899 0 0.42972130682252457 0.1533439082518103 0 0.41199731756477831 0.13352747615702071 0 0.42972130682252457 0.1533439082518103 0 0.41199731756477831 0.13352747615702071 0 0.40097752291506289 0.25902709479471048 0 0.39333580902427501 0.24081282939082621 0 0.41286841049430861 0.24788583003777651 0 0.37478492512234668 0.26235925763296819 0 0.36970064025412291 0.2313836502337521 0 0.39333580902427501 0.24081282939082621 0 0.36970064025412291 0.2313836502337521 0 0.39333580902427501 0.24081282939082621 0 0.39338333076520482 0.2163019563834182 0 0.39338333076520482 0.2163019563834182 0 0.41736514745474701 0.23222376298023259 0 0.39333580902427501 0.24081282939082621 0 0.39338333076520482 0.2163019563834182 0 0.41736514745474701 0.23222376298023259 0 0.39338333076520482 0.2163019563834182 0 0.38992891259608609 0.19548318162929729 0 0.41508715600771068 0.20488700545500521 0 0.36940151407566268 0.20038014978660379 0 0.39338333076520482 0.2163019563834182 0 0.36940151407566268 0.20038014978660379 0 0.39338333076520482 0.2163019563834182 0 0.38992891259608609 0.19548318162929729 0 0.36940151407566268 0.20038014978660379 0 0.36970064025412291 0.2313836502337521 0 0.39338333076520482 0.2163019563834182 0 0.36940151407566268 0.20038014978660379 0 0.37277469716236061 0.17385369407461371 0 0.38992891259608609 0.19548318162929729 0 0.39936082591505218 0.176604797209717 0 0.38992891259608609 0.19548318162929729 0 0.41508715600771068 0.20488700545500521 0 0.39936082591505218 0.176604797209717 0 0.42626679864566441 0.18172907206941921 0 0.41508715600771068 0.20488700545500521 0 0.42626679864566441 0.18172907206941921 0 0.44140000057487638 0.20455834627575151 0 0.44473765559285833 0.18692520255949671 0 0.42626679864566441 0.18172907206941921 0 0.41508715600771068 0.20488700545500521 0 0.44140000057487638 0.20455834627575151 0 0.41508715600771068 0.20488700545500521 0 0.43790507610234408 0.2273079216372012 0 0.44140000057487638 0.20455834627575151 0 0.39338333076520482 0.2163019563834182 0 0.41508715600771068 0.20488700545500521 0 0.41736514745474701 0.23222376298023259 0 0.41508715600771068 0.20488700545500521 0 0.41736514745474701 0.23222376298023259 0 0.43790507610234408 0.2273079216372012 0 0.42717012070777932 0.25569493195645271 0 0.41736514745474701 0.23222376298023259 0 0.44134696414428898 0.24814556957704689 0 0.41736514745474701 0.23222376298023259 0 0.44134696414428898 0.24814556957704689 0 0.41736514745474701 0.23222376298023259 0 0.44134696414428898 0.24814556957704689 0 0.43790507610234408 0.2273079216372012 0 0.39333580902427501 0.24081282939082621 0 0.41736514745474701 0.23222376298023259 0 0.41286841049430861 0.24788583003777651 0 0.42717012070777932 0.25569493195645271 0 0.41736514745474701 0.23222376298023259 0 0.41286841049430861 0.24788583003777651 0 0.45336271850049548 0.25236276911819511 0 0.45602225988021539 0.23816249748875179 0 0.48180965237011408 0.2487438147612096 0 0.45336271850049548 0.25236276911819511 0 0.45602225988021539 0.23816249748875179 0 0.44134696414428898 0.24814556957704689 0 0.44600400848591359 0.23698591979390529 0 0.43790507610234408 0.2273079216372012 0 0.45336271850049548 0.25236276911819511 0 0.44134696414428898 0.24814556957704689 0 0.44600400848591359 0.23698591979390529 0 0.45336271850049548 0.25236276911819511 0 0.45602225988021539 0.23816249748875179 0 0.44600400848591359 0.23698591979390529 0 0.45602225988021539 0.23816249748875179 0 0.44600400848591359 0.23698591979390529 0 0.45492939023952461 0.2194397610932603 0 0.44600400848591359 0.23698591979390529 0 0.43790507610234408 0.2273079216372012 0 0.45492939023952461 0.2194397610932603 0 0.45602225988021539 0.23816249748875179 0 0.45492939023952461 0.2194397610932603 0 0.47419086539053962 0.2296972043723752 0 0.45492939023952461 0.2194397610932603 0 0.46072674134079361 0.19234021588846559 0 0.47847088324409548 0.2092058758105422 0 0.45492939023952461 0.2194397610932603 0 0.44140000057487638 0.20455834627575151 0 0.46072674134079361 0.19234021588846559 0 0.43790507610234408 0.2273079216372012 0 0.45492939023952461 0.2194397610932603 0 0.44140000057487638 0.20455834627575151 0 0.44140000057487638 0.20455834627575151 0 0.46072674134079361 0.19234021588846559 0 0.44473765559285833 0.18692520255949671 0 0.46072674134079361 0.19234021588846559 0 0.4812983336831132 0.1885899983914231 0 0.47847088324409548 0.2092058758105422 0 0.4812983336831132 0.1885899983914231 0 0.5 0.19797878532577309 0 0.47847088324409548 0.2092058758105422 0 0.5 0.19797878532577309 0 0.47847088324409548 0.2092058758105422 0 0.5 0.22793385045351919 0 0.47847088324409548 0.2092058758105422 0 0.47419086539053962 0.2296972043723752 0 0.5 0.22793385045351919 0 0.45492939023952461 0.2194397610932603 0 0.47847088324409548 0.2092058758105422 0 0.47419086539053962 0.2296972043723752 0 0.5 0.25788891558126559 0 0.5 0.22793385045351919 0 0.48180965237011408 0.2487438147612096 0 0.47419086539053962 0.2296972043723752 0 0.5 0.22793385045351919 0 0.48180965237011408 0.2487438147612096 0 0.45602225988021539 0.23816249748875179 0 0.47419086539053962 0.2296972043723752 0 0.48180965237011408 0.2487438147612096 0 0.46287167922105149 0.15545842773829099 0 0.44904083753606949 0.1441389705362057 0 0.45055708181009879 0.1690731760043504 0 0.46287167922105149 0.15545842773829099 0 0.46355845200513762 0.13850516077978961 0 0.47909635670674228 0.14767892477560191 0 0.46287167922105149 0.15545842773829099 0 0.46355845200513762 0.13850516077978961 0 0.44904083753606949 0.1441389705362057 0 0.46355845200513762 0.13850516077978961 0 0.47795750643906171 0.12649365297180731 0 0.4559740449914913 0.1245921335342187 0 0.46355845200513762 0.13850516077978961 0 0.44904083753606949 0.1441389705362057 0 0.4559740449914913 0.1245921335342187 0 0.43054248402473921 0.1250848439374013 0 0.44904083753606949 0.1441389705362057 0 0.4559740449914913 0.1245921335342187 0 0.42972130682252457 0.1533439082518103 0 0.44904083753606949 0.1441389705362057 0 0.45055708181009879 0.1690731760043504 0 0.42626679864566441 0.18172907206941921 0 0.45055708181009879 0.1690731760043504 0 0.44473765559285833 0.18692520255949671 0 0.46072674134079361 0.19234021588846559 0 0.45055708181009879 0.1690731760043504 0 0.44473765559285833 0.18692520255949671 0 0.46072674134079361 0.19234021588846559 0 0.45055708181009879 0.1690731760043504 0 0.4752785409050499 0.1685484481011886 0 0.46287167922105149 0.15545842773829099 0 0.45055708181009879 0.1690731760043504 0 0.4752785409050499 0.1685484481011886 0 0.45055708181009879 0.1690731760043504 0 0.4752785409050499 0.1685484481011886 0 0.46287167922105149 0.15545842773829099 0 0.4752785409050499 0.1685484481011886 0 0.47909635670674228 0.14767892477560191 0 0.46072674134079361 0.19234021588846559 0 0.4812983336831132 0.1885899983914231 0 0.4752785409050499 0.1685484481011886 0 0.4812983336831132 0.1885899983914231 0 0.4752785409050499 0.1685484481011886 0 0.50000000000000111 0.1680237201980268 0 0.4812983336831132 0.1885899983914231 0 0.5 0.19797878532577309 0 0.50000000000000111 0.1680237201980268 0 0.4752785409050499 0.1685484481011886 0 0.50000000000000111 0.1680237201980268 0 0.4752785409050499 0.1685484481011886 0 0.50000000000000111 0.1680237201980268 0 0.47909635670674228 0.14767892477560191 0 0.50000000000000111 0.1680237201980268 0 0.5 0.14405257421324749 0 0.47909635670674228 0.14767892477560191 0 0.46355845200513762 0.13850516077978961 0 0.47909635670674228 0.14767892477560191 0 0.47795750643906171 0.12649365297180731 0 0.5 0.14405257421324749 0 0.47795750643906171 0.12649365297180731 0 0.5 0.12008142822846821 0 0.5 0.14405257421324749 0 0.47909635670674228 0.14767892477560191 0 0.47795750643906171 0.12649365297180731 0 0.47795750643906171 0.12649365297180731 0 0.5 0.12008142822846821 0 0.48437617198066579 0.1083096126220475 0 0.48437617198066579 0.1083096126220475 0 0.5 0.096110282243688894 0 0.4787628640296252 0.09057766153942011 0 0.5 0.12008142822846821 0 0.48437617198066579 0.1083096126220475 0 0.5 0.096110282243688894 0 0.48437617198066579 0.1083096126220475 0 0.4787628640296252 0.09057766153942011 0 0.46516048943464161 0.10828503812685281 0 0.47795750643906171 0.12649365297180731 0 0.48437617198066579 0.1083096126220475 0 0.46516048943464161 0.10828503812685281 0 0.49999999999999389 0.072139136258909636 0 0.47264706529987838 0.068582714068275596 0 0.5 0.096110282243688894 0 0.49999999999999389 0.072139136258909636 0 0.4787628640296252 0.09057766153942011 0 0.49999999999999389 0.072139136258909636 0 0.4787628640296252 0.09057766153942011 0 0.47264706529987838 0.068582714068275596 0 0.47264706529987838 0.068582714068275596 0 0.44529413059976319 0.065026291877640793 0 0.47264706529987838 0.068582714068275596 0 0.45009241250792742 0.089848104882156193 0 0.44529413059976319 0.065026291877640793 0 0.4787628640296252 0.09057766153942011 0 0.47264706529987838 0.068582714068275596 0 0.45009241250792742 0.089848104882156193 0 0.45009241250792742 0.089848104882156193 0 0.44529413059976319 0.065026291877640793 0 0.42710943965072512 0.080764761008918995 0 0.4559740449914913 0.1245921335342187 0 0.46516048943464161 0.10828503812685281 0 0.44660059903698529 0.1095612823054605 0 0.47795750643906171 0.12649365297180731 0 0.4559740449914913 0.1245921335342187 0 0.46516048943464161 0.10828503812685281 0 0.45009241250792742 0.089848104882156193 0 0.46516048943464161 0.10828503812685281 0 0.44660059903698529 0.1095612823054605 0 0.4787628640296252 0.09057766153942011 0 0.45009241250792742 0.089848104882156193 0 0.46516048943464161 0.10828503812685281 0 0.45009241250792742 0.089848104882156193 0 0.44660059903698529 0.1095612823054605 0 0.42999027194599682 0.1018780191517587 0 0.43054248402473921 0.1250848439374013 0 0.4559740449914913 0.1245921335342187 0 0.44660059903698529 0.1095612823054605 0 0.43054248402473921 0.1250848439374013 0 0.44660059903698529 0.1095612823054605 0 0.42999027194599682 0.1018780191517587 0 0.43054248402473921 0.1250848439374013 0 0.41661501870526302 0.10782610780512 0 0.42999027194599682 0.1018780191517587 0 0.43054248402473921 0.1250848439374013 0 0.41135066019799099 0.1182158826350982 0 0.41661501870526302 0.10782610780512 0 0.43054248402473921 0.1250848439374013 0 0.41135066019799099 0.1182158826350982 0 0.41135066019799099 0.1182158826350982 0 0.41661501870526302 0.10782610780512 0 0.40605193543095291 0.1101899923625959 0 0.41199731756477831 0.13352747615702071 0 0.40856435551682457 0.1195913393650266 0 0.41135066019799099 0.1182158826350982 0 0.41661501870526302 0.10782610780512 0 0.42999027194599682 0.1018780191517587 0 0.41050144950628809 0.092342992232264526 0 0.41661501870526302 0.10782610780512 0 0.41050144950628809 0.092342992232264526 0 0.40408322644931421 0.10337105767737099 0 0.41661501870526302 0.10782610780512 0 0.40605193543095291 0.1101899923625959 0 0.40408322644931421 0.10337105767737099 0 0.45009241250792742 0.089848104882156193 0 0.42999027194599682 0.1018780191517587 0 0.42710943965072512 0.080764761008918995 0 0.42999027194599682 0.1018780191517587 0 0.42710943965072512 0.080764761008918995 0 0.41050144950628809 0.092342992232264526 0 0.44529413059976319 0.065026291877640793 0 0.42710943965072512 0.080764761008918995 0 0.41794119589964812 0.061469869687005997 0 0.44529413059976319 0.065026291877640793 0 0.41794119589964812 0.061469869687005997 0 0.42710943965072512 0.080764761008918995 0 0.40780427562880051 0.074340584248736047 0 0.41794119589964812 0.061469869687005997 0 0.42710943965072512 0.080764761008918995 0 0.40780427562880051 0.074340584248736047 0 0.41050144950628809 0.092342992232264526 0 0.41050144950628809 0.092342992232264526 0 0.39288103188780799 0.079211850819119467 0 0.39173805803946632 0.094638931286680023 0 0.40780427562880051 0.074340584248736047 0 0.41050144950628809 0.092342992232264526 0 0.39288103188780799 0.079211850819119467 0 0.40780427562880051 0.074340584248736047 0 0.39058826119953283 0.057913447496371839 0 0.41794119589964812 0.061469869687005997 0 0.40780427562880051 0.074340584248736047 0 0.39288103188780799 0.079211850819119467 0 0.39058826119953283 0.057913447496371839 0 0.39288103188780799 0.079211850819119467 0 0.37575225644292037 0.071709270247263784 0 0.39058826119953283 0.057913447496371839 0 0.3742009225581896 0.091268948227223284 0 0.39288103188780799 0.079211850819119467 0 0.39173805803946632 0.094638931286680023 0 0.3742009225581896 0.091268948227223284 0 0.39288103188780799 0.079211850819119467 0 0.37575225644292037 0.071709270247263784 0 0.3742009225581896 0.091268948227223284 0 0.39215883637124299 0.11134692133279479 0 0.39173805803946632 0.094638931286680023 0 0.3742009225581896 0.091268948227223284 0 0.39215883637124299 0.11134692133279479 0 0.3742009225581896 0.091268948227223284 0 0.3795225325030368 0.1068242515199407 0 0.39215883637124299 0.11134692133279479 0 0.3795225325030368 0.1068242515199407 0 0.39215883637124299 0.11134692133279479 0 0.3795225325030368 0.1068242515199407 0 0.38138511069115272 0.12353481432135879 0 0.3942733283070321 0.11371104406223111 0 0.36649271172908648 0.1176987398754743 0 0.3795225325030368 0.1068242515199407 0 0.38138511069115272 0.12353481432135879 0 0.39421974672685411 0.13240309148155921 0 0.38138511069115272 0.12353481432135879 0 0.3942733283070321 0.11371104406223111 0 0.3795225325030368 0.1068242515199407 0 0.3942733283070321 0.11371104406223111 0 0.3795225325030368 0.1068242515199407 0 0.39215883637124299 0.11134692133279479 0 0.3942733283070321 0.11371104406223111 0 0.41135066019799099 0.1182158826350982 0 0.39215883637124299 0.11134692133279479 0 0.40605193543095291 0.1101899923625959 0 0.41135066019799099 0.1182158826350982 0 0.39215883637124299 0.11134692133279479 0 0.3942733283070321 0.11371104406223111 0 0.41135066019799099 0.1182158826350982 0 0.39215883637124299 0.11134692133279479 0 0.41199731756477831 0.13352747615702071 0 0.40856435551682457 0.1195913393650266 0 0.3942733283070321 0.11371104406223111 0 0.41199731756477831 0.13352747615702071 0 0.3942733283070321 0.11371104406223111 0 0.40856435551682457 0.1195913393650266 0 0.41135066019799099 0.1182158826350982 0 0.3942733283070321 0.11371104406223111 0 0.39215883637124299 0.11134692133279479 0 0.3942733283070321 0.11371104406223111 0 0.40856435551682457 0.1195913393650266 0 0.3942733283070321 0.11371104406223111 0 0.39215883637124299 0.11134692133279479 0 0.40408322644931421 0.10337105767737099 0 0.39173805803946632 0.094638931286680023 0 0.39215883637124299 0.11134692133279479 0 0.40605193543095291 0.1101899923625959 0 0.40408322644931421 0.10337105767737099 0 0.41050144950628809 0.092342992232264526 0 0.40408322644931421 0.10337105767737099 0 0.39173805803946632 0.094638931286680023 0 0.4038432128890253 0.016274120358417851 0 0.39452024459155199 0.029629145094844 0 0.3798040161112804 0.028996110171619349 0 0.4038432128890253 0.016274120358417851 0 0.39452024459155199 0.029629145094844 0 0.40714332068978548 0.032011032787191827 0 0.4038432128890253 0.016274120358417851 0 0.3798040161112804 0.028996110171619349 0 0.4038432128890253 0.016274120358417851 0 0.39390920682105918 0.0040204267233196643 0 0.38813729234829519 0.016219836643301819 0 0.4038432128890253 0.016274120358417851 0 0.39390920682105918 0.0040204267233196643 0 0.40369857438468087 -0.0060371637805465179 0 0.39390920682105918 0.0040204267233196643 0 0.38212023564171321 0.001094655884648786 0 0.38813729234829519 0.016219836643301819 0 0.38212023564171321 0.001094655884648786 0 0.37537418671591988 0.012891754799621079 0 0.3700201466167648 -0.002195575246397889 0 0.38212023564171321 0.001094655884648786 0 0.37537418671591988 0.012891754799621079 0 0.38813729234829519 0.016219836643301819 0 0.38029426512156322 0.021339738828328979 0 0.38813729234829519 0.016219836643301819 0 0.3798040161112804 0.028996110171619349 0 0.4038432128890253 0.016274120358417851 0 0.38813729234829519 0.016219836643301819 0 0.3798040161112804 0.028996110171619349 0 0.37537418671591988 0.012891754799621079 0 0.38029426512156322 0.021339738828328979 0 0.37786156531075732 0.02725125369877367 0 0.37537418671591988 0.012891754799621079 0 0.38029426512156322 0.021339738828328979 0 0.38813729234829519 0.016219836643301819 0 0.39452024459155199 0.029629145094844 0 0.3798040161112804 0.028996110171619349 0 0.384792923869274 0.033192425096464057 0 0.38029426512156322 0.021339738828328979 0 0.3798040161112804 0.028996110171619349 0 0.37786156531075732 0.02725125369877367 0 0.36984281421283938 0.03924660656396721 0 0.3798040161112804 0.028996110171619349 0 0.37675727284589372 0.036323400775862158 0 0.3798040161112804 0.028996110171619349 0 0.38012370578730592 0.033949837724153123 0 0.37675727284589372 0.036323400775862158 0 0.3798040161112804 0.028996110171619349 0 0.38012370578730592 0.033949837724153123 0 0.384792923869274 0.033192425096464057 0 0.38012370578730592 0.033949837724153123 0 0.38115894465086869 0.037510150111343843 0 0.384792923869274 0.033192425096464057 0 0.38012370578730592 0.033949837724153123 0 0.38115894465086869 0.037510150111343843 0 0.37675727284589372 0.036323400775862158 0 0.38115894465086869 0.037510150111343843 0 0.37675727284589372 0.036323400775862158 0 0.37726993283737248 0.041439113600633092 0 0.37726993283737248 0.041439113600633092 0 0.38325871491723518 0.0441773091346798 0 0.37608467898805159 0.048096788967416412 0 0.38115894465086869 0.037510150111343843 0 0.37726993283737248 0.041439113600633092 0 0.38325871491723518 0.0441773091346798 0 0.38115894465086869 0.037510150111343843 0 0.38325871491723518 0.0441773091346798 0 0.38884635116990662 0.036871995634108659 0 0.38325871491723518 0.0441773091346798 0 0.38884635116990662 0.036871995634108659 0 0.39118926401298038 0.043344116461786472 0 0.39452024459155199 0.029629145094844 0 0.38884635116990662 0.036871995634108659 0 0.384792923869274 0.033192425096464057 0 0.38115894465086869 0.037510150111343843 0 0.38884635116990662 0.036871995634108659 0 0.384792923869274 0.033192425096464057 0 0.36737709041569239 0.056764699852256018 0 0.39058826119953283 0.057913447496371839 0 0.36443667806580698 0.054513224756226962 0 0.37608467898805159 0.048096788967416412 0 0.39058826119953283 0.057913447496371839 0 0.36737709041569239 0.056764699852256018 0 0.37575225644292037 0.071709270247263784 0 0.39058826119953283 0.057913447496371839 0 0.36443667806580698 0.054513224756226962 0 0.39058826119953283 0.057913447496371839 0 0.38325871491723518 0.0441773091346798 0 0.37608467898805159 0.048096788967416412 0 0.39058826119953283 0.057913447496371839 0 0.38325871491723518 0.0441773091346798 0 0.39058826119953283 0.057913447496371839 0 0.39118926401298038 0.043344116461786472 0 0.39058826119953283 0.057913447496371839 0 0.39917917489280202 0.048669550515315511 0 0.40824027372044169 0.058787065978875973 0 0.39058826119953283 0.057913447496371839 0 0.40824027372044169 0.058787065978875973 0 0.39058826119953283 0.057913447496371839 0 0.41794119589964812 0.061469869687005997 0 0.40824027372044169 0.058787065978875973 0 0.39058826119953283 0.057913447496371839 0 0.41794119589964812 0.061469869687005997 0 0.39058826119953283 0.057913447496371839 0 0.39917917489280202 0.048669550515315511 0 0.39118926401298038 0.043344116461786472 0 0.39917917489280202 0.048669550515315511 0 0.40803146459590139 0.044566129264659721 0 0.40824027372044169 0.058787065978875973 0 0.39452024459155199 0.029629145094844 0 0.38884635116990662 0.036871995634108659 0 0.39784661093515339 0.038736993374884177 0 0.39917917489280202 0.048669550515315511 0 0.39784661093515339 0.038736993374884177 0 0.39118926401298038 0.043344116461786472 0 0.38884635116990662 0.036871995634108659 0 0.39784661093515339 0.038736993374884177 0 0.39118926401298038 0.043344116461786472 0 0.39917917489280202 0.048669550515315511 0 0.39784661093515339 0.038736993374884177 0 0.40803146459590139 0.044566129264659721 0 0.39452024459155199 0.029629145094844 0 0.39784661093515339 0.038736993374884177 0 0.40714332068978548 0.032011032787191827 0 0.39784661093515339 0.038736993374884177 0 0.40714332068978548 0.032011032787191827 0 0.40803146459590139 0.044566129264659721 0 0.40714332068978548 0.032011032787191827 0 0.40803146459590139 0.044566129264659721 0 0.41964440497126981 0.040250358009145122 0 0.40803146459590139 0.044566129264659721 0 0.41964440497126981 0.040250358009145122 0 0.41733432138732551 0.050785193364838402 0 0.40714332068978548 0.032011032787191827 0 0.41964440497126981 0.040250358009145122 0 0.41891932927970088 0.026081136014491389 0 0.40824027372044169 0.058787065978875973 0 0.41733432138732551 0.050785193364838402 0 0.42589228624135061 0.059660684461379461 0 0.40824027372044169 0.058787065978875973 0 0.42589228624135061 0.059660684461379461 0 0.41794119589964812 0.061469869687005997 0 0.40824027372044169 0.058787065978875973 0 0.42589228624135061 0.059660684461379461 0 0.40803146459590139 0.044566129264659721 0 0.40824027372044169 0.058787065978875973 0 0.41733432138732551 0.050785193364838402 0 0.41964440497126981 0.040250358009145122 0 0.41733432138732551 0.050785193364838402 0 0.42647272639553008 0.050672874727357403 0 0.44529413059976319 0.065026291877640793 0 0.42589228624135061 0.059660684461379461 0 0.43583307009461808 0.053135938561971199 0 0.44529413059976319 0.065026291877640793 0 0.41794119589964812 0.061469869687005997 0 0.42589228624135061 0.059660684461379461 0 0.42589228624135061 0.059660684461379461 0 0.42647272639553008 0.050672874727357403 0 0.43583307009461808 0.053135938561971199 0 0.41733432138732551 0.050785193364838402 0 0.42589228624135061 0.059660684461379461 0 0.42647272639553008 0.050672874727357403 0 0.42647272639553008 0.050672874727357403 0 0.43583307009461808 0.053135938561971199 0 0.4340740022190257 0.043822740937536728 0 0.41964440497126981 0.040250358009145122 0 0.42987588244635011 0.033334548906864728 0 0.41891932927970088 0.026081136014491389 0 0.41964440497126981 0.040250358009145122 0 0.4340740022190257 0.043822740937536728 0 0.42987588244635011 0.033334548906864728 0 0.41964440497126981 0.040250358009145122 0 0.42647272639553008 0.050672874727357403 0 0.4340740022190257 0.043822740937536728 0 0.4340740022190257 0.043822740937536728 0 0.42987588244635011 0.033334548906864728 0 0.44528176508543132 0.032905620831071007 0 0.42987588244635011 0.033334548906864728 0 0.43184963590009789 0.021236349906575389 0 0.44528176508543132 0.032905620831071007 0 0.43184963590009789 0.021236349906575389 0 0.42259879527057942 0.015927249454054739 0 0.43188165484739188 0.01287087804949661 0 0.43184963590009789 0.021236349906575389 0 0.42259879527057942 0.015927249454054739 0 0.41891932927970088 0.026081136014491389 0 0.42987588244635011 0.033334548906864728 0 0.43184963590009789 0.021236349906575389 0 0.41891932927970088 0.026081136014491389 0 0.4038432128890253 0.016274120358417851 0 0.42259879527057942 0.015927249454054739 0 0.41891932927970088 0.026081136014491389 0 0.4038432128890253 0.016274120358417851 0 0.40714332068978548 0.032011032787191827 0 0.41891932927970088 0.026081136014491389 0 0.4038432128890253 0.016274120358417851 0 0.41402040698134779 -0.0025911497673051101 0 0.40369857438468087 -0.0060371637805465179 0 0.4038432128890253 0.016274120358417851 0 0.42788240966677021 0.003552130545216341 0 0.4038432128890253 0.016274120358417851 0 0.42101935538117791 0.0050386314779034547 0 0.41402040698134779 -0.0025911497673051101 0 0.4038432128890253 0.016274120358417851 0 0.42259879527057942 0.015927249454054739 0 0.42788240966677021 0.003552130545216341 0 0.4038432128890253 0.016274120358417851 0 0.42101935538117791 0.0050386314779034547 0 0.42788240966677021 0.003552130545216341 0 0.42788240966677021 0.003552130545216341 0 0.43188165484739188 0.01287087804949661 0 0.44740740452026229 0.01137317045841814 0 0.42259879527057942 0.015927249454054739 0 0.42788240966677021 0.003552130545216341 0 0.43188165484739188 0.01287087804949661 0 0.43184963590009789 0.021236349906575389 0 0.43188165484739188 0.01287087804949661 0 0.44740740452026229 0.01137317045841814 0 0.42788240966677021 0.003552130545216341 0 0.44740740452026229 0.01137317045841814 0 0.45192160644451512 -0.0091698592679851504 0 0.43184963590009789 0.021236349906575389 0 0.44740740452026229 0.01137317045841814 0 0.44528176508543132 0.032905620831071007 0 0.44740740452026229 0.01137317045841814 0 0.44528176508543132 0.032905620831071007 0 0.46875558315454652 0.02621282055229885 0 0.44740740452026229 0.01137317045841814 0 0.4740075662235973 0.0028935560396234419 0 0.46875558315454652 0.02621282055229885 0 0.44740740452026229 0.01137317045841814 0 0.4740075662235973 0.0028935560396234419 0 0.45192160644451512 -0.0091698592679851504 0 0.44529413059976319 0.065026291877640793 0 0.44587589901867808 0.047550444472131762 0 0.4614262583005877 0.04791767975015173 0 0.44529413059976319 0.065026291877640793 0 0.43583307009461808 0.053135938561971199 0 0.44587589901867808 0.047550444472131762 0 0.43583307009461808 0.053135938561971199 0 0.4340740022190257 0.043822740937536728 0 0.44587589901867808 0.047550444472131762 0 0.44587589901867808 0.047550444472131762 0 0.44528176508543132 0.032905620831071007 0 0.4614262583005877 0.04791767975015173 0 0.4340740022190257 0.043822740937536728 0 0.44587589901867808 0.047550444472131762 0 0.44528176508543132 0.032905620831071007 0 0.44528176508543132 0.032905620831071007 0 0.4614262583005877 0.04791767975015173 0 0.46875558315454652 0.02621282055229885 0 0.47264706529987838 0.068582714068275596 0 0.44529413059976319 0.065026291877640793 0 0.4614262583005877 0.04791767975015173 0 0.47264706529987838 0.068582714068275596 0 0.4614262583005877 0.04791767975015173 0 0.48053199367993171 0.043851827509569327 0 0.4614262583005877 0.04791767975015173 0 0.48053199367993171 0.043851827509569327 0 0.46875558315454652 0.02621282055229885 0 0.48053199367993171 0.043851827509569327 0 0.5 0.04545089247058498 0 0.5 0.018762648682260189 0 0.49999999999999389 0.072139136258909636 0 0.47264706529987838 0.068582714068275596 0 0.48053199367993171 0.043851827509569327 0 0.49999999999999389 0.072139136258909636 0 0.48053199367993171 0.043851827509569327 0 0.5 0.04545089247058498 0 0.48053199367993171 0.043851827509569327 0 0.46875558315454652 0.02621282055229885 0 0.5 0.018762648682260189 0 0.4740075662235973 0.0028935560396234419 0 0.46875558315454652 0.02621282055229885 0 0.5 0.018762648682260189 0 0.4740075662235973 0.0028935560396234419 0 0.5 0.018762648682260189 0 0.5 -0.0079255951060647756 0 0.4740075662235973 0.0028935560396234419 0 0.5 -0.0079255951060647756 0 0.47596080322225992 -0.02189184908118659 0 0.47596080322225992 -0.02189184908118659 0 0.50000000000000377 -0.034613838894389633 0 0.5 -0.0079255951060647756 0 0.47596080322225992 -0.02189184908118659 0 0.50000000000000377 -0.034613838894389633 0 0.47596080322225992 -0.02189184908118659 0 0.50000000000000377 -0.034613838894389633 0 0.48339532061042467 -0.042675677639817791 0 0.50000000000000377 -0.034613838894389633 0 0.5 -0.052291970509826757 0 0.48339532061042467 -0.042675677639817791 0 0.5 -0.052291970509826757 0 0.48378938215607542 -0.060491629721736481 0 0.49999999999999678 -0.069970102125263903 0 0.5 -0.052291970509826757 0 0.48378938215607542 -0.060491629721736481 0 0.48339532061042467 -0.042675677639817791 0 0.48378938215607542 -0.060491629721736481 0 0.47035919737641452 -0.05083356829212015 0 0.48339532061042467 -0.042675677639817791 0 0.48378938215607542 -0.060491629721736481 0 0.47035919737641452 -0.05083356829212015 0 0.46263532094350251 -0.0655193079319734 0 0.47596080322225992 -0.02189184908118659 0 0.48339532061042467 -0.042675677639817791 0 0.46122373864745198 -0.034064038759572521 0 0.47035919737641452 -0.05083356829212015 0 0.48339532061042467 -0.042675677639817791 0 0.46122373864745198 -0.034064038759572521 0 0.46122373864745198 -0.034064038759572521 0 0.45641225836005789 -0.05051217933658872 0 0.44483042593949818 -0.041063070916932051 0 0.47035919737641452 -0.05083356829212015 0 0.46122373864745198 -0.034064038759572521 0 0.45641225836005789 -0.05051217933658872 0 0.45641225836005789 -0.05051217933658872 0 0.44526353314296241 -0.062107813217869068 0 0.46263532094350251 -0.0655193079319734 0 0.47035919737641452 -0.05083356829212015 0 0.45641225836005789 -0.05051217933658872 0 0.46263532094350251 -0.0655193079319734 0 0.45641225836005789 -0.05051217933658872 0 0.44526353314296241 -0.062107813217869068 0 0.44483042593949818 -0.041063070916932051 0 0.44526353314296241 -0.062107813217869068 0 0.44483042593949818 -0.041063070916932051 0 0.42768193525564641 -0.052738548234870043 0 0.46122373864745198 -0.034064038759572521 0 0.44483042593949818 -0.041063070916932051 0 0.44260817666721519 -0.025216613737701819 0 0.44483042593949818 -0.041063070916932051 0 0.44260817666721519 -0.025216613737701819 0 0.43454865465473302 -0.032105158367880783 0 0.46122373864745198 -0.034064038759572521 0 0.44260817666721519 -0.025216613737701819 0 0.45192160644451512 -0.0091698592679851504 0 0.42788240966677021 0.003552130545216341 0 0.45192160644451512 -0.0091698592679851504 0 0.44260817666721519 -0.025216613737701819 0 0.45192160644451512 -0.0091698592679851504 0 0.43543049063324413 -0.012350052332502739 0 0.42788240966677021 0.003552130545216341 0 0.45192160644451512 -0.0091698592679851504 0 0.43543049063324413 -0.012350052332502739 0 0.4740075662235973 0.0028935560396234419 0 0.47596080322225992 -0.02189184908118659 0 0.45192160644451512 -0.0091698592679851504 0 0.47596080322225992 -0.02189184908118659 0 0.45192160644451512 -0.0091698592679851504 0 0.47596080322225992 -0.02189184908118659 0 0.46122373864745198 -0.034064038759572521 0 0.45192160644451512 -0.0091698592679851504 0 0.47621403880257929 -0.099362679963144546 0 0.45825176112352212 -0.1171944005084963 0 0.47461064769812122 -0.12772964805397971 0 0.50000000000000433 -0.1143432737178363 0 0.47621403880257929 -0.099362679963144546 0 0.47461064769812122 -0.12772964805397971 0 0.50000000000000433 -0.1143432737178363 0 0.47461064769812122 -0.12772964805397971 0 0.49999999999998102 -0.1000967699598443 0 0.47621403880257929 -0.099362679963144546 0 0.49999999999998102 -0.1000967699598443 0 0.47621403880257929 -0.099362679963144546 0 0.48785951469139027 -0.086657123706384981 0 0.50000000000000433 -0.1143432737178363 0 0.49999999999998102 -0.1000967699598443 0 0.47621403880257929 -0.099362679963144546 0 0.47621403880257929 -0.099362679963144546 0 0.48785951469139027 -0.086657123706384981 0 0.47522401996300467 -0.077198942777287505 0 0.47621403880257929 -0.099362679963144546 0 0.47522401996300467 -0.077198942777287505 0 0.46460819440086443 -0.0896918568577834 0 0.49999999999998102 -0.1000967699598443 0 0.48785951469139027 -0.086657123706384981 0 0.49999999999999678 -0.069970102125263903 0 0.49999999999999678 -0.069970102125263903 0 0.47522401996300467 -0.077198942777287505 0 0.48785951469139027 -0.086657123706384981 0 0.49999999999999678 -0.069970102125263903 0 0.47522401996300467 -0.077198942777287505 0 0.48378938215607542 -0.060491629721736481 0 0.49999999999999678 -0.069970102125263903 0 0.47522401996300467 -0.077198942777287505 0 0.48378938215607542 -0.060491629721736481 0 0.47522401996300467 -0.077198942777287505 0 0.46263532094350251 -0.0655193079319734 0 0.47522401996300467 -0.077198942777287505 0 0.46263532094350251 -0.0655193079319734 0 0.4504480399260129 -0.084427783429311939 0 0.44526353314296241 -0.062107813217869068 0 0.46263532094350251 -0.0655193079319734 0 0.4504480399260129 -0.084427783429311939 0 0.44526353314296241 -0.062107813217869068 0 0.4504480399260129 -0.084427783429311939 0 0.43069868055782679 -0.078899440675300136 0 0.4504480399260129 -0.084427783429311939 0 0.45242807760517778 -0.098628589966444233 0 0.42864211640777627 -0.097894499969741214 0 0.4504480399260129 -0.084427783429311939 0 0.42567205988902129 -0.091656624081337568 0 0.47522401996300467 -0.077198942777287505 0 0.4504480399260129 -0.084427783429311939 0 0.47522401996300467 -0.077198942777287505 0 0.4504480399260129 -0.084427783429311939 0 0.46460819440086443 -0.0896918568577834 0 0.4504480399260129 -0.084427783429311939 0 0.46460819440086443 -0.0896918568577834 0 0.45242807760517778 -0.098628589966444233 0 0.47621403880257929 -0.099362679963144546 0 0.45242807760517778 -0.098628589966444233 0 0.45825176112352212 -0.1171944005084963 0 0.47621403880257929 -0.099362679963144546 0 0.45242807760517778 -0.098628589966444233 0 0.47621403880257929 -0.099362679963144546 0 0.46460819440086443 -0.0896918568577834 0 0.45242807760517778 -0.098628589966444233 0 0.45242807760517778 -0.098628589966444233 0 0.42864211640777627 -0.097894499969741214 0 0.45242807760517778 -0.098628589966444233 0 0.43893170590200609 -0.1195052611799315 0 0.42864211640777627 -0.097894499969741214 0 0.45242807760517778 -0.098628589966444233 0 0.43893170590200609 -0.1195052611799315 0 0.45825176112352212 -0.1171944005084963 0 0.42080162445294911 -0.1170697999396166 0 0.40604313277712428 -0.1171380761358455 0 0.41368108829086198 -0.13554811058748131 0 0.42080162445294911 -0.1170697999396166 0 0.40662173914453831 -0.097214899993173481 0 0.40604313277712428 -0.1171380761358455 0 0.43893170590200609 -0.1195052611799315 0 0.42080162445294911 -0.1170697999396166 0 0.430889964195386 -0.135117951771525 0 0.43893170590200609 -0.1195052611799315 0 0.42080162445294911 -0.1170697999396166 0 0.42864211640777627 -0.097894499969741214 0 0.43893170590200609 -0.1195052611799315 0 0.42864211640777627 -0.097894499969741214 0 0.42864211640777627 -0.097894499969741214 0 0.42567205988902129 -0.091656624081337568 0 0.42864211640777627 -0.097894499969741214 0 0.40662173914453831 -0.097214899993173481 0 0.42567205988902129 -0.091656624081337568 0 0.42080162445294911 -0.1170697999396166 0 0.42864211640777627 -0.097894499969741214 0 0.40662173914453831 -0.097214899993173481 0 0.42864211640777627 -0.097894499969741214 0 0.40662173914453831 -0.097214899993173481 0 0.40662173914453831 -0.097214899993173481 0 0.42567205988902129 -0.091656624081337568 0 0.40662173914453831 -0.097214899993173481 0 0.41829766411352998 -0.087706900461061957 0 0.42567205988902129 -0.091656624081337568 0 0.40662173914453831 -0.097214899993173481 0 0.41020628866808312 -0.08357079425946129 0 0.41829766411352998 -0.087706900461061957 0 0.41020628866808312 -0.08357079425946129 0 0.42012861486432151 -0.07981881462850364 0 0.41094109939792961 -0.074512111623280808 0 0.41020628866808312 -0.08357079425946129 0 0.41094109939792961 -0.074512111623280808 0 0.40556094342569721 -0.078918860306745137 0 0.41020628866808312 -0.08357079425946129 0 0.42012861486432151 -0.07981881462850364 0 0.41829766411352998 -0.087706900461061957 0 0.42012861486432151 -0.07981881462850364 0 0.41829766411352998 -0.087706900461061957 0 0.42254342745458301 -0.084546146485576762 0 0.41829766411352998 -0.087706900461061957 0 0.42461385466063262 -0.08943412331831832 0 0.42254342745458301 -0.084546146485576762 0 0.42567205988902129 -0.091656624081337568 0 0.42461385466063262 -0.08943412331831832 0 0.43069868055782679 -0.078899440675300136 0 0.4504480399260129 -0.084427783429311939 0 0.42567205988902129 -0.091656624081337568 0 0.43069868055782679 -0.078899440675300136 0 0.4504480399260129 -0.084427783429311939 0 0.42864211640777627 -0.097894499969741214 0 0.42567205988902129 -0.091656624081337568 0 0.42567205988902129 -0.091656624081337568 0 0.42461385466063262 -0.08943412331831832 0 0.41829766411352998 -0.087706900461061957 0 0.42567205988902129 -0.091656624081337568 0 0.42461385466063262 -0.08943412331831832 0 0.42012861486432151 -0.07981881462850364 0 0.43069868055782679 -0.078899440675300136 0 0.42254342745458301 -0.084546146485576762 0 0.42461385466063262 -0.08943412331831832 0 0.43069868055782679 -0.078899440675300136 0 0.42254342745458301 -0.084546146485576762 0 0.43069868055782679 -0.078899440675300136 0 0.42085386234523608 -0.065266903626460593 0 0.41911482919747139 -0.073234494934215744 0 0.43069868055782679 -0.078899440675300136 0 0.42085386234523608 -0.065266903626460593 0 0.42768193525564641 -0.052738548234870043 0 0.44526353314296241 -0.062107813217869068 0 0.43069868055782679 -0.078899440675300136 0 0.42768193525564641 -0.052738548234870043 0 0.43069868055782679 -0.078899440675300136 0 0.42768193525564641 -0.052738548234870043 0 0.42012861486432151 -0.07981881462850364 0 0.43069868055782679 -0.078899440675300136 0 0.41911482919747139 -0.073234494934215744 0 0.42085386234523608 -0.065266903626460593 0 0.41911482919747139 -0.073234494934215744 0 0.41247118756252621 -0.068972059658544485 0 0.41911482919747139 -0.073234494934215744 0 0.41094109939792961 -0.074512111623280808 0 0.41247118756252621 -0.068972059658544485 0 0.42012861486432151 -0.07981881462850364 0 0.41911482919747139 -0.073234494934215744 0 0.41094109939792961 -0.074512111623280808 0 0.41094109939792961 -0.074512111623280808 0 0.41247118756252621 -0.068972059658544485 0 0.40519344017519737 -0.069697512887539489 0 0.42085386234523608 -0.065266903626460593 0 0.41247118756252621 -0.068972059658544485 0 0.40625270669679608 -0.06214927522122575 0 0.41247118756252621 -0.068972059658544485 0 0.40519344017519737 -0.069697512887539489 0 0.40625270669679608 -0.06214927522122575 0 0.40519344017519737 -0.069697512887539489 0 0.3909339432522656 -0.07145852807871525 0 0.40625270669679608 -0.06214927522122575 0 0.41094109939792961 -0.074512111623280808 0 0.40094221169150912 -0.074554002884685597 0 0.40556094342569721 -0.078918860306745137 0 0.40519344017519737 -0.069697512887539489 0 0.40094221169150912 -0.074554002884685597 0 0.3909339432522656 -0.07145852807871525 0 0.41094109939792961 -0.074512111623280808 0 0.40519344017519737 -0.069697512887539489 0 0.40094221169150912 -0.074554002884685597 0 0.40094221169150912 -0.074554002884685597 0 0.3909339432522656 -0.07145852807871525 0 0.39616481607021642 -0.077435810443283751 0 0.3909339432522656 -0.07145852807871525 0 0.39616481607021642 -0.077435810443283751 0 0.39262893539182381 -0.080692178350181262 0 0.39181446083091098 -0.066763706552935329 0 0.38421934743036401 -0.068446750892908373 0 0.38398729378694407 -0.058429379279077209 0 0.38421934743036401 -0.068446750892908373 0 0.37813424473731178 -0.068262582352726586 0 0.38398729378694407 -0.058429379279077209 0 0.37813424473731178 -0.068262582352726586 0 0.38294139036628899 -0.080331335386894381 0 0.37353404377441052 -0.075370636612477671 0 0.38421934743036401 -0.068446750892908373 0 0.37813424473731178 -0.068262582352726586 0 0.38294139036628899 -0.080331335386894381 0 0.39181446083091098 -0.066763706552935329 0 0.38294139036628899 -0.080331335386894381 0 0.39181446083091098 -0.066763706552935329 0 0.38421934743036401 -0.068446750892908373 0 0.38294139036628899 -0.080331335386894381 0 0.3909339432522656 -0.07145852807871525 0 0.39181446083091098 -0.066763706552935329 0 0.38294139036628899 -0.080331335386894381 0 0.38598565568847482 -0.085166122563822014 0 0.39289996883908601 -0.089154852807517448 0 0.39262893539182381 -0.080692178350181262 0 0.3909339432522656 -0.07145852807871525 0 0.38598565568847482 -0.085166122563822014 0 0.39262893539182381 -0.080692178350181262 0 0.3909339432522656 -0.07145852807871525 0 0.37406831990166722 -0.093898964220853504 0 0.3909339432522656 -0.07145852807871525 0 0.38598565568847482 -0.085166122563822014 0 0.37406831990166722 -0.093898964220853504 0 0.3909339432522656 -0.07145852807871525 0 0.38294139036628899 -0.080331335386894381 0 0.37406831990166722 -0.093898964220853504 0 0.38294139036628899 -0.080331335386894381 0 0.37406831990166722 -0.093898964220853504 0 0.38598565568847482 -0.085166122563822014 0 0.38240509603332101 -0.092127683864182172 0 0.37406831990166722 -0.093898964220853504 0 0.38240509603332101 -0.092127683864182172 0 0.39289996883908601 -0.089154852807517448 0 0.38960421283109031 -0.096689699614190994 0 0.38598565568847482 -0.085166122563822014 0 0.38240509603332101 -0.092127683864182172 0 0.39289996883908601 -0.089154852807517448 0 0.39289996883908601 -0.089154852807517448 0 0.39262893539182381 -0.080692178350181262 0 0.40015417394526698 -0.083038532459552866 0 0.39616481607021642 -0.077435810443283751 0 0.39262893539182381 -0.080692178350181262 0 0.40015417394526698 -0.083038532459552866 0 0.40094221169150912 -0.074554002884685597 0 0.40556094342569721 -0.078918860306745137 0 0.40015417394526698 -0.083038532459552866 0 0.40094221169150912 -0.074554002884685597 0 0.39616481607021642 -0.077435810443283751 0 0.40015417394526698 -0.083038532459552866 0 0.41020628866808312 -0.08357079425946129 0 0.40556094342569721 -0.078918860306745137 0 0.40015417394526698 -0.083038532459552866 0 0.40662173914453831 -0.097214899993173481 0 0.39289996883908601 -0.089154852807517448 0 0.40015417394526698 -0.083038532459552866 0 0.40662173914453831 -0.097214899993173481 0 0.41020628866808312 -0.08357079425946129 0 0.40015417394526698 -0.083038532459552866 0 0.40662173914453831 -0.097214899993173481 0 0.3851668720105898 -0.10347474583943909 0 0.38960421283109031 -0.096689699614190994 0 0.40662173914453831 -0.097214899993173481 0 0.3851668720105898 -0.10347474583943909 0 0.40662173914453831 -0.097214899993173481 0 0.39289996883908601 -0.089154852807517448 0 0.38960421283109031 -0.096689699614190994 0 0.40662173914453831 -0.097214899993173481 0 0.38960421283109031 -0.096689699614190994 0 0.40662173914453831 -0.097214899993173481 0 0.3851668720105898 -0.10347474583943909 0 0.39374350655696688 -0.1137959578468639 0 0.38960421283109031 -0.096689699614190994 0 0.37237061700676077 -0.09615783082836224 0 0.3851668720105898 -0.10347474583943909 0 0.38960421283109031 -0.096689699614190994 0 0.37237061700676077 -0.09615783082836224 0 0.38240509603332101 -0.092127683864182172 0 0.38960421283109031 -0.096689699614190994 0 0.37237061700676077 -0.09615783082836224 0 0.38240509603332101 -0.092127683864182172 0 0.37406831990166722 -0.093898964220853504 0 0.37237061700676077 -0.09615783082836224 0 0.3785150876385216 -0.1195111518185689 0 0.39374350655696688 -0.1137959578468639 0 0.39237070121405998 -0.13164091544729051 0 0.3851668720105898 -0.10347474583943909 0 0.3785150876385216 -0.1195111518185689 0 0.36371200487664068 -0.10973459168570281 0 0.3851668720105898 -0.10347474583943909 0 0.3785150876385216 -0.1195111518185689 0 0.39374350655696688 -0.1137959578468639 0 0.40662173914453831 -0.097214899993173481 0 0.39374350655696688 -0.1137959578468639 0 0.40604313277712428 -0.1171380761358455 0 0.39374350655696688 -0.1137959578468639 0 0.40604313277712428 -0.1171380761358455 0 0.39237070121405998 -0.13164091544729051 0 0.41728163952739061 -0.019334187549187701 0 0.42284227266732188 -0.010769512158268201 0 0.42466518995346408 -0.026577655794440151 0 0.41728163952739061 -0.019334187549187701 0 0.41227128108974659 -0.029924501558089681 0 0.42466518995346408 -0.026577655794440151 0 0.41227128108974659 -0.029924501558089681 0 0.40863720631140932 -0.019892986955346081 0 0.40014031603924488 -0.033106741091830219 0 0.41728163952739061 -0.019334187549187701 0 0.41227128108974659 -0.029924501558089681 0 0.40863720631140932 -0.019892986955346081 0 0.41728163952739061 -0.019334187549187701 0 0.40863720631140932 -0.019892986955346081 0 0.41436166681859882 -0.01226683791037885 0 0.40863720631140932 -0.019892986955346081 0 0.41436166681859882 -0.01226683791037885 0 0.40369857438468087 -0.0060371637805465179 0 0.42101935538117791 0.0050386314779034547 0 0.41402040698134779 -0.0025911497673051101 0 0.42284227266732188 -0.010769512158268201 0 0.41402040698134779 -0.0025911497673051101 0 0.41436166681859882 -0.01226683791037885 0 0.40369857438468087 -0.0060371637805465179 0 0.41402040698134779 -0.0025911497673051101 0 0.41436166681859882 -0.01226683791037885 0 0.42284227266732188 -0.010769512158268201 0 0.41728163952739061 -0.019334187549187701 0 0.41436166681859882 -0.01226683791037885 0 0.42284227266732188 -0.010769512158268201 0 0.42284227266732188 -0.010769512158268201 0 0.43543049063324413 -0.012350052332502739 0 0.42769414368384923 -0.02254750278133769 0 0.42101935538117791 0.0050386314779034547 0 0.42284227266732188 -0.010769512158268201 0 0.42101935538117791 0.0050386314779034547 0 0.42788240966677021 0.003552130545216341 0 0.42284227266732188 -0.010769512158268201 0 0.42788240966677021 0.003552130545216341 0 0.42284227266732188 -0.010769512158268201 0 0.43543049063324413 -0.012350052332502739 0 0.42284227266732188 -0.010769512158268201 0 0.42466518995346408 -0.026577655794440151 0 0.42284227266732188 -0.010769512158268201 0 0.42769414368384923 -0.02254750278133769 0 0.42466518995346408 -0.026577655794440151 0 0.44260817666721519 -0.025216613737701819 0 0.43543049063324413 -0.012350052332502739 0 0.42769414368384923 -0.02254750278133769 0 0.42769414368384923 -0.02254750278133769 0 0.42466518995346408 -0.026577655794440151 0 0.43454865465473302 -0.032105158367880783 0 0.42769414368384923 -0.02254750278133769 0 0.42466518995346408 -0.026577655794440151 0 0.44260817666721519 -0.025216613737701819 0 0.42769414368384923 -0.02254750278133769 0 0.43454865465473302 -0.032105158367880783 0 0.42466518995346408 -0.026577655794440151 0 0.43454865465473302 -0.032105158367880783 0 0.42768193525564641 -0.052738548234870043 0 0.42466518995346408 -0.026577655794440151 0 0.42768193525564641 -0.052738548234870043 0 0.44483042593949818 -0.041063070916932051 0 0.43454865465473302 -0.032105158367880783 0 0.42768193525564641 -0.052738548234870043 0 0.42085386234523608 -0.065266903626460593 0 0.42768193525564641 -0.052738548234870043 0 0.40779956660286398 -0.049018091936576927 0 0.42085386234523608 -0.065266903626460593 0 0.40779956660286398 -0.049018091936576927 0 0.40625270669679608 -0.06214927522122575 0 0.42466518995346408 -0.026577655794440151 0 0.42768193525564641 -0.052738548234870043 0 0.40779956660286398 -0.049018091936576927 0 0.42466518995346408 -0.026577655794440151 0 0.40779956660286398 -0.049018091936576927 0 0.41227128108974659 -0.029924501558089681 0 0.42466518995346408 -0.026577655794440151 0 0.40779956660286398 -0.049018091936576927 0 0.41227128108974659 -0.029924501558089681 0 0.40779956660286398 -0.049018091936576927 0 0.40014031603924488 -0.033106741091830219 0 0.40779956660286398 -0.049018091936576927 0 0.40014031603924488 -0.033106741091830219 0 0.3912967176308087 -0.04756724484766426 0 0.40014031603924488 -0.033106741091830219 0 0.3912967176308087 -0.04756724484766426 0 0.38547037370043469 -0.032308846426106139 0 0.3909339432522656 -0.07145852807871525 0 0.40779956660286398 -0.049018091936576927 0 0.40625270669679608 -0.06214927522122575 0 0.3909339432522656 -0.07145852807871525 0 0.39181446083091098 -0.066763706552935329 0 0.40779956660286398 -0.049018091936576927 0 0.39181446083091098 -0.066763706552935329 0 0.40779956660286398 -0.049018091936576927 0 0.3912967176308087 -0.04756724484766426 0 0.3909339432522656 -0.07145852807871525 0 0.40779956660286398 -0.049018091936576927 0 0.3912967176308087 -0.04756724484766426 0 0.38398729378694407 -0.058429379279077209 0 0.37514153202862571 -0.045861082966856079 0 0.39181446083091098 -0.066763706552935329 0 0.3912967176308087 -0.04756724484766426 0 0.38398729378694407 -0.058429379279077209 0 0.38398729378694407 -0.058429379279077209 0 0.37514153202862571 -0.045861082966856079 0 0.37192531576168952 -0.05914395824800911 0 0.37813424473731178 -0.068262582352726586 0 0.38398729378694407 -0.058429379279077209 0 0.37192531576168952 -0.05914395824800911 0 0.3912967176308087 -0.04756724484766426 0 0.38547037370043469 -0.032308846426106139 0 0.37514153202862571 -0.045861082966856079 0 0.38547037370043469 -0.032308846426106139 0 0.37514153202862571 -0.045861082966856079 0 0.36877413775607049 -0.02995327657106206 0 0.38547037370043469 -0.032308846426106139 0 0.37927030083329177 -0.015743113788958679 0 0.36877413775607049 -0.02995327657106206 0 0.38547037370043469 -0.032308846426106139 0 0.37927030083329177 -0.015743113788958679 0 0.39536675090020662 -0.019928774827198261 0 0.40014031603924488 -0.033106741091830219 0 0.38547037370043469 -0.032308846426106139 0 0.39536675090020662 -0.019928774827198261 0 0.40863720631140932 -0.019892986955346081 0 0.40014031603924488 -0.033106741091830219 0 0.39536675090020662 -0.019928774827198261 0 0.40863720631140932 -0.019892986955346081 0 0.39536675090020662 -0.019928774827198261 0 0.40369857438468087 -0.0060371637805465179 0 0.39536675090020662 -0.019928774827198261 0 0.40369857438468087 -0.0060371637805465179 0 0.39174671884158141 -0.0074493154892236006 0 0.39390920682105918 0.0040204267233196643 0 0.40369857438468087 -0.0060371637805465179 0 0.39174671884158141 -0.0074493154892236006 0 0.38212023564171321 0.001094655884648786 0 0.37927030083329177 -0.015743113788958679 0 0.39174671884158141 -0.0074493154892236006 0 0.38212023564171321 0.001094655884648786 0 0.37927030083329177 -0.015743113788958679 0 0.3700201466167648 -0.002195575246397889 0 0.37927030083329177 -0.015743113788958679 0 0.39536675090020662 -0.019928774827198261 0 0.39174671884158141 -0.0074493154892236006 0 0.39390920682105918 0.0040204267233196643 0 0.38212023564171321 0.001094655884648786 0 0.39174671884158141 -0.0074493154892236006 0 0.35686418876597309 0.010252504770385159 0 0.3700201466167648 -0.002195575246397889 0 0.35727920934793722 -0.0129667368589869 0 0.37927030083329177 -0.015743113788958679 0 0.3700201466167648 -0.002195575246397889 0 0.35727920934793722 -0.0129667368589869 0 0.36877413775607049 -0.02995327657106206 0 0.35727920934793722 -0.0129667368589869 0 0.35227314840285812 -0.03152257084722427 0 0.37927030083329177 -0.015743113788958679 0 0.36877413775607049 -0.02995327657106206 0 0.35727920934793722 -0.0129667368589869 0 0.35727920934793722 -0.0129667368589869 0 0.33875503928457851 -0.02222753562310531 0 0.35227314840285812 -0.03152257084722427 0 0.35727920934793722 -0.0129667368589869 0 0.33586681222118892 -0.0067462441580033658 0 0.33875503928457851 -0.02222753562310531 0 0.35686418876597309 0.010252504770385159 0 0.35727920934793722 -0.0129667368589869 0 0.33586681222118892 -0.0067462441580033658 0 0.33586681222118892 -0.0067462441580033658 0 0.33875503928457851 -0.02222753562310531 0 0.31486943567640469 -0.023744993086391868 0 0.33875503928457851 -0.02222753562310531 0 0.31486943567640469 -0.023744993086391868 0 0.33348659077450338 -0.036157133164920148 0 0.33875503928457851 -0.02222753562310531 0 0.33348659077450338 -0.036157133164920148 0 0.35227314840285812 -0.03152257084722427 0 0.31046320235639918 0.0067575729804437252 0 0.33586681222118892 -0.0067462441580033658 0 0.3153830815233527 -0.0087530987426132929 0 0.33586681222118892 -0.0067462441580033658 0 0.31486943567640469 -0.023744993086391868 0 0.3153830815233527 -0.0087530987426132929 0 0.33586681222118892 -0.0067462441580033658 0 0.31486943567640469 -0.023744993086391868 0 0.32115491610998381 -0.052976688016941227 0 0.32092150739102382 -0.073097043805500014 0 0.30601744289912669 -0.055409131432484229 0 0.32115491610998381 -0.052976688016941227 0 0.31197137499350902 -0.041008225260955711 0 0.30601744289912669 -0.055409131432484229 0 0.31486943567640469 -0.023744993086391868 0 0.33348659077450338 -0.036157133164920148 0 0.31197137499350902 -0.041008225260955711 0 0.32115491610998381 -0.052976688016941227 0 0.33348659077450338 -0.036157133164920148 0 0.31197137499350902 -0.041008225260955711 0 0.33348659077450338 -0.036157133164920148 0 0.3363568723602065 -0.050864743298462772 0 0.35116628403686417 -0.048621598638038131 0 0.32115491610998381 -0.052976688016941227 0 0.33348659077450338 -0.036157133164920148 0 0.3363568723602065 -0.050864743298462772 0 0.32115491610998381 -0.052976688016941227 0 0.3363568723602065 -0.050864743298462772 0 0.33388625794764348 -0.064812423232177271 0 0.3363568723602065 -0.050864743298462772 0 0.34794047334546518 -0.063974584280765273 0 0.33388625794764348 -0.064812423232177271 0 0.3363568723602065 -0.050864743298462772 0 0.35116628403686417 -0.048621598638038131 0 0.34794047334546518 -0.063974584280765273 0 0.35116628403686417 -0.048621598638038131 0 0.35914505774559541 -0.060409417065886872 0 0.36392372675137458 -0.051574144679805103 0 0.35116628403686417 -0.048621598638038131 0 0.36240463436463582 -0.041692596330413237 0 0.36392372675137458 -0.051574144679805103 0 0.35116628403686417 -0.048621598638038131 0 0.35914505774559541 -0.060409417065886872 0 0.34794047334546518 -0.063974584280765273 0 0.35116628403686417 -0.048621598638038131 0 0.35227314840285812 -0.03152257084722427 0 0.36240463436463582 -0.041692596330413237 0 0.33348659077450338 -0.036157133164920148 0 0.35116628403686417 -0.048621598638038131 0 0.35227314840285812 -0.03152257084722427 0 0.37514153202862571 -0.045861082966856079 0 0.36877413775607049 -0.02995327657106206 0 0.36240463436463582 -0.041692596330413237 0 0.36877413775607049 -0.02995327657106206 0 0.35227314840285812 -0.03152257084722427 0 0.36240463436463582 -0.041692596330413237 0 0.37514153202862571 -0.045861082966856079 0 0.36240463436463582 -0.041692596330413237 0 0.36392372675137458 -0.051574144679805103 0 0.35914505774559541 -0.060409417065886872 0 0.36392372675137458 -0.051574144679805103 0 0.37192531576168952 -0.05914395824800911 0 0.37514153202862571 -0.045861082966856079 0 0.36392372675137458 -0.051574144679805103 0 0.37192531576168952 -0.05914395824800911 0 0.37813424473731178 -0.068262582352726586 0 0.37192531576168952 -0.05914395824800911 0 0.3680772617285144 -0.06977757947088653 0 0.35914505774559541 -0.060409417065886872 0 0.37192531576168952 -0.05914395824800911 0 0.3680772617285144 -0.06977757947088653 0 0.35914505774559541 -0.060409417065886872 0 0.3680772617285144 -0.06977757947088653 0 0.35837286676988928 -0.071968688592424085 0 0.3680772617285144 -0.06977757947088653 0 0.36498327826552668 -0.083111049239403226 0 0.35837286676988928 -0.071968688592424085 0 0.3680772617285144 -0.06977757947088653 0 0.37353404377441052 -0.075370636612477671 0 0.36498327826552668 -0.083111049239403226 0 0.37813424473731178 -0.068262582352726586 0 0.3680772617285144 -0.06977757947088653 0 0.37353404377441052 -0.075370636612477671 0 0.38294139036628899 -0.080331335386894381 0 0.37353404377441052 -0.075370636612477671 0 0.36498327826552668 -0.083111049239403226 0 0.36498327826552668 -0.083111049239403226 0 0.37237061700676077 -0.09615783082836224 0 0.34241852099989789 -0.095233439592861846 0 0.38294139036628899 -0.080331335386894381 0 0.36498327826552668 -0.083111049239403226 0 0.37406831990166722 -0.093898964220853504 0 0.36498327826552668 -0.083111049239403226 0 0.37406831990166722 -0.093898964220853504 0 0.37237061700676077 -0.09615783082836224 0 0.36498327826552668 -0.083111049239403226 0 0.3449175019875389 -0.076917716904771144 0 0.34241852099989789 -0.095233439592861846 0 0.36498327826552668 -0.083111049239403226 0 0.3449175019875389 -0.076917716904771144 0 0.35837286676988928 -0.071968688592424085 0 0.3449175019875389 -0.076917716904771144 0 0.34794047334546518 -0.063974584280765273 0 0.35837286676988928 -0.071968688592424085 0 0.35914505774559541 -0.060409417065886872 0 0.34794047334546518 -0.063974584280765273 0 0.35837286676988928 -0.071968688592424085 0 0.36371200487664068 -0.10973459168570281 0 0.35664352332635268 -0.13060513793896061 0 0.36779594019891898 -0.12729788290040461 0 0.3785150876385216 -0.1195111518185689 0 0.36371200487664068 -0.10973459168570281 0 0.36779594019891898 -0.12729788290040461 0 0.36371200487664068 -0.10973459168570281 0 0.37237061700676077 -0.09615783082836224 0 0.34241852099989789 -0.095233439592861846 0 0.3851668720105898 -0.10347474583943909 0 0.36371200487664068 -0.10973459168570281 0 0.37237061700676077 -0.09615783082836224 0 0.3851668720105898 -0.10347474583943909 0 0.36371200487664068 -0.10973459168570281 0 0.36371200487664068 -0.10973459168570281 0 0.37237061700676077 -0.09615783082836224 0 0.37406831990166722 -0.093898964220853504 0 0.37237061700676077 -0.09615783082836224 0 0.36371200487664068 -0.10973459168570281 0 0.34332012240242971 -0.1020930362129598 0 0.34241852099989789 -0.095233439592861846 0 0.36371200487664068 -0.10973459168570281 0 0.35002252173753962 -0.112446561286345 0 0.34332012240242971 -0.1020930362129598 0 0.37237061700676077 -0.09615783082836224 0 0.34241852099989789 -0.095233439592861846 0 0.35002252173753962 -0.112446561286345 0 0.34025414842832208 -0.11782241666052221 0 0.34332012240242971 -0.1020930362129598 0 0.36371200487664068 -0.10973459168570281 0 0.35355367174401742 -0.1211945845718113 0 0.34779048707731292 -0.1340798558009649 0 0.36371200487664068 -0.10973459168570281 0 0.35664352332635268 -0.13060513793896061 0 0.34779048707731292 -0.1340798558009649 0 0.36371200487664068 -0.10973459168570281 0 0.34779048707731292 -0.1340798558009649 0 0.36371200487664068 -0.10973459168570281 0 0.35002252173753962 -0.112446561286345 0 0.35355367174401742 -0.1211945845718113 0 0.36371200487664068 -0.10973459168570281 0 0.35355367174401742 -0.1211945845718113 0 0.35002252173753962 -0.112446561286345 0 0.35355367174401742 -0.1211945845718113 0 0.34025414842832208 -0.11782241666052221 0 0.35355367174401742 -0.1211945845718113 0 0.34025414842832208 -0.11782241666052221 0 0.34381162934489939 -0.12854128697128539 0 0.33094534805706732 -0.1177437606496905 0 0.31854024801571379 -0.1183964408803808 0 0.33718817445421712 -0.13355179710808501 0 0.34025414842832208 -0.11782241666052221 0 0.33378984816934337 -0.1086297847084315 0 0.34332012240242971 -0.1020930362129598 0 0.33094534805706732 -0.1177437606496905 0 0.34025414842832208 -0.11782241666052221 0 0.33718817445421712 -0.13355179710808501 0 0.34025414842832208 -0.11782241666052221 0 0.34332012240242971 -0.1020930362129598 0 0.33094534805706732 -0.1177437606496905 0 0.33378984816934337 -0.1086297847084315 0 0.32495432121773932 -0.110318363891034 0 0.33094534805706732 -0.1177437606496905 0 0.34025414842832208 -0.11782241666052221 0 0.33378984816934337 -0.1086297847084315 0 0.33378984816934337 -0.1086297847084315 0 0.32725903490077729 -0.10071499943534749 0 0.32495432121773932 -0.110318363891034 0 0.33378984816934337 -0.1086297847084315 0 0.33669688161811212 -0.1016678149874002 0 0.32725903490077729 -0.10071499943534749 0 0.33378984816934337 -0.1086297847084315 0 0.34332012240242971 -0.1020930362129598 0 0.33669688161811212 -0.1016678149874002 0 0.34332012240242971 -0.1020930362129598 0 0.33669688161811212 -0.1016678149874002 0 0.34241852099989789 -0.095233439592861846 0 0.33669688161811212 -0.1016678149874002 0 0.34241852099989789 -0.095233439592861846 0 0.32725903490077729 -0.10071499943534749 0 0.34241852099989789 -0.095233439592861846 0 0.31246642499303512 -0.0943090483573608 0 0.34241852099989789 -0.095233439592861846 0 0.32725903490077729 -0.10071499943534749 0 0.31246642499303512 -0.0943090483573608 0 0.32725903490077729 -0.10071499943534749 0 0.31716114910448651 -0.10565591717263 0 0.31246642499303512 -0.0943090483573608 0 0.32725903490077729 -0.10071499943534749 0 0.31716114910448651 -0.10565591717263 0 0.32495432121773932 -0.110318363891034 0 0.33094534805706732 -0.1177437606496905 0 0.32495432121773932 -0.110318363891034 0 0.31854024801571379 -0.1183964408803808 0 0.31716114910448651 -0.10565591717263 0 0.32495432121773932 -0.110318363891034 0 0.31854024801571379 -0.1183964408803808 0 0.31716114910448651 -0.10565591717263 0 0.31854024801571379 -0.1183964408803808 0 0.30531265091832138 -0.10738965970164049 0 0.3449175019875389 -0.076917716904771144 0 0.33388625794764348 -0.064812423232177271 0 0.32092150739102382 -0.073097043805500014 0 0.3449175019875389 -0.076917716904771144 0 0.34794047334546518 -0.063974584280765273 0 0.33388625794764348 -0.064812423232177271 0 0.3449175019875389 -0.076917716904771144 0 0.34241852099989789 -0.095233439592861846 0 0.32092150739102382 -0.073097043805500014 0 0.34241852099989789 -0.095233439592861846 0 0.32092150739102382 -0.073097043805500014 0 0.31246642499303512 -0.0943090483573608 0 0.32115491610998381 -0.052976688016941227 0 0.33388625794764348 -0.064812423232177271 0 0.32092150739102382 -0.073097043805500014 0 0.32092150739102382 -0.073097043805500014 0 0.28819319405889499 -0.06706419956831737 0 0.31246642499303512 -0.0943090483573608 0 0.32092150739102382 -0.073097043805500014 0 0.28819319405889499 -0.06706419956831737 0 0.30601744289912669 -0.055409131432484229 0 0.28251432898617262 -0.093384657121855619 0 0.28819319405889499 -0.06706419956831737 0 0.31246642499303512 -0.0943090483573608 0 0.28251432898617262 -0.093384657121855619 0 0.28819319405889499 -0.06706419956831737 0 0.28251432898617262 -0.093384657121855619 0 0.28819319405889499 -0.06706419956831737 0 0.2788070763813692 -0.075616481315712358 0 0.30531265091832138 -0.10738965970164049 0 0.29209333803684512 -0.1204183792118467 0 0.30316218715013699 -0.13585617877411299 0 0.31854024801571379 -0.1183964408803808 0 0.30531265091832138 -0.10738965970164049 0 0.30316218715013699 -0.13585617877411299 0 0.30531265091832138 -0.10738965970164049 0 0.30316218715013699 -0.13585617877411299 0 0.30531265091832138 -0.10738965970164049 0 0.31246642499303512 -0.0943090483573608 0 0.2913954051317153 -0.1063448066268642 0 0.28251432898617262 -0.093384657121855619 0 0.31246642499303512 -0.0943090483573608 0 0.31716114910448651 -0.10565591717263 0 0.30531265091832138 -0.10738965970164049 0 0.31246642499303512 -0.0943090483573608 0 0.28251432898617262 -0.093384657121855619 0 0.31246642499303512 -0.0943090483573608 0 0.2913954051317153 -0.1063448066268642 0 0.28251432898617262 -0.093384657121855619 0 0.2913954051317153 -0.1063448066268642 0 0.27794998204403759 -0.11453953550188679 0 0.30531265091832138 -0.10738965970164049 0 0.2913954051317153 -0.1063448066268642 0 0.29209333803684512 -0.1204183792118467 0 0.2913954051317153 -0.1063448066268642 0 0.29209333803684512 -0.1204183792118467 0 0.27794998204403759 -0.11453953550188679 0 0.27794998204403759 -0.11453953550188679 0 0.25915390151091949 -0.11811210275817149 0 0.27338563510190422 -0.1356944138819183 0 0.29209333803684512 -0.1204183792118467 0 0.27794998204403759 -0.11453953550188679 0 0.27338563510190422 -0.1356944138819183 0 0.28251432898617262 -0.093384657121855619 0 0.27794998204403759 -0.11453953550188679 0 0.25666672159796139 -0.092586939936295867 0 0.28251432898617262 -0.093384657121855619 0 0.27794998204403759 -0.11453953550188679 0 0.25915390151091949 -0.11811210275817149 0 0.25666672159796139 -0.092586939936295867 0 0.23839025179526999 -0.1151992729885977 0 0.27794998204403759 -0.11453953550188679 0 0.25915390151091949 -0.11811210275817149 0 0.25666672159796139 -0.092586939936295867 0 0.28819319405889499 -0.06706419956831737 0 0.27512965144911827 -0.070681904186227995 0 0.27783686619476677 -0.05372527893061739 0 0.26897876163713708 -0.070467118147906876 0 0.27512965144911827 -0.070681904186227995 0 0.27783686619476677 -0.05372527893061739 0 0.26897876163713708 -0.070467118147906876 0 0.26180167325791431 -0.066706815846455908 0 0.27783686619476677 -0.05372527893061739 0 0.27067132333055188 -0.076788874412469815 0 0.26897876163713708 -0.070467118147906876 0 0.26145119023330071 -0.079000043976386408 0 0.27067132333055188 -0.076788874412469815 0 0.26897876163713708 -0.070467118147906876 0 0.2788070763813692 -0.075616481315712358 0 0.26897876163713708 -0.070467118147906876 0 0.27512965144911827 -0.070681904186227995 0 0.28819319405889499 -0.06706419956831737 0 0.2788070763813692 -0.075616481315712358 0 0.27512965144911827 -0.070681904186227995 0 0.26897876163713708 -0.070467118147906876 0 0.2788070763813692 -0.075616481315712358 0 0.26897876163713708 -0.070467118147906876 0 0.2788070763813692 -0.075616481315712358 0 0.27512965144911827 -0.070681904186227995 0 0.28251432898617262 -0.093384657121855619 0 0.25666672159796139 -0.092586939936295867 0 0.28251432898617262 -0.093384657121855619 0 0.27051227275229911 -0.08315566172012806 0 0.25666672159796139 -0.092586939936295867 0 0.28251432898617262 -0.093384657121855619 0 0.2788070763813692 -0.075616481315712358 0 0.27051227275229911 -0.08315566172012806 0 0.27067132333055188 -0.076788874412469815 0 0.27051227275229911 -0.08315566172012806 0 0.26145119023330071 -0.079000043976386408 0 0.27067132333055188 -0.076788874412469815 0 0.2788070763813692 -0.075616481315712358 0 0.27051227275229911 -0.08315566172012806 0 0.26145119023330071 -0.079000043976386408 0 0.25666672159796139 -0.092586939936295867 0 0.24423239209720191 -0.080930297464084477 0 0.27051227275229911 -0.08315566172012806 0 0.26145119023330071 -0.079000043976386408 0 0.25666672159796139 -0.092586939936295867 0 0.26180167325791431 -0.066706815846455908 0 0.25764566998465072 -0.070071372177431313 0 0.24120587699226881 -0.055916030502087773 0 0.26145119023330071 -0.079000043976386408 0 0.25764566998465072 -0.070071372177431313 0 0.24423239209720191 -0.080930297464084477 0 0.25764566998465072 -0.070071372177431313 0 0.24423239209720191 -0.080930297464084477 0 0.26897876163713708 -0.070467118147906876 0 0.26145119023330071 -0.079000043976386408 0 0.25764566998465072 -0.070071372177431313 0 0.26897876163713708 -0.070467118147906876 0 0.26180167325791431 -0.066706815846455908 0 0.25764566998465072 -0.070071372177431313 0 0.26897876163713708 -0.070467118147906876 0 0.25764566998465072 -0.070071372177431313 0 0.26897876163713708 -0.070467118147906876 0 0.26180167325791431 -0.066706815846455908 0 0.26180167325791431 -0.066706815846455908 0 0.25764566998465072 -0.070071372177431313 0 0.26180167325791431 -0.066706815846455908 0 0.26029261894245981 -0.048826031507571623 0 0.24120587699226881 -0.055916030502087773 0 0.26180167325791431 -0.066706815846455908 0 0.24120587699226881 -0.055916030502087773 0 0.26180167325791431 -0.066706815846455908 0 0.26029261894245981 -0.048826031507571623 0 0.27783686619476677 -0.05372527893061739 0 0.26180167325791431 -0.066706815846455908 0 0.27783686619476677 -0.05372527893061739 0 0.26029261894245981 -0.048826031507571623 0 0.27783686619476677 -0.05372527893061739 0 0.27031708646619812 -0.033638605470610219 0 0.27783686619476677 -0.05372527893061739 0 0.27031708646619812 -0.033638605470610219 0 0.28437966209514692 -0.033534114227583768 0 0.26029261894245981 -0.048826031507571623 0 0.27031708646619812 -0.033638605470610219 0 0.25030159180115191 -0.034143426788088307 0 0.26029261894245981 -0.048826031507571623 0 0.25030159180115191 -0.034143426788088307 0 0.24120587699226881 -0.055916030502087773 0 0.25030159180115191 -0.034143426788088307 0 0.26299580833271302 -0.019789195105520681 0 0.2464198669495459 -0.012097030270161889 0 0.27031708646619812 -0.033638605470610219 0 0.25030159180115191 -0.034143426788088307 0 0.26299580833271302 -0.019789195105520681 0 0.25322369798355371 0.0032948183560677501 0 0.26778398551549509 -0.0036893303100333872 0 0.2464198669495459 -0.012097030270161889 0 0.26299580833271302 -0.019789195105520681 0 0.26778398551549509 -0.0036893303100333872 0 0.2464198669495459 -0.012097030270161889 0 0.26299580833271302 -0.019789195105520681 0 0.26778398551549509 -0.0036893303100333872 0 0.28231604015163769 -0.018351258625531171 0 0.2895407867033607 0.0013395930438658619 0 0.26778398551549509 -0.0036893303100333872 0 0.28231604015163769 -0.018351258625531171 0 0.27031708646619812 -0.033638605470610219 0 0.26299580833271302 -0.019789195105520681 0 0.28231604015163769 -0.018351258625531171 0 0.27031708646619812 -0.033638605470610219 0 0.28231604015163769 -0.018351258625531171 0 0.28437966209514692 -0.033534114227583768 0 0.28231604015163769 -0.018351258625531171 0 0.29600028882747859 -0.03087980289019443 0 0.28437966209514692 -0.033534114227583768 0 0.28231604015163769 -0.018351258625531171 0 0.29600028882747859 -0.03087980289019443 0 0.30132541624728598 -0.01217829343577128 0 0.2895407867033607 0.0013395930438658619 0 0.28231604015163769 -0.018351258625531171 0 0.30132541624728598 -0.01217829343577128 0 0.31046320235639918 0.0067575729804437252 0 0.2895407867033607 0.0013395930438658619 0 0.30132541624728598 -0.01217829343577128 0 0.31046320235639918 0.0067575729804437252 0 0.3153830815233527 -0.0087530987426132929 0 0.30132541624728598 -0.01217829343577128 0 0.31486943567640469 -0.023744993086391868 0 0.3153830815233527 -0.0087530987426132929 0 0.30132541624728598 -0.01217829343577128 0 0.31486943567640469 -0.023744993086391868 0 0.29600028882747859 -0.03087980289019443 0 0.30132541624728598 -0.01217829343577128 0 0.31486943567640469 -0.023744993086391868 0 0.31197137499350902 -0.041008225260955711 0 0.29387205913161968 -0.04074374201477949 0 0.31486943567640469 -0.023744993086391868 0 0.29600028882747859 -0.03087980289019443 0 0.29387205913161968 -0.04074374201477949 0 0.31486943567640469 -0.023744993086391868 0 0.29387205913161968 -0.04074374201477949 0 0.31197137499350902 -0.041008225260955711 0 0.30601744289912669 -0.055409131432484229 0 0.29387205913161968 -0.04074374201477949 0 0.28819319405889499 -0.06706419956831737 0 0.27783686619476677 -0.05372527893061739 0 0.29387205913161968 -0.04074374201477949 0 0.28819319405889499 -0.06706419956831737 0 0.29387205913161968 -0.04074374201477949 0 0.27783686619476677 -0.05372527893061739 0 0.29387205913161968 -0.04074374201477949 0 0.28819319405889499 -0.06706419956831737 0 0.30601744289912669 -0.055409131432484229 0 0.29387205913161968 -0.04074374201477949 0 0.27783686619476677 -0.05372527893061739 0 0.28437966209514692 -0.033534114227583768 0 0.29387205913161968 -0.04074374201477949 0 0.29600028882747859 -0.03087980289019443 0 0.28437966209514692 -0.033534114227583768 0 0.29387205913161968 -0.04074374201477949 0 0.29600028882747859 -0.03087980289019443 0 0.29387205913161968 -0.04074374201477949 0 0.28925369461552242 -0.21547475378801551 0 0.29798535605087828 -0.20438389051808681 0 0.27851755886665591 -0.20371457102860641 0 0.28925369461552242 -0.21547475378801551 0 0.28465086540799672 -0.2254021489655588 0 0.27851755886665591 -0.20371457102860641 0 0.28925369461552242 -0.21547475378801551 0 0.29798535605087828 -0.20438389051808681 0 0.29625974568445868 -0.22722646109941139 0 0.28994099481116897 -0.19128490440727269 0 0.29798535605087828 -0.20438389051808681 0 0.29971096641729777 -0.18154131993676231 0 0.28994099481116897 -0.19128490440727269 0 0.27851755886665591 -0.20371457102860641 0 0.28355009790984409 -0.17549983614563519 0 0.28994099481116897 -0.19128490440727269 0 0.29798535605087828 -0.20438389051808681 0 0.27851755886665591 -0.20371457102860641 0 0.30866677822314281 -0.19370433905286669 0 0.29798535605087828 -0.20438389051808681 0 0.29971096641729777 -0.18154131993676231 0 0.29798535605087828 -0.20438389051808681 0 0.29971096641729777 -0.18154131993676231 0 0.30866677822314281 -0.19370433905286669 0 0.30817512199612251 -0.208018461664154 0 0.29798535605087828 -0.20438389051808681 0 0.29798535605087828 -0.20438389051808681 0 0.29625974568445868 -0.22722646109941139 0 0.30367267472900389 -0.2178556058656746 0 0.31200739898088131 -0.22851072207886541 0 0.31883562653249692 -0.20986103607638071 0 0.29798535605087828 -0.20438389051808681 0 0.30367267472900389 -0.2178556058656746 0 0.29625974568445868 -0.22722646109941139 0 0.30817512199612251 -0.208018461664154 0 0.29798535605087828 -0.20438389051808681 0 0.30367267472900389 -0.2178556058656746 0 0.30817512199612251 -0.208018461664154 0 0.30367267472900389 -0.2178556058656746 0 0.31883562653249692 -0.20986103607638071 0 0.30367267472900389 -0.2178556058656746 0 0.31883562653249692 -0.20986103607638071 0 0.31200739898088131 -0.22851072207886541 0 0.30517917142926537 -0.24716040808135001 0 0.29625974568445868 -0.22722646109941139 0 0.30367267472900389 -0.2178556058656746 0 0.31200739898088131 -0.22851072207886541 0 0.29625974568445868 -0.22722646109941139 0 0.31200739898088131 -0.22851072207886541 0 0.30517917142926537 -0.24716040808135001 0 0.30517917142926537 -0.24716040808135001 0 0.28765229627979871 -0.24304032400626949 0 0.29625974568445868 -0.22722646109941139 0 0.28765229627979871 -0.24304032400626949 0 0.29625974568445868 -0.22722646109941139 0 0.28465086540799672 -0.2254021489655588 0 0.28765229627979871 -0.24304032400626949 0 0.28465086540799672 -0.2254021489655588 0 0.27348501982346762 -0.23192930591157759 0 0.28925369461552242 -0.21547475378801551 0 0.29625974568445868 -0.22722646109941139 0 0.28465086540799672 -0.2254021489655588 0 0.28465086540799672 -0.2254021489655588 0 0.27348501982346762 -0.23192930591157759 0 0.27851755886665591 -0.20371457102860641 0 0.27348501982346762 -0.23192930591157759 0 0.25787859859726192 -0.24372773219337371 0 0.26845248078028039 -0.26014404079454911 0 0.28765229627979871 -0.24304032400626949 0 0.27348501982346762 -0.23192930591157759 0 0.26845248078028039 -0.26014404079454911 0 0.27348501982346762 -0.23192930591157759 0 0.26845248078028039 -0.26014404079454911 0 0.27348501982346762 -0.23192930591157759 0 0.25787859859726192 -0.24372773219337371 0 0.2485278721491469 -0.22983386195931649 0 0.27348501982346762 -0.23192930591157759 0 0.25806059678156651 -0.21160485628964759 0 0.2485278721491469 -0.22983386195931649 0 0.27348501982346762 -0.23192930591157759 0 0.27851755886665591 -0.20371457102860641 0 0.27348501982346762 -0.23192930591157759 0 0.25806059678156651 -0.21160485628964759 0 0.27851755886665591 -0.20371457102860641 0 0.27851755886665591 -0.20371457102860641 0 0.26140201073716351 -0.19316186481753209 0 0.27335445324682811 -0.1824409541049711 0 0.25806059678156651 -0.21160485628964759 0 0.27851755886665591 -0.20371457102860641 0 0.26140201073716351 -0.19316186481753209 0 0.27851755886665591 -0.20371457102860641 0 0.28355009790984409 -0.17549983614563519 0 0.25806059678156651 -0.21160485628964759 0 0.26140201073716351 -0.19316186481753209 0 0.24624710011957149 -0.19756578472926509 0 0.26140201073716351 -0.19316186481753209 0 0.25030889548151403 -0.1837077448593728 0 0.24624710011957149 -0.19756578472926509 0 0.25969225384889538 -0.18295045636353721 0 0.2550208565069661 -0.17514012483034949 0 0.27335445324682811 -0.1824409541049711 0 0.26140201073716351 -0.19316186481753209 0 0.25030889548151403 -0.1837077448593728 0 0.25969225384889538 -0.18295045636353721 0 0.25030889548151403 -0.1837077448593728 0 0.25969225384889538 -0.18295045636353721 0 0.2550208565069661 -0.17514012483034949 0 0.2550208565069661 -0.17514012483034949 0 0.2530488896403309 -0.16079061319898569 0 0.27335445324682811 -0.1824409541049711 0 0.26140201073716351 -0.19316186481753209 0 0.25969225384889538 -0.18295045636353721 0 0.27335445324682811 -0.1824409541049711 0 0.2530488896403309 -0.16079061319898569 0 0.272260185211738 -0.168331689764908 0 0.26878477807763418 -0.16016356734556891 0 0.2530488896403309 -0.16079061319898569 0 0.26878477807763418 -0.16016356734556891 0 0.26293682869207591 -0.15391070786642169 0 0.2530488896403309 -0.16079061319898569 0 0.27335445324682811 -0.1824409541049711 0 0.272260185211738 -0.168331689764908 0 0.27899515764395177 -0.15443660918041571 0 0.28355009790984409 -0.17549983614563519 0 0.2530488896403309 -0.16079061319898569 0 0.272260185211738 -0.168331689764908 0 0.27335445324682811 -0.1824409541049711 0 0.272260185211738 -0.168331689764908 0 0.26878477807763418 -0.16016356734556891 0 0.27899515764395177 -0.15443660918041571 0 0.272260185211738 -0.168331689764908 0 0.27335445324682811 -0.1824409541049711 0 0.28355009790984409 -0.17549983614563519 0 0.27851755886665591 -0.20371457102860641 0 0.27335445324682811 -0.1824409541049711 0 0.28355009790984409 -0.17549983614563519 0 0.25915390151091949 -0.11811210275817149 0 0.25133622254172122 -0.13557462765415079 0 0.27338563510190422 -0.1356944138819183 0 0.25133622254172122 -0.13557462765415079 0 0.27338563510190422 -0.1356944138819183 0 0.25133622254172122 -0.13557462765415079 0 0.25208407187516418 -0.1419613505697605 0 0.27338563510190422 -0.1356944138819183 0 0.26557247671991108 -0.14774187414890411 0 0.25208407187516418 -0.1419613505697605 0 0.27142481771649529 -0.14478242884651979 0 0.25208407187516418 -0.1419613505697605 0 0.27142481771649529 -0.14478242884651979 0 0.2530488896403309 -0.16079061319898569 0 0.25208407187516418 -0.1419613505697605 0 0.26293682869207591 -0.15391070786642169 0 0.26557247671991108 -0.14774187414890411 0 0.25208407187516418 -0.1419613505697605 0 0.26293682869207591 -0.15391070786642169 0 0.27899515764395177 -0.15443660918041571 0 0.27142481771649529 -0.14478242884651979 0 0.28858263695303038 -0.1472851012626637 0 0.25208407187516418 -0.1419613505697605 0 0.27142481771649529 -0.14478242884651979 0 0.27338563510190422 -0.1356944138819183 0 0.27142481771649529 -0.14478242884651979 0 0.28858263695303038 -0.1472851012626637 0 0.27142481771649529 -0.14478242884651979 0 0.27338563510190422 -0.1356944138819183 0 0.28952553314766588 -0.14199879033185039 0 0.26878477807763418 -0.16016356734556891 0 0.27009527632936597 -0.15279308215900331 0 0.27899515764395177 -0.15443660918041571 0 0.26557247671991108 -0.14774187414890411 0 0.27009527632936597 -0.15279308215900331 0 0.27142481771649529 -0.14478242884651979 0 0.26878477807763418 -0.16016356734556891 0 0.26293682869207591 -0.15391070786642169 0 0.27009527632936597 -0.15279308215900331 0 0.26557247671991108 -0.14774187414890411 0 0.26293682869207591 -0.15391070786642169 0 0.27009527632936597 -0.15279308215900331 0 0.27009527632936597 -0.15279308215900331 0 0.27899515764395177 -0.15443660918041571 0 0.27142481771649529 -0.14478242884651979 0 0.27794998204403759 -0.11453953550188679 0 0.27338563510190422 -0.1356944138819183 0 0.27142481771649529 -0.14478242884651979 0 0.27338563510190422 -0.1356944138819183 0 0.27338563510190422 -0.1356944138819183 0 0.30316218715013699 -0.13585617877411299 0 0.29209333803684512 -0.1204183792118467 0 0.27338563510190422 -0.1356944138819183 0 0.30316218715013699 -0.13585617877411299 0 0.27338563510190422 -0.1356944138819183 0 0.28952553314766588 -0.14199879033185039 0 0.30316218715013699 -0.13585617877411299 0 0.27142481771649529 -0.14478242884651979 0 0.28952553314766588 -0.14199879033185039 0 0.28858263695303038 -0.1472851012626637 0 0.28858263695303038 -0.1472851012626637 0 0.30013596324633868 -0.14897029159077979 0 0.28952553314766588 -0.14199879033185039 0 0.28858263695303038 -0.1472851012626637 0 0.30013596324633868 -0.14897029159077979 0 0.28952553314766588 -0.14199879033185039 0 0.28858263695303038 -0.1472851012626637 0 0.28858263695303038 -0.1472851012626637 0 0.30013596324633868 -0.14897029159077979 0 0.29372711844303928 -0.1600295372122347 0 0.30316218715013699 -0.13585617877411299 0 0.30143657678371732 -0.15869874935543771 0 0.30013596324633868 -0.14897029159077979 0 0.30316218715013699 -0.13585617877411299 0 0.30143657678371732 -0.15869874935543771 0 0.30316218715013699 -0.13585617877411299 0 0.30143657678371732 -0.15869874935543771 0 0.31253980123811259 -0.14771969478669131 0 0.30013596324633868 -0.14897029159077979 0 0.29372711844303928 -0.1600295372122347 0 0.30143657678371732 -0.15869874935543771 0 0.30143657678371732 -0.15869874935543771 0 0.31557079919726838 -0.1590044961535387 0 0.31253980123811259 -0.14771969478669131 0 0.28952553314766588 -0.14199879033185039 0 0.30013596324633868 -0.14897029159077979 0 0.30316218715013699 -0.13585617877411299 0 0.30316218715013699 -0.13585617877411299 0 0.31993283661344418 -0.13594728745244961 0 0.31253980123811259 -0.14771969478669131 0 0.30316218715013699 -0.13585617877411299 0 0.31993283661344418 -0.13594728745244961 0 0.28994099481116897 -0.19128490440727269 0 0.28355009790984409 -0.17549983614563519 0 0.29971096641729777 -0.18154131993676231 0 0.28355009790984409 -0.17549983614563519 0 0.29493031732226571 -0.16969370770665679 0 0.29971096641729777 -0.18154131993676231 0 0.27899515764395177 -0.15443660918041571 0 0.28858263695303038 -0.1472851012626637 0 0.28355009790984409 -0.17549983614563519 0 0.28858263695303038 -0.1472851012626637 0 0.28355009790984409 -0.17549983614563519 0 0.28858263695303038 -0.1472851012626637 0 0.28355009790984409 -0.17549983614563519 0 0.29372711844303928 -0.1600295372122347 0 0.29372711844303928 -0.1600295372122347 0 0.29493031732226571 -0.16969370770665679 0 0.30143657678371732 -0.15869874935543771 0 0.28355009790984409 -0.17549983614563519 0 0.29372711844303928 -0.1600295372122347 0 0.29493031732226571 -0.16969370770665679 0 0.30143657678371732 -0.15869874935543771 0 0.29971096641729777 -0.18154131993676231 0 0.30143657678371732 -0.15869874935543771 0 0.30809610970482848 -0.16795036279156811 0 0.29971096641729777 -0.18154131993676231 0 0.29493031732226571 -0.16969370770665679 0 0.30143657678371732 -0.15869874935543771 0 0.29971096641729777 -0.18154131993676231 0 0.30143657678371732 -0.15869874935543771 0 0.30809610970482848 -0.16795036279156811 0 0.31557079919726838 -0.1590044961535387 0 0.29971096641729777 -0.18154131993676231 0 0.31498869866721663 -0.1848028620899877 0 0.3156660964210305 -0.17255688572053399 0 0.30809610970482848 -0.16795036279156811 0 0.29971096641729777 -0.18154131993676231 0 0.3156660964210305 -0.17255688572053399 0 0.30866677822314281 -0.19370433905286669 0 0.29971096641729777 -0.18154131993676231 0 0.31498869866721663 -0.1848028620899877 0 0.32729102930978993 -0.18432716657830939 0 0.3156660964210305 -0.17255688572053399 0 0.33199725769327038 -0.160182781354547 0 0.31498869866721663 -0.1848028620899877 0 0.32729102930978993 -0.18432716657830939 0 0.3156660964210305 -0.17255688572053399 0 0.3156660964210305 -0.17255688572053399 0 0.31557079919726838 -0.1590044961535387 0 0.33199725769327038 -0.160182781354547 0 0.30809610970482848 -0.16795036279156811 0 0.3156660964210305 -0.17255688572053399 0 0.31557079919726838 -0.1590044961535387 0 0.32729102930978993 -0.18432716657830939 0 0.34572674800851178 -0.17666980330527179 0 0.34152908302092871 -0.19789605564194099 0 0.32729102930978993 -0.18432716657830939 0 0.33199725769327038 -0.160182781354547 0 0.34572674800851178 -0.17666980330527179 0 0.32729102930978993 -0.18432716657830939 0 0.33199725769327038 -0.160182781354547 0 0.31854024801571379 -0.1183964408803808 0 0.30316218715013699 -0.13585617877411299 0 0.31993283661344418 -0.13594728745244961 0 0.31993283661344418 -0.13594728745244961 0 0.32334883616376942 -0.1477785311756023 0 0.33670348607675138 -0.13603839613078461 0 0.31854024801571379 -0.1183964408803808 0 0.31993283661344418 -0.13594728745244961 0 0.33718817445421712 -0.13355179710808501 0 0.31854024801571379 -0.1183964408803808 0 0.33718817445421712 -0.13355179710808501 0 0.31557079919726838 -0.1590044961535387 0 0.33199725769327038 -0.160182781354547 0 0.32334883616376942 -0.1477785311756023 0 0.31993283661344418 -0.13594728745244961 0 0.32334883616376942 -0.1477785311756023 0 0.31253980123811259 -0.14771969478669131 0 0.31557079919726838 -0.1590044961535387 0 0.32334883616376942 -0.1477785311756023 0 0.31253980123811259 -0.14771969478669131 0 0.33199725769327038 -0.160182781354547 0 0.34027166502062639 -0.13605778071504529 0 0.33670348607675138 -0.13603839613078461 0 0.33199725769327038 -0.160182781354547 0 0.32334883616376942 -0.1477785311756023 0 0.33670348607675138 -0.13603839613078461 0 0.33199725769327038 -0.160182781354547 0 0.33670348607675138 -0.13603839613078461 0 0.31993283661344418 -0.13594728745244961 0 0.33670348607675138 -0.13603839613078461 0 0.31993283661344418 -0.13594728745244961 0 0.33670348607675138 -0.13603839613078461 0 0.33718817445421712 -0.13355179710808501 0 0.34025414842832208 -0.11782241666052221 0 0.33718817445421712 -0.13355179710808501 0 0.34381162934489939 -0.12854128697128539 0 0.34025414842832208 -0.11782241666052221 0 0.33718817445421712 -0.13355179710808501 0 0.34027166502062639 -0.13605778071504529 0 0.33670348607675138 -0.13603839613078461 0 0.33718817445421712 -0.13355179710808501 0 0.34027166502062639 -0.13605778071504529 0 0.33718817445421712 -0.13355179710808501 0 0.34027166502062639 -0.13605778071504529 0 0.33670348607675138 -0.13603839613078461 0 0.33670348607675138 -0.13603839613078461 0 0.33718817445421712 -0.13355179710808501 0 0.34027166502062639 -0.13605778071504529 0 0.33718817445421712 -0.13355179710808501 0 0.34381162934489939 -0.12854128697128539 0 0.33199725769327038 -0.160182781354547 0 0.34027166502062639 -0.13605778071504529 0 0.36359383050920879 -0.15501193774405861 0 0.35355367174401742 -0.1211945845718113 0 0.34381162934489939 -0.12854128697128539 0 0.34779048707731292 -0.1340798558009649 0 0.34027166502062639 -0.13605778071504529 0 0.34884821061351562 -0.13610437388577321 0 0.35664352332635268 -0.13060513793896061 0 0.34779048707731292 -0.1340798558009649 0 0.34884821061351562 -0.13610437388577321 0 0.34027166502062639 -0.13605778071504529 0 0.34779048707731292 -0.1340798558009649 0 0.34884821061351562 -0.13610437388577321 0 0.34027166502062639 -0.13605778071504529 0 0.34381162934489939 -0.12854128697128539 0 0.34779048707731292 -0.1340798558009649 0 0.35664352332635268 -0.13060513793896061 0 0.34884821061351562 -0.13610437388577321 0 0.36374720336072303 -0.13810563056468389 0 0.34884821061351562 -0.13610437388577321 0 0.36359383050920879 -0.15501193774405861 0 0.36374720336072303 -0.13810563056468389 0 0.34027166502062639 -0.13605778071504529 0 0.36359383050920879 -0.15501193774405861 0 0.34027166502062639 -0.13605778071504529 0 0.34884821061351562 -0.13610437388577321 0 0.36359383050920879 -0.15501193774405861 0 0.36359383050920879 -0.15501193774405861 0 0.36374720336072303 -0.13810563056468389 0 0.37656812491251679 -0.13846106794218549 0 0.3785150876385216 -0.1195111518185689 0 0.36779594019891898 -0.12729788290040461 0 0.37656812491251679 -0.13846106794218549 0 0.36374720336072303 -0.13810563056468389 0 0.36779594019891898 -0.12729788290040461 0 0.37656812491251679 -0.13846106794218549 0 0.35664352332635268 -0.13060513793896061 0 0.36374720336072303 -0.13810563056468389 0 0.36779594019891898 -0.12729788290040461 0 0.33199725769327038 -0.160182781354547 0 0.36359383050920879 -0.15501193774405861 0 0.34572674800851178 -0.17666980330527179 0 0.34572674800851178 -0.17666980330527179 0 0.36422253950936112 -0.1859310752075029 0 0.34152908302092871 -0.19789605564194099 0 0.36359383050920879 -0.15501193774405861 0 0.34572674800851178 -0.17666980330527179 0 0.36422253950936112 -0.1859310752075029 0 0.36359383050920879 -0.15501193774405861 0 0.36422253950936112 -0.1859310752075029 0 0.38691599599779503 -0.1739660947730671 0 0.36422253950936112 -0.1859310752075029 0 0.37220629557919183 -0.19612338441269381 0 0.37910290544765168 -0.18685571494790659 0 0.36422253950936112 -0.1859310752075029 0 0.37220629557919183 -0.19612338441269381 0 0.35685044422528578 -0.20027094664828951 0 0.37220629557919183 -0.19612338441269381 0 0.3556522221671049 -0.2162457527497984 0 0.35685044422528578 -0.20027094664828951 0 0.37220629557919183 -0.19612338441269381 0 0.3556522221671049 -0.2162457527497984 0 0.37273333868611941 -0.2093978965492076 0 0.3556522221671049 -0.2162457527497984 0 0.3731990688381891 -0.2228302363117915 0 0.37220629557919183 -0.19612338441269381 0 0.37273333868611941 -0.2093978965492076 0 0.3556522221671049 -0.2162457527497984 0 0.34913249600123192 -0.20719712371303781 0 0.34152908302092871 -0.19789605564194099 0 0.34144894007629428 -0.2139395960038605 0 0.3556522221671049 -0.2162457527497984 0 0.34913249600123192 -0.20719712371303781 0 0.35685044422528578 -0.20027094664828951 0 0.3556522221671049 -0.2162457527497984 0 0.34913249600123192 -0.20719712371303781 0 0.34144894007629428 -0.2139395960038605 0 0.36422253950936112 -0.1859310752075029 0 0.35685044422528578 -0.20027094664828951 0 0.34152908302092871 -0.19789605564194099 0 0.36422253950936112 -0.1859310752075029 0 0.34152908302092871 -0.19789605564194099 0 0.34913249600123192 -0.20719712371303781 0 0.35685044422528578 -0.20027094664828951 0 0.34152908302092871 -0.19789605564194099 0 0.32729102930978993 -0.18432716657830939 0 0.34152908302092871 -0.19789605564194099 0 0.32289957828838461 -0.19876131457419149 0 0.34152908302092871 -0.19789605564194099 0 0.31883562653249692 -0.20986103607638071 0 0.34152908302092871 -0.19789605564194099 0 0.34144894007629428 -0.2139395960038605 0 0.31883562653249692 -0.20986103607638071 0 0.34144894007629428 -0.2139395960038605 0 0.31883562653249692 -0.20986103607638071 0 0.32331405575278033 -0.23055000204260581 0 0.31883562653249692 -0.20986103607638071 0 0.32289957828838461 -0.19876131457419149 0 0.30817512199612251 -0.208018461664154 0 0.31883562653249692 -0.20986103607638071 0 0.32289957828838461 -0.19876131457419149 0 0.30866677822314281 -0.19370433905286669 0 0.30817512199612251 -0.208018461664154 0 0.32289957828838461 -0.19876131457419149 0 0.34152908302092871 -0.19789605564194099 0 0.31883562653249692 -0.20986103607638071 0 0.32289957828838461 -0.19876131457419149 0 0.30866677822314281 -0.19370433905286669 0 0.31498869866721663 -0.1848028620899877 0 0.32289957828838461 -0.19876131457419149 0 0.31498869866721663 -0.1848028620899877 0 0.32729102930978993 -0.18432716657830939 0 0.32289957828838461 -0.19876131457419149 0 0.30517917142926537 -0.24716040808135001 0 0.32331405575278033 -0.23055000204260581 0 0.30517917142926537 -0.24716040808135001 0 0.32331405575278033 -0.23055000204260581 0 0.322544075342931 -0.25649048942400782 0 0.31200739898088131 -0.22851072207886541 0 0.30517917142926537 -0.24716040808135001 0 0.32331405575278033 -0.23055000204260581 0 0.31200739898088131 -0.22851072207886541 0 0.31883562653249692 -0.20986103607638071 0 0.31200739898088131 -0.22851072207886541 0 0.31883562653249692 -0.20986103607638071 0 0.32331405575278033 -0.23055000204260581 0 0.34144894007629428 -0.2139395960038605 0 0.32331405575278033 -0.23055000204260581 0 0.34144894007629428 -0.2139395960038605 0 0.32331405575278033 -0.23055000204260581 0 0.33909814875501798 -0.23636812108690311 0 0.33909814875501798 -0.23636812108690311 0 0.322544075342931 -0.25649048942400782 0 0.32331405575278033 -0.23055000204260581 0 0.33909814875501798 -0.23636812108690311 0 0.322544075342931 -0.25649048942400782 0 0.33909814875501798 -0.23636812108690311 0 0.35007299243335749 -0.24785688602667111 0 0.33700232267718733 -0.25494009872172468 0 0.33909814875501798 -0.23636812108690311 0 0.322544075342931 -0.25649048942400782 0 0.33700232267718733 -0.25494009872172468 0 0.33909814875501798 -0.23636812108690311 0 0.35007299243335749 -0.24785688602667111 0 0.35471840821638012 -0.232162972911199 0 0.35007299243335749 -0.24785688602667111 0 0.35471840821638012 -0.232162972911199 0 0.36225179838031341 -0.2439392928582107 0 0.35007299243335749 -0.24785688602667111 0 0.36225179838031341 -0.2439392928582107 0 0.36124693131331159 -0.25807728632712912 0 0.3556522221671049 -0.2162457527497984 0 0.33909814875501798 -0.23636812108690311 0 0.3556522221671049 -0.2162457527497984 0 0.33909814875501798 -0.23636812108690311 0 0.35471840821638012 -0.232162972911199 0 0.3556522221671049 -0.2162457527497984 0 0.34144894007629428 -0.2139395960038605 0 0.33909814875501798 -0.23636812108690311 0 0.35471840821638012 -0.232162972911199 0 0.3731990688381891 -0.2228302363117915 0 0.36225179838031341 -0.2439392928582107 0 0.3556522221671049 -0.2162457527497984 0 0.35471840821638012 -0.232162972911199 0 0.3731990688381891 -0.2228302363117915 0 0.3731990688381891 -0.2228302363117915 0 0.36225179838031341 -0.2439392928582107 0 0.3731990688381891 -0.2228302363117915 0 0.36225179838031341 -0.2439392928582107 0 0.38186963046980549 -0.2367879359972051 0 0.36225179838031341 -0.2439392928582107 0 0.38186963046980549 -0.2367879359972051 0 0.37510228513818711 -0.25237727586059511 0 0.38186963046980549 -0.2367879359972051 0 0.39206528024080278 -0.24921397013056479 0 0.37510228513818711 -0.25237727586059511 0 0.39206528024080278 -0.24921397013056479 0 0.40137725565661481 -0.22692044649349019 0 0.4148006158986044 -0.24103970595398019 0 0.39206528024080278 -0.24921397013056479 0 0.4148006158986044 -0.24103970595398019 0 0.40884184876520419 -0.25890250189124958 0 0.38186963046980549 -0.2367879359972051 0 0.39206528024080278 -0.24921397013056479 0 0.40137725565661481 -0.22692044649349019 0 0.40137725565661481 -0.22692044649349019 0 0.39915185452682361 -0.21610044156742811 0 0.41396763236883027 -0.21470461273584779 0 0.40137725565661481 -0.22692044649349019 0 0.38700545273377529 -0.2233412248148075 0 0.39915185452682361 -0.21610044156742811 0 0.38186963046980549 -0.2367879359972051 0 0.40137725565661481 -0.22692044649349019 0 0.38700545273377529 -0.2233412248148075 0 0.3731990688381891 -0.2228302363117915 0 0.38186963046980549 -0.2367879359972051 0 0.38700545273377529 -0.2233412248148075 0 0.3731990688381891 -0.2228302363117915 0 0.38414633929606479 -0.2017211797653724 0 0.37273333868611941 -0.2093978965492076 0 0.3731990688381891 -0.2228302363117915 0 0.38414633929606479 -0.2017211797653724 0 0.3731990688381891 -0.2228302363117915 0 0.38675328488958288 -0.2095276895359276 0 0.38414633929606479 -0.2017211797653724 0 0.3731990688381891 -0.2228302363117915 0 0.38700545273377529 -0.2233412248148075 0 0.38675328488958288 -0.2095276895359276 0 0.38675328488958288 -0.2095276895359276 0 0.38414633929606479 -0.2017211797653724 0 0.39287005569986072 -0.20314648074516001 0 0.38414633929606479 -0.2017211797653724 0 0.38373621375160438 -0.1885238144486111 0 0.39509360975394031 -0.18061212321895309 0 0.38414633929606479 -0.2017211797653724 0 0.39509360975394031 -0.18061212321895309 0 0.37999921147615667 -0.19503406661491049 0 0.38373621375160438 -0.1885238144486111 0 0.37910290544765168 -0.18685571494790659 0 0.37999921147615667 -0.19503406661491049 0 0.38414633929606479 -0.2017211797653724 0 0.38373621375160438 -0.1885238144486111 0 0.37220629557919183 -0.19612338441269381 0 0.37999921147615667 -0.19503406661491049 0 0.37910290544765168 -0.18685571494790659 0 0.37220629557919183 -0.19612338441269381 0 0.37273333868611941 -0.2093978965492076 0 0.38414633929606479 -0.2017211797653724 0 0.37220629557919183 -0.19612338441269381 0 0.37999921147615667 -0.19503406661491049 0 0.38414633929606479 -0.2017211797653724 0 0.38414633929606479 -0.2017211797653724 0 0.39694758591794982 -0.18886739411602391 0 0.39509360975394031 -0.18061212321895309 0 0.39694758591794982 -0.18886739411602391 0 0.3969424320709618 -0.1972324897541754 0 0.40101572763622523 -0.19231380306325679 0 0.38414633929606479 -0.2017211797653724 0 0.39694758591794982 -0.18886739411602391 0 0.3969424320709618 -0.1972324897541754 0 0.38414633929606479 -0.2017211797653724 0 0.3969424320709618 -0.1972324897541754 0 0.39287005569986072 -0.20314648074516001 0 0.3969424320709618 -0.1972324897541754 0 0.400612395600416 -0.20053006859666331 0 0.39287005569986072 -0.20314648074516001 0 0.3969424320709618 -0.1972324897541754 0 0.4059814476455269 -0.19573306963025069 0 0.400612395600416 -0.20053006859666331 0 0.4059814476455269 -0.19573306963025069 0 0.400612395600416 -0.20053006859666331 0 0.40665564698531481 -0.2060082342570673 0 0.3969424320709618 -0.1972324897541754 0 0.4059814476455269 -0.19573306963025069 0 0.40101572763622523 -0.19231380306325679 0 0.4059814476455269 -0.19573306963025069 0 0.40101572763622523 -0.19231380306325679 0 0.40419144491046238 -0.1874222587525772 0 0.39694758591794982 -0.18886739411602391 0 0.40101572763622523 -0.19231380306325679 0 0.40419144491046238 -0.1874222587525772 0 0.38675328488958288 -0.2095276895359276 0 0.40665564698531481 -0.2060082342570673 0 0.38675328488958288 -0.2095276895359276 0 0.39915185452682361 -0.21610044156742811 0 0.40665564698531481 -0.2060082342570673 0 0.38675328488958288 -0.2095276895359276 0 0.39287005569986072 -0.20314648074516001 0 0.40665564698531481 -0.2060082342570673 0 0.38700545273377529 -0.2233412248148075 0 0.38675328488958288 -0.2095276895359276 0 0.39915185452682361 -0.21610044156742811 0 0.400612395600416 -0.20053006859666331 0 0.39287005569986072 -0.20314648074516001 0 0.40665564698531481 -0.2060082342570673 0 0.41396763236883027 -0.21470461273584779 0 0.40665564698531481 -0.2060082342570673 0 0.42655800908104652 -0.20248877897820619 0 0.40665564698531481 -0.2060082342570673 0 0.42655800908104652 -0.20248877897820619 0 0.39915185452682361 -0.21610044156742811 0 0.41396763236883027 -0.21470461273584779 0 0.40665564698531481 -0.2060082342570673 0 0.41396763236883027 -0.21470461273584779 0 0.42655800908104652 -0.20248877897820619 0 0.40665564698531481 -0.2060082342570673 0 0.41640017291144837 -0.19588579121564459 0 0.42655800908104652 -0.20248877897820619 0 0.4059814476455269 -0.19573306963025069 0 0.41640017291144837 -0.19588579121564459 0 0.41453364601533049 -0.1862870086825022 0 0.4059814476455269 -0.19573306963025069 0 0.40419144491046238 -0.1874222587525772 0 0.41453364601533049 -0.1862870086825022 0 0.4059814476455269 -0.19573306963025069 0 0.40665564698531481 -0.2060082342570673 0 0.41640017291144837 -0.19588579121564459 0 0.41640017291144837 -0.19588579121564459 0 0.42581299264578848 -0.18832250896932939 0 0.41453364601533049 -0.1862870086825022 0 0.42655800908104652 -0.20248877897820619 0 0.444302871767289 -0.18527179670816579 0 0.42581299264578848 -0.18832250896932939 0 0.42655800908104652 -0.20248877897820619 0 0.444302871767289 -0.18527179670816579 0 0.41640017291144837 -0.19588579121564459 0 0.42581299264578848 -0.18832250896932939 0 0.42655800908104652 -0.20248877897820619 0 0.42655800908104652 -0.20248877897820619 0 0.43237997939727391 -0.21969514264188619 0 0.44995934289594253 -0.19835057932979169 0 0.41396763236883027 -0.21470461273584779 0 0.42655800908104652 -0.20248877897820619 0 0.43237997939727391 -0.21969514264188619 0 0.43237997939727391 -0.21969514264188619 0 0.43199948472716282 -0.23703470349933331 0 0.4148006158986044 -0.24103970595398019 0 0.43237997939727391 -0.21969514264188619 0 0.4148006158986044 -0.24103970595398019 0 0.43199948472716282 -0.23703470349933331 0 0.4148006158986044 -0.24103970595398019 0 0.42892204251950339 -0.2594807324876427 0 0.43199948472716282 -0.23703470349933331 0 0.44338493428344739 -0.24574379201886831 0 0.42892204251950339 -0.2594807324876427 0 0.43237997939727391 -0.21969514264188619 0 0.4148006158986044 -0.24103970595398019 0 0.41563137083033092 -0.22558997695630109 0 0.41396763236883027 -0.21470461273584779 0 0.43237997939727391 -0.21969514264188619 0 0.41563137083033092 -0.22558997695630109 0 0.40137725565661481 -0.22692044649349019 0 0.4148006158986044 -0.24103970595398019 0 0.41563137083033092 -0.22558997695630109 0 0.40137725565661481 -0.22692044649349019 0 0.41396763236883027 -0.21470461273584779 0 0.40137725565661481 -0.22692044649349019 0 0.41396763236883027 -0.21470461273584779 0 0.41563137083033092 -0.22558997695630109 0 0.39237070121405998 -0.13164091544729051 0 0.39988799210863701 -0.14408364481314989 0 0.41368108829086198 -0.13554811058748131 0 0.40604313277712428 -0.1171380761358455 0 0.39237070121405998 -0.13164091544729051 0 0.41368108829086198 -0.13554811058748131 0 0.39237070121405998 -0.13164091544729051 0 0.37656812491251679 -0.13846106794218549 0 0.38605620033535121 -0.1499684147877679 0 0.3785150876385216 -0.1195111518185689 0 0.39237070121405998 -0.13164091544729051 0 0.37656812491251679 -0.13846106794218549 0 0.36359383050920879 -0.15501193774405861 0 0.37656812491251679 -0.13846106794218549 0 0.38605620033535121 -0.1499684147877679 0 0.39237070121405998 -0.13164091544729051 0 0.38605620033535121 -0.1499684147877679 0 0.39988799210863701 -0.14408364481314989 0 0.38605620033535121 -0.1499684147877679 0 0.39988799210863701 -0.14408364481314989 0 0.39700055726989097 -0.15664682800685811 0 0.39988799210863701 -0.14408364481314989 0 0.39700055726989097 -0.15664682800685811 0 0.40766935758353628 -0.1563629578155839 0 0.40291487034120532 -0.16553079014728059 0 0.39700055726989097 -0.15664682800685811 0 0.38691599599779503 -0.1739660947730671 0 0.40291487034120532 -0.16553079014728059 0 0.38691599599779503 -0.1739660947730671 0 0.40291487034120532 -0.16553079014728059 0 0.39700055726989097 -0.15664682800685811 0 0.40766935758353628 -0.1563629578155839 0 0.40291487034120532 -0.16553079014728059 0 0.40766935758353628 -0.1563629578155839 0 0.38605620033535121 -0.1499684147877679 0 0.39700055726989097 -0.15664682800685811 0 0.38691599599779503 -0.1739660947730671 0 0.36359383050920879 -0.15501193774405861 0 0.38691599599779503 -0.1739660947730671 0 0.36359383050920879 -0.15501193774405861 0 0.38605620033535121 -0.1499684147877679 0 0.38691599599779503 -0.1739660947730671 0 0.36422253950936112 -0.1859310752075029 0 0.38691599599779503 -0.1739660947730671 0 0.37910290544765168 -0.18685571494790659 0 0.36422253950936112 -0.1859310752075029 0 0.38691599599779503 -0.1739660947730671 0 0.38691599599779503 -0.1739660947730671 0 0.38753717637180268 -0.18155585423065651 0 0.39509360975394031 -0.18061212321895309 0 0.38373621375160438 -0.1885238144486111 0 0.38753717637180268 -0.18155585423065651 0 0.39509360975394031 -0.18061212321895309 0 0.38691599599779503 -0.1739660947730671 0 0.37910290544765168 -0.18685571494790659 0 0.38753717637180268 -0.18155585423065651 0 0.38373621375160438 -0.1885238144486111 0 0.37910290544765168 -0.18685571494790659 0 0.38753717637180268 -0.18155585423065651 0 0.40291487034120532 -0.16553079014728059 0 0.38691599599779503 -0.1739660947730671 0 0.39509360975394031 -0.18061212321895309 0 0.39694758591794982 -0.18886739411602391 0 0.39665445354372708 -0.18451779314135289 0 0.39509360975394031 -0.18061212321895309 0 0.39694758591794982 -0.18886739411602391 0 0.39665445354372708 -0.18451779314135289 0 0.40021252966215071 -0.18382207331845951 0 0.39665445354372708 -0.18451779314135289 0 0.39509360975394031 -0.18061212321895309 0 0.40021252966215071 -0.18382207331845951 0 0.38691599599779503 -0.1739660947730671 0 0.39509360975394031 -0.18061212321895309 0 0.40291487034120532 -0.16553079014728059 0 0.39509360975394031 -0.18061212321895309 0 0.40549068313545528 -0.17742909809594989 0 0.40291487034120532 -0.16553079014728059 0 0.39509360975394031 -0.18061212321895309 0 0.40549068313545528 -0.17742909809594989 0 0.40419144491046238 -0.1874222587525772 0 0.40021252966215071 -0.18382207331845951 0 0.39509360975394031 -0.18061212321895309 0 0.40549068313545528 -0.17742909809594989 0 0.40021252966215071 -0.18382207331845951 0 0.39694758591794982 -0.18886739411602391 0 0.40419144491046238 -0.1874222587525772 0 0.40021252966215071 -0.18382207331845951 0 0.42581299264578848 -0.18832250896932939 0 0.41453364601533049 -0.1862870086825022 0 0.42235201908535791 -0.17050045814039369 0 0.40549068313545528 -0.17742909809594989 0 0.41453364601533049 -0.1862870086825022 0 0.42235201908535791 -0.17050045814039369 0 0.40549068313545528 -0.17742909809594989 0 0.40419144491046238 -0.1874222587525772 0 0.41453364601533049 -0.1862870086825022 0 0.42235201908535791 -0.17050045814039369 0 0.44127751826325029 -0.16493106072254701 0 0.444302871767289 -0.18527179670816579 0 0.42581299264578848 -0.18832250896932939 0 0.42235201908535791 -0.17050045814039369 0 0.444302871767289 -0.18527179670816579 0 0.42235201908535791 -0.17050045814039369 0 0.42606808286872072 -0.1533234062687002 0 0.44127751826325029 -0.16493106072254701 0 0.40291487034120532 -0.16553079014728059 0 0.40766935758353628 -0.1563629578155839 0 0.42606808286872072 -0.1533234062687002 0 0.40291487034120532 -0.16553079014728059 0 0.42606808286872072 -0.1533234062687002 0 0.40291487034120532 -0.16553079014728059 0 0.42235201908535791 -0.17050045814039369 0 0.42606808286872072 -0.1533234062687002 0 0.40291487034120532 -0.16553079014728059 0 0.40549068313545528 -0.17742909809594989 0 0.42235201908535791 -0.17050045814039369 0 0.41182663021293903 -0.1473295298712288 0 0.42606808286872072 -0.1533234062687002 0 0.41368108829086198 -0.13554811058748131 0 0.40766935758353628 -0.1563629578155839 0 0.41182663021293903 -0.1473295298712288 0 0.42606808286872072 -0.1533234062687002 0 0.39988799210863701 -0.14408364481314989 0 0.40766935758353628 -0.1563629578155839 0 0.41182663021293903 -0.1473295298712288 0 0.39988799210863701 -0.14408364481314989 0 0.41182663021293903 -0.1473295298712288 0 0.41368108829086198 -0.13554811058748131 0 0.42606808286872072 -0.1533234062687002 0 0.430889964195386 -0.135117951771525 0 0.44922129539623712 -0.14111602239012119 0 0.42606808286872072 -0.1533234062687002 0 0.430889964195386 -0.135117951771525 0 0.41368108829086198 -0.13554811058748131 0 0.42080162445294911 -0.1170697999396166 0 0.430889964195386 -0.135117951771525 0 0.41368108829086198 -0.13554811058748131 0 0.45825176112352212 -0.1171944005084963 0 0.44922129539623712 -0.14111602239012119 0 0.47461064769812122 -0.12772964805397971 0 0.44922129539623712 -0.14111602239012119 0 0.47461064769812122 -0.12772964805397971 0 0.44922129539623712 -0.14111602239012119 0 0.47041229806123103 -0.14236165737458781 0 0.47461064769812122 -0.12772964805397971 0 0.43893170590200609 -0.1195052611799315 0 0.430889964195386 -0.135117951771525 0 0.44922129539623712 -0.14111602239012119 0 0.43893170590200609 -0.1195052611799315 0 0.45825176112352212 -0.1171944005084963 0 0.44922129539623712 -0.14111602239012119 0 0.43893170590200609 -0.1195052611799315 0 0.44922129539623712 -0.14111602239012119 0 0.42606808286872072 -0.1533234062687002 0 0.44922129539623712 -0.14111602239012119 0 0.44127751826325029 -0.16493106072254701 0 0.42606808286872072 -0.1533234062687002 0 0.44922129539623712 -0.14111602239012119 0 0.44922129539623712 -0.14111602239012119 0 0.46204773445353348 -0.16805481443812731 0 0.44922129539623712 -0.14111602239012119 0 0.46204773445353348 -0.16805481443812731 0 0.47041229806123103 -0.14236165737458781 0 0.44922129539623712 -0.14111602239012119 0 0.46204773445353348 -0.16805481443812731 0 0.44127751826325029 -0.16493106072254701 0 0.46204773445353348 -0.16805481443812731 0 0.44127751826325029 -0.16493106072254701 0 0.444302871767289 -0.18527179670816579 0 0.46204773445353348 -0.16805481443812731 0 0.444302871767289 -0.18527179670816579 0 0.46675991992270621 -0.1779516052682695 0 0.47013600328087812 -0.185042241033678 0 0.44995934289594253 -0.19835057932979169 0 0.444302871767289 -0.18527179670816579 0 0.46675991992270621 -0.1779516052682695 0 0.44995934289594253 -0.19835057932979169 0 0.46204773445353348 -0.16805481443812731 0 0.444302871767289 -0.18527179670816579 0 0.46675991992270621 -0.1779516052682695 0 0.46204773445353348 -0.16805481443812731 0 0.46675991992270621 -0.1779516052682695 0 0.46675991992270621 -0.1779516052682695 0 0.47013600328087812 -0.185042241033678 0 0.46675991992270621 -0.1779516052682695 0 0.48388214138120561 -0.17390417728894431 0 0.47927416581767118 -0.18397687174081401 0 0.46675991992270621 -0.1779516052682695 0 0.47013600328087812 -0.185042241033678 0 0.47927416581767118 -0.18397687174081401 0 0.48388214138120561 -0.17390417728894431 0 0.47927416581767118 -0.18397687174081401 0 0.48987334582395858 -0.18140433091368091 0 0.48987334582395858 -0.18140433091368091 0 0.5 -0.16492372169971509 0 0.5 -0.19225537639104809 0 0.48388214138120561 -0.17390417728894431 0 0.48987334582395858 -0.18140433091368091 0 0.5 -0.16492372169971509 0 0.47927416581767118 -0.18397687174081401 0 0.48987334582395858 -0.18140433091368091 0 0.48552241192915191 -0.19206174635411891 0 0.48388214138120561 -0.17390417728894431 0 0.5 -0.16492372169971509 0 0.48337995996135552 -0.1577718361383266 0 0.46675991992270621 -0.1779516052682695 0 0.48388214138120561 -0.17390417728894431 0 0.48337995996135552 -0.1577718361383266 0 0.46204773445353348 -0.16805481443812731 0 0.46675991992270621 -0.1779516052682695 0 0.48337995996135552 -0.1577718361383266 0 0.46204773445353348 -0.16805481443812731 0 0.48337995996135552 -0.1577718361383266 0 0.47713463147989749 -0.15341672773068571 0 0.46675991992270621 -0.1779516052682695 0 0.48337995996135552 -0.1577718361383266 0 0.46204773445353348 -0.16805481443812731 0 0.47713463147989749 -0.15341672773068571 0 0.46204773445353348 -0.16805481443812731 0 0.47041229806123103 -0.14236165737458781 0 0.47713463147989749 -0.15341672773068571 0 0.48337995996135552 -0.1577718361383266 0 0.47713463147989749 -0.15341672773068571 0 0.48456351921585428 -0.1397192317593817 0 0.47041229806123103 -0.14236165737458781 0 0.47713463147989749 -0.15341672773068571 0 0.48456351921585428 -0.1397192317593817 0 0.48337995996135552 -0.1577718361383266 0 0.50000000000000311 -0.1375920670083822 0 0.48456351921585428 -0.1397192317593817 0 0.5 -0.16492372169971509 0 0.48337995996135552 -0.1577718361383266 0 0.50000000000000311 -0.1375920670083822 0 0.48337995996135552 -0.1577718361383266 0 0.50000000000000311 -0.1375920670083822 0 0.50000000000000433 -0.1143432737178363 0 0.50000000000000311 -0.1375920670083822 0 0.48456351921585428 -0.1397192317593817 0 0.50000000000000433 -0.1143432737178363 0 0.48456351921585428 -0.1397192317593817 0 0.47461064769812122 -0.12772964805397971 0 0.47041229806123103 -0.14236165737458781 0 0.48456351921585428 -0.1397192317593817 0 0.47461064769812122 -0.12772964805397971 0 0.46695018322910392 -0.22473955239466681 0 0.44975785303280541 -0.2255898949688982 0 0.46528918090086291 -0.2095084705765255 0 0.46695018322910392 -0.22473955239466681 0 0.46086119099944728 -0.24298014516654151 0 0.44975785303280541 -0.2255898949688982 0 0.46086119099944728 -0.24298014516654151 0 0.44338493428344739 -0.24574379201886831 0 0.44975785303280541 -0.2255898949688982 0 0.43199948472716282 -0.23703470349933331 0 0.44338493428344739 -0.24574379201886831 0 0.44975785303280541 -0.2255898949688982 0 0.46086119099944728 -0.24298014516654151 0 0.44338493428344739 -0.24574379201886831 0 0.45165913482636821 -0.26068325523694041 0 0.43237997939727391 -0.21969514264188619 0 0.43199948472716282 -0.23703470349933331 0 0.44975785303280541 -0.2255898949688982 0 0.43237997939727391 -0.21969514264188619 0 0.44975785303280541 -0.2255898949688982 0 0.44995934289594253 -0.19835057932979169 0 0.43237997939727391 -0.21969514264188619 0 0.44995934289594253 -0.19835057932979169 0 0.42655800908104652 -0.20248877897820619 0 0.444302871767289 -0.18527179670816579 0 0.44995934289594253 -0.19835057932979169 0 0.42655800908104652 -0.20248877897820619 0 0.44995934289594253 -0.19835057932979169 0 0.46675991992270621 -0.1779516052682695 0 0.44995934289594253 -0.19835057932979169 0 0.44995934289594253 -0.19835057932979169 0 0.46774087741254722 -0.19520616284195491 0 0.47013600328087812 -0.185042241033678 0 0.44995934289594253 -0.19835057932979169 0 0.46774087741254722 -0.19520616284195491 0 0.44995934289594253 -0.19835057932979169 0 0.46774087741254722 -0.19520616284195491 0 0.46528918090086291 -0.2095084705765255 0 0.44975785303280541 -0.2255898949688982 0 0.44995934289594253 -0.19835057932979169 0 0.46528918090086291 -0.2095084705765255 0 0.46695018322910392 -0.22473955239466681 0 0.46528918090086291 -0.2095084705765255 0 0.48029579162163721 -0.21558854579597769 0 0.46528918090086291 -0.2095084705765255 0 0.47801733861628259 -0.20339364304417529 0 0.48029579162163721 -0.21558854579597769 0 0.47801733861628259 -0.20339364304417529 0 0.48029579162163721 -0.21558854579597769 0 0.48876710843341442 -0.20457726853354019 0 0.46774087741254722 -0.19520616284195491 0 0.47801733861628259 -0.20339364304417529 0 0.48552241192915191 -0.19206174635411891 0 0.47927416581767118 -0.18397687174081401 0 0.46774087741254722 -0.19520616284195491 0 0.48552241192915191 -0.19206174635411891 0 0.46774087741254722 -0.19520616284195491 0 0.48552241192915191 -0.19206174635411891 0 0.47013600328087812 -0.185042241033678 0 0.47927416581767118 -0.18397687174081401 0 0.46774087741254722 -0.19520616284195491 0 0.46774087741254722 -0.19520616284195491 0 0.46528918090086291 -0.2095084705765255 0 0.47801733861628259 -0.20339364304417529 0 0.47801733861628259 -0.20339364304417529 0 0.48552241192915191 -0.19206174635411891 0 0.48876710843341442 -0.20457726853354019 0 0.48987334582395858 -0.18140433091368091 0 0.48552241192915191 -0.19206174635411891 0 0.5 -0.19225537639104809 0 0.48552241192915191 -0.19206174635411891 0 0.5 -0.19225537639104809 0 0.48876710843341442 -0.20457726853354019 0 0.5 -0.19225537639104809 0 0.48876710843341442 -0.20457726853354019 0 0.5 -0.21958703108238101 0 0.48029579162163721 -0.21558854579597769 0 0.48876710843341442 -0.20457726853354019 0 0.5 -0.21958703108238101 0 0.5 -0.21958703108238101 0 0.48033598971293961 -0.23536730169414519 0 0.5 -0.24691868577371379 0 0.48029579162163721 -0.21558854579597769 0 0.5 -0.21958703108238101 0 0.48033598971293961 -0.23536730169414519 0 0.46695018322910392 -0.22473955239466681 0 0.46086119099944728 -0.24298014516654151 0 0.48033598971293961 -0.23536730169414519 0 0.46695018322910392 -0.22473955239466681 0 0.48029579162163721 -0.21558854579597769 0 0.48033598971293961 -0.23536730169414519 0 0.46086119099944728 -0.24298014516654151 0 0.48033598971293961 -0.23536730169414519 0 0.47450143065275591 -0.2599846894272051 0 0.48033598971293961 -0.23536730169414519 0 0.5 -0.24691868577371379 0 0.47450143065275591 -0.2599846894272051 0 0.5 -0.24691868577371379 0 0.50000000000000222 -0.27425034046504659 0 0.47450143065275591 -0.2599846894272051 0 0.50000000000000222 -0.27425034046504659 0 0.47605513413645029 -0.28008102786359129 0 0.47450143065275591 -0.2599846894272051 0 0.47605513413645029 -0.28008102786359129 0 0.47450143065275591 -0.2599846894272051 0 0.45931845050930209 -0.27772900618102819 0 0.46086119099944728 -0.24298014516654151 0 0.47450143065275591 -0.2599846894272051 0 0.45165913482636821 -0.26068325523694041 0 0.47450143065275591 -0.2599846894272051 0 0.45931845050930209 -0.27772900618102819 0 0.45165913482636821 -0.26068325523694041 0 0.45931845050930209 -0.27772900618102819 0 0.44355941821905998 -0.27577600561597132 0 0.45165913482636821 -0.26068325523694041 0 0.44338493428344739 -0.24574379201886831 0 0.45165913482636821 -0.26068325523694041 0 0.42892204251950339 -0.2594807324876427 0 0.44355941821905998 -0.27577600561597132 0 0.45165913482636821 -0.26068325523694041 0 0.42892204251950339 -0.2594807324876427 0 0.44743457629936911 -0.29125199491084608 0 0.45088585771739531 -0.31517042999936162 0 0.43686388954492023 -0.30206384222820981 0 0.45088585771739531 -0.31517042999936162 0 0.43602078127065758 -0.31524868357114688 0 0.43686388954492023 -0.30206384222820981 0 0.45931845050930209 -0.27772900618102819 0 0.44355941821905998 -0.27577600561597132 0 0.44743457629936911 -0.29125199491084608 0 0.44355941821905998 -0.27577600561597132 0 0.44743457629936911 -0.29125199491084608 0 0.42611848489587972 -0.28658767974219163 0 0.47605513413645029 -0.28008102786359129 0 0.45931845050930209 -0.27772900618102819 0 0.46516191830632447 -0.295844547827811 0 0.45931845050930209 -0.27772900618102819 0 0.44743457629936911 -0.29125199491084608 0 0.46516191830632447 -0.295844547827811 0 0.44743457629936911 -0.29125199491084608 0 0.46516191830632447 -0.295844547827811 0 0.45088585771739531 -0.31517042999936162 0 0.46516191830632447 -0.295844547827811 0 0.47218478901913252 -0.31616939882945228 0 0.45088585771739531 -0.31517042999936162 0 0.4860923945095682 -0.29520986964724988 0 0.47218478901913252 -0.31616939882945228 0 0.50000000000000222 -0.27425034046504659 0 0.4860923945095682 -0.29520986964724988 0 0.5 -0.307151228172029 0 0.46516191830632447 -0.295844547827811 0 0.4860923945095682 -0.29520986964724988 0 0.47218478901913252 -0.31616939882945228 0 0.47605513413645029 -0.28008102786359129 0 0.46516191830632447 -0.295844547827811 0 0.4860923945095682 -0.29520986964724988 0 0.50000000000000222 -0.27425034046504659 0 0.47605513413645029 -0.28008102786359129 0 0.4860923945095682 -0.29520986964724988 0 0.50000000000000222 -0.27425034046504659 0 0.4860923945095682 -0.29520986964724988 0 0.4860923945095682 -0.29520986964724988 0 0.5 -0.307151228172029 0 0.47218478901913252 -0.31616939882945228 0 0.5 -0.307151228172029 0 0.47500442815187882 -0.33618410333150461 0 0.5 -0.35237408365171952 0 0.5 -0.307151228172029 0 0.47500442815187882 -0.33618410333150461 0 0.47218478901913252 -0.31616939882945228 0 0.47500442815187882 -0.33618410333150461 0 0.5 -0.35237408365171952 0 0.46252966193221051 -0.36479181955861489 0 0.5 -0.35237408365171952 0 0.46252966193221051 -0.36479181955861489 0 0.4680243894331878 -0.39009447735167219 0 0.46252966193221051 -0.36479181955861489 0 0.44439653888602387 -0.37108278870097211 0 0.45518384933885458 -0.37953704158418422 0 0.46252966193221051 -0.36479181955861489 0 0.4490308344886651 -0.35295870566956811 0 0.45703493443123322 -0.33948916176555749 0 0.47500442815187882 -0.33618410333150461 0 0.46252966193221051 -0.36479181955861489 0 0.45703493443123322 -0.33948916176555749 0 0.46252966193221051 -0.36479181955861489 0 0.45703493443123322 -0.33948916176555749 0 0.4490308344886651 -0.35295870566956811 0 0.44439653888602387 -0.37108278870097211 0 0.43547581015886039 -0.35374612963373181 0 0.44432011104097457 -0.34600420025309703 0 0.4490308344886651 -0.35295870566956811 0 0.45042795048268808 -0.34263813410543531 0 0.4490308344886651 -0.35295870566956811 0 0.45703493443123322 -0.33948916176555749 0 0.45042795048268808 -0.34263813410543531 0 0.44432011104097457 -0.34600420025309703 0 0.4490308344886651 -0.35295870566956811 0 0.43547581015886039 -0.35374612963373181 0 0.44432011104097457 -0.34600420025309703 0 0.43877314986606192 -0.33818418946214152 0 0.43547581015886039 -0.35374612963373181 0 0.46252966193221051 -0.36479181955861489 0 0.4490308344886651 -0.35295870566956811 0 0.44439653888602387 -0.37108278870097211 0 0.47218478901913252 -0.31616939882945228 0 0.45845081404400378 -0.32484725803309861 0 0.45088585771739531 -0.31517042999936162 0 0.47218478901913252 -0.31616939882945228 0 0.45845081404400378 -0.32484725803309861 0 0.45827718352869679 -0.33712892801165451 0 0.47218478901913252 -0.31616939882945228 0 0.45827718352869679 -0.33712892801165451 0 0.45845081404400378 -0.32484725803309861 0 0.45465012105844921 -0.33200612518688721 0 0.44755831468875862 -0.32470483606049327 0 0.47500442815187882 -0.33618410333150461 0 0.45703493443123322 -0.33948916176555749 0 0.45827718352869679 -0.33712892801165451 0 0.47500442815187882 -0.33618410333150461 0 0.47218478901913252 -0.31616939882945228 0 0.45827718352869679 -0.33712892801165451 0 0.45703493443123322 -0.33948916176555749 0 0.4547926195999189 -0.33699511694280199 0 0.45042795048268808 -0.34263813410543531 0 0.45703493443123322 -0.33948916176555749 0 0.45827718352869679 -0.33712892801165451 0 0.4547926195999189 -0.33699511694280199 0 0.45845081404400378 -0.32484725803309861 0 0.45827718352869679 -0.33712892801165451 0 0.45465012105844921 -0.33200612518688721 0 0.4547926195999189 -0.33699511694280199 0 0.45465012105844921 -0.33200612518688721 0 0.45190540097192972 -0.33615439765103378 0 0.45827718352869679 -0.33712892801165451 0 0.4547926195999189 -0.33699511694280199 0 0.45465012105844921 -0.33200612518688721 0 0.45465012105844921 -0.33200612518688721 0 0.44749393872662357 -0.33307274595813069 0 0.44755831468875862 -0.32470483606049327 0 0.45465012105844921 -0.33200612518688721 0 0.44749393872662357 -0.33307274595813069 0 0.45190540097192972 -0.33615439765103378 0 0.4547926195999189 -0.33699511694280199 0 0.45042795048268808 -0.34263813410543531 0 0.45190540097192972 -0.33615439765103378 0 0.45042795048268808 -0.34263813410543531 0 0.45190540097192972 -0.33615439765103378 0 0.44691761172297523 -0.33872250108465612 0 0.44749393872662357 -0.33307274595813069 0 0.45190540097192972 -0.33615439765103378 0 0.44691761172297523 -0.33872250108465612 0 0.44432011104097457 -0.34600420025309703 0 0.45042795048268808 -0.34263813410543531 0 0.44691761172297523 -0.33872250108465612 0 0.44432011104097457 -0.34600420025309703 0 0.44691761172297523 -0.33872250108465612 0 0.43877314986606192 -0.33818418946214152 0 0.44749393872662357 -0.33307274595813069 0 0.44691761172297523 -0.33872250108465612 0 0.43877314986606192 -0.33818418946214152 0 0.44749393872662357 -0.33307274595813069 0 0.43877314986606192 -0.33818418946214152 0 0.43784837531542259 -0.32788377361433518 0 0.44749393872662357 -0.33307274595813069 0 0.43784837531542259 -0.32788377361433518 0 0.44755831468875862 -0.32470483606049327 0 0.43784837531542259 -0.32788377361433518 0 0.44755831468875862 -0.32470483606049327 0 0.43602078127065758 -0.31524868357114688 0 0.45845081404400378 -0.32484725803309861 0 0.44755831468875862 -0.32470483606049327 0 0.45088585771739531 -0.31517042999936162 0 0.44755831468875862 -0.32470483606049327 0 0.45088585771739531 -0.31517042999936162 0 0.43602078127065758 -0.31524868357114688 0 0.43784837531542259 -0.32788377361433518 0 0.42583518759170652 -0.33528639298719382 0 0.41775460495295358 -0.31793141321765611 0 0.43784837531542259 -0.32788377361433518 0 0.43602078127065758 -0.31524868357114688 0 0.41775460495295358 -0.31793141321765611 0 0.43877314986606192 -0.33818418946214152 0 0.43784837531542259 -0.32788377361433518 0 0.42583518759170652 -0.33528639298719382 0 0.43877314986606192 -0.33818418946214152 0 0.42583518759170652 -0.33528639298719382 0 0.43547581015886039 -0.35374612963373181 0 0.41250416259223432 -0.33960725990233392 0 0.41775460495295358 -0.31793141321765611 0 0.39805431729583179 -0.33510365622952631 0 0.41250416259223432 -0.33960725990233392 0 0.41775460495295358 -0.31793141321765611 0 0.42583518759170652 -0.33528639298719382 0 0.41250416259223432 -0.33960725990233392 0 0.41775460495295358 -0.31793141321765611 0 0.42583518759170652 -0.33528639298719382 0 0.41250416259223432 -0.33960725990233392 0 0.42034794007649889 -0.35298104146800569 0 0.43547581015886039 -0.35374612963373181 0 0.42034794007649889 -0.35298104146800569 0 0.42578668388574042 -0.37577956855813549 0 0.44439653888602387 -0.37108278870097211 0 0.43547581015886039 -0.35374612963373181 0 0.42578668388574042 -0.37577956855813549 0 0.42583518759170652 -0.33528639298719382 0 0.43547581015886039 -0.35374612963373181 0 0.42034794007649889 -0.35298104146800569 0 0.41250416259223432 -0.33960725990233392 0 0.42034794007649889 -0.35298104146800569 0 0.40725372023151529 -0.36128310658701179 0 0.41250416259223432 -0.33960725990233392 0 0.40725372023151529 -0.36128310658701179 0 0.40725372023151529 -0.36128310658701179 0 0.42578668388574042 -0.37577956855813549 0 0.40193856510946419 -0.3832261124550107 0 0.40725372023151529 -0.36128310658701179 0 0.42578668388574042 -0.37577956855813549 0 0.42034794007649889 -0.35298104146800569 0 0.40725372023151529 -0.36128310658701179 0 0.42578668388574042 -0.37577956855813549 0 0.40725372023151529 -0.36128310658701179 0 0.39425043507280438 -0.36432915978129837 0 0.40193856510946419 -0.3832261124550107 0 0.40725372023151529 -0.36128310658701179 0 0.40193856510946419 -0.3832261124550107 0 0.39425043507280438 -0.36432915978129837 0 0.38081427771294768 -0.36737052156009248 0 0.40193856510946419 -0.3832261124550107 0 0.40725372023151529 -0.36128310658701179 0 0.38699517723729038 -0.34543689852307891 0 0.39805431729583179 -0.33510365622952631 0 0.40725372023151529 -0.36128310658701179 0 0.39425043507280438 -0.36432915978129837 0 0.38699517723729038 -0.34543689852307891 0 0.40725372023151529 -0.36128310658701179 0 0.38699517723729038 -0.34543689852307891 0 0.41250416259223432 -0.33960725990233392 0 0.40725372023151529 -0.36128310658701179 0 0.39805431729583179 -0.33510365622952631 0 0.38699517723729038 -0.34543689852307891 0 0.38081427771294768 -0.36737052156009248 0 0.37640125955739012 -0.35149107478397351 0 0.38465179156333151 -0.34360390505586791 0 0.36805061276354478 -0.3427907498460791 0 0.39425043507280438 -0.36432915978129837 0 0.38699517723729038 -0.34543689852307891 0 0.38081427771294768 -0.36737052156009248 0 0.38699517723729038 -0.34543689852307891 0 0.37640125955739012 -0.35149107478397351 0 0.38081427771294768 -0.36737052156009248 0 0.38699517723729038 -0.34543689852307891 0 0.38465179156333151 -0.34360390505586791 0 0.38699517723729038 -0.34543689852307891 0 0.37640125955739012 -0.35149107478397351 0 0.38465179156333151 -0.34360390505586791 0 0.41775460495295358 -0.31793141321765611 0 0.39401776620237461 -0.32051644503610022 0 0.39805431729583179 -0.33510365622952631 0 0.38699517723729038 -0.34543689852307891 0 0.39401776620237461 -0.32051644503610022 0 0.39805431729583179 -0.33510365622952631 0 0.38699517723729038 -0.34543689852307891 0 0.39401776620237461 -0.32051644503610022 0 0.38465179156333151 -0.34360390505586791 0 0.37858644206980091 -0.32769985780377792 0 0.36805061276354478 -0.3427907498460791 0 0.38699517723729038 -0.34543689852307891 0 0.39401776620237461 -0.32051644503610022 0 0.38465179156333151 -0.34360390505586791 0 0.39401776620237461 -0.32051644503610022 0 0.38465179156333151 -0.34360390505586791 0 0.37858644206980091 -0.32769985780377792 0 0.39401776620237461 -0.32051644503610022 0 0.37858644206980091 -0.32769985780377792 0 0.37861767820969228 -0.30691821554646831 0 0.41775460495295358 -0.31793141321765611 0 0.39401776620237461 -0.32051644503610022 0 0.40104035516745928 -0.29559599154912142 0 0.39401776620237461 -0.32051644503610022 0 0.37861767820969228 -0.30691821554646831 0 0.40104035516745928 -0.29559599154912142 0 0.39401776620237461 -0.32051644503610022 0 0.40104035516745928 -0.29559599154912142 0 0.40104035516745928 -0.29559599154912142 0 0.38498320530945151 -0.287592927137584 0 0.39655653748852282 -0.27284147297554762 0 0.38498320530945151 -0.287592927137584 0 0.37764450162479901 -0.26965755496232408 0 0.36873774536035581 -0.28861226174546889 0 0.37861767820969228 -0.30691821554646831 0 0.40104035516745928 -0.29559599154912142 0 0.38498320530945151 -0.287592927137584 0 0.37861767820969228 -0.30691821554646831 0 0.38498320530945151 -0.287592927137584 0 0.36873774536035581 -0.28861226174546889 0 0.38498320530945151 -0.287592927137584 0 0.37764450162479901 -0.26965755496232408 0 0.39655653748852282 -0.27284147297554762 0 0.39206528024080278 -0.24921397013056479 0 0.37764450162479901 -0.26965755496232408 0 0.39655653748852282 -0.27284147297554762 0 0.39206528024080278 -0.24921397013056479 0 0.37764450162479901 -0.26965755496232408 0 0.37510228513818711 -0.25237727586059511 0 0.39206528024080278 -0.24921397013056479 0 0.39655653748852282 -0.27284147297554762 0 0.40884184876520419 -0.25890250189124958 0 0.40104035516745928 -0.29559599154912142 0 0.39655653748852282 -0.27284147297554762 0 0.4136044294752057 -0.2739163227279473 0 0.39655653748852282 -0.27284147297554762 0 0.4136044294752057 -0.2739163227279473 0 0.40884184876520419 -0.25890250189124958 0 0.4148006158986044 -0.24103970595398019 0 0.40884184876520419 -0.25890250189124958 0 0.42892204251950339 -0.2594807324876427 0 0.4136044294752057 -0.2739163227279473 0 0.40884184876520419 -0.25890250189124958 0 0.42892204251950339 -0.2594807324876427 0 0.4136044294752057 -0.2739163227279473 0 0.42892204251950339 -0.2594807324876427 0 0.42611848489587972 -0.28658767974219163 0 0.44355941821905998 -0.27577600561597132 0 0.42892204251950339 -0.2594807324876427 0 0.42611848489587972 -0.28658767974219163 0 0.44743457629936911 -0.29125199491084608 0 0.42611848489587972 -0.28658767974219163 0 0.43686388954492023 -0.30206384222820981 0 0.43602078127065758 -0.31524868357114688 0 0.41775460495295358 -0.31793141321765611 0 0.42179240152309172 -0.30222108271158582 0 0.42611848489587972 -0.28658767974219163 0 0.43686388954492023 -0.30206384222820981 0 0.42179240152309172 -0.30222108271158582 0 0.43602078127065758 -0.31524868357114688 0 0.43686388954492023 -0.30206384222820981 0 0.42179240152309172 -0.30222108271158582 0 0.41775460495295358 -0.31793141321765611 0 0.40104035516745928 -0.29559599154912142 0 0.42179240152309172 -0.30222108271158582 0 0.40104035516745928 -0.29559599154912142 0 0.4136044294752057 -0.2739163227279473 0 0.42611848489587972 -0.28658767974219163 0 0.40104035516745928 -0.29559599154912142 0 0.42611848489587972 -0.28658767974219163 0 0.42179240152309172 -0.30222108271158582 0 0.5 -0.5 0 0.478892924595126 -0.45923392689990328 0 0.5 -0.41454166856117469 0 0.5 -0.5 0 0.47943423265092072 -0.49342116463239621 0 0.40014079662082208 -0.5 0 0.43983937115661631 -0.46972557693384148 0 0.47943423265092072 -0.49342116463239621 0 0.40014079662082208 -0.5 0 0.43983937115661631 -0.46972557693384148 0 0.46715606132834708 -0.47012790102379598 0 0.47943423265092072 -0.49342116463239621 0 0.5 -0.5 0 0.47943423265092072 -0.49342116463239621 0 0.478892924595126 -0.45923392689990328 0 0.46715606132834708 -0.47012790102379598 0 0.47943423265092072 -0.49342116463239621 0 0.478892924595126 -0.45923392689990328 0 0.46715606132834708 -0.47012790102379598 0 0.47943423265092072 -0.49342116463239621 0 0.478892924595126 -0.45923392689990328 0 0.45487789000577361 -0.44683463741519602 0 0.47188936358571532 -0.4304781897668572 0 0.46715606132834708 -0.47012790102379598 0 0.45487789000577361 -0.44683463741519602 0 0.46715606132834708 -0.47012790102379598 0 0.478892924595126 -0.45923392689990328 0 0.45487789000577361 -0.44683463741519602 0 0.43983937115661631 -0.46972557693384148 0 0.46715606132834708 -0.47012790102379598 0 0.45487789000577361 -0.44683463741519602 0 0.43983937115661631 -0.46972557693384148 0 0.45487789000577361 -0.44683463741519602 0 0.43095981599733307 -0.44753658110846528 0 0.45487789000577361 -0.44683463741519602 0 0.43408281430989271 -0.43319973453275151 0 0.43095981599733307 -0.44753658110846528 0 0.45487789000577361 -0.44683463741519602 0 0.44259971868320003 -0.42354137380659601 0 0.45487789000577361 -0.44683463741519602 0 0.44259971868320003 -0.42354137380659601 0 0.43408281430989271 -0.43319973453275151 0 0.45487789000577361 -0.44683463741519602 0 0.44259971868320003 -0.42354137380659601 0 0.45959372781066021 -0.42263882295877442 0 0.44259971868320003 -0.42354137380659601 0 0.45186952978880229 -0.40983589673226128 0 0.45959372781066021 -0.42263882295877442 0 0.44259971868320003 -0.42354137380659601 0 0.45186952978880229 -0.40983589673226128 0 0.44161148704613862 -0.40579593671517361 0 0.44259971868320003 -0.42354137380659601 0 0.44161148704613862 -0.40579593671517361 0 0.43098246877755192 -0.41858878846052949 0 0.45186952978880229 -0.40983589673226128 0 0.45959372781066021 -0.42263882295877442 0 0.46285261119418991 -0.40477249250038388 0 0.45959372781066021 -0.42263882295877442 0 0.4735191169341651 -0.41539713514472942 0 0.46285261119418991 -0.40477249250038388 0 0.45959372781066021 -0.42263882295877442 0 0.47188936358571532 -0.4304781897668572 0 0.4735191169341651 -0.41539713514472942 0 0.45487789000577361 -0.44683463741519602 0 0.45959372781066021 -0.42263882295877442 0 0.47188936358571532 -0.4304781897668572 0 0.5 -0.41454166856117469 0 0.4735191169341651 -0.41539713514472942 0 0.4680243894331878 -0.39009447735167219 0 0.478892924595126 -0.45923392689990328 0 0.47188936358571532 -0.4304781897668572 0 0.5 -0.41454166856117469 0 0.47188936358571532 -0.4304781897668572 0 0.5 -0.41454166856117469 0 0.4735191169341651 -0.41539713514472942 0 0.5 -0.35237408365171952 0 0.5 -0.41454166856117469 0 0.4680243894331878 -0.39009447735167219 0 0.4735191169341651 -0.41539713514472942 0 0.4680243894331878 -0.39009447735167219 0 0.46252966193221051 -0.36479181955861489 0 0.45518384933885458 -0.37953704158418422 0 0.4680243894331878 -0.39009447735167219 0 0.45518384933885458 -0.37953704158418422 0 0.4680243894331878 -0.39009447735167219 0 0.44431964753996511 -0.39027603052925969 0 0.46252966193221051 -0.36479181955861489 0 0.4680243894331878 -0.39009447735167219 0 0.4735191169341651 -0.41539713514472942 0 0.4680243894331878 -0.39009447735167219 0 0.46285261119418991 -0.40477249250038388 0 0.4680243894331878 -0.39009447735167219 0 0.46285261119418991 -0.40477249250038388 0 0.44431964753996511 -0.39027603052925969 0 0.46285261119418991 -0.40477249250038388 0 0.44431964753996511 -0.39027603052925969 0 0.45186952978880229 -0.40983589673226128 0 0.44161148704613862 -0.40579593671517361 0 0.44431964753996511 -0.39027603052925969 0 0.45186952978880229 -0.40983589673226128 0 0.46285261119418991 -0.40477249250038388 0 0.44431964753996511 -0.39027603052925969 0 0.44439653888602387 -0.37108278870097211 0 0.44431964753996511 -0.39027603052925969 0 0.42578668388574042 -0.37577956855813549 0 0.44439653888602387 -0.37108278870097211 0 0.45518384933885458 -0.37953704158418422 0 0.44431964753996511 -0.39027603052925969 0 0.44431964753996511 -0.39027603052925969 0 0.42578668388574042 -0.37577956855813549 0 0.42627525148907153 -0.39512359141131242 0 0.44431964753996511 -0.39027603052925969 0 0.42578668388574042 -0.37577956855813549 0 0.44161148704613862 -0.40579593671517361 0 0.44431964753996511 -0.39027603052925969 0 0.42627525148907153 -0.39512359141131242 0 0.44161148704613862 -0.40579593671517361 0 0.42627525148907153 -0.39512359141131242 0 0.41380476734409732 -0.40903711363024231 0 0.41288573556315727 -0.39366710087554208 0 0.39662340998741341 -0.40516911832300972 0 0.41380476734409732 -0.40903711363024231 0 0.42627525148907153 -0.39512359141131242 0 0.41288573556315727 -0.39366710087554208 0 0.41380476734409732 -0.40903711363024231 0 0.42578668388574042 -0.37577956855813549 0 0.41288573556315727 -0.39366710087554208 0 0.40193856510946419 -0.3832261124550107 0 0.42578668388574042 -0.37577956855813549 0 0.42627525148907153 -0.39512359141131242 0 0.41288573556315727 -0.39366710087554208 0 0.38081427771294768 -0.36737052156009248 0 0.37463337818860382 -0.38930414459710588 0 0.3737028077843495 -0.38742295831448542 0 0.38081427771294768 -0.36737052156009248 0 0.38897026210220897 -0.39170162293651239 0 0.37463337818860382 -0.38930414459710588 0 0.38081427771294768 -0.36737052156009248 0 0.37463337818860382 -0.38930414459710588 0 0.38081427771294768 -0.36737052156009248 0 0.40193856510946419 -0.3832261124550107 0 0.38897026210220897 -0.39170162293651239 0 0.38599804764205609 -0.41227829054531151 0 0.37463337818860382 -0.38930414459710588 0 0.38897026210220897 -0.39170162293651239 0 0.39662340998741341 -0.40516911832300972 0 0.38599804764205609 -0.41227829054531151 0 0.38599804764205609 -0.41227829054531151 0 0.36755341006792419 -0.41442821452601158 0 0.37463337818860382 -0.38930414459710588 0 0.38897026210220897 -0.39170162293651239 0 0.38599804764205609 -0.41227829054531151 0 0.37463337818860382 -0.38930414459710588 0 0.40193856510946419 -0.3832261124550107 0 0.38897026210220897 -0.39170162293651239 0 0.39662340998741341 -0.40516911832300972 0 0.41288573556315727 -0.39366710087554208 0 0.40193856510946419 -0.3832261124550107 0 0.39662340998741341 -0.40516911832300972 0 0.40193856510946419 -0.3832261124550107 0 0.39662340998741341 -0.40516911832300972 0 0.38599804764205609 -0.41227829054531151 0 0.41380476734409732 -0.40903711363024231 0 0.39662340998741341 -0.40516911832300972 0 0.38599804764205609 -0.41227829054531151 0 0.41380476734409732 -0.40903711363024231 0 0.40147331832312588 -0.42054231308375889 0 0.38599804764205609 -0.41227829054531151 0 0.41380476734409732 -0.40903711363024231 0 0.38599804764205609 -0.41227829054531151 0 0.36755341006792419 -0.41442821452601158 0 0.38599804764205609 -0.41227829054531151 0 0.37837193070639508 -0.43074191130029282 0 0.36755341006792419 -0.41442821452601158 0 0.38599804764205609 -0.41227829054531151 0 0.37837193070639508 -0.43074191130029282 0 0.39716653888589531 -0.43485585418744782 0 0.37837193070639508 -0.43074191130029282 0 0.39716653888589531 -0.43485585418744782 0 0.38455236834147782 -0.44235831893697952 0 0.38599804764205609 -0.41227829054531151 0 0.39716653888589531 -0.43485585418744782 0 0.40147331832312588 -0.42054231308375889 0 0.38599804764205609 -0.41227829054531151 0 0.39716653888589531 -0.43485585418744782 0 0.40147331832312588 -0.42054231308375889 0 0.39716653888589531 -0.43485585418744782 0 0.40988830344794153 -0.42850982814637428 0 0.39716653888589531 -0.43485585418744782 0 0.40988830344794153 -0.42850982814637428 0 0.41424956646142452 -0.44145335337101582 0 0.40988830344794153 -0.42850982814637428 0 0.42255857874347952 -0.42798536962106742 0 0.41424956646142452 -0.44145335337101582 0 0.40147331832312588 -0.42054231308375889 0 0.40988830344794153 -0.42850982814637428 0 0.41380476734409732 -0.40903711363024231 0 0.40988830344794153 -0.42850982814637428 0 0.41380476734409732 -0.40903711363024231 0 0.42255857874347952 -0.42798536962106742 0 0.44161148704613862 -0.40579593671517361 0 0.41380476734409732 -0.40903711363024231 0 0.43098246877755192 -0.41858878846052949 0 0.44161148704613862 -0.40579593671517361 0 0.41380476734409732 -0.40903711363024231 0 0.41380476734409732 -0.40903711363024231 0 0.43098246877755192 -0.41858878846052949 0 0.42255857874347952 -0.42798536962106742 0 0.43408281430989271 -0.43319973453275151 0 0.42255857874347952 -0.42798536962106742 0 0.43095981599733307 -0.44753658110846528 0 0.44259971868320003 -0.42354137380659601 0 0.43098246877755192 -0.41858878846052949 0 0.43408281430989271 -0.43319973453275151 0 0.43098246877755192 -0.41858878846052949 0 0.43408281430989271 -0.43319973453275151 0 0.42255857874347952 -0.42798536962106742 0 0.42255857874347952 -0.42798536962106742 0 0.43095981599733307 -0.44753658110846528 0 0.41424956646142452 -0.44145335337101582 0 0.43983937115661631 -0.46972557693384148 0 0.42706067288056998 -0.45966910190407051 0 0.41707216494033877 -0.46659444091922031 0 0.43983937115661631 -0.46972557693384148 0 0.43095981599733307 -0.44753658110846528 0 0.42706067288056998 -0.45966910190407051 0 0.43095981599733307 -0.44753658110846528 0 0.42706067288056998 -0.45966910190407051 0 0.42037133942799187 -0.45481980865475502 0 0.42037133942799187 -0.45481980865475502 0 0.41707216494033877 -0.46659444091922031 0 0.40833503012973449 -0.45743341782958391 0 0.42706067288056998 -0.45966910190407051 0 0.42037133942799187 -0.45481980865475502 0 0.41707216494033877 -0.46659444091922031 0 0.41707216494033877 -0.46659444091922031 0 0.40833503012973449 -0.45743341782958391 0 0.39424227281986102 -0.46676003377889269 0 0.43095981599733307 -0.44753658110846528 0 0.42037133942799187 -0.45481980865475502 0 0.41424956646142452 -0.44145335337101582 0 0.42037133942799187 -0.45481980865475502 0 0.40833503012973449 -0.45743341782958391 0 0.41424956646142452 -0.44145335337101582 0 0.39716653888589531 -0.43485585418744782 0 0.40833503012973449 -0.45743341782958391 0 0.41424956646142452 -0.44145335337101582 0 0.39716653888589531 -0.43485585418744782 0 0.39345157537004599 -0.45057062730194619 0 0.38455236834147782 -0.44235831893697952 0 0.39716653888589531 -0.43485585418744782 0 0.40833503012973449 -0.45743341782958391 0 0.39345157537004599 -0.45057062730194619 0 0.39716653888589531 -0.43485585418744782 0 0.40833503012973449 -0.45743341782958391 0 0.39345157537004599 -0.45057062730194619 0 0.38455236834147782 -0.44235831893697952 0 0.38182359321740972 -0.45292134106576409 0 0.38455236834147782 -0.44235831893697952 0 0.38182359321740972 -0.45292134106576409 0 0.37194820352764257 -0.4427018608294464 0 0.37837193070639508 -0.43074191130029282 0 0.38455236834147782 -0.44235831893697952 0 0.37194820352764257 -0.4427018608294464 0 0.38182359321740972 -0.45292134106576409 0 0.39424227281986102 -0.46676003377889269 0 0.37141238069938332 -0.46692562663856529 0 0.39345157537004599 -0.45057062730194619 0 0.38182359321740972 -0.45292134106576409 0 0.39424227281986102 -0.46676003377889269 0 0.39424227281986102 -0.46676003377889269 0 0.37141238069938332 -0.46692562663856529 0 0.40833503012973449 -0.45743341782958391 0 0.39345157537004599 -0.45057062730194619 0 0.39424227281986102 -0.46676003377889269 0 0.41707216494033877 -0.46659444091922031 0 0.39424227281986102 -0.46676003377889269 0 0.41707216494033877 -0.46659444091922031 0 0.39424227281986102 -0.46676003377889269 0 0.40014079662082208 -0.5 0 0.39424227281986102 -0.46676003377889269 0 0.40014079662082208 -0.5 0 0.37141238069938332 -0.46692562663856529 0 0.43983937115661631 -0.46972557693384148 0 0.41707216494033877 -0.46659444091922031 0 0.40014079662082208 -0.5 0 0.40014079662082208 -0.5 0 0.32546065004022617 -0.5 0 0.3462765218470546 -0.48033279556006703 0 0.32546065004022617 -0.5 0 0.3462765218470546 -0.48033279556006703 0 0.30631021868456298 -0.48072311486568892 0 0.3462765218470546 -0.48033279556006703 0 0.32575259645842791 -0.46725681235791028 0 0.30631021868456298 -0.48072311486568892 0 0.3462765218470546 -0.48033279556006703 0 0.3485824885789055 -0.46709121949823779 0 0.32575259645842791 -0.46725681235791028 0 0.40014079662082208 -0.5 0 0.3462765218470546 -0.48033279556006703 0 0.37141238069938332 -0.46692562663856529 0 0.3462765218470546 -0.48033279556006703 0 0.3485824885789055 -0.46709121949823779 0 0.37141238069938332 -0.46692562663856529 0 0.3485824885789055 -0.46709121949823779 0 0.37141238069938332 -0.46692562663856529 0 0.35324569388809701 -0.44989359131069062 0 0.3485824885789055 -0.46709121949823779 0 0.35324569388809701 -0.44989359131069062 0 0.33806214337105372 -0.45777686618061397 0 0.38182359321740972 -0.45292134106576409 0 0.37141238069938332 -0.46692562663856529 0 0.35324569388809701 -0.44989359131069062 0 0.3485824885789055 -0.46709121949823779 0 0.37141238069938332 -0.46692562663856529 0 0.36060935802898147 -0.43906997082244181 0 0.37194820352764257 -0.4427018608294464 0 0.35324569388809701 -0.44989359131069062 0 0.38182359321740972 -0.45292134106576409 0 0.35324569388809701 -0.44989359131069062 0 0.37837193070639508 -0.43074191130029282 0 0.36060935802898147 -0.43906997082244181 0 0.37194820352764257 -0.4427018608294464 0 0.38182359321740972 -0.45292134106576409 0 0.37194820352764257 -0.4427018608294464 0 0.35324569388809701 -0.44989359131069062 0 0.36060935802898147 -0.43906997082244181 0 0.35324569388809701 -0.44989359131069062 0 0.34315104194743368 -0.43483422324315929 0 0.32466779455878442 -0.44686584155561709 0 0.32761501992215097 -0.43116249501185328 0 0.34315104194743368 -0.43483422324315929 0 0.35324569388809701 -0.44989359131069062 0 0.33806214337105372 -0.45777686618061397 0 0.32466779455878442 -0.44686584155561709 0 0.35324569388809701 -0.44989359131069062 0 0.32466779455878442 -0.44686584155561709 0 0.34315104194743368 -0.43483422324315929 0 0.35324569388809701 -0.44989359131069062 0 0.32466779455878442 -0.44686584155561709 0 0.3485824885789055 -0.46709121949823779 0 0.32575259645842791 -0.46725681235791028 0 0.3485824885789055 -0.46709121949823779 0 0.33806214337105372 -0.45777686618061397 0 0.32575259645842791 -0.46725681235791028 0 0.33806214337105372 -0.45777686618061397 0 0.32575259645842791 -0.46725681235791028 0 0.32466779455878442 -0.44686584155561709 0 0.32575259645842791 -0.46725681235791028 0 0.30904716904302271 -0.45792120175055678 0 0.30631021868456298 -0.48072311486568892 0 0.32575259645842791 -0.46725681235791028 0 0.32466779455878442 -0.44686584155561709 0 0.30904716904302271 -0.45792120175055678 0 0.32466779455878442 -0.44686584155561709 0 0.31800868577585262 -0.43516031519895321 0 0.30735360635596409 -0.43632211706289747 0 0.32466779455878442 -0.44686584155561709 0 0.32761501992215097 -0.43116249501185328 0 0.31800868577585262 -0.43516031519895321 0 0.32761501992215097 -0.43116249501185328 0 0.32339131420283213 -0.41656724990055422 0 0.31239832226651099 -0.42629080716544471 0 0.32761501992215097 -0.43116249501185328 0 0.31800868577585262 -0.43516031519895321 0 0.31239832226651099 -0.42629080716544471 0 0.31800868577585262 -0.43516031519895321 0 0.31239832226651099 -0.42629080716544471 0 0.30735360635596409 -0.43632211706289747 0 0.32339131420283213 -0.41656724990055422 0 0.31120060169272079 -0.4133373498197 0 0.31239832226651099 -0.42629080716544471 0 0.32339131420283213 -0.41656724990055422 0 0.319673984964159 -0.40346676889879052 0 0.31120060169272079 -0.4133373498197 0 0.319673984964159 -0.40346676889879052 0 0.30884060304287331 -0.40229515593698711 0 0.31120060169272079 -0.4133373498197 0 0.32339131420283213 -0.41656724990055422 0 0.33281994217864741 -0.40778505865636938 0 0.319673984964159 -0.40346676889879052 0 0.32761501992215097 -0.43116249501185328 0 0.32339131420283213 -0.41656724990055422 0 0.33796042338316851 -0.41787760036937549 0 0.32339131420283213 -0.41656724990055422 0 0.33281994217864741 -0.40778505865636938 0 0.33796042338316851 -0.41787760036937549 0 0.33281994217864741 -0.40778505865636938 0 0.33796042338316851 -0.41787760036937549 0 0.34601675315157321 -0.40486547886918423 0 0.32761501992215097 -0.43116249501185328 0 0.33796042338316851 -0.41787760036937549 0 0.34315104194743368 -0.43483422324315929 0 0.33796042338316851 -0.41787760036937549 0 0.34315104194743368 -0.43483422324315929 0 0.35231855835687692 -0.42655250224024699 0 0.36060935802898147 -0.43906997082244181 0 0.34315104194743368 -0.43483422324315929 0 0.35231855835687692 -0.42655250224024699 0 0.37837193070639508 -0.43074191130029282 0 0.36060935802898147 -0.43906997082244181 0 0.36755341006792419 -0.41442821452601158 0 0.36060935802898147 -0.43906997082244181 0 0.35231855835687692 -0.42655250224024699 0 0.36755341006792419 -0.41442821452601158 0 0.36060935802898147 -0.43906997082244181 0 0.36755341006792419 -0.41442821452601158 0 0.33796042338316851 -0.41787760036937549 0 0.35231855835687692 -0.42655250224024699 0 0.36755341006792419 -0.41442821452601158 0 0.33796042338316851 -0.41787760036937549 0 0.36755341006792419 -0.41442821452601158 0 0.34601675315157321 -0.40486547886918423 0 0.33796042338316851 -0.41787760036937549 0 0.36755341006792419 -0.41442821452601158 0 0.36755341006792419 -0.41442821452601158 0 0.34601675315157321 -0.40486547886918423 0 0.35566250251704978 -0.3975177511027051 0 0.34601675315157321 -0.40486547886918423 0 0.34667365318154342 -0.39629832909528578 0 0.35566250251704978 -0.3975177511027051 0 0.34667365318154342 -0.39629832909528578 0 0.34795812186604658 -0.38666189116531141 0 0.33705723519150399 -0.3961481952439429 0 0.34667365318154342 -0.39629832909528578 0 0.35566250251704978 -0.3975177511027051 0 0.34795812186604658 -0.38666189116531141 0 0.36755341006792419 -0.41442821452601158 0 0.35566250251704978 -0.3975177511027051 0 0.36706103815962848 -0.39187921332532882 0 0.36755341006792419 -0.41442821452601158 0 0.37463337818860382 -0.38930414459710588 0 0.36755341006792419 -0.41442821452601158 0 0.36706103815962848 -0.39187921332532882 0 0.37463337818860382 -0.38930414459710588 0 0.35566250251704978 -0.3975177511027051 0 0.36706103815962848 -0.39187921332532882 0 0.35924801608749379 -0.38543857686598643 0 0.38081427771294768 -0.36737052156009248 0 0.36848073339739068 -0.37517807712711049 0 0.3737028077843495 -0.38742295831448542 0 0.36848073339739068 -0.37517807712711049 0 0.3737028077843495 -0.38742295831448542 0 0.36599997940964812 -0.38379980358563692 0 0.36706103815962848 -0.39187921332532882 0 0.3737028077843495 -0.38742295831448542 0 0.36599997940964812 -0.38379980358563692 0 0.36706103815962848 -0.39187921332532882 0 0.37463337818860382 -0.38930414459710588 0 0.3737028077843495 -0.38742295831448542 0 0.37463337818860382 -0.38930414459710588 0 0.3737028077843495 -0.38742295831448542 0 0.36706103815962848 -0.39187921332532882 0 0.36599997940964812 -0.38379980358563692 0 0.35924801608749379 -0.38543857686598643 0 0.36599997940964812 -0.38379980358563692 0 0.36207090148421361 -0.37959838259465167 0 0.35924801608749379 -0.38543857686598643 0 0.36848073339739068 -0.37517807712711049 0 0.36599997940964812 -0.38379980358563692 0 0.36207090148421361 -0.37959838259465167 0 0.36848073339739068 -0.37517807712711049 0 0.36207090148421361 -0.37959838259465167 0 0.3554566368260581 -0.37480617727887811 0 0.36207090148421361 -0.37959838259465167 0 0.35924801608749379 -0.38543857686598643 0 0.3554566368260581 -0.37480617727887811 0 0.35924801608749379 -0.38543857686598643 0 0.34795812186604658 -0.38666189116531141 0 0.3554566368260581 -0.37480617727887811 0 0.35566250251704978 -0.3975177511027051 0 0.35924801608749379 -0.38543857686598643 0 0.34795812186604658 -0.38666189116531141 0 0.34795812186604658 -0.38666189116531141 0 0.34537995690420659 -0.3737828605913362 0 0.3554566368260581 -0.37480617727887811 0 0.34795812186604658 -0.38666189116531141 0 0.33323562740676532 -0.37769939737979058 0 0.34537995690420659 -0.3737828605913362 0 0.34795812186604658 -0.38666189116531141 0 0.33323562740676532 -0.37769939737979058 0 0.33705723519150399 -0.3961481952439429 0 0.33323562740676532 -0.37769939737979058 0 0.33705723519150399 -0.3961481952439429 0 0.319673984964159 -0.40346676889879052 0 0.33281994217864741 -0.40778505865636938 0 0.33705723519150399 -0.3961481952439429 0 0.319673984964159 -0.40346676889879052 0 0.33281994217864741 -0.40778505865636938 0 0.34601675315157321 -0.40486547886918423 0 0.33705723519150399 -0.3961481952439429 0 0.34601675315157321 -0.40486547886918423 0 0.34667365318154342 -0.39629832909528578 0 0.33705723519150399 -0.3961481952439429 0 0.33323562740676532 -0.37769939737979058 0 0.319673984964159 -0.40346676889879052 0 0.31422368515007948 -0.393427126581603 0 0.319673984964159 -0.40346676889879052 0 0.31422368515007948 -0.393427126581603 0 0.30884060304287331 -0.40229515593698711 0 0.33323562740676532 -0.37769939737979058 0 0.319673984964159 -0.40346676889879052 0 0.31422368515007948 -0.393427126581603 0 0.30591552541026101 -0.37751124227982003 0 0.32002671755222051 -0.36641101040373808 0 0.33323562740676532 -0.37769939737979058 0 0.31422368515007948 -0.393427126581603 0 0.32002671755222051 -0.36641101040373808 0 0.31422368515007948 -0.393427126581603 0 0.32002671755222051 -0.36641101040373808 0 0.30591552541026101 -0.37751124227982003 0 0.29934269892459558 -0.39453707190143028 0 0.28871394442674109 -0.38265385864092483 0 0.31422368515007948 -0.393427126581603 0 0.30591552541026101 -0.37751124227982003 0 0.29934269892459558 -0.39453707190143028 0 0.31422368515007948 -0.393427126581603 0 0.30884060304287331 -0.40229515593698711 0 0.29934269892459558 -0.39453707190143028 0 0.30884060304287331 -0.40229515593698711 0 0.29934269892459558 -0.39453707190143028 0 0.29896657827583012 -0.40866065312134409 0 0.28871394442674109 -0.38265385864092483 0 0.27786210523133942 -0.40981541802129928 0 0.29934269892459558 -0.39453707190143028 0 0.27786210523133942 -0.40981541802129928 0 0.29896657827583012 -0.40866065312134409 0 0.29934269892459558 -0.39453707190143028 0 0.28871394442674109 -0.38265385864092483 0 0.27786210523133942 -0.40981541802129928 0 0.28871394442674109 -0.38265385864092483 0 0.26416245427686541 -0.38049931320234009 0 0.26125098829365018 -0.39969694482297641 0 0.28871394442674109 -0.38265385864092483 0 0.26416245427686541 -0.38049931320234009 0 0.27571190406721402 -0.36345127203525351 0 0.26416245427686541 -0.38049931320234009 0 0.24971336314328341 -0.36520417674804972 0 0.24502858373403441 -0.39146921073642488 0 0.26416245427686541 -0.38049931320234009 0 0.26125098829365018 -0.39969694482297641 0 0.24502858373403441 -0.39146921073642488 0 0.28871394442674109 -0.38265385864092483 0 0.26125098829365018 -0.39969694482297641 0 0.27786210523133942 -0.40981541802129928 0 0.26125098829365018 -0.39969694482297641 0 0.25610826383841628 -0.42120346698794331 0 0.2333640889907381 -0.41241884790723538 0 0.26125098829365018 -0.39969694482297641 0 0.27786210523133942 -0.40981541802129928 0 0.25610826383841628 -0.42120346698794331 0 0.25610826383841628 -0.42120346698794331 0 0.26701026603593758 -0.43697697740167368 0 0.2518592606704963 -0.43815060111373921 0 0.27786210523133942 -0.40981541802129928 0 0.26701026603593758 -0.43697697740167368 0 0.28078102790119369 -0.4274552938509788 0 0.27786210523133942 -0.40981541802129928 0 0.26701026603593758 -0.43697697740167368 0 0.27786210523133942 -0.40981541802129928 0 0.25610826383841628 -0.42120346698794331 0 0.26701026603593758 -0.43697697740167368 0 0.26701026603593758 -0.43697697740167368 0 0.28078102790119369 -0.4274552938509788 0 0.27712236562531017 -0.4375193999175232 0 0.28078102790119369 -0.4274552938509788 0 0.28865243891263809 -0.43215364344327012 0 0.27712236562531017 -0.4375193999175232 0 0.28865243891263809 -0.43215364344327012 0 0.28959476197880307 -0.44168956347039928 0 0.27712236562531017 -0.4375193999175232 0 0.28865243891263809 -0.43215364344327012 0 0.29503220707493127 -0.43614369036708622 0 0.29829711678041942 -0.42866378264525379 0 0.28865243891263809 -0.43215364344327012 0 0.29503220707493127 -0.43614369036708622 0 0.28959476197880307 -0.44168956347039928 0 0.28865243891263809 -0.43215364344327012 0 0.29108715411517122 -0.42145013040837909 0 0.29829711678041942 -0.42866378264525379 0 0.28078102790119369 -0.4274552938509788 0 0.28865243891263809 -0.43215364344327012 0 0.29108715411517122 -0.42145013040837909 0 0.27786210523133942 -0.40981541802129928 0 0.28078102790119369 -0.4274552938509788 0 0.29108715411517122 -0.42145013040837909 0 0.27786210523133942 -0.40981541802129928 0 0.29108715411517122 -0.42145013040837909 0 0.29896657827583012 -0.40866065312134409 0 0.29108715411517122 -0.42145013040837909 0 0.30377653118007591 -0.4205559058691733 0 0.29896657827583012 -0.40866065312134409 0 0.30377653118007591 -0.4205559058691733 0 0.29896657827583012 -0.40866065312134409 0 0.31120060169272079 -0.4133373498197 0 0.30884060304287331 -0.40229515593698711 0 0.29896657827583012 -0.40866065312134409 0 0.31120060169272079 -0.4133373498197 0 0.30377653118007591 -0.4205559058691733 0 0.31120060169272079 -0.4133373498197 0 0.31239832226651099 -0.42629080716544471 0 0.30377653118007591 -0.4205559058691733 0 0.31239832226651099 -0.42629080716544471 0 0.29829711678041942 -0.42866378264525379 0 0.31239832226651099 -0.42629080716544471 0 0.30735360635596409 -0.43632211706289747 0 0.29829711678041942 -0.42866378264525379 0 0.29503220707493127 -0.43614369036708622 0 0.30735360635596409 -0.43632211706289747 0 0.29829711678041942 -0.42866378264525379 0 0.29108715411517122 -0.42145013040837909 0 0.30377653118007591 -0.4205559058691733 0 0.29829711678041942 -0.42866378264525379 0 0.32466779455878442 -0.44686584155561709 0 0.30904716904302271 -0.45792120175055678 0 0.29608989522947149 -0.44383809180054362 0 0.32466779455878442 -0.44686584155561709 0 0.29608989522947149 -0.44383809180054362 0 0.32466779455878442 -0.44686584155561709 0 0.30735360635596409 -0.43632211706289747 0 0.29608989522947149 -0.44383809180054362 0 0.30904716904302271 -0.45792120175055678 0 0.29860320416278402 -0.45529674645956592 0 0.29608989522947149 -0.44383809180054362 0 0.29503220707493127 -0.43614369036708622 0 0.30735360635596409 -0.43632211706289747 0 0.29608989522947149 -0.44383809180054362 0 0.30904716904302271 -0.45792120175055678 0 0.29721119201091789 -0.46522563712477349 0 0.30631021868456298 -0.48072311486568892 0 0.30904716904302271 -0.45792120175055678 0 0.29721119201091789 -0.46522563712477349 0 0.29860320416278402 -0.45529674645956592 0 0.28932919617959602 -0.45338424297023883 0 0.27756010650442758 -0.45518222858252849 0 0.28072062580449653 -0.47155582870540619 0 0.29721119201091789 -0.46522563712477349 0 0.28932919617959602 -0.45338424297023883 0 0.28072062580449653 -0.47155582870540619 0 0.29721119201091789 -0.46522563712477349 0 0.29860320416278402 -0.45529674645956592 0 0.28932919617959602 -0.45338424297023883 0 0.28932919617959602 -0.45338424297023883 0 0.28959476197880307 -0.44168956347039928 0 0.27756010650442758 -0.45518222858252849 0 0.29860320416278402 -0.45529674645956592 0 0.28932919617959602 -0.45338424297023883 0 0.29608989522947149 -0.44383809180054362 0 0.28932919617959602 -0.45338424297023883 0 0.29608989522947149 -0.44383809180054362 0 0.28959476197880307 -0.44168956347039928 0 0.29503220707493127 -0.43614369036708622 0 0.29608989522947149 -0.44383809180054362 0 0.28959476197880307 -0.44168956347039928 0 0.28959476197880307 -0.44168956347039928 0 0.26138620688844749 -0.44792543592233808 0 0.26701026603593758 -0.43697697740167368 0 0.27712236562531017 -0.4375193999175232 0 0.26138620688844749 -0.44792543592233808 0 0.28959476197880307 -0.44168956347039928 0 0.26138620688844749 -0.44792543592233808 0 0.27756010650442758 -0.45518222858252849 0 0.28959476197880307 -0.44168956347039928 0 0.27712236562531017 -0.4375193999175232 0 0.26138620688844749 -0.44792543592233808 0 0.26701026603593758 -0.43697697740167368 0 0.26138620688844749 -0.44792543592233808 0 0.2518592606704963 -0.43815060111373921 0 0.26138620688844749 -0.44792543592233808 0 0.26339579246569877 -0.46312143350125029 0 0.23317765179809191 -0.45416130837427687 0 0.26138620688844749 -0.44792543592233808 0 0.26339579246569877 -0.46312143350125029 0 0.27756010650442758 -0.45518222858252849 0 0.26339579246569877 -0.46312143350125029 0 0.27756010650442758 -0.45518222858252849 0 0.28072062580449653 -0.47155582870540619 0 0.28072062580449653 -0.47155582870540619 0 0.2532296876789632 -0.47497352743918242 0 0.27004646425256568 -0.5 0 0.26339579246569877 -0.46312143350125029 0 0.28072062580449653 -0.47155582870540619 0 0.2532296876789632 -0.47497352743918242 0 0.32546065004022617 -0.5 0 0.27004646425256568 -0.5 0 0.30631021868456298 -0.48072311486568892 0 0.28072062580449653 -0.47155582870540619 0 0.27004646425256568 -0.5 0 0.30631021868456298 -0.48072311486568892 0 0.29721119201091789 -0.46522563712477349 0 0.28072062580449653 -0.47155582870540619 0 0.30631021868456298 -0.48072311486568892 0 0.33743581475864359 -0.28536266187014298 0 0.3388307833371127 -0.27886836189579028 0 0.34706744656536048 -0.28007479224216619 0 0.33743581475864359 -0.28536266187014298 0 0.3388307833371127 -0.27886836189579028 0 0.33743581475864359 -0.28536266187014298 0 0.33163278235650262 -0.31237877804800812 0 0.33743581475864359 -0.28536266187014298 0 0.33163278235650262 -0.31237877804800812 0 0.34308905326158867 -0.30070827197480321 0 0.33743581475864359 -0.28536266187014298 0 0.33163278235650262 -0.31237877804800812 0 0.32364365619397351 -0.29600562892690968 0 0.33163278235650262 -0.31237877804800812 0 0.32364365619397351 -0.29600562892690968 0 0.30954970221622308 -0.30462347215273478 0 0.31296692944630888 -0.29314018565426941 0 0.32364365619397351 -0.29600562892690968 0 0.30954970221622308 -0.30462347215273478 0 0.31296692944630888 -0.29314018565426941 0 0.32364365619397351 -0.29600562892690968 0 0.31569414790308259 -0.28159305760617132 0 0.33743581475864359 -0.28536266187014298 0 0.32364365619397351 -0.29600562892690968 0 0.31569414790308259 -0.28159305760617132 0 0.33743581475864359 -0.28536266187014298 0 0.31569414790308259 -0.28159305760617132 0 0.33743581475864359 -0.28536266187014298 0 0.31569414790308259 -0.28159305760617132 0 0.32852563272885182 -0.27784073863383552 0 0.31569414790308259 -0.28159305760617132 0 0.31275786215232049 -0.27168837282467972 0 0.32066228436037369 -0.27402337931129878 0 0.31275786215232049 -0.27168837282467972 0 0.32001527731196461 -0.26686042829596718 0 0.31054181011664339 -0.26140137874582919 0 0.31275786215232049 -0.27168837282467972 0 0.32001527731196461 -0.26686042829596718 0 0.32066228436037369 -0.27402337931129878 0 0.32001527731196461 -0.26686042829596718 0 0.32631850170564902 -0.27213429919584042 0 0.32066228436037369 -0.27402337931129878 0 0.32001527731196461 -0.26686042829596718 0 0.32631850170564902 -0.27213429919584042 0 0.32861545200372733 -0.26431566092564712 0 0.32631850170564902 -0.27213429919584042 0 0.32066228436037369 -0.27402337931129878 0 0.32852563272885182 -0.27784073863383552 0 0.31569414790308259 -0.28159305760617132 0 0.32066228436037369 -0.27402337931129878 0 0.32852563272885182 -0.27784073863383552 0 0.30517917142926537 -0.24716040808135001 0 0.322544075342931 -0.25649048942400782 0 0.31054181011664339 -0.26140137874582919 0 0.32001527731196461 -0.26686042829596718 0 0.322544075342931 -0.25649048942400782 0 0.31054181011664339 -0.26140137874582919 0 0.32001527731196461 -0.26686042829596718 0 0.322544075342931 -0.25649048942400782 0 0.32861545200372733 -0.26431566092564712 0 0.322544075342931 -0.25649048942400782 0 0.32861545200372733 -0.26431566092564712 0 0.33700232267718733 -0.25494009872172468 0 0.32861545200372733 -0.26431566092564712 0 0.33700232267718733 -0.25494009872172468 0 0.3370936559567923 -0.26597622971595652 0 0.33700232267718733 -0.25494009872172468 0 0.3370936559567923 -0.26597622971595652 0 0.34612034525793539 -0.26165354425485998 0 0.32852563272885182 -0.27784073863383552 0 0.33374486488877292 -0.2728357791174113 0 0.3388307833371127 -0.27886836189579028 0 0.33743581475864359 -0.28536266187014298 0 0.32852563272885182 -0.27784073863383552 0 0.3388307833371127 -0.27886836189579028 0 0.32631850170564902 -0.27213429919584042 0 0.32852563272885182 -0.27784073863383552 0 0.33374486488877292 -0.2728357791174113 0 0.32631850170564902 -0.27213429919584042 0 0.32861545200372733 -0.26431566092564712 0 0.33374486488877292 -0.2728357791174113 0 0.32861545200372733 -0.26431566092564712 0 0.33374486488877292 -0.2728357791174113 0 0.3370936559567923 -0.26597622971595652 0 0.34349817463331772 -0.27223575233246988 0 0.3370936559567923 -0.26597622971595652 0 0.34612034525793539 -0.26165354425485998 0 0.33374486488877292 -0.2728357791174113 0 0.34349817463331772 -0.27223575233246988 0 0.3370936559567923 -0.26597622971595652 0 0.33374486488877292 -0.2728357791174113 0 0.34349817463331772 -0.27223575233246988 0 0.3388307833371127 -0.27886836189579028 0 0.34349817463331772 -0.27223575233246988 0 0.3388307833371127 -0.27886836189579028 0 0.34706744656536048 -0.28007479224216619 0 0.34349817463331772 -0.27223575233246988 0 0.34706744656536048 -0.28007479224216619 0 0.35711558672006172 -0.27354793744083078 0 0.34349817463331772 -0.27223575233246988 0 0.35711558672006172 -0.27354793744083078 0 0.34612034525793539 -0.26165354425485998 0 0.34706744656536048 -0.28007479224216619 0 0.35711558672006172 -0.27354793744083078 0 0.35357832102308678 -0.28816147489813743 0 0.35007299243335749 -0.24785688602667111 0 0.33700232267718733 -0.25494009872172468 0 0.34612034525793539 -0.26165354425485998 0 0.35711558672006172 -0.27354793744083078 0 0.34612034525793539 -0.26165354425485998 0 0.36124693131331159 -0.25807728632712912 0 0.35007299243335749 -0.24785688602667111 0 0.34612034525793539 -0.26165354425485998 0 0.36124693131331159 -0.25807728632712912 0 0.37764450162479901 -0.26965755496232408 0 0.37510228513818711 -0.25237727586059511 0 0.36124693131331159 -0.25807728632712912 0 0.36225179838031341 -0.2439392928582107 0 0.37510228513818711 -0.25237727586059511 0 0.36124693131331159 -0.25807728632712912 0 0.37764450162479901 -0.26965755496232408 0 0.35711558672006172 -0.27354793744083078 0 0.36124693131331159 -0.25807728632712912 0 0.37764450162479901 -0.26965755496232408 0 0.35711558672006172 -0.27354793744083078 0 0.36873774536035581 -0.28861226174546889 0 0.36873774536035581 -0.28861226174546889 0 0.35357832102308678 -0.28816147489813743 0 0.36087634202934032 -0.30211297570133377 0 0.35711558672006172 -0.27354793744083078 0 0.36873774536035581 -0.28861226174546889 0 0.35357832102308678 -0.28816147489813743 0 0.33743581475864359 -0.28536266187014298 0 0.35357832102308678 -0.28816147489813743 0 0.33743581475864359 -0.28536266187014298 0 0.34706744656536048 -0.28007479224216619 0 0.35357832102308678 -0.28816147489813743 0 0.33743581475864359 -0.28536266187014298 0 0.34308905326158867 -0.30070827197480321 0 0.35357832102308678 -0.28816147489813743 0 0.34308905326158867 -0.30070827197480321 0 0.36087634202934032 -0.30211297570133377 0 0.3603589122919777 -0.32616465434179109 0 0.34308905326158867 -0.30070827197480321 0 0.35357832102308678 -0.28816147489813743 0 0.36087634202934032 -0.30211297570133377 0 0.37861767820969228 -0.30691821554646831 0 0.36873774536035581 -0.28861226174546889 0 0.36087634202934032 -0.30211297570133377 0 0.37861767820969228 -0.30691821554646831 0 0.36087634202934032 -0.30211297570133377 0 0.3603589122919777 -0.32616465434179109 0 0.37858644206980091 -0.32769985780377792 0 0.37861767820969228 -0.30691821554646831 0 0.3603589122919777 -0.32616465434179109 0 0.37858644206980091 -0.32769985780377792 0 0.3603589122919777 -0.32616465434179109 0 0.36805061276354478 -0.3427907498460791 0 0.3603589122919777 -0.32616465434179109 0 0.34679726984937148 -0.35193202586079081 0 0.3603589122919777 -0.32616465434179109 0 0.34679726984937148 -0.35193202586079081 0 0.3423644242317993 -0.33453707324987059 0 0.3603589122919777 -0.32616465434179109 0 0.36805061276354478 -0.3427907498460791 0 0.34679726984937148 -0.35193202586079081 0 0.33163278235650262 -0.31237877804800812 0 0.34308905326158867 -0.30070827197480321 0 0.3603589122919777 -0.32616465434179109 0 0.33163278235650262 -0.31237877804800812 0 0.3603589122919777 -0.32616465434179109 0 0.3423644242317993 -0.33453707324987059 0 0.37640125955739012 -0.35149107478397351 0 0.38081427771294768 -0.36737052156009248 0 0.36600013168445039 -0.36059477107615401 0 0.36848073339739068 -0.37517807712711049 0 0.36600013168445039 -0.36059477107615401 0 0.3554566368260581 -0.37480617727887811 0 0.38081427771294768 -0.36737052156009248 0 0.36848073339739068 -0.37517807712711049 0 0.36600013168445039 -0.36059477107615401 0 0.36805061276354478 -0.3427907498460791 0 0.36600013168445039 -0.36059477107615401 0 0.34679726984937148 -0.35193202586079081 0 0.37640125955739012 -0.35149107478397351 0 0.36805061276354478 -0.3427907498460791 0 0.36600013168445039 -0.36059477107615401 0 0.36600013168445039 -0.36059477107615401 0 0.34679726984937148 -0.35193202586079081 0 0.3554566368260581 -0.37480617727887811 0 0.34679726984937148 -0.35193202586079081 0 0.34537995690420659 -0.3737828605913362 0 0.3554566368260581 -0.37480617727887811 0 0.33323562740676532 -0.37769939737979058 0 0.33171275220581908 -0.35441984147836231 0 0.32002671755222051 -0.36641101040373808 0 0.33323562740676532 -0.37769939737979058 0 0.34679726984937148 -0.35193202586079081 0 0.33323562740676532 -0.37769939737979058 0 0.34679726984937148 -0.35193202586079081 0 0.34537995690420659 -0.3737828605913362 0 0.33323562740676532 -0.37769939737979058 0 0.34679726984937148 -0.35193202586079081 0 0.33171275220581908 -0.35441984147836231 0 0.34679726984937148 -0.35193202586079081 0 0.33171275220581908 -0.35441984147836231 0 0.3423644242317993 -0.33453707324987059 0 0.33171275220581908 -0.35441984147836231 0 0.32002671755222051 -0.36641101040373808 0 0.32582974995436148 -0.33939489422587321 0 0.32002671755222051 -0.36641101040373808 0 0.32582974995436148 -0.33939489422587321 0 0.31500009593534162 -0.35119999692538878 0 0.32002671755222051 -0.36641101040373808 0 0.32582974995436148 -0.33939489422587321 0 0.33163278235650262 -0.31237877804800812 0 0.32582974995436148 -0.33939489422587321 0 0.33163278235650262 -0.31237877804800812 0 0.3423644242317993 -0.33453707324987059 0 0.32582974995436148 -0.33939489422587321 0 0.33171275220581908 -0.35441984147836231 0 0.3423644242317993 -0.33453707324987059 0 0.32582974995436148 -0.33939489422587321 0 0.31500009593534162 -0.35119999692538878 0 0.32582974995436148 -0.33939489422587321 0 0.31041762281754448 -0.32833073988017608 0 0.33163278235650262 -0.31237877804800812 0 0.32582974995436148 -0.33939489422587321 0 0.31041762281754448 -0.32833073988017608 0 0.33163278235650262 -0.31237877804800812 0 0.31041762281754448 -0.32833073988017608 0 0.30954970221622308 -0.30462347215273478 0 0.31041762281754448 -0.32833073988017608 0 0.29592063247569211 -0.31558436997640987 0 0.30954970221622308 -0.30462347215273478 0 0.31041762281754448 -0.32833073988017608 0 0.29132656616613523 -0.33188180257029998 0 0.29592063247569211 -0.31558436997640987 0 0.31041762281754448 -0.32833073988017608 0 0.29132656616613523 -0.33188180257029998 0 0.29956578362214281 -0.35549229926055048 0 0.31041762281754448 -0.32833073988017608 0 0.29956578362214281 -0.35549229926055048 0 0.29132656616613523 -0.33188180257029998 0 0.28219501787468609 -0.34702129220438421 0 0.27282035448602859 -0.33554085100614839 0 0.29132656616613523 -0.33188180257029998 0 0.29592063247569211 -0.31558436997640987 0 0.27986439667319313 -0.31630171845149863 0 0.29132656616613523 -0.33188180257029998 0 0.27986439667319313 -0.31630171845149863 0 0.27282035448602859 -0.33554085100614839 0 0.30591552541026101 -0.37751124227982003 0 0.28871394442674109 -0.38265385864092483 0 0.29956578362214281 -0.35549229926055048 0 0.30591552541026101 -0.37751124227982003 0 0.32002671755222051 -0.36641101040373808 0 0.29956578362214281 -0.35549229926055048 0 0.31500009593534162 -0.35119999692538878 0 0.32002671755222051 -0.36641101040373808 0 0.29956578362214281 -0.35549229926055048 0 0.31500009593534162 -0.35119999692538878 0 0.31041762281754448 -0.32833073988017608 0 0.29956578362214281 -0.35549229926055048 0 0.29956578362214281 -0.35549229926055048 0 0.28219501787468609 -0.34702129220438421 0 0.27571190406721402 -0.36345127203525351 0 0.29132656616613523 -0.33188180257029998 0 0.29956578362214281 -0.35549229926055048 0 0.28219501787468609 -0.34702129220438421 0 0.28871394442674109 -0.38265385864092483 0 0.29956578362214281 -0.35549229926055048 0 0.27571190406721402 -0.36345127203525351 0 0.28871394442674109 -0.38265385864092483 0 0.29956578362214281 -0.35549229926055048 0 0.28219501787468609 -0.34702129220438421 0 0.27571190406721402 -0.36345127203525351 0 0.2669677564247489 -0.35003134695070198 0 0.28219501787468609 -0.34702129220438421 0 0.2669677564247489 -0.35003134695070198 0 0.27282035448602859 -0.33554085100614839 0 0.2669677564247489 -0.35003134695070198 0 0.2543981425525324 -0.33893914275967452 0 0.24971336314328341 -0.36520417674804972 0 0.2543981425525324 -0.33893914275967452 0 0.24971336314328341 -0.36520417674804972 0 0.26416245427686541 -0.38049931320234009 0 0.27571190406721402 -0.36345127203525351 0 0.24971336314328341 -0.36520417674804972 0 0.27571190406721402 -0.36345127203525351 0 0.2669677564247489 -0.35003134695070198 0 0.24971336314328341 -0.36520417674804972 0 0.27986439667319313 -0.31630171845149863 0 0.27282035448602859 -0.33554085100614839 0 0.27986439667319313 -0.31630171845149863 0 0.27282035448602859 -0.33554085100614839 0 0.2590829219617814 -0.31267410877129931 0 0.2669677564247489 -0.35003134695070198 0 0.27282035448602859 -0.33554085100614839 0 0.2543981425525324 -0.33893914275967452 0 0.27282035448602859 -0.33554085100614839 0 0.2543981425525324 -0.33893914275967452 0 0.2590829219617814 -0.31267410877129931 0 0.2543981425525324 -0.33893914275967452 0 0.2590829219617814 -0.31267410877129931 0 0.24087195768162309 -0.32614810142562012 0 0.2543981425525324 -0.33893914275967452 0 0.2590829219617814 -0.31267410877129931 0 0.2590829219617814 -0.31267410877129931 0 0.26376770137103039 -0.2864090747829241 0 0.27385105082646688 -0.29718155094811333 0 0.2590829219617814 -0.31267410877129931 0 0.26376770137103039 -0.2864090747829241 0 0.24821325608307901 -0.29522124281265988 0 0.2590829219617814 -0.31267410877129931 0 0.26376770137103039 -0.2864090747829241 0 0.26376770137103039 -0.2864090747829241 0 0.24785603391849151 -0.27709942466880599 0 0.24821325608307901 -0.29522124281265988 0 0.26376770137103039 -0.2864090747829241 0 0.27275834958840189 -0.28372268528309152 0 0.2724225943816766 -0.27409056785933389 0 0.26376770137103039 -0.2864090747829241 0 0.27275834958840189 -0.28372268528309152 0 0.27385105082646688 -0.29718155094811333 0 0.28072449650403741 -0.28691913250301798 0 0.27385105082646688 -0.29718155094811333 0 0.2869084388603575 -0.29706258589684881 0 0.27275834958840189 -0.28372268528309152 0 0.28072449650403741 -0.28691913250301798 0 0.27385105082646688 -0.29718155094811333 0 0.27275834958840189 -0.28372268528309152 0 0.28072449650403741 -0.28691913250301798 0 0.27996448038040939 -0.28063895974691061 0 0.27986439667319313 -0.31630171845149863 0 0.2590829219617814 -0.31267410877129931 0 0.27385105082646688 -0.29718155094811333 0 0.27986439667319313 -0.31630171845149863 0 0.27385105082646688 -0.29718155094811333 0 0.2869084388603575 -0.29706258589684881 0 0.27986439667319313 -0.31630171845149863 0 0.2869084388603575 -0.29706258589684881 0 0.29592063247569211 -0.31558436997640987 0 0.27986439667319313 -0.31630171845149863 0 0.2869084388603575 -0.29706258589684881 0 0.2869084388603575 -0.29706258589684881 0 0.30298021147195658 -0.29033858393126172 0 0.29395248104752192 -0.27782345334219888 0 0.28072449650403741 -0.28691913250301798 0 0.2869084388603575 -0.29706258589684881 0 0.29395248104752192 -0.27782345334219888 0 0.2869084388603575 -0.29706258589684881 0 0.29395248104752192 -0.27782345334219888 0 0.28072449650403741 -0.28691913250301798 0 0.29395248104752192 -0.27782345334219888 0 0.27996448038040939 -0.28063895974691061 0 0.31569414790308259 -0.28159305760617132 0 0.30298021147195658 -0.29033858393126172 0 0.29395248104752192 -0.27782345334219888 0 0.31296692944630888 -0.29314018565426941 0 0.31569414790308259 -0.28159305760617132 0 0.30298021147195658 -0.29033858393126172 0 0.31296692944630888 -0.29314018565426941 0 0.30298021147195658 -0.29033858393126172 0 0.30954970221622308 -0.30462347215273478 0 0.2869084388603575 -0.29706258589684881 0 0.30298021147195658 -0.29033858393126172 0 0.30954970221622308 -0.30462347215273478 0 0.29592063247569211 -0.31558436997640987 0 0.2869084388603575 -0.29706258589684881 0 0.30954970221622308 -0.30462347215273478 0 0.30517917142926537 -0.24716040808135001 0 0.31054181011664339 -0.26140137874582919 0 0.2976408850071105 -0.26774945168120262 0 0.30517917142926537 -0.24716040808135001 0 0.2976408850071105 -0.26774945168120262 0 0.31275786215232049 -0.27168837282467972 0 0.2976408850071105 -0.26774945168120262 0 0.29395248104752192 -0.27782345334219888 0 0.31275786215232049 -0.27168837282467972 0 0.2976408850071105 -0.26774945168120262 0 0.31275786215232049 -0.27168837282467972 0 0.31054181011664339 -0.26140137874582919 0 0.2976408850071105 -0.26774945168120262 0 0.31569414790308259 -0.28159305760617132 0 0.29395248104752192 -0.27782345334219888 0 0.31569414790308259 -0.28159305760617132 0 0.31275786215232049 -0.27168837282467972 0 0.29395248104752192 -0.27782345334219888 0 0.2976408850071105 -0.26774945168120262 0 0.28600938745522969 -0.26471871668720698 0 0.2976408850071105 -0.26774945168120262 0 0.29395248104752192 -0.27782345334219888 0 0.29395248104752192 -0.27782345334219888 0 0.27996448038040939 -0.28063895974691061 0 0.2724225943816766 -0.27409056785933389 0 0.29395248104752192 -0.27782345334219888 0 0.28600938745522969 -0.26471871668720698 0 0.27658132089261911 -0.27335422882897692 0 0.2976408850071105 -0.26774945168120262 0 0.29395248104752192 -0.27782345334219888 0 0.28600938745522969 -0.26471871668720698 0 0.29395248104752192 -0.27782345334219888 0 0.2724225943816766 -0.27409056785933389 0 0.28600938745522969 -0.26471871668720698 0 0.27658132089261911 -0.27335422882897692 0 0.30517917142926537 -0.24716040808135001 0 0.28600938745522969 -0.26471871668720698 0 0.30517917142926537 -0.24716040808135001 0 0.2976408850071105 -0.26774945168120262 0 0.28600938745522969 -0.26471871668720698 0 0.30517917142926537 -0.24716040808135001 0 0.28765229627979871 -0.24304032400626949 0 0.28600938745522969 -0.26471871668720698 0 0.28600938745522969 -0.26471871668720698 0 0.26845248078028039 -0.26014404079454911 0 0.28765229627979871 -0.24304032400626949 0 0.28600938745522969 -0.26471871668720698 0 0.26845248078028039 -0.26014404079454911 0 0.26376770137103039 -0.2864090747829241 0 0.26845248078028039 -0.26014404079454911 0 0.2724225943816766 -0.27409056785933389 0 0.28600938745522969 -0.26471871668720698 0 0.26845248078028039 -0.26014404079454911 0 0.27658132089261911 -0.27335422882897692 0 0.26376770137103039 -0.2864090747829241 0 0.26845248078028039 -0.26014404079454911 0 0.29395248104752192 -0.27782345334219888 0 0.27658132089261911 -0.27335422882897692 0 0.2724225943816766 -0.27409056785933389 0 0.27275834958840189 -0.28372268528309152 0 0.27996448038040939 -0.28063895974691061 0 0.2724225943816766 -0.27409056785933389 0 0.26845248078028039 -0.26014404079454911 0 0.27658132089261911 -0.27335422882897692 0 0.2724225943816766 -0.27409056785933389 0 0.26376770137103039 -0.2864090747829241 0 0.26845248078028039 -0.26014404079454911 0 0.24785603391849151 -0.27709942466880599 0 0.26845248078028039 -0.26014404079454911 0 0.2410490216361528 -0.25300372010805161 0 0.26845248078028039 -0.26014404079454911 0 0.2410490216361528 -0.25300372010805161 0 0.24785603391849151 -0.27709942466880599 0 0.25787859859726192 -0.24372773219337371 0 0.26845248078028039 -0.26014404079454911 0 0.2410490216361528 -0.25300372010805161 0 0.2410490216361528 -0.25300372010805161 0 0.24785603391849151 -0.27709942466880599 0 0.23139485578507429 -0.27647983237136509 0 0.23139485578507429 -0.27647983237136509 0 0.2171028506536257 -0.26700629366950379 0 0.21674952071488601 -0.28686299221921707 0 0.2410490216361528 -0.25300372010805161 0 0.23139485578507429 -0.27647983237136509 0 0.2171028506536257 -0.26700629366950379 0 0.2410490216361528 -0.25300372010805161 0 0.2171028506536257 -0.26700629366950379 0 0.2136455624920251 -0.24586339942155419 0 0.2171028506536257 -0.26700629366950379 0 0.1960217485778272 -0.26205501631648559 0 0.2136455624920251 -0.24586339942155419 0 0.2171028506536257 -0.26700629366950379 0 0.2037572178097509 -0.27803645254629672 0 0.1960217485778272 -0.26205501631648559 0 0.2171028506536257 -0.26700629366950379 0 0.2037572178097509 -0.27803645254629672 0 0.21674952071488601 -0.28686299221921707 0 0.2037572178097509 -0.27803645254629672 0 0.1960217485778272 -0.26205501631648559 0 0.18672217274589489 -0.28463667424064248 0 0.1960217485778272 -0.26205501631648559 0 0.2136455624920251 -0.24586339942155419 0 0.1970165427207646 -0.2431475676051908 0 0.1960217485778272 -0.26205501631648559 0 0.1970165427207646 -0.2431475676051908 0 0.18013525364959199 -0.24590787480667409 0 0.19163287831415901 -0.30538761534618902 0 0.20219697373587131 -0.29192032270869461 0 0.2153952098199983 -0.30425933719731207 0 0.2037572178097509 -0.27803645254629672 0 0.20219697373587131 -0.29192032270869461 0 0.18672217274589489 -0.28463667424064248 0 0.19163287831415901 -0.30538761534618902 0 0.20219697373587131 -0.29192032270869461 0 0.18672217274589489 -0.28463667424064248 0 0.20219697373587131 -0.29192032270869461 0 0.21674952071488601 -0.28686299221921707 0 0.2153952098199983 -0.30425933719731207 0 0.2037572178097509 -0.27803645254629672 0 0.20219697373587131 -0.29192032270869461 0 0.21674952071488601 -0.28686299221921707 0 0.19163287831415901 -0.30538761534618902 0 0.2153952098199983 -0.30425933719731207 0 0.20381788977078771 -0.32236963909420019 0 0.2153952098199983 -0.30425933719731207 0 0.2333373149176502 -0.29099433783704243 0 0.2370223082464416 -0.30892926800322767 0 0.2153952098199983 -0.30425933719731207 0 0.2370223082464416 -0.30892926800322767 0 0.22300958304019269 -0.32335118517261402 0 0.21674952071488601 -0.28686299221921707 0 0.2153952098199983 -0.30425933719731207 0 0.2333373149176502 -0.29099433783704243 0 0.23139485578507429 -0.27647983237136509 0 0.21674952071488601 -0.28686299221921707 0 0.2333373149176502 -0.29099433783704243 0 0.24785603391849151 -0.27709942466880599 0 0.2333373149176502 -0.29099433783704243 0 0.24821325608307901 -0.29522124281265988 0 0.24785603391849151 -0.27709942466880599 0 0.23139485578507429 -0.27647983237136509 0 0.2333373149176502 -0.29099433783704243 0 0.2333373149176502 -0.29099433783704243 0 0.24821325608307901 -0.29522124281265988 0 0.2370223082464416 -0.30892926800322767 0 0.2590829219617814 -0.31267410877129931 0 0.24821325608307901 -0.29522124281265988 0 0.2370223082464416 -0.30892926800322767 0 0.2590829219617814 -0.31267410877129931 0 0.2370223082464416 -0.30892926800322767 0 0.24087195768162309 -0.32614810142562012 0 0.2543981425525324 -0.33893914275967452 0 0.24087195768162309 -0.32614810142562012 0 0.2308468326071676 -0.34684680242128502 0 0.24087195768162309 -0.32614810142562012 0 0.22300958304019269 -0.32335118517261402 0 0.2308468326071676 -0.34684680242128502 0 0.22300958304019269 -0.32335118517261402 0 0.2308468326071676 -0.34684680242128502 0 0.21275128108028149 -0.33749920242868869 0 0.2370223082464416 -0.30892926800322767 0 0.24087195768162309 -0.32614810142562012 0 0.22300958304019269 -0.32335118517261402 0 0.24971336314328341 -0.36520417674804972 0 0.2308468326071676 -0.34684680242128502 0 0.229200177642885 -0.36995291413531828 0 0.2543981425525324 -0.33893914275967452 0 0.24971336314328341 -0.36520417674804972 0 0.2308468326071676 -0.34684680242128502 0 0.229200177642885 -0.36995291413531828 0 0.20725651587090471 -0.36571099534901208 0 0.22031030243082139 -0.38906492162812378 0 0.2308468326071676 -0.34684680242128502 0 0.229200177642885 -0.36995291413531828 0 0.20725651587090471 -0.36571099534901208 0 0.2308468326071676 -0.34684680242128502 0 0.20725651587090471 -0.36571099534901208 0 0.21275128108028149 -0.33749920242868869 0 0.20725651587090471 -0.36571099534901208 0 0.21275128108028149 -0.33749920242868869 0 0.194202729310988 -0.34235706906990038 0 0.20725651587090471 -0.36571099534901208 0 0.194202729310988 -0.34235706906990038 0 0.180238718969634 -0.3612454971324468 0 0.20725651587090471 -0.36571099534901208 0 0.194202729310988 -0.34235706906990038 0 0.20725651587090471 -0.36571099534901208 0 0.19261827162763251 -0.374541644607297 0 0.180238718969634 -0.3612454971324468 0 0.22300958304019269 -0.32335118517261402 0 0.20381788977078771 -0.32236963909420019 0 0.21275128108028149 -0.33749920242868869 0 0.2153952098199983 -0.30425933719731207 0 0.22300958304019269 -0.32335118517261402 0 0.20381788977078771 -0.32236963909420019 0 0.20381788977078771 -0.32236963909420019 0 0.21275128108028149 -0.33749920242868869 0 0.194202729310988 -0.34235706906990038 0 0.20381788977078771 -0.32236963909420019 0 0.194202729310988 -0.34235706906990038 0 0.18384400034678741 -0.32250280289756078 0 0.19163287831415901 -0.30538761534618902 0 0.20381788977078771 -0.32236963909420019 0 0.18384400034678741 -0.32250280289756078 0 0.18384400034678741 -0.32250280289756078 0 0.17702055828029431 -0.33666004199980942 0 0.15719449589681389 -0.32866913917705798 0 0.194202729310988 -0.34235706906990038 0 0.18384400034678741 -0.32250280289756078 0 0.17702055828029431 -0.33666004199980942 0 0.15719449589681389 -0.32866913917705798 0 0.16581699513551909 -0.35306125248096398 0 0.17702055828029431 -0.33666004199980942 0 0.15719449589681389 -0.32866913917705798 0 0.16581699513551909 -0.35306125248096398 0 0.18384400034678741 -0.32250280289756078 0 0.15719449589681389 -0.32866913917705798 0 0.17186855286937899 -0.30453082832045192 0 0.180238718969634 -0.3612454971324468 0 0.1834568796589737 -0.38583095226508418 0 0.17443949437422429 -0.37745336578486988 0 0.180238718969634 -0.3612454971324468 0 0.16581699513551909 -0.35306125248096398 0 0.17443949437422429 -0.37745336578486988 0 0.180238718969634 -0.3612454971324468 0 0.1834568796589737 -0.38583095226508418 0 0.19261827162763251 -0.374541644607297 0 0.180238718969634 -0.3612454971324468 0 0.1834568796589737 -0.38583095226508418 0 0.17702055828029431 -0.33666004199980942 0 0.180238718969634 -0.3612454971324468 0 0.16581699513551909 -0.35306125248096398 0 0.17702055828029431 -0.33666004199980942 0 0.180238718969634 -0.3612454971324468 0 0.194202729310988 -0.34235706906990038 0 0.17702055828029431 -0.33666004199980942 0 0.180238718969634 -0.3612454971324468 0 0.16581699513551909 -0.35306125248096398 0 0.1602354860011011 -0.36875954027416918 0 0.14952990885070691 -0.36034775620209553 0 0.16581699513551909 -0.35306125248096398 0 0.17443949437422429 -0.37745336578486988 0 0.16581699513551909 -0.35306125248096398 0 0.1602354860011011 -0.36875954027416918 0 0.17443949437422429 -0.37745336578486988 0 0.1602354860011011 -0.36875954027416918 0 0.14673951295096799 -0.37363029079717242 0 0.14952990885070691 -0.36034775620209553 0 0.16581699513551909 -0.35306125248096398 0 0.14952990885070691 -0.36034775620209553 0 0.144826286403443 -0.34676284914488159 0 0.14952990885070691 -0.36034775620209553 0 0.144826286403443 -0.34676284914488159 0 0.12334710111447229 -0.36406834251145731 0 0.144826286403443 -0.34676284914488159 0 0.12334710111447229 -0.36406834251145731 0 0.144826286403443 -0.34676284914488159 0 0.12334710111447229 -0.36406834251145731 0 0.11573058637367541 -0.34380091622275832 0 0.13273239812562251 -0.3803535413873157 0 0.1208593498238435 -0.38006314209191833 0 0.12334710111447229 -0.36406834251145731 0 0.14673951295096799 -0.37363029079717242 0 0.14952990885070691 -0.36034775620209553 0 0.12334710111447229 -0.36406834251145731 0 0.14673951295096799 -0.37363029079717242 0 0.13273239812562251 -0.3803535413873157 0 0.12334710111447229 -0.36406834251145731 0 0.15719449589681389 -0.32866913917705798 0 0.13978194378111039 -0.33004063130878142 0 0.14857199665810869 -0.30427702587315197 0 0.15719449589681389 -0.32866913917705798 0 0.14857199665810869 -0.30427702587315197 0 0.15719449589681389 -0.32866913917705798 0 0.144826286403443 -0.34676284914488159 0 0.13978194378111039 -0.33004063130878142 0 0.15719449589681389 -0.32866913917705798 0 0.16581699513551909 -0.35306125248096398 0 0.144826286403443 -0.34676284914488159 0 0.13978194378111039 -0.33004063130878142 0 0.1249111379911398 -0.32186001205002218 0 0.11573058637367541 -0.34380091622275832 0 0.144826286403443 -0.34676284914488159 0 0.13978194378111039 -0.33004063130878142 0 0.11573058637367541 -0.34380091622275832 0 0.13978194378111039 -0.33004063130878142 0 0.14857199665810869 -0.30427702587315197 0 0.1249111379911398 -0.32186001205002218 0 0.14857199665810869 -0.30427702587315197 0 0.13584279120622419 -0.29064916595208462 0 0.1212075847983899 -0.30357596212866123 0 0.14857199665810869 -0.30427702587315197 0 0.1212075847983899 -0.30357596212866123 0 0.1249111379911398 -0.32186001205002218 0 0.14857199665810869 -0.30427702587315197 0 0.14941647374314521 -0.28066083506566319 0 0.1659314811884508 -0.28303851802095531 0 0.14857199665810869 -0.30427702587315197 0 0.13584279120622419 -0.29064916595208462 0 0.14941647374314521 -0.28066083506566319 0 0.13554841089854469 -0.28148943716570812 0 0.13584279120622419 -0.29064916595208462 0 0.14941647374314521 -0.28066083506566319 0 0.13554841089854469 -0.28148943716570812 0 0.13584279120622419 -0.29064916595208462 0 0.1176113560141319 -0.2851589593963586 0 0.1376178273856396 -0.2676878026278281 0 0.13932302263067731 -0.26948878824872591 0 0.1176113560141319 -0.2851589593963586 0 0.13554841089854469 -0.28148943716570812 0 0.13932302263067731 -0.26948878824872591 0 0.1176113560141319 -0.2851589593963586 0 0.13932302263067731 -0.26948878824872591 0 0.1176113560141319 -0.2851589593963586 0 0.1376178273856396 -0.2676878026278281 0 0.1200034520355143 -0.24749468667538321 0 0.1376178273856396 -0.2676878026278281 0 0.1200034520355143 -0.24749468667538321 0 0.1412434604122122 -0.24631040783256791 0 0.1376178273856396 -0.2676878026278281 0 0.16103468924722281 -0.25381861710109321 0 0.1412434604122122 -0.24631040783256791 0 0.1376178273856396 -0.2676878026278281 0 0.13932302263067731 -0.26948878824872591 0 0.16103468924722281 -0.25381861710109321 0 0.13932302263067731 -0.26948878824872591 0 0.16103468924722281 -0.25381861710109321 0 0.13932302263067731 -0.26948878824872591 0 0.14941647374314521 -0.28066083506566319 0 0.16103468924722281 -0.25381861710109321 0 0.13554841089854469 -0.28148943716570812 0 0.13932302263067731 -0.26948878824872591 0 0.14941647374314521 -0.28066083506566319 0 0.14941647374314521 -0.28066083506566319 0 0.16103468924722281 -0.25381861710109321 0 0.1659314811884508 -0.28303851802095531 0 0.16103468924722281 -0.25381861710109321 0 0.1779690690817976 -0.26589134009717008 0 0.1659314811884508 -0.28303851802095531 0 0.16103468924722281 -0.25381861710109321 0 0.1779690690817976 -0.26589134009717008 0 0.18013525364959199 -0.24590787480667409 0 0.1960217485778272 -0.26205501631648559 0 0.1779690690817976 -0.26589134009717008 0 0.18013525364959199 -0.24590787480667409 0 0.1960217485778272 -0.26205501631648559 0 0.1779690690817976 -0.26589134009717008 0 0.18672217274589489 -0.28463667424064248 0 0.1779690690817976 -0.26589134009717008 0 0.18672217274589489 -0.28463667424064248 0 0.1659314811884508 -0.28303851802095531 0 0.18672217274589489 -0.28463667424064248 0 0.17186855286937899 -0.30453082832045192 0 0.1659314811884508 -0.28303851802095531 0 0.19163287831415901 -0.30538761534618902 0 0.18384400034678741 -0.32250280289756078 0 0.17186855286937899 -0.30453082832045192 0 0.19163287831415901 -0.30538761534618902 0 0.18672217274589489 -0.28463667424064248 0 0.17186855286937899 -0.30453082832045192 0 0.14857199665810869 -0.30427702587315197 0 0.17186855286937899 -0.30453082832045192 0 0.1659314811884508 -0.28303851802095531 0 0.15719449589681389 -0.32866913917705798 0 0.14857199665810869 -0.30427702587315197 0 0.17186855286937899 -0.30453082832045192 0 0.27004646425256568 -0.5 0 0.19840125792562099 -0.499999999999995 0 0.2258071254777905 -0.47806137695806639 0 0.19840125792562099 -0.499999999999995 0 0.1955652389629654 -0.47833395417678298 0 0.19840125792562099 -0.499999999999995 0 0.1955652389629654 -0.47833395417678298 0 0.1857239970351309 -0.48926605560099218 0 0.1955652389629654 -0.47833395417678298 0 0.2258071254777905 -0.47806137695806639 0 0.20496909670773639 -0.46039718082621561 0 0.19840125792562099 -0.499999999999995 0 0.1955652389629654 -0.47833395417678298 0 0.2258071254777905 -0.47806137695806639 0 0.2532296876789632 -0.47497352743918242 0 0.27004646425256568 -0.5 0 0.2258071254777905 -0.47806137695806639 0 0.2532296876789632 -0.47497352743918242 0 0.2258071254777905 -0.47806137695806639 0 0.23317765179809191 -0.45416130837427687 0 0.2258071254777905 -0.47806137695806639 0 0.23317765179809191 -0.45416130837427687 0 0.20496909670773639 -0.46039718082621561 0 0.23317765179809191 -0.45416130837427687 0 0.20496909670773639 -0.46039718082621561 0 0.26339579246569877 -0.46312143350125029 0 0.2532296876789632 -0.47497352743918242 0 0.23317765179809191 -0.45416130837427687 0 0.26138620688844749 -0.44792543592233808 0 0.2518592606704963 -0.43815060111373921 0 0.23317765179809191 -0.45416130837427687 0 0.26138620688844749 -0.44792543592233808 0 0.23317765179809191 -0.45416130837427687 0 0.2518592606704963 -0.43815060111373921 0 0.23317765179809191 -0.45416130837427687 0 0.24161391479158839 -0.43048581688246368 0 0.23317765179809191 -0.45416130837427687 0 0.21274467024756119 -0.44537306322652892 0 0.22596778666418391 -0.43195218695593612 0 0.23317765179809191 -0.45416130837427687 0 0.22596778666418391 -0.43195218695593612 0 0.24161391479158839 -0.43048581688246368 0 0.20738663592967541 -0.43977689630152639 0 0.21274467024756119 -0.44537306322652892 0 0.21231789143938981 -0.43260924517595267 0 0.20738663592967541 -0.43977689630152639 0 0.20306963394956029 -0.44528763306514119 0 0.2014143480821905 -0.43583764373848299 0 0.20738663592967541 -0.43977689630152639 0 0.21274467024756119 -0.44537306322652892 0 0.20306963394956029 -0.44528763306514119 0 0.21274467024756119 -0.44537306322652892 0 0.20306963394956029 -0.44528763306514119 0 0.20202636709778779 -0.45196992376671852 0 0.21274467024756119 -0.44537306322652892 0 0.20496909670773639 -0.46039718082621561 0 0.20202636709778779 -0.45196992376671852 0 0.23317765179809191 -0.45416130837427687 0 0.21274467024756119 -0.44537306322652892 0 0.20496909670773639 -0.46039718082621561 0 0.1955652389629654 -0.47833395417678298 0 0.20496909670773639 -0.46039718082621561 0 0.1927292200003092 -0.45666790835357102 0 0.1955652389629654 -0.47833395417678298 0 0.1927292200003092 -0.45666790835357102 0 0.1955652389629654 -0.47833395417678298 0 0.19047701204926121 -0.46094242075341862 0 0.1927292200003092 -0.45666790835357102 0 0.20496909670773639 -0.46039718082621561 0 0.1927292200003092 -0.45666790835357102 0 0.20202636709778779 -0.45196992376671852 0 0.19047701204926121 -0.46094242075341862 0 0.1927292200003092 -0.45666790835357102 0 0.1876592352144193 -0.45673372923780892 0 0.1927292200003092 -0.45666790835357102 0 0.1876592352144193 -0.45673372923780892 0 0.18777566972406101 -0.44981142861604279 0 0.1927292200003092 -0.45666790835357102 0 0.19595067699787469 -0.4453334870477933 0 0.18989320103765239 -0.43500186253035911 0 0.1927292200003092 -0.45666790835357102 0 0.18989320103765239 -0.43500186253035911 0 0.1927292200003092 -0.45666790835357102 0 0.18777566972406101 -0.44981142861604279 0 0.18989320103765239 -0.43500186253035911 0 0.19521760998379711 -0.43854214036159178 0 0.19595067699787469 -0.4453334870477933 0 0.1916906899727929 -0.43609695451772118 0 0.19595067699787469 -0.4453334870477933 0 0.1916906899727929 -0.43609695451772118 0 0.18989320103765239 -0.43500186253035911 0 0.19521760998379711 -0.43854214036159178 0 0.19821003569121751 -0.44088076654097252 0 0.19595067699787469 -0.4453334870477933 0 0.19821003569121751 -0.44088076654097252 0 0.20306963394956029 -0.44528763306514119 0 0.19595067699787469 -0.4453334870477933 0 0.19821003569121751 -0.44088076654097252 0 0.20306963394956029 -0.44528763306514119 0 0.2014143480821905 -0.43583764373848299 0 0.19521760998379711 -0.43854214036159178 0 0.19821003569121751 -0.44088076654097252 0 0.19632921389935129 -0.43529695882979857 0 0.20306963394956029 -0.44528763306514119 0 0.20202636709778779 -0.45196992376671852 0 0.19595067699787469 -0.4453334870477933 0 0.1927292200003092 -0.45666790835357102 0 0.20202636709778779 -0.45196992376671852 0 0.19595067699787469 -0.4453334870477933 0 0.18989320103765239 -0.43500186253035911 0 0.193210065479164 -0.42351508711829272 0 0.18667504034831339 -0.41041640739772162 0 0.18989320103765239 -0.43500186253035911 0 0.18667504034831339 -0.41041640739772162 0 0.1973860855611401 -0.42692030526330021 0 0.193210065479164 -0.42351508711829272 0 0.19846083006015189 -0.42045811652912207 0 0.1973860855611401 -0.42692030526330021 0 0.19846083006015189 -0.42045811652912207 0 0.20326441538295181 -0.42746054266679712 0 0.1973860855611401 -0.42692030526330021 0 0.19826447490927249 -0.43151164360587502 0 0.20326441538295181 -0.42746054266679712 0 0.2014143480821905 -0.43583764373848299 0 0.19826447490927249 -0.43151164360587502 0 0.20326441538295181 -0.42746054266679712 0 0.19821003569121751 -0.44088076654097252 0 0.2014143480821905 -0.43583764373848299 0 0.19632921389935129 -0.43529695882979857 0 0.2014143480821905 -0.43583764373848299 0 0.19632921389935129 -0.43529695882979857 0 0.19826447490927249 -0.43151164360587502 0 0.19632921389935129 -0.43529695882979857 0 0.19826447490927249 -0.43151164360587502 0 0.1929283116207289 -0.43204276753099607 0 0.1973860855611401 -0.42692030526330021 0 0.19826447490927249 -0.43151164360587502 0 0.1929283116207289 -0.43204276753099607 0 0.1929283116207289 -0.43204276753099607 0 0.18989320103765239 -0.43500186253035911 0 0.193210065479164 -0.42351508711829272 0 0.19521760998379711 -0.43854214036159178 0 0.19632921389935129 -0.43529695882979857 0 0.19377820557052011 -0.43520734882518619 0 0.19521760998379711 -0.43854214036159178 0 0.19377820557052011 -0.43520734882518619 0 0.1916906899727929 -0.43609695451772118 0 0.19632921389935129 -0.43529695882979857 0 0.1929283116207289 -0.43204276753099607 0 0.19377820557052011 -0.43520734882518619 0 0.1929283116207289 -0.43204276753099607 0 0.19210490899723079 -0.4345610298626873 0 0.18989320103765239 -0.43500186253035911 0 0.19377820557052011 -0.43520734882518619 0 0.19210490899723079 -0.4345610298626873 0 0.1916906899727929 -0.43609695451772118 0 0.1929283116207289 -0.43204276753099607 0 0.19377820557052011 -0.43520734882518619 0 0.19210490899723079 -0.4345610298626873 0 0.1916906899727929 -0.43609695451772118 0 0.18989320103765239 -0.43500186253035911 0 0.19210490899723079 -0.4345610298626873 0 0.1916906899727929 -0.43609695451772118 0 0.18989320103765239 -0.43500186253035911 0 0.1973860855611401 -0.42692030526330021 0 0.1929283116207289 -0.43204276753099607 0 0.193210065479164 -0.42351508711829272 0 0.193210065479164 -0.42351508711829272 0 0.1939169242469973 -0.41625106345825691 0 0.18667504034831339 -0.41041640739772162 0 0.193210065479164 -0.42351508711829272 0 0.1939169242469973 -0.41625106345825691 0 0.19846083006015189 -0.42045811652912207 0 0.1968341740193896 -0.41150644481021997 0 0.19418069224578771 -0.40518464808912641 0 0.18667504034831339 -0.41041640739772162 0 0.1939169242469973 -0.41625106345825691 0 0.1968341740193896 -0.41150644481021997 0 0.18667504034831339 -0.41041640739772162 0 0.1968341740193896 -0.41150644481021997 0 0.20469814770209749 -0.41520386531910081 0 0.20485234226760879 -0.40188257102108682 0 0.19846083006015189 -0.42045811652912207 0 0.20469814770209749 -0.41520386531910081 0 0.20326441538295181 -0.42746054266679712 0 0.1939169242469973 -0.41625106345825691 0 0.1968341740193896 -0.41150644481021997 0 0.19846083006015189 -0.42045811652912207 0 0.1968341740193896 -0.41150644481021997 0 0.19846083006015189 -0.42045811652912207 0 0.20469814770209749 -0.41520386531910081 0 0.20469814770209749 -0.41520386531910081 0 0.21626227209603979 -0.41615869782113413 0 0.20326441538295181 -0.42746054266679712 0 0.20469814770209749 -0.41520386531910081 0 0.21626227209603979 -0.41615869782113413 0 0.20485234226760879 -0.40188257102108682 0 0.21626227209603979 -0.41615869782113413 0 0.20326441538295181 -0.42746054266679712 0 0.21231789143938981 -0.43260924517595267 0 0.21626227209603979 -0.41615869782113413 0 0.21231789143938981 -0.43260924517595267 0 0.22596778666418391 -0.43195218695593612 0 0.20738663592967541 -0.43977689630152639 0 0.2014143480821905 -0.43583764373848299 0 0.21231789143938981 -0.43260924517595267 0 0.2014143480821905 -0.43583764373848299 0 0.20326441538295181 -0.42746054266679712 0 0.21231789143938981 -0.43260924517595267 0 0.21274467024756119 -0.44537306322652892 0 0.21231789143938981 -0.43260924517595267 0 0.22596778666418391 -0.43195218695593612 0 0.22596778666418391 -0.43195218695593612 0 0.24161391479158839 -0.43048581688246368 0 0.2333640889907381 -0.41241884790723538 0 0.25610826383841628 -0.42120346698794331 0 0.2518592606704963 -0.43815060111373921 0 0.24161391479158839 -0.43048581688246368 0 0.25610826383841628 -0.42120346698794331 0 0.24161391479158839 -0.43048581688246368 0 0.2333640889907381 -0.41241884790723538 0 0.21626227209603979 -0.41615869782113413 0 0.22596778666418391 -0.43195218695593612 0 0.2333640889907381 -0.41241884790723538 0 0.2333640889907381 -0.41241884790723538 0 0.24502858373403441 -0.39146921073642488 0 0.22031030243082139 -0.38906492162812378 0 0.21626227209603979 -0.41615869782113413 0 0.2333640889907381 -0.41241884790723538 0 0.22031030243082139 -0.38906492162812378 0 0.2333640889907381 -0.41241884790723538 0 0.22031030243082139 -0.38906492162812378 0 0.26125098829365018 -0.39969694482297641 0 0.2333640889907381 -0.41241884790723538 0 0.24502858373403441 -0.39146921073642488 0 0.24971336314328341 -0.36520417674804972 0 0.24502858373403441 -0.39146921073642488 0 0.24971336314328341 -0.36520417674804972 0 0.229200177642885 -0.36995291413531828 0 0.24502858373403441 -0.39146921073642488 0 0.229200177642885 -0.36995291413531828 0 0.24502858373403441 -0.39146921073642488 0 0.22031030243082139 -0.38906492162812378 0 0.20725651587090471 -0.36571099534901208 0 0.22031030243082139 -0.38906492162812378 0 0.19952097201101759 -0.38537913368264481 0 0.20725651587090471 -0.36571099534901208 0 0.22031030243082139 -0.38906492162812378 0 0.21626227209603979 -0.41615869782113413 0 0.22031030243082139 -0.38906492162812378 0 0.20485234226760879 -0.40188257102108682 0 0.22031030243082139 -0.38906492162812378 0 0.20485234226760879 -0.40188257102108682 0 0.19952097201101759 -0.38537913368264481 0 0.20485234226760879 -0.40188257102108682 0 0.19159455078491761 -0.39726910731705511 0 0.19952097201101759 -0.38537913368264481 0 0.1968341740193896 -0.41150644481021997 0 0.20485234226760879 -0.40188257102108682 0 0.19418069224578771 -0.40518464808912641 0 0.20485234226760879 -0.40188257102108682 0 0.19418069224578771 -0.40518464808912641 0 0.19159455078491761 -0.39726910731705511 0 0.19418069224578771 -0.40518464808912641 0 0.19159455078491761 -0.39726910731705511 0 0.18667504034831339 -0.41041640739772162 0 0.20725651587090471 -0.36571099534901208 0 0.19261827162763251 -0.374541644607297 0 0.19952097201101759 -0.38537913368264481 0 0.19261827162763251 -0.374541644607297 0 0.19952097201101759 -0.38537913368264481 0 0.1834568796589737 -0.38583095226508418 0 0.19159455078491761 -0.39726910731705511 0 0.19952097201101759 -0.38537913368264481 0 0.1834568796589737 -0.38583095226508418 0 0.17443949437422429 -0.37745336578486988 0 0.18306199361292941 -0.40184547908877583 0 0.1834568796589737 -0.38583095226508418 0 0.17443949437422429 -0.37745336578486988 0 0.18306199361292941 -0.40184547908877583 0 0.17443949437422429 -0.37745336578486988 0 0.18306199361292941 -0.40184547908877583 0 0.1699565165384864 -0.39219147373696051 0 0.19159455078491761 -0.39726910731705511 0 0.1834568796589737 -0.38583095226508418 0 0.18667504034831339 -0.41041640739772162 0 0.1834568796589737 -0.38583095226508418 0 0.18667504034831339 -0.41041640739772162 0 0.1834568796589737 -0.38583095226508418 0 0.18306199361292941 -0.40184547908877583 0 0.18667504034831339 -0.41041640739772162 0 0.18306199361292941 -0.40184547908877583 0 0.1699565165384864 -0.39219147373696051 0 0.17103987791038719 -0.40450309618882169 0 0.18306199361292941 -0.40184547908877583 0 0.17103987791038719 -0.40450309618882169 0 0.1814131781600461 -0.40758752999736902 0 0.1699565165384864 -0.39219147373696051 0 0.17103987791038719 -0.40450309618882169 0 0.15993177942481909 -0.39557864441750712 0 0.17103987791038719 -0.40450309618882169 0 0.15993177942481909 -0.39557864441750712 0 0.14638679418839309 -0.40849626541203388 0 0.1699565165384864 -0.39219147373696051 0 0.15993177942481909 -0.39557864441750712 0 0.1595700277473481 -0.38298567724053401 0 0.17443949437422429 -0.37745336578486988 0 0.1699565165384864 -0.39219147373696051 0 0.1595700277473481 -0.38298567724053401 0 0.1602354860011011 -0.36875954027416918 0 0.17443949437422429 -0.37745336578486988 0 0.1595700277473481 -0.38298567724053401 0 0.1602354860011011 -0.36875954027416918 0 0.14673951295096799 -0.37363029079717242 0 0.1595700277473481 -0.38298567724053401 0 0.14673951295096799 -0.37363029079717242 0 0.1595700277473481 -0.38298567724053401 0 0.14586341328622179 -0.39002728499933198 0 0.14673951295096799 -0.37363029079717242 0 0.14586341328622179 -0.39002728499933198 0 0.13273239812562251 -0.3803535413873157 0 0.15993177942481909 -0.39557864441750712 0 0.1595700277473481 -0.38298567724053401 0 0.14586341328622179 -0.39002728499933198 0 0.14586341328622179 -0.39002728499933198 0 0.13273239812562251 -0.3803535413873157 0 0.12412735500694751 -0.39493505064503392 0 0.13273239812562251 -0.3803535413873157 0 0.12412735500694751 -0.39493505064503392 0 0.1208593498238435 -0.38006314209191833 0 0.14586341328622179 -0.39002728499933198 0 0.14638679418839309 -0.40849626541203388 0 0.12412735500694751 -0.39493505064503392 0 0.14638679418839309 -0.40849626541203388 0 0.1185943653130178 -0.41089393958744808 0 0.12412735500694751 -0.39493505064503392 0 0.14638679418839309 -0.40849626541203388 0 0.12412735500694751 -0.39493505064503392 0 0.15993177942481909 -0.39557864441750712 0 0.14586341328622179 -0.39002728499933198 0 0.14638679418839309 -0.40849626541203388 0 0.14638679418839309 -0.40849626541203388 0 0.12945713117598301 -0.42527718494859718 0 0.1185943653130178 -0.41089393958744808 0 0.12945713117598301 -0.42527718494859718 0 0.1521605439778134 -0.43517333823265708 0 0.13567485458578729 -0.448289196286278 0 0.14638679418839309 -0.40849626541203388 0 0.12945713117598301 -0.42527718494859718 0 0.1521605439778134 -0.43517333823265708 0 0.14638679418839309 -0.40849626541203388 0 0.1521605439778134 -0.43517333823265708 0 0.16864623336983819 -0.42205748017903449 0 0.1521605439778134 -0.43517333823265708 0 0.16864623336983819 -0.42205748017903449 0 0.1521605439778134 -0.43517333823265708 0 0.16864623336983819 -0.42205748017903449 0 0.16573483381671769 -0.43911683261624462 0 0.16864623336983819 -0.42205748017903449 0 0.17670256027174869 -0.43608133600128551 0 0.16573483381671769 -0.43911683261624462 0 0.17103987791038719 -0.40450309618882169 0 0.14638679418839309 -0.40849626541203388 0 0.16962733287145829 -0.41306172809692981 0 0.14638679418839309 -0.40849626541203388 0 0.16864623336983819 -0.42205748017903449 0 0.14638679418839309 -0.40849626541203388 0 0.16864623336983819 -0.42205748017903449 0 0.16962733287145829 -0.41306172809692981 0 0.16864623336983819 -0.42205748017903449 0 0.17965678171287719 -0.41329759239238029 0 0.18989320103765239 -0.43500186253035911 0 0.17965678171287719 -0.41329759239238029 0 0.18667504034831339 -0.41041640739772162 0 0.16864623336983819 -0.42205748017903449 0 0.16962733287145829 -0.41306172809692981 0 0.17965678171287719 -0.41329759239238029 0 0.17103987791038719 -0.40450309618882169 0 0.16962733287145829 -0.41306172809692981 0 0.17965678171287719 -0.41329759239238029 0 0.17103987791038719 -0.40450309618882169 0 0.17965678171287719 -0.41329759239238029 0 0.1814131781600461 -0.40758752999736902 0 0.18306199361292941 -0.40184547908877583 0 0.1814131781600461 -0.40758752999736902 0 0.18667504034831339 -0.41041640739772162 0 0.17965678171287719 -0.41329759239238029 0 0.1814131781600461 -0.40758752999736902 0 0.18667504034831339 -0.41041640739772162 0 0.18989320103765239 -0.43500186253035911 0 0.16864623336983819 -0.42205748017903449 0 0.18989320103765239 -0.43500186253035911 0 0.16864623336983819 -0.42205748017903449 0 0.17965678171287719 -0.41329759239238029 0 0.18989320103765239 -0.43500186253035911 0 0.16864623336983819 -0.42205748017903449 0 0.17670256027174869 -0.43608133600128551 0 0.18989320103765239 -0.43500186253035911 0 0.17670256027174869 -0.43608133600128551 0 0.18208037526260021 -0.440172852945236 0 0.17851738694434799 -0.45081987712854771 0 0.17618275988476059 -0.44374183802639611 0 0.18401323307134959 -0.44581129240036288 0 0.17851738694434799 -0.45081987712854771 0 0.1776998484129505 -0.456552179461992 0 0.17120073938054131 -0.45123220200337888 0 0.17851738694434799 -0.45081987712854771 0 0.17618275988476059 -0.44374183802639611 0 0.17120073938054131 -0.45123220200337888 0 0.17670256027174869 -0.43608133600128551 0 0.17618275988476059 -0.44374183802639611 0 0.16573483381671769 -0.43911683261624462 0 0.17670256027174869 -0.43608133600128551 0 0.17618275988476059 -0.44374183802639611 0 0.18208037526260021 -0.440172852945236 0 0.18989320103765239 -0.43500186253035911 0 0.18208037526260021 -0.440172852945236 0 0.18401323307134959 -0.44581129240036288 0 0.18777566972406101 -0.44981142861604279 0 0.18989320103765239 -0.43500186253035911 0 0.18401323307134959 -0.44581129240036288 0 0.17618275988476059 -0.44374183802639611 0 0.18208037526260021 -0.440172852945236 0 0.18401323307134959 -0.44581129240036288 0 0.18777566972406101 -0.44981142861604279 0 0.18401323307134959 -0.44581129240036288 0 0.18385690407389799 -0.45446609953290928 0 0.17851738694434799 -0.45081987712854771 0 0.18401323307134959 -0.44581129240036288 0 0.18385690407389799 -0.45446609953290928 0 0.19047701204926121 -0.46094242075341862 0 0.1876592352144193 -0.45673372923780892 0 0.1806900259799068 -0.46227126151247672 0 0.1876592352144193 -0.45673372923780892 0 0.18777566972406101 -0.44981142861604279 0 0.18385690407389799 -0.45446609953290928 0 0.19047701204926121 -0.46094242075341862 0 0.1806900259799068 -0.46227126151247672 0 0.17298031468751371 -0.48047121037671059 0 0.1876592352144193 -0.45673372923780892 0 0.18385690407389799 -0.45446609953290928 0 0.1806900259799068 -0.46227126151247672 0 0.18385690407389799 -0.45446609953290928 0 0.1806900259799068 -0.46227126151247672 0 0.1776998484129505 -0.456552179461992 0 0.17851738694434799 -0.45081987712854771 0 0.18385690407389799 -0.45446609953290928 0 0.1776998484129505 -0.456552179461992 0 0.1806900259799068 -0.46227126151247672 0 0.1776998484129505 -0.456552179461992 0 0.17146684144139809 -0.46446192971202138 0 0.1776998484129505 -0.456552179461992 0 0.17146684144139809 -0.46446192971202138 0 0.17120073938054131 -0.45123220200337888 0 0.17146684144139809 -0.46446192971202138 0 0.15759213853868431 -0.45113306297151079 0 0.14900727366634989 -0.46501884712825781 0 0.17146684144139809 -0.46446192971202138 0 0.15759213853868431 -0.45113306297151079 0 0.17120073938054131 -0.45123220200337888 0 0.1521605439778134 -0.43517333823265708 0 0.15759213853868431 -0.45113306297151079 0 0.16573483381671769 -0.43911683261624462 0 0.15759213853868431 -0.45113306297151079 0 0.17120073938054131 -0.45123220200337888 0 0.16573483381671769 -0.43911683261624462 0 0.17618275988476059 -0.44374183802639611 0 0.17120073938054131 -0.45123220200337888 0 0.16573483381671769 -0.43911683261624462 0 0.1521605439778134 -0.43517333823265708 0 0.15759213853868431 -0.45113306297151079 0 0.13567485458578729 -0.448289196286278 0 0.1521605439778134 -0.43517333823265708 0 0.13567485458578729 -0.448289196286278 0 0.13567485458578729 -0.448289196286278 0 0.1191891651937612 -0.46140505433989892 0 0.12203304576274319 -0.43975504748265359 0 0.12945713117598301 -0.42527718494859718 0 0.13567485458578729 -0.448289196286278 0 0.12203304576274319 -0.43975504748265359 0 0.13567485458578729 -0.448289196286278 0 0.1191891651937612 -0.46140505433989892 0 0.13567485458578729 -0.448289196286278 0 0.13480127744719991 -0.46410976413563299 0 0.1191891651937612 -0.46140505433989892 0 0.13567485458578729 -0.448289196286278 0 0.13480127744719991 -0.46410976413563299 0 0.14900727366634989 -0.46501884712825781 0 0.15759213853868431 -0.45113306297151079 0 0.13567485458578729 -0.448289196286278 0 0.14900727366634989 -0.46501884712825781 0 0.14900727366634989 -0.46501884712825781 0 0.15577652408963519 -0.48266000469618581 0 0.13873200589539489 -0.47945912496791759 0 0.13480127744719991 -0.46410976413563299 0 0.14900727366634989 -0.46501884712825781 0 0.13873200589539489 -0.47945912496791759 0 0.13480127744719991 -0.46410976413563299 0 0.13873200589539489 -0.47945912496791759 0 0.11801755443736479 -0.48060781756800708 0 0.13873200589539489 -0.47945912496791759 0 0.13581988522262109 -0.50000000000000244 0 0.11801755443736479 -0.48060781756800708 0 0.13581988522262109 -0.50000000000000244 0 0.11801755443736479 -0.48060781756800708 0 0.15577652408963519 -0.48266000469618581 0 0.13873200589539489 -0.47945912496791759 0 0.13581988522262109 -0.50000000000000244 0 0.15577652408963519 -0.48266000469618581 0 0.13581988522262109 -0.50000000000000244 0 0.15548361732576529 -0.50000000000000178 0 0.15577652408963519 -0.48266000469618581 0 0.15548361732576529 -0.50000000000000178 0 0.17298031468751371 -0.48047121037671059 0 0.15548361732576529 -0.50000000000000178 0 0.17298031468751371 -0.48047121037671059 0 0.1769424376256932 -0.5 0 0.15548361732576529 -0.50000000000000178 0 0.17298031468751371 -0.48047121037671059 0 0.17146684144139809 -0.46446192971202138 0 0.15577652408963519 -0.48266000469618581 0 0.17298031468751371 -0.48047121037671059 0 0.17146684144139809 -0.46446192971202138 0 0.14900727366634989 -0.46501884712825781 0 0.15577652408963519 -0.48266000469618581 0 0.19047701204926121 -0.46094242075341862 0 0.17298031468751371 -0.48047121037671059 0 0.1806900259799068 -0.46227126151247672 0 0.17146684144139809 -0.46446192971202138 0 0.17298031468751371 -0.48047121037671059 0 0.1955652389629654 -0.47833395417678298 0 0.19047701204926121 -0.46094242075341862 0 0.17298031468751371 -0.48047121037671059 0 0.1955652389629654 -0.47833395417678298 0 0.17298031468751371 -0.48047121037671059 0 0.1857239970351309 -0.48926605560099218 0 0.19840125792562099 -0.499999999999995 0 0.1857239970351309 -0.48926605560099218 0 0.1769424376256932 -0.5 0 0.17298031468751371 -0.48047121037671059 0 0.1857239970351309 -0.48926605560099218 0 0.1769424376256932 -0.5 0 0.074737975103940479 -0.48487994098964171 0 0.071046826552429457 -0.50000000000000733 0 0.059434139084113012 -0.47963991399004141 0 0.071046826552429457 -0.50000000000000733 0 0.059434139084113012 -0.47963991399004141 0 0.074737975103940479 -0.48487994098964171 0 0.05802097188470097 -0.46975988197928431 0 0.059434139084113012 -0.47963991399004141 0 0.074737975103940479 -0.48487994098964171 0 0.071955909258469009 -0.46877079283141743 0 0.05802097188470097 -0.46975988197928431 0 0.074737975103940479 -0.48487994098964171 0 0.071955909258469009 -0.46877079283141743 0 0.082737354296077953 -0.47427357099325013 0 0.074737975103940479 -0.48487994098964171 0 0.05802097188470097 -0.46975988197928431 0 0.074737975103940479 -0.48487994098964171 0 0.082737354296077953 -0.47427357099325013 0 0.094811061721812542 -0.48112121468145302 0 0.082737354296077953 -0.47427357099325013 0 0.094811061721812542 -0.48112121468145302 0 0.1002152236521098 -0.46121563513601083 0 0.074737975103940479 -0.48487994098964171 0 0.091454978323179614 -0.49999999999999939 0 0.094811061721812542 -0.48112121468145302 0 0.074737975103940479 -0.48487994098964171 0 0.091454978323179614 -0.49999999999999939 0 0.074737975103940479 -0.48487994098964171 0 0.071046826552429457 -0.50000000000000733 0 0.091454978323179614 -0.49999999999999939 0 0.1136374317729003 -0.5 0 0.11801755443736479 -0.48060781756800708 0 0.094811061721812542 -0.48112121468145302 0 0.091454978323179614 -0.49999999999999939 0 0.1136374317729003 -0.5 0 0.094811061721812542 -0.48112121468145302 0 0.13581988522262109 -0.50000000000000244 0 0.1136374317729003 -0.5 0 0.11801755443736479 -0.48060781756800708 0 0.11801755443736479 -0.48060781756800708 0 0.094811061721812542 -0.48112121468145302 0 0.1002152236521098 -0.46121563513601083 0 0.11801755443736479 -0.48060781756800708 0 0.1002152236521098 -0.46121563513601083 0 0.1002152236521098 -0.46121563513601083 0 0.1191891651937612 -0.46140505433989892 0 0.1082504500781146 -0.44478934181291102 0 0.11801755443736479 -0.48060781756800708 0 0.1002152236521098 -0.46121563513601083 0 0.1191891651937612 -0.46140505433989892 0 0.13480127744719991 -0.46410976413563299 0 0.11801755443736479 -0.48060781756800708 0 0.1191891651937612 -0.46140505433989892 0 0.1191891651937612 -0.46140505433989892 0 0.12203304576274319 -0.43975504748265359 0 0.1082504500781146 -0.44478934181291102 0 0.1002152236521098 -0.46121563513601083 0 0.1082504500781146 -0.44478934181291102 0 0.082412892866854714 -0.44182345270401441 0 0.1002152236521098 -0.46121563513601083 0 0.082412892866854714 -0.44182345270401441 0 0.082737354296077953 -0.47427357099325013 0 0.1002152236521098 -0.46121563513601083 0 0.07989865607697158 -0.46093656822545309 0 0.1002152236521098 -0.46121563513601083 0 0.082412892866854714 -0.44182345270401441 0 0.07989865607697158 -0.46093656822545309 0 0.071955909258469009 -0.46877079283141743 0 0.082737354296077953 -0.47427357099325013 0 0.07989865607697158 -0.46093656822545309 0 0.071955909258469009 -0.46877079283141743 0 0.07989865607697158 -0.46093656822545309 0 0.064942869781788204 -0.45298741250561531 0 0.071955909258469009 -0.46877079283141743 0 0.064942869781788204 -0.45298741250561531 0 0.05802097188470097 -0.46975988197928431 0 0.082412892866854714 -0.44182345270401441 0 0.07989865607697158 -0.46093656822545309 0 0.064942869781788204 -0.45298741250561531 0 0.082412892866854714 -0.44182345270401441 0 0.064942869781788204 -0.45298741250561531 0 0.064610562081599654 -0.42243127027201799 0 0.082412892866854714 -0.44182345270401441 0 0.064610562081599654 -0.42243127027201799 0 0.085410796704641828 -0.41553833344022301 0 0.082412892866854714 -0.44182345270401441 0 0.064610562081599654 -0.42243127027201799 0 0.064610562081599654 -0.42243127027201799 0 0.085410796704641828 -0.41553833344022301 0 0.071260751408415451 -0.40583032332525898 0 0.082412892866854714 -0.44182345270401441 0 0.085410796704641828 -0.41553833344022301 0 0.10565257718969159 -0.42402980380391259 0 0.1082504500781146 -0.44478934181291102 0 0.10565257718969159 -0.42402980380391259 0 0.1082504500781146 -0.44478934181291102 0 0.082412892866854714 -0.44182345270401441 0 0.10565257718969159 -0.42402980380391259 0 0.12203304576274319 -0.43975504748265359 0 0.1082504500781146 -0.44478934181291102 0 0.10565257718969159 -0.42402980380391259 0 0.12945713117598301 -0.42527718494859718 0 0.12203304576274319 -0.43975504748265359 0 0.10565257718969159 -0.42402980380391259 0 0.12945713117598301 -0.42527718494859718 0 0.10565257718969159 -0.42402980380391259 0 0.1185943653130178 -0.41089393958744808 0 0.10565257718969159 -0.42402980380391259 0 0.10305470430126849 -0.40327026579491432 0 0.10565257718969159 -0.42402980380391259 0 0.1185943653130178 -0.41089393958744808 0 0.10305470430126849 -0.40327026579491432 0 0.085410796704641828 -0.41553833344022301 0 0.10565257718969159 -0.42402980380391259 0 0.10305470430126849 -0.40327026579491432 0 0.10305470430126849 -0.40327026579491432 0 0.1092296532162271 -0.39195520602732847 0 0.1018679158255022 -0.38137383587803358 0 0.10305470430126849 -0.40327026579491432 0 0.1018679158255022 -0.38137383587803358 0 0.084827885114816814 -0.39510276155480978 0 0.10305470430126849 -0.40327026579491432 0 0.1018679158255022 -0.38137383587803358 0 0.1185943653130178 -0.41089393958744808 0 0.10305470430126849 -0.40327026579491432 0 0.1092296532162271 -0.39195520602732847 0 0.1185943653130178 -0.41089393958744808 0 0.1092296532162271 -0.39195520602732847 0 0.12412735500694751 -0.39493505064503392 0 0.12412735500694751 -0.39493505064503392 0 0.1208593498238435 -0.38006314209191833 0 0.1018679158255022 -0.38137383587803358 0 0.1092296532162271 -0.39195520602732847 0 0.12412735500694751 -0.39493505064503392 0 0.1018679158255022 -0.38137383587803358 0 0.12412735500694751 -0.39493505064503392 0 0.1018679158255022 -0.38137383587803358 0 0.1208593498238435 -0.38006314209191833 0 0.1018679158255022 -0.38137383587803358 0 0.12334710111447229 -0.36406834251145731 0 0.1018679158255022 -0.38137383587803358 0 0.1001863568717406 -0.38034937241650962 0 0.10879209213087419 -0.36797725762153549 0 0.1018679158255022 -0.38137383587803358 0 0.1001863568717406 -0.38034937241650962 0 0.092680417082859706 -0.38189565836938699 0 0.1018679158255022 -0.38137383587803358 0 0.1001863568717406 -0.38034937241650962 0 0.1001863568717406 -0.38034937241650962 0 0.092680417082859706 -0.38189565836938699 0 0.078941289569781151 -0.36740614783332631 0 0.1018679158255022 -0.38137383587803358 0 0.084827885114816814 -0.39510276155480978 0 0.1018679158255022 -0.38137383587803358 0 0.092680417082859706 -0.38189565836938699 0 0.084827885114816814 -0.39510276155480978 0 0.083667078469080447 -0.3817485906143725 0 0.076461538166658155 -0.38231907318138902 0 0.078941289569781151 -0.36740614783332631 0 0.092680417082859706 -0.38189565836938699 0 0.083667078469080447 -0.3817485906143725 0 0.078941289569781151 -0.36740614783332631 0 0.084827885114816814 -0.39510276155480978 0 0.073546264855348126 -0.39398280964304111 0 0.076461538166658155 -0.38231907318138902 0 0.083667078469080447 -0.3817485906143725 0 0.084827885114816814 -0.39510276155480978 0 0.076461538166658155 -0.38231907318138902 0 0.092680417082859706 -0.38189565836938699 0 0.083667078469080447 -0.3817485906143725 0 0.084827885114816814 -0.39510276155480978 0 0.085410796704641828 -0.41553833344022301 0 0.10305470430126849 -0.40327026579491432 0 0.084827885114816814 -0.39510276155480978 0 0.085410796704641828 -0.41553833344022301 0 0.084827885114816814 -0.39510276155480978 0 0.071260751408415451 -0.40583032332525898 0 0.084827885114816814 -0.39510276155480978 0 0.073546264855348126 -0.39398280964304111 0 0.071260751408415451 -0.40583032332525898 0 0.073546264855348126 -0.39398280964304111 0 0.071260751408415451 -0.40583032332525898 0 0.061634884731502082 -0.39267908051070671 0 0.076461538166658155 -0.38231907318138902 0 0.061634884731502082 -0.39267908051070671 0 0.076461538166658155 -0.38231907318138902 0 0.061634884731502082 -0.39267908051070671 0 0.061904282875925747 -0.37237526148823941 0 0.073546264855348126 -0.39398280964304111 0 0.076461538166658155 -0.38231907318138902 0 0.061634884731502082 -0.39267908051070671 0 0.051370350477500881 -0.3764161884637201 0 0.045801185216693012 -0.38580832539780119 0 0.043663507306638913 -0.36868104746756258 0 0.051370350477500881 -0.3764161884637201 0 0.061634884731502082 -0.39267908051070671 0 0.045801185216693012 -0.38580832539780119 0 0.051370350477500881 -0.3764161884637201 0 0.061634884731502082 -0.39267908051070671 0 0.061904282875925747 -0.37237526148823941 0 0.071260751408415451 -0.40583032332525898 0 0.061634884731502082 -0.39267908051070671 0 0.04680823129634433 -0.40303908784002201 0 0.061634884731502082 -0.39267908051070671 0 0.04680823129634433 -0.40303908784002201 0 0.045801185216693012 -0.38580832539780119 0 0.061634884731502082 -0.39267908051070671 0 0.04680823129634433 -0.40303908784002201 0 0.04680823129634433 -0.40303908784002201 0 0.02837172461734 -0.38295609391969199 0 0.04680823129634433 -0.40303908784002201 0 0.02837172461734 -0.38295609391969199 0 0.028215565298714249 -0.40094151263492078 0 0.045801185216693012 -0.38580832539780119 0 0.02837172461734 -0.38295609391969199 0 0.043663507306638913 -0.36868104746756258 0 0.04680823129634433 -0.40303908784002201 0 0.045801185216693012 -0.38580832539780119 0 0.02837172461734 -0.38295609391969199 0 0.02837172461734 -0.38295609391969199 0 0.0122991559467155 -0.37891225603134221 0 0.011208636448502229 -0.39508796301279092 0 -0.002178803782163227 -0.37161627006544062 0 0.0122991559467155 -0.37891225603134221 0 0.011208636448502229 -0.39508796301279092 0 -0.002178803782163227 -0.37161627006544062 0 0.011208636448502229 -0.39508796301279092 0 -0.002178803782163227 -0.37161627006544062 0 -0.0066930742226519926 -0.39143820132839208 0 0.011208636448502229 -0.39508796301279092 0 -0.001728596279610697 -0.40597762003102339 0 0.011208636448502229 -0.39508796301279092 0 0.0082246319185010179 -0.41465428951275207 0 -0.0066930742226519926 -0.39143820132839208 0 -0.001728596279610697 -0.40597762003102339 0 0.011208636448502229 -0.39508796301279092 0 0.011208636448502229 -0.39508796301279092 0 0.028215565298714249 -0.40094151263492078 0 0.024596076679173799 -0.41855965596013778 0 0.02837172461734 -0.38295609391969199 0 0.011208636448502229 -0.39508796301279092 0 0.028215565298714249 -0.40094151263492078 0 0.011208636448502229 -0.39508796301279092 0 0.024596076679173799 -0.41855965596013778 0 0.011208636448502229 -0.39508796301279092 0 0.024596076679173799 -0.41855965596013778 0 0.0082246319185010179 -0.41465428951275207 0 0.024596076679173799 -0.41855965596013778 0 0.0082246319185010179 -0.41465428951275207 0 0.01039378864355619 -0.42848339288335913 0 -0.009537301248459449 -0.42510302968362512 0 0.0082246319185010179 -0.41465428951275207 0 0.01039378864355619 -0.42848339288335913 0 0.024596076679173799 -0.41855965596013778 0 0.036208764147486278 -0.43891974197010591 0 0.024596076679173799 -0.41855965596013778 0 0.036208764147486278 -0.43891974197010591 0 0.020713539006084219 -0.44010250100644183 0 0.024596076679173799 -0.41855965596013778 0 0.01039378864355619 -0.42848339288335913 0 0.020713539006084219 -0.44010250100644183 0 0.024596076679173799 -0.41855965596013778 0 0.01039378864355619 -0.42848339288335913 0 0.024596076679173799 -0.41855965596013778 0 0.043950702345966319 -0.42295947833088071 0 0.036208764147486278 -0.43891974197010591 0 0.043950702345966319 -0.42295947833088071 0 0.051347790295756007 -0.43901682978775403 0 0.036208764147486278 -0.43891974197010591 0 0.04680823129634433 -0.40303908784002201 0 0.024596076679173799 -0.41855965596013778 0 0.04680823129634433 -0.40303908784002201 0 0.028215565298714249 -0.40094151263492078 0 0.024596076679173799 -0.41855965596013778 0 0.04680823129634433 -0.40303908784002201 0 0.024596076679173799 -0.41855965596013778 0 0.043950702345966319 -0.42295947833088071 0 0.064610562081599654 -0.42243127027201799 0 0.071260751408415451 -0.40583032332525898 0 0.04680823129634433 -0.40303908784002201 0 0.064610562081599654 -0.42243127027201799 0 0.04680823129634433 -0.40303908784002201 0 0.064610562081599654 -0.42243127027201799 0 0.04680823129634433 -0.40303908784002201 0 0.043950702345966319 -0.42295947833088071 0 0.064610562081599654 -0.42243127027201799 0 0.043950702345966319 -0.42295947833088071 0 0.051347790295756007 -0.43901682978775403 0 0.064942869781788204 -0.45298741250561531 0 0.064610562081599654 -0.42243127027201799 0 0.051347790295756007 -0.43901682978775403 0 0.064942869781788204 -0.45298741250561531 0 0.051347790295756007 -0.43901682978775403 0 0.047821451615799627 -0.45927982798007361 0 0.064942869781788204 -0.45298741250561531 0 0.047821451615799627 -0.45927982798007361 0 0.05802097188470097 -0.46975988197928431 0 0.047821451615799627 -0.45927982798007361 0 0.023714967739582489 -0.4565662814222432 0 0.032020960621095843 -0.47777188036233098 0 0.047821451615799627 -0.45927982798007361 0 0.036208764147486278 -0.43891974197010591 0 0.051347790295756007 -0.43901682978775403 0 0.047821451615799627 -0.45927982798007361 0 0.036208764147486278 -0.43891974197010591 0 0.047821451615799627 -0.45927982798007361 0 0.036208764147486278 -0.43891974197010591 0 0.023714967739582489 -0.4565662814222432 0 0.036208764147486278 -0.43891974197010591 0 0.020713539006084219 -0.44010250100644183 0 0.023714967739582489 -0.4565662814222432 0 -0.0013374034004768371 -0.44947558896604423 0 0.01039378864355619 -0.42848339288335913 0 0.020713539006084219 -0.44010250100644183 0 -0.0013374034004768371 -0.44947558896604423 0 0.020713539006084219 -0.44010250100644183 0 0.023714967739582489 -0.4565662814222432 0 -0.0013374034004768371 -0.44947558896604423 0 0.0068624944475057766 -0.47384814824846327 0 -0.0013374034004768371 -0.44947558896604423 0 0.023714967739582489 -0.4565662814222432 0 0.0068624944475057766 -0.47384814824846327 0 0.023714967739582489 -0.4565662814222432 0 0.0068624944475057766 -0.47384814824846327 0 0.032020960621095843 -0.47777188036233098 0 0.0068624944475057766 -0.47384814824846327 0 0.0150623922954884 -0.49822070753088238 0 0.032020960621095843 -0.47777188036233098 0 -0.015217900669161011 -0.5 0 0.0024053695883212941 -0.48891336768777249 0 0.013537008404702511 -0.5 0 0.0068624944475057766 -0.47384814824846327 0 0.0024053695883212941 -0.48891336768777249 0 0.0150623922954884 -0.49822070753088238 0 0.0068624944475057766 -0.47384814824846327 0 0.0150623922954884 -0.49822070753088238 0 0.0024053695883212941 -0.48891336768777249 0 0.0150623922954884 -0.49822070753088238 0 0.013537008404702511 -0.5 0 0.0150623922954884 -0.49822070753088238 0 0.013537008404702511 -0.5 0 0.042291917478565873 -0.5 0 0.0150623922954884 -0.49822070753088238 0 0.042291917478565873 -0.5 0 0.032020960621095843 -0.47777188036233098 0 0.042291917478565873 -0.5 0 0.032020960621095843 -0.47777188036233098 0 0.059434139084113012 -0.47963991399004141 0 0.047821451615799627 -0.45927982798007361 0 0.032020960621095843 -0.47777188036233098 0 0.059434139084113012 -0.47963991399004141 0 0.047821451615799627 -0.45927982798007361 0 0.05802097188470097 -0.46975988197928431 0 0.059434139084113012 -0.47963991399004141 0 0.047821451615799627 -0.45927982798007361 0 0.059434139084113012 -0.47963991399004141 0 0.071046826552429457 -0.50000000000000733 0 0.042291917478565873 -0.5 0 0.059434139084113012 -0.47963991399004141 0 0.078456545354339768 -0.28525100698693651 0 0.075192778843485145 -0.3004755496101415 0 0.095899689397586599 -0.3008291305439913 0 0.078456545354339768 -0.28525100698693651 0 0.095711127176573443 -0.2751242682777974 0 0.095899689397586599 -0.3008291305439913 0 0.075192778843485145 -0.3004755496101415 0 0.095899689397586599 -0.3008291305439913 0 0.074188022781041252 -0.31649930169162399 0 0.095899689397586599 -0.3008291305439913 0 0.074188022781041252 -0.31649930169162399 0 0.075192778843485145 -0.3004755496101415 0 0.074188022781041252 -0.31649930169162399 0 0.058270312985904418 -0.30816514798469019 0 0.075192778843485145 -0.3004755496101415 0 0.068995976747761104 -0.2945131319279734 0 0.058270312985904418 -0.30816514798469019 0 0.068995976747761104 -0.2945131319279734 0 0.064064269807315097 -0.28416082313012542 0 0.058270312985904418 -0.30816514798469019 0 0.078456545354339768 -0.28525100698693651 0 0.075192778843485145 -0.3004755496101415 0 0.068995976747761104 -0.2945131319279734 0 0.078456545354339768 -0.28525100698693651 0 0.068995976747761104 -0.2945131319279734 0 0.064064269807315097 -0.28416082313012542 0 0.064064269807315097 -0.28416082313012542 0 0.069858226628725775 -0.26015649827556059 0 0.078456545354339768 -0.28525100698693651 0 0.064064269807315097 -0.28416082313012542 0 0.069858226628725775 -0.26015649827556059 0 0.069858226628725775 -0.26015649827556059 0 0.095711127176573443 -0.2751242682777974 0 0.096521476943682558 -0.25181800011133371 0 0.078456545354339768 -0.28525100698693651 0 0.069858226628725775 -0.26015649827556059 0 0.095711127176573443 -0.2751242682777974 0 0.095711127176573443 -0.2751242682777974 0 0.114720785939063 -0.26575264298982931 0 0.1176113560141319 -0.2851589593963586 0 0.095711127176573443 -0.2751242682777974 0 0.096521476943682558 -0.25181800011133371 0 0.114720785939063 -0.26575264298982931 0 0.1376178273856396 -0.2676878026278281 0 0.114720785939063 -0.26575264298982931 0 0.1200034520355143 -0.24749468667538321 0 0.096521476943682558 -0.25181800011133371 0 0.114720785939063 -0.26575264298982931 0 0.1200034520355143 -0.24749468667538321 0 0.1376178273856396 -0.2676878026278281 0 0.114720785939063 -0.26575264298982931 0 0.1176113560141319 -0.2851589593963586 0 0.13584279120622419 -0.29064916595208462 0 0.1176113560141319 -0.2851589593963586 0 0.1212075847983899 -0.30357596212866123 0 0.1176113560141319 -0.2851589593963586 0 0.095899689397586599 -0.3008291305439913 0 0.1212075847983899 -0.30357596212866123 0 0.1176113560141319 -0.2851589593963586 0 0.095899689397586599 -0.3008291305439913 0 0.095711127176573443 -0.2751242682777974 0 0.1176113560141319 -0.2851589593963586 0 0.095899689397586599 -0.3008291305439913 0 0.095899689397586599 -0.3008291305439913 0 0.1212075847983899 -0.30357596212866123 0 0.1047724191350739 -0.31963875894108951 0 0.1212075847983899 -0.30357596212866123 0 0.1249111379911398 -0.32186001205002218 0 0.1047724191350739 -0.31963875894108951 0 0.1249111379911398 -0.32186001205002218 0 0.1047724191350739 -0.31963875894108951 0 0.11573058637367541 -0.34380091622275832 0 0.094619564876377599 -0.33586527524184762 0 0.1047724191350739 -0.31963875894108951 0 0.11573058637367541 -0.34380091622275832 0 0.094619564876377599 -0.33586527524184762 0 0.1047724191350739 -0.31963875894108951 0 0.086339338786571823 -0.32698567366184278 0 0.095899689397586599 -0.3008291305439913 0 0.1047724191350739 -0.31963875894108951 0 0.086339338786571823 -0.32698567366184278 0 0.1018679158255022 -0.38137383587803358 0 0.12334710111447229 -0.36406834251145731 0 0.1018679158255022 -0.38137383587803358 0 0.12334710111447229 -0.36406834251145731 0 0.10879209213087419 -0.36797725762153549 0 0.12334710111447229 -0.36406834251145731 0 0.11573058637367541 -0.34380091622275832 0 0.10879209213087419 -0.36797725762153549 0 0.11573058637367541 -0.34380091622275832 0 0.097402960874061584 -0.35810732382917831 0 0.10879209213087419 -0.36797725762153549 0 0.094619564876377599 -0.33586527524184762 0 0.11573058637367541 -0.34380091622275832 0 0.097402960874061584 -0.35810732382917831 0 0.094619564876377599 -0.33586527524184762 0 0.097402960874061584 -0.35810732382917831 0 0.1001863568717406 -0.38034937241650962 0 0.097402960874061584 -0.35810732382917831 0 0.1001863568717406 -0.38034937241650962 0 0.097402960874061584 -0.35810732382917831 0 0.10879209213087419 -0.36797725762153549 0 0.1001863568717406 -0.38034937241650962 0 0.097402960874061584 -0.35810732382917831 0 0.078941289569781151 -0.36740614783332631 0 0.1001863568717406 -0.38034937241650962 0 0.078941289569781151 -0.36740614783332631 0 0.094619564876377599 -0.33586527524184762 0 0.097402960874061584 -0.35810732382917831 0 0.084740357312199394 -0.34701535865000288 0 0.078941289569781151 -0.36740614783332631 0 0.084740357312199394 -0.34701535865000288 0 0.072564810466095128 -0.35396504242622201 0 0.097402960874061584 -0.35810732382917831 0 0.078941289569781151 -0.36740614783332631 0 0.084740357312199394 -0.34701535865000288 0 0.078941289569781151 -0.36740614783332631 0 0.072564810466095128 -0.35396504242622201 0 0.057696222267823373 -0.35446292325014028 0 0.084740357312199394 -0.34701535865000288 0 0.072564810466095128 -0.35396504242622201 0 0.073102422775426085 -0.33909783780230318 0 0.064643683218506637 -0.34920539315333932 0 0.072564810466095128 -0.35396504242622201 0 0.073102422775426085 -0.33909783780230318 0 0.064643683218506637 -0.34920539315333932 0 0.072564810466095128 -0.35396504242622201 0 0.057696222267823373 -0.35446292325014028 0 0.078941289569781151 -0.36740614783332631 0 0.057696222267823373 -0.35446292325014028 0 0.076461538166658155 -0.38231907318138902 0 0.078941289569781151 -0.36740614783332631 0 0.061904282875925747 -0.37237526148823941 0 0.078941289569781151 -0.36740614783332631 0 0.061904282875925747 -0.37237526148823941 0 0.057696222267823373 -0.35446292325014028 0 0.095899689397586599 -0.3008291305439913 0 0.086339338786571823 -0.32698567366184278 0 0.074188022781041252 -0.31649930169162399 0 0.094619564876377599 -0.33586527524184762 0 0.084740357312199394 -0.34701535865000288 0 0.086339338786571823 -0.32698567366184278 0 0.084740357312199394 -0.34701535865000288 0 0.086339338786571823 -0.32698567366184278 0 0.073102422775426085 -0.33909783780230318 0 0.073102422775426085 -0.33909783780230318 0 0.074188022781041252 -0.31649930169162399 0 0.052476356164494947 -0.33216947283925541 0 0.064643683218506637 -0.34920539315333932 0 0.073102422775426085 -0.33909783780230318 0 0.060945063747813971 -0.34285112352430303 0 0.074188022781041252 -0.31649930169162399 0 0.052476356164494947 -0.33216947283925541 0 0.086339338786571823 -0.32698567366184278 0 0.073102422775426085 -0.33909783780230318 0 0.074188022781041252 -0.31649930169162399 0 0.052476356164494947 -0.33216947283925541 0 0.058270312985904418 -0.30816514798469019 0 0.052476356164494947 -0.33216947283925541 0 0.044648526871603783 -0.31770081170742831 0 0.058270312985904418 -0.30816514798469019 0 0.074188022781041252 -0.31649930169162399 0 0.052476356164494947 -0.33216947283925541 0 0.058270312985904418 -0.30816514798469019 0 0.052476356164494947 -0.33216947283925541 0 0.047583047975914103 -0.35244241635483559 0 0.073102422775426085 -0.33909783780230318 0 0.060945063747813971 -0.34285112352430303 0 0.052476356164494947 -0.33216947283925541 0 0.060945063747813971 -0.34285112352430303 0 0.052476356164494947 -0.33216947283925541 0 0.054181307711507642 -0.34983992205818981 0 0.052476356164494947 -0.33216947283925541 0 0.04071506683574927 -0.34065806194451792 0 0.047583047975914103 -0.35244241635483559 0 0.052476356164494947 -0.33216947283925541 0 0.04071506683574927 -0.34065806194451792 0 0.044648526871603783 -0.31770081170742831 0 0.04071506683574927 -0.34065806194451792 0 0.03015636661650286 -0.3225410253719756 0 0.04071506683574927 -0.34065806194451792 0 0.03015636661650286 -0.3225410253719756 0 0.02636863849756152 -0.33688388254537838 0 0.052476356164494947 -0.33216947283925541 0 0.04071506683574927 -0.34065806194451792 0 0.04071506683574927 -0.34065806194451792 0 0.044648526871603783 -0.31770081170742831 0 0.03015636661650286 -0.3225410253719756 0 0.044648526871603783 -0.31770081170742831 0 0.03015636661650286 -0.3225410253719756 0 0.034491627806478041 -0.30853974567073322 0 0.061904282875925747 -0.37237526148823941 0 0.053259535722039633 -0.3641180164926533 0 0.057696222267823373 -0.35446292325014028 0 0.051370350477500881 -0.3764161884637201 0 0.053259535722039633 -0.3641180164926533 0 0.043663507306638913 -0.36868104746756258 0 0.051370350477500881 -0.3764161884637201 0 0.061904282875925747 -0.37237526148823941 0 0.053259535722039633 -0.3641180164926533 0 0.053259535722039633 -0.3641180164926533 0 0.048773826387857627 -0.3544856011778737 0 0.043663507306638913 -0.36868104746756258 0 0.052476356164494947 -0.33216947283925541 0 0.047583047975914103 -0.35244241635483559 0 0.054181307711507642 -0.34983992205818981 0 0.053259535722039633 -0.3641180164926533 0 0.053244657324237762 -0.3582642649149802 0 0.048773826387857627 -0.3544856011778737 0 0.053244657324237762 -0.3582642649149802 0 0.048773826387857627 -0.3544856011778737 0 0.054181307711507642 -0.34983992205818981 0 0.048773826387857627 -0.3544856011778737 0 0.047583047975914103 -0.35244241635483559 0 0.054181307711507642 -0.34983992205818981 0 0.048773826387857627 -0.3544856011778737 0 0.047583047975914103 -0.35244241635483559 0 0.053259535722039633 -0.3641180164926533 0 0.053244657324237762 -0.3582642649149802 0 0.057696222267823373 -0.35446292325014028 0 0.053244657324237762 -0.3582642649149802 0 0.057696222267823373 -0.35446292325014028 0 0.054181307711507642 -0.34983992205818981 0 0.064643683218506637 -0.34920539315333932 0 0.057696222267823373 -0.35446292325014028 0 0.054181307711507642 -0.34983992205818981 0 0.064643683218506637 -0.34920539315333932 0 0.060945063747813971 -0.34285112352430303 0 0.054181307711507642 -0.34983992205818981 0 0.048773826387857627 -0.3544856011778737 0 0.047583047975914103 -0.35244241635483559 0 0.043663507306638913 -0.36868104746756258 0 0.04071506683574927 -0.34065806194451792 0 0.047583047975914103 -0.35244241635483559 0 0.04071506683574927 -0.34065806194451792 0 0.047583047975914103 -0.35244241635483559 0 0.03985573710467899 -0.35136837444597901 0 0.04071506683574927 -0.34065806194451792 0 0.03985573710467899 -0.35136837444597901 0 0.03205896378917665 -0.35434441690964041 0 0.04071506683574927 -0.34065806194451792 0 0.03205896378917665 -0.35434441690964041 0 0.025431496553892478 -0.35168882095041942 0 0.04071506683574927 -0.34065806194451792 0 0.025431496553892478 -0.35168882095041942 0 0.03985573710467899 -0.35136837444597901 0 0.03205896378917665 -0.35434441690964041 0 0.039065869817875902 -0.35802860257492208 0 0.047583047975914103 -0.35244241635483559 0 0.03985573710467899 -0.35136837444597901 0 0.039065869817875902 -0.35802860257492208 0 0.02837172461734 -0.38295609391969199 0 0.033371525452051833 -0.36592480980272157 0 0.043663507306638913 -0.36868104746756258 0 0.047583047975914103 -0.35244241635483559 0 0.039065869817875902 -0.35802860257492208 0 0.043663507306638913 -0.36868104746756258 0 0.047583047975914103 -0.35244241635483559 0 0.043663507306638913 -0.36868104746756258 0 0.039065869817875902 -0.35802860257492208 0 0.033371525452051833 -0.36592480980272157 0 0.043663507306638913 -0.36868104746756258 0 0.03205896378917665 -0.35434441690964041 0 0.039065869817875902 -0.35802860257492208 0 0.033371525452051833 -0.36592480980272157 0 0.02837172461734 -0.38295609391969199 0 0.0099352179383349771 -0.36287309999936251 0 0.02837172461734 -0.38295609391969199 0 0.023697561729227701 -0.3656138881417908 0 0.0099352179383349771 -0.36287309999936251 0 0.02837172461734 -0.38295609391969199 0 0.033371525452051833 -0.36592480980272157 0 0.023697561729227701 -0.3656138881417908 0 0.02837172461734 -0.38295609391969199 0 0.0122991559467155 -0.37891225603134221 0 0.0099352179383349771 -0.36287309999936251 0 0.03205896378917665 -0.35434441690964041 0 0.033371525452051833 -0.36592480980272157 0 0.023697561729227701 -0.3656138881417908 0 0.023697561729227701 -0.3656138881417908 0 0.025431496553892478 -0.35168882095041942 0 0.0099352179383349771 -0.36287309999936251 0 0.025431496553892478 -0.35168882095041942 0 0.0075807645751098419 -0.34453611388615663 0 0.025431496553892478 -0.35168882095041942 0 0.0075807645751098419 -0.34453611388615663 0 0.02636863849756152 -0.33688388254537838 0 0.025431496553892478 -0.35168882095041942 0 0.0099352179383349771 -0.36287309999936251 0 0.03205896378917665 -0.35434441690964041 0 0.023697561729227701 -0.3656138881417908 0 0.025431496553892478 -0.35168882095041942 0 0.03205896378917665 -0.35434441690964041 0 0.025431496553892478 -0.35168882095041942 0 -0.0096343958099064687 -0.34155580596031437 0 0.0099352179383349771 -0.36287309999936251 0 -0.0096343958099064687 -0.34155580596031437 0 0.0075807645751098419 -0.34453611388615663 0 0.0099352179383349771 -0.36287309999936251 0 0.025431496553892478 -0.35168882095041942 0 0.0075807645751098419 -0.34453611388615663 0 0.0099352179383349771 -0.36287309999936251 0 -0.002178803782163227 -0.37161627006544062 0 0.0122991559467155 -0.37891225603134221 0 0.0099352179383349771 -0.36287309999936251 0 -0.0070150904897389628 -0.35875101633193152 0 -0.002178803782163227 -0.37161627006544062 0 0.0099352179383349771 -0.36287309999936251 0 -0.002178803782163227 -0.37161627006544062 0 0.0099352179383349771 -0.36287309999936251 0 0.03015636661650286 -0.3225410253719756 0 0.019597666397256509 -0.30442398879943339 0 0.03015636661650286 -0.3225410253719756 0 0.014793392922354411 -0.31628120652474823 0 0.019597666397256509 -0.30442398879943339 0 0.03015636661650286 -0.3225410253719756 0 0.01453256369494863 -0.32953892791496292 0 0.014793392922354411 -0.31628120652474823 0 0.03015636661650286 -0.3225410253719756 0 0.02636863849756152 -0.33688388254537838 0 0.01453256369494863 -0.32953892791496292 0 0.0075807645751098419 -0.34453611388615663 0 0.02636863849756152 -0.33688388254537838 0 0.01453256369494863 -0.32953892791496292 0 0.04071506683574927 -0.34065806194451792 0 0.025431496553892478 -0.35168882095041942 0 0.02636863849756152 -0.33688388254537838 0 0.0075807645751098419 -0.34453611388615663 0 0.01453256369494863 -0.32953892791496292 0 0.0034794820758208261 -0.33361449123698089 0 -0.010269967403673339 -0.33738340682189533 0 0.0075807645751098419 -0.34453611388615663 0 0.0034794820758208261 -0.33361449123698089 0 0.01453256369494863 -0.32953892791496292 0 0.0034794820758208261 -0.33361449123698089 0 0.001904989571353899 -0.32214434476741449 0 0.001904989571353899 -0.32214434476741449 0 0.014793392922354411 -0.31628120652474823 0 0.0019518825097332619 -0.30029273945570772 0 0.01453256369494863 -0.32953892791496292 0 0.001904989571353899 -0.32214434476741449 0 0.014793392922354411 -0.31628120652474823 0 0.0019518825097332619 -0.30029273945570772 0 0.0090389661780101715 -0.28630695222689118 0 0.019597666397256509 -0.30442398879943339 0 0.014793392922354411 -0.31628120652474823 0 0.0019518825097332619 -0.30029273945570772 0 0.019597666397256509 -0.30442398879943339 0 -0.0020851015340006161 -0.28052611142458661 0 0.0019518825097332619 -0.30029273945570772 0 0.0090389661780101715 -0.28630695222689118 0 0.0090389661780101715 -0.28630695222689118 0 0.019597666397256509 -0.30442398879943339 0 0.0090389661780101715 -0.28630695222689118 0 0.019597666397256509 -0.30442398879943339 0 0.033821918158706138 -0.27707393290215671 0 0.03015636661650286 -0.3225410253719756 0 0.019597666397256509 -0.30442398879943339 0 0.034491627806478041 -0.30853974567073322 0 0.019597666397256509 -0.30442398879943339 0 0.034491627806478041 -0.30853974567073322 0 0.043330632548044458 -0.29475484461045087 0 0.044648526871603783 -0.31770081170742831 0 0.034491627806478041 -0.30853974567073322 0 0.043330632548044458 -0.29475484461045087 0 0.019597666397256509 -0.30442398879943339 0 0.043330632548044458 -0.29475484461045087 0 0.033821918158706138 -0.27707393290215671 0 0.043330632548044458 -0.29475484461045087 0 0.062049371387241412 -0.28749956346879602 0 0.033821918158706138 -0.27707393290215671 0 0.064064269807315097 -0.28416082313012542 0 0.058270312985904418 -0.30816514798469019 0 0.062049371387241412 -0.28749956346879602 0 0.033821918158706138 -0.27707393290215671 0 0.064064269807315097 -0.28416082313012542 0 0.062049371387241412 -0.28749956346879602 0 0.058270312985904418 -0.30816514798469019 0 0.043330632548044458 -0.29475484461045087 0 0.062049371387241412 -0.28749956346879602 0 0.058270312985904418 -0.30816514798469019 0 0.044648526871603783 -0.31770081170742831 0 0.043330632548044458 -0.29475484461045087 0 0.058270312985904418 -0.30816514798469019 0 0.069858226628725775 -0.26015649827556059 0 0.051624075113339378 -0.26919050519125598 0 0.046498349670861652 -0.24826912251879649 0 0.064064269807315097 -0.28416082313012542 0 0.069858226628725775 -0.26015649827556059 0 0.051624075113339378 -0.26919050519125598 0 0.062049371387241412 -0.28749956346879602 0 0.051624075113339378 -0.26919050519125598 0 0.033821918158706138 -0.27707393290215671 0 0.064064269807315097 -0.28416082313012542 0 0.062049371387241412 -0.28749956346879602 0 0.051624075113339378 -0.26919050519125598 0 0.051624075113339378 -0.26919050519125598 0 0.033821918158706138 -0.27707393290215671 0 0.034240698289148337 -0.25967273023798509 0 0.051624075113339378 -0.26919050519125598 0 0.034240698289148337 -0.25967273023798509 0 0.046498349670861652 -0.24826912251879649 0 0.034240698289148337 -0.25967273023798509 0 0.02296875629887114 -0.2464092256209898 0 0.046498349670861652 -0.24826912251879649 0 0.034240698289148337 -0.25967273023798509 0 0.0055944649301708496 -0.26664830233551728 0 0.02296875629887114 -0.2464092256209898 0 0.0090389661780101715 -0.28630695222689118 0 0.033821918158706138 -0.27707393290215671 0 0.0055944649301708496 -0.26664830233551728 0 0.033821918158706138 -0.27707393290215671 0 0.034240698289148337 -0.25967273023798509 0 0.0055944649301708496 -0.26664830233551728 0 0.033821918158706138 -0.27707393290215671 0 0.0055944649301708496 -0.26664830233551728 0 -0.0020851015340006161 -0.28052611142458661 0 0.0090389661780101715 -0.28630695222689118 0 0.0055944649301708496 -0.26664830233551728 0 0.0055944649301708496 -0.26664830233551728 0 0.0055632338660241776 -0.24332209518663511 0 0.02296875629887114 -0.2464092256209898 0 -0.0080727856436109482 -0.2481099565327444 0 0.0055944649301708496 -0.26664830233551728 0 0.0055632338660241776 -0.24332209518663511 0 0.0055632338660241776 -0.24332209518663511 0 0.0032521440618358652 -0.23009641691855939 0 0.019268989126464159 -0.2308348024940351 0 -0.0084819670471955304 -0.2367225590632196 0 0.0055632338660241776 -0.24332209518663511 0 0.0032521440618358652 -0.23009641691855939 0 -0.0075276580997289226 -0.21896018305478171 0 0.0032521440618358652 -0.23009641691855939 0 0.012041166441398349 -0.21677938876306921 0 0.0032521440618358652 -0.23009641691855939 0 0.019268989126464159 -0.2308348024940351 0 0.012041166441398349 -0.21677938876306921 0 0.019268989126464159 -0.2308348024940351 0 0.028464877365028059 -0.21915571909051779 0 0.012041166441398349 -0.21677938876306921 0 0.019268989126464159 -0.2308348024940351 0 0.028464877365028059 -0.21915571909051779 0 0.041174919052571327 -0.22964645066930789 0 0.0055632338660241776 -0.24332209518663511 0 0.019268989126464159 -0.2308348024940351 0 0.02296875629887114 -0.2464092256209898 0 0.019268989126464159 -0.2308348024940351 0 0.02296875629887114 -0.2464092256209898 0 0.041174919052571327 -0.22964645066930789 0 -0.0075276580997289226 -0.21896018305478171 0 0.003555539334036632 -0.19934620758084881 0 0.012041166441398349 -0.21677938876306921 0 0.003555539334036632 -0.19934620758084881 0 0.012041166441398349 -0.21677938876306921 0 0.02523310686075431 -0.20228300343967229 0 0.028464877365028059 -0.21915571909051779 0 0.012041166441398349 -0.21677938876306921 0 0.02523310686075431 -0.20228300343967229 0 0.02523310686075431 -0.20228300343967229 0 0.033125333554059701 -0.1865598477748947 0 0.018588522793563201 -0.18166153924030251 0 0.003555539334036632 -0.19934620758084881 0 0.02523310686075431 -0.20228300343967229 0 0.018588522793563201 -0.18166153924030251 0 0.048648578511840943 -0.20623258170594561 0 0.049880579816306267 -0.17970719815632741 0 0.033125333554059701 -0.1865598477748947 0 0.02523310686075431 -0.20228300343967229 0 0.048648578511840943 -0.20623258170594561 0 0.033125333554059701 -0.1865598477748947 0 0.028464877365028059 -0.21915571909051779 0 0.02523310686075431 -0.20228300343967229 0 0.048648578511840943 -0.20623258170594561 0 0.028464877365028059 -0.21915571909051779 0 0.048648578511840943 -0.20623258170594561 0 0.041174919052571327 -0.22964645066930789 0 0.048648578511840943 -0.20623258170594561 0 0.059757914812518881 -0.22869522271940709 0 0.066598585428591164 -0.21133354617687591 0 0.048648578511840943 -0.20623258170594561 0 0.067160325985138131 -0.18691533881804831 0 0.049880579816306267 -0.17970719815632741 0 0.048648578511840943 -0.20623258170594561 0 0.066598585428591164 -0.21133354617687591 0 0.067160325985138131 -0.18691533881804831 0 0.069858226628725775 -0.26015649827556059 0 0.046498349670861652 -0.24826912251879649 0 0.059757914812518881 -0.22869522271940709 0 0.02296875629887114 -0.2464092256209898 0 0.046498349670861652 -0.24826912251879649 0 0.041174919052571327 -0.22964645066930789 0 0.048648578511840943 -0.20623258170594561 0 0.041174919052571327 -0.22964645066930789 0 0.059757914812518881 -0.22869522271940709 0 0.046498349670861652 -0.24826912251879649 0 0.041174919052571327 -0.22964645066930789 0 0.059757914812518881 -0.22869522271940709 0 0.069858226628725775 -0.26015649827556059 0 0.059757914812518881 -0.22869522271940709 0 0.080941623453078815 -0.2334444244951252 0 0.069858226628725775 -0.26015649827556059 0 0.096521476943682558 -0.25181800011133371 0 0.080941623453078815 -0.2334444244951252 0 0.096521476943682558 -0.25181800011133371 0 0.080941623453078815 -0.2334444244951252 0 0.102389076685389 -0.22730157072293841 0 0.080941623453078815 -0.2334444244951252 0 0.084774701335263575 -0.20710845477049339 0 0.102389076685389 -0.22730157072293841 0 0.059757914812518881 -0.22869522271940709 0 0.080941623453078815 -0.2334444244951252 0 0.066598585428591164 -0.21133354617687591 0 0.080941623453078815 -0.2334444244951252 0 0.066598585428591164 -0.21133354617687591 0 0.084774701335263575 -0.20710845477049339 0 0.084774701335263575 -0.20710845477049339 0 0.067160325985138131 -0.18691533881804831 0 0.066598585428591164 -0.21133354617687591 0 0.084774701335263575 -0.20710845477049339 0 0.067160325985138131 -0.18691533881804831 0 0.092537347032927528 -0.18889969997864839 0 0.084774701335263575 -0.20710845477049339 0 0.067160325985138131 -0.18691533881804831 0 0.084774701335263575 -0.20710845477049339 0 0.102389076685389 -0.22730157072293841 0 0.084774701335263575 -0.20710845477049339 0 0.10575093398731179 -0.20517541990618701 0 0.102389076685389 -0.22730157072293841 0 0.092537347032927528 -0.18889969997864839 0 0.10575093398731179 -0.20517541990618701 0 0.11404320040195411 -0.17785048998131209 0 0.092537347032927528 -0.18889969997864839 0 0.084774701335263575 -0.20710845477049339 0 0.10575093398731179 -0.20517541990618701 0 0.10575093398731179 -0.20517541990618701 0 0.11404320040195411 -0.17785048998131209 0 0.12592289232087811 -0.19910656028939411 0 0.10575093398731179 -0.20517541990618701 0 0.1284413173888232 -0.22347585252773641 0 0.12592289232087811 -0.19910656028939411 0 0.10575093398731179 -0.20517541990618701 0 0.102389076685389 -0.22730157072293841 0 0.1284413173888232 -0.22347585252773641 0 0.1200034520355143 -0.24749468667538321 0 0.102389076685389 -0.22730157072293841 0 0.1284413173888232 -0.22347585252773641 0 0.1200034520355143 -0.24749468667538321 0 0.102389076685389 -0.22730157072293841 0 0.096521476943682558 -0.25181800011133371 0 0.1200034520355143 -0.24749468667538321 0 0.102389076685389 -0.22730157072293841 0 0.099885875260422058 -0.15149088269105351 0 0.1161887790728692 -0.1476769396888597 0 0.1105045846919957 -0.16013033574144619 0 0.099885875260422058 -0.15149088269105351 0 0.099597293261818404 -0.1347502866929414 0 0.1161887790728692 -0.1476769396888597 0 0.099597293261818404 -0.1347502866929414 0 0.1161887790728692 -0.1476769396888597 0 0.099597293261818404 -0.1347502866929414 0 0.1047785765018954 -0.13712350701568179 0 0.1161887790728692 -0.1476769396888597 0 0.099597293261818404 -0.1347502866929414 0 0.093527805260815264 -0.13002146576964491 0 0.104312872852085 -0.12243825994362539 0 0.099597293261818404 -0.1347502866929414 0 0.093527805260815264 -0.13002146576964491 0 0.099597293261818404 -0.1347502866929414 0 0.093527805260815264 -0.13002146576964491 0 0.092996203934319052 -0.1329056080468716 0 0.099597293261818404 -0.1347502866929414 0 0.1088944047617572 -0.13480079442927331 0 0.104312872852085 -0.12243825994362539 0 0.099597293261818404 -0.1347502866929414 0 0.1047785765018954 -0.13712350701568179 0 0.1088944047617572 -0.13480079442927331 0 0.099597293261818404 -0.1347502866929414 0 0.1088944047617572 -0.13480079442927331 0 0.1047785765018954 -0.13712350701568179 0 0.1088944047617572 -0.13480079442927331 0 0.1088944047617572 -0.13480079442927331 0 0.1161887790728692 -0.1476769396888597 0 0.13638976604354719 -0.13495016646355951 0 0.1088944047617572 -0.13480079442927331 0 0.12800820934211829 -0.12401417466047961 0 0.13638976604354719 -0.13495016646355951 0 0.1047785765018954 -0.13712350701568179 0 0.1088944047617572 -0.13480079442927331 0 0.1161887790728692 -0.1476769396888597 0 0.1088944047617572 -0.13480079442927331 0 0.104312872852085 -0.12243825994362539 0 0.12800820934211829 -0.12401417466047961 0 0.1088944047617572 -0.13480079442927331 0 0.12800820934211829 -0.12401417466047961 0 0.1088944047617572 -0.13480079442927331 0 0.13638976604354719 -0.13495016646355951 0 0.1161887790728692 -0.1476769396888597 0 0.1105045846919957 -0.16013033574144619 0 0.1305387904294309 -0.15561497697083931 0 0.1105045846919957 -0.16013033574144619 0 0.11404320040195411 -0.17785048998131209 0 0.1305387904294309 -0.15561497697083931 0 0.092537347032927528 -0.18889969997864839 0 0.11404320040195411 -0.17785048998131209 0 0.090957573454969964 -0.1674487964172009 0 0.1105045846919957 -0.16013033574144619 0 0.11404320040195411 -0.17785048998131209 0 0.090957573454969964 -0.1674487964172009 0 0.099885875260422058 -0.15149088269105351 0 0.1105045846919957 -0.16013033574144619 0 0.090957573454969964 -0.1674487964172009 0 0.099885875260422058 -0.15149088269105351 0 0.090957573454969964 -0.1674487964172009 0 0.080257725164813276 -0.1505404030764457 0 0.090957573454969964 -0.1674487964172009 0 0.065342325237630991 -0.1650228072456788 0 0.080257725164813276 -0.1505404030764457 0 0.092537347032927528 -0.18889969997864839 0 0.090957573454969964 -0.1674487964172009 0 0.067160325985138131 -0.18691533881804831 0 0.090957573454969964 -0.1674487964172009 0 0.067160325985138131 -0.18691533881804831 0 0.065342325237630991 -0.1650228072456788 0 0.065342325237630991 -0.1650228072456788 0 0.080257725164813276 -0.1505404030764457 0 0.056224073158944461 -0.14994265306170279 0 0.080257725164813276 -0.1505404030764457 0 0.069539210615093855 -0.1345869923500955 0 0.056224073158944461 -0.14994265306170279 0 0.099885875260422058 -0.15149088269105351 0 0.099597293261818404 -0.1347502866929414 0 0.080257725164813276 -0.1505404030764457 0 0.099597293261818404 -0.1347502866929414 0 0.080257725164813276 -0.1505404030764457 0 0.069539210615093855 -0.1345869923500955 0 0.099597293261818404 -0.1347502866929414 0 0.092996203934319052 -0.1329056080468716 0 0.069539210615093855 -0.1345869923500955 0 0.099597293261818404 -0.1347502866929414 0 0.069539210615093855 -0.1345869923500955 0 0.092996203934319052 -0.1329056080468716 0 0.069539210615093855 -0.1345869923500955 0 0.079322302472514483 -0.11895376470488229 0 0.093527805260815264 -0.13002146576964491 0 0.092996203934319052 -0.1329056080468716 0 0.079322302472514483 -0.11895376470488229 0 0.093527805260815264 -0.13002146576964491 0 0.092996203934319052 -0.1329056080468716 0 0.069539210615093855 -0.1345869923500955 0 0.052298963826290519 -0.1211548808236817 0 0.066569319149528045 -0.1206454253796948 0 0.069539210615093855 -0.1345869923500955 0 0.039481127968369292 -0.1344236980072451 0 0.052298963826290519 -0.1211548808236817 0 0.069539210615093855 -0.1345869923500955 0 0.056224073158944461 -0.14994265306170279 0 0.039481127968369292 -0.1344236980072451 0 0.069539210615093855 -0.1345869923500955 0 0.039481127968369292 -0.1344236980072451 0 0.056224073158944461 -0.14994265306170279 0 0.038811693183881758 -0.15444647348478721 0 0.047368807546727579 -0.16279517251764489 0 0.056224073158944461 -0.14994265306170279 0 0.038811693183881758 -0.15444647348478721 0 0.039481127968369292 -0.1344236980072451 0 0.038811693183881758 -0.15444647348478721 0 0.039481127968369292 -0.1344236980072451 0 0.019056913867763529 -0.155566515408149 0 0.034777770017858589 -0.1343981464191871 0 0.039481127968369292 -0.1344236980072451 0 0.022320289212787989 -0.1422177528203018 0 0.034777770017858589 -0.1343981464191871 0 0.039481127968369292 -0.1344236980072451 0 0.034777770017858589 -0.1343981464191871 0 0.029299678594365521 -0.12697140115214181 0 0.037800108132664212 -0.12348471533883321 0 0.034777770017858589 -0.1343981464191871 0 0.039481127968369292 -0.1344236980072451 0 0.037800108132664212 -0.12348471533883321 0 0.039481127968369292 -0.1344236980072451 0 0.052298963826290519 -0.1211548808236817 0 0.039481127968369292 -0.1344236980072451 0 0.052298963826290519 -0.1211548808236817 0 0.037800108132664212 -0.12348471533883321 0 0.067160325985138131 -0.18691533881804831 0 0.065342325237630991 -0.1650228072456788 0 0.049880579816306267 -0.17970719815632741 0 0.065342325237630991 -0.1650228072456788 0 0.049880579816306267 -0.17970719815632741 0 0.047368807546727579 -0.16279517251764489 0 0.065342325237630991 -0.1650228072456788 0 0.056224073158944461 -0.14994265306170279 0 0.047368807546727579 -0.16279517251764489 0 0.049880579816306267 -0.17970719815632741 0 0.047368807546727579 -0.16279517251764489 0 0.031927543377605602 -0.16950432842919569 0 0.038811693183881758 -0.15444647348478721 0 0.047368807546727579 -0.16279517251764489 0 0.031927543377605602 -0.16950432842919569 0 0.049880579816306267 -0.17970719815632741 0 0.031927543377605602 -0.16950432842919569 0 0.033125333554059701 -0.1865598477748947 0 0.031927543377605602 -0.16950432842919569 0 0.033125333554059701 -0.1865598477748947 0 0.018588522793563201 -0.18166153924030251 0 0.031927543377605602 -0.16950432842919569 0 0.018588522793563201 -0.18166153924030251 0 0.019056913867763529 -0.155566515408149 0 0.038811693183881758 -0.15444647348478721 0 0.031927543377605602 -0.16950432842919569 0 0.019056913867763529 -0.155566515408149 0 -0.0013673002328405961 -0.1767093328090546 0 0.018588522793563201 -0.18166153924030251 0 0.019056913867763529 -0.155566515408149 0 -0.0013673002328405961 -0.1767093328090546 0 0.019056913867763529 -0.155566515408149 0 -0.0013673002328405961 -0.1767093328090546 0 0.019056913867763529 -0.155566515408149 0 0.0027310736070901482 -0.15493719994590471 0 -0.0013673002328405961 -0.1767093328090546 0 0.003555539334036632 -0.19934620758084881 0 0.018588522793563201 -0.18166153924030251 0 0.020222670022858619 -0.12863691797839069 0 0.022320289212787989 -0.1422177528203018 0 0.0088678229424013627 -0.13941235935176011 0 0.020222670022858619 -0.12863691797839069 0 0.02665510196196769 -0.1330560545925053 0 0.022320289212787989 -0.1422177528203018 0 0.034777770017858589 -0.1343981464191871 0 0.029299678594365521 -0.12697140115214181 0 0.02665510196196769 -0.1330560545925053 0 0.020222670022858619 -0.12863691797839069 0 0.029299678594365521 -0.12697140115214181 0 0.02665510196196769 -0.1330560545925053 0 0.034777770017858589 -0.1343981464191871 0 0.02665510196196769 -0.1330560545925053 0 0.022320289212787989 -0.1422177528203018 0 0.039481127968369292 -0.1344236980072451 0 0.019056913867763529 -0.155566515408149 0 0.019056913867763529 -0.155566515408149 0 0.022320289212787989 -0.1422177528203018 0 0.0088678229424013627 -0.13941235935176011 0 0.039481127968369292 -0.1344236980072451 0 0.019056913867763529 -0.155566515408149 0 0.022320289212787989 -0.1422177528203018 0 0.019056913867763529 -0.155566515408149 0 0.0027310736070901482 -0.15493719994590471 0 0.0088678229424013627 -0.13941235935176011 0 0.020222670022858619 -0.12863691797839069 0 0.0088678229424013627 -0.13941235935176011 0 0.0015243557028834459 -0.11711868301268021 0 0.020222670022858619 -0.12863691797839069 0 0.0015243557028834459 -0.11711868301268021 0 0.0144479962461943 -0.1082343501681014 0 0.020222670022858619 -0.12863691797839069 0 0.02728947708542654 -0.1146689930447462 0 0.0144479962461943 -0.1082343501681014 0 0.020222670022858619 -0.12863691797839069 0 0.029299678594365521 -0.12697140115214181 0 0.02728947708542654 -0.1146689930447462 0 0.0144479962461943 -0.1082343501681014 0 0.01674231050701382 -0.093658367309864349 0 0.03170108987002046 -0.10050694789866579 0 0.02728947708542654 -0.1146689930447462 0 0.0144479962461943 -0.1082343501681014 0 0.03170108987002046 -0.10050694789866579 0 0.01674231050701382 -0.093658367309864349 0 0.02745527456064175 -0.089089442263575569 0 0.03170108987002046 -0.10050694789866579 0 0.0144479962461943 -0.1082343501681014 0 0.001856719827670471 -0.098182337095309047 0 0.01674231050701382 -0.093658367309864349 0 0.0015243557028834459 -0.11711868301268021 0 0.0144479962461943 -0.1082343501681014 0 0.001856719827670471 -0.098182337095309047 0 0.001856719827670471 -0.098182337095309047 0 0.0065051428120863272 -0.082127796022149757 0 0.01674231050701382 -0.093658367309864349 0 0.0065051428120863272 -0.082127796022149757 0 0.018539693253586439 -0.071597204448153262 0 0.01731060528333208 -0.084118202510935727 0 0.0065051428120863272 -0.082127796022149757 0 0.01674231050701382 -0.093658367309864349 0 0.01731060528333208 -0.084118202510935727 0 0.0065051428120863272 -0.082127796022149757 0 0.018539693253586439 -0.071597204448153262 0 0.00035237720396625368 -0.061086817302918282 0 0.018539693253586439 -0.071597204448153262 0 0.00035237720396625368 -0.061086817302918282 0 0.029337839486141829 -0.062098975348790997 0 0.018539693253586439 -0.071597204448153262 0 0.036998616429076953 -0.080413518666692163 0 0.029337839486141829 -0.062098975348790997 0 0.018539693253586439 -0.071597204448153262 0 0.039278739387756327 -0.087755278287702396 0 0.018539693253586439 -0.071597204448153262 0 0.02745527456064175 -0.089089442263575569 0 0.039278739387756327 -0.087755278287702396 0 0.018539693253586439 -0.071597204448153262 0 0.01731060528333208 -0.084118202510935727 0 0.02745527456064175 -0.089089442263575569 0 0.01674231050701382 -0.093658367309864349 0 0.01731060528333208 -0.084118202510935727 0 0.02745527456064175 -0.089089442263575569 0 0.018539693253586439 -0.071597204448153262 0 0.036998616429076953 -0.080413518666692163 0 0.039278739387756327 -0.087755278287702396 0 0.02745527456064175 -0.089089442263575569 0 0.039278739387756327 -0.087755278287702396 0 0.036114206476440321 -0.094502097047588079 0 0.036998616429076953 -0.080413518666692163 0 0.039278739387756327 -0.087755278287702396 0 0.050747139898636717 -0.081209848062237813 0 0.058323301768317432 -0.063111133394663815 0 0.029337839486141829 -0.062098975348790997 0 0.036998616429076953 -0.080413518666692163 0 0.058323301768317432 -0.063111133394663815 0 0.029337839486141829 -0.062098975348790997 0 0.036998616429076953 -0.080413518666692163 0 0.058323301768317432 -0.063111133394663815 0 0.058323301768317432 -0.063111133394663815 0 0.050747139898636717 -0.081209848062237813 0 0.060228637404373828 -0.081759239016750626 0 0.036998616429076953 -0.080413518666692163 0 0.058323301768317432 -0.063111133394663815 0 0.050747139898636717 -0.081209848062237813 0 0.039278739387756327 -0.087755278287702396 0 0.050747139898636717 -0.081209848062237813 0 0.060818353003097771 -0.090653503469919336 0 0.050747139898636717 -0.081209848062237813 0 0.060228637404373828 -0.081759239016750626 0 0.060818353003097771 -0.090653503469919336 0 0.060017785521926562 -0.10391335212725129 0 0.042153090511964017 -0.099193769589441219 0 0.043653631303676513 -0.1092911725859987 0 0.060017785521926562 -0.10391335212725129 0 0.043653631303676513 -0.1092911725859987 0 0.039278739387756327 -0.087755278287702396 0 0.060818353003097771 -0.090653503469919336 0 0.060017785521926562 -0.10391335212725129 0 0.060017785521926562 -0.10391335212725129 0 0.053375718786791107 -0.1112883554404277 0 0.043653631303676513 -0.1092911725859987 0 0.039278739387756327 -0.087755278287702396 0 0.060017785521926562 -0.10391335212725129 0 0.039278739387756327 -0.087755278287702396 0 0.060017785521926562 -0.10391335212725129 0 0.042153090511964017 -0.099193769589441219 0 0.060017785521926562 -0.10391335212725129 0 0.053375718786791107 -0.1112883554404277 0 0.065116799684213397 -0.10788606364011991 0 0.052298963826290519 -0.1211548808236817 0 0.066569319149528045 -0.1206454253796948 0 0.065116799684213397 -0.10788606364011991 0 0.052298963826290519 -0.1211548808236817 0 0.065116799684213397 -0.10788606364011991 0 0.052298963826290519 -0.1211548808236817 0 0.053375718786791107 -0.1112883554404277 0 0.065116799684213397 -0.10788606364011991 0 0.052298963826290519 -0.1211548808236817 0 0.053375718786791107 -0.1112883554404277 0 0.043653631303676513 -0.1092911725859987 0 0.02728947708542654 -0.1146689930447462 0 0.037800108132664212 -0.12348471533883321 0 0.043653631303676513 -0.1092911725859987 0 0.02728947708542654 -0.1146689930447462 0 0.043653631303676513 -0.1092911725859987 0 0.052298963826290519 -0.1211548808236817 0 0.037800108132664212 -0.12348471533883321 0 0.043653631303676513 -0.1092911725859987 0 0.029299678594365521 -0.12697140115214181 0 0.02728947708542654 -0.1146689930447462 0 0.037800108132664212 -0.12348471533883321 0 0.02728947708542654 -0.1146689930447462 0 0.03170108987002046 -0.10050694789866579 0 0.043653631303676513 -0.1092911725859987 0 0.036114206476440321 -0.094502097047588079 0 0.03170108987002046 -0.10050694789866579 0 0.042153090511964017 -0.099193769589441219 0 0.02745527456064175 -0.089089442263575569 0 0.036114206476440321 -0.094502097047588079 0 0.03170108987002046 -0.10050694789866579 0 0.039278739387756327 -0.087755278287702396 0 0.036114206476440321 -0.094502097047588079 0 0.042153090511964017 -0.099193769589441219 0 0.03170108987002046 -0.10050694789866579 0 0.042153090511964017 -0.099193769589441219 0 0.043653631303676513 -0.1092911725859987 0 0.025695344612614111 0.0095801541182225364 0 0.02812452509478746 -0.0099579005571815878 0 0.006935528729737548 -0.0054826371559186567 0 0.02812452509478746 -0.0099579005571815878 0 0.006935528729737548 -0.0054826371559186567 0 0.01889941714368459 -0.025130787452367569 0 0.006935528729737548 -0.0054826371559186567 0 0.0027408304473846411 -0.028176541972939319 0 0.01889941714368459 -0.025130787452367569 0 0.02812452509478746 -0.0099579005571815878 0 0.01889941714368459 -0.025130787452367569 0 0.035567370731091272 -0.02454493013615917 0 0.01889941714368459 -0.025130787452367569 0 0.02846567832778216 -0.042756626880165419 0 0.035567370731091272 -0.02454493013615917 0 0.01889941714368459 -0.025130787452367569 0 0.02846567832778216 -0.042756626880165419 0 0.0096258971738255473 -0.043108802377643002 0 0.02846567832778216 -0.042756626880165419 0 0.0096258971738255473 -0.043108802377643002 0 0.016945448047928951 -0.052262805477379423 0 0.01889941714368459 -0.025130787452367569 0 0.0096258971738255473 -0.043108802377643002 0 -0.01026660782967455 -0.041229232136501717 0 0.0027408304473846411 -0.028176541972939319 0 0.0096258971738255473 -0.043108802377643002 0 0.0027408304473846411 -0.028176541972939319 0 0.01889941714368459 -0.025130787452367569 0 0.0096258971738255473 -0.043108802377643002 0 0.0096258971738255473 -0.043108802377643002 0 0.00035237720396625368 -0.061086817302918282 0 0.016945448047928951 -0.052262805477379423 0 0.00035237720396625368 -0.061086817302918282 0 0.016945448047928951 -0.052262805477379423 0 0.029337839486141829 -0.062098975348790997 0 0.0096258971738255473 -0.043108802377643002 0 0.00035237720396625368 -0.061086817302918282 0 0.00035237720396625368 -0.061086817302918282 0 0.029337839486141829 -0.062098975348790997 0 0.02846567832778216 -0.042756626880165419 0 0.016945448047928951 -0.052262805477379423 0 0.029337839486141829 -0.062098975348790997 0 0.02846567832778216 -0.042756626880165419 0 0.029337839486141829 -0.062098975348790997 0 0.044041605111135473 -0.049431168693685697 0 0.058323301768317432 -0.063111133394663815 0 0.029337839486141829 -0.062098975348790997 0 0.044041605111135473 -0.049431168693685697 0 0.058323301768317432 -0.063111133394663815 0 0.044041605111135473 -0.049431168693685697 0 0.059903341899081253 -0.040049795258846832 0 0.059903341899081253 -0.040049795258846832 0 0.045154502468205723 -0.035444412579530127 0 0.052999286202529479 -0.022291816621987929 0 0.044041605111135473 -0.049431168693685697 0 0.059903341899081253 -0.040049795258846832 0 0.045154502468205723 -0.035444412579530127 0 0.02846567832778216 -0.042756626880165419 0 0.044041605111135473 -0.049431168693685697 0 0.045154502468205723 -0.035444412579530127 0 0.02846567832778216 -0.042756626880165419 0 0.045154502468205723 -0.035444412579530127 0 0.035567370731091272 -0.02454493013615917 0 0.045154502468205723 -0.035444412579530127 0 0.035567370731091272 -0.02454493013615917 0 0.052999286202529479 -0.022291816621987929 0 0.035567370731091272 -0.02454493013615917 0 0.052999286202529479 -0.022291816621987929 0 0.04138045704507981 -0.013293391242584921 0 0.02812452509478746 -0.0099579005571815878 0 0.035567370731091272 -0.02454493013615917 0 0.04138045704507981 -0.013293391242584921 0 0.059903341899081253 -0.040049795258846832 0 0.052999286202529479 -0.022291816621987929 0 0.073093181043766914 -0.026775388104941698 0 0.052999286202529479 -0.022291816621987929 0 0.049896637954744763 -0.0073960790217490677 0 0.04138045704507981 -0.013293391242584921 0 0.052999286202529479 -0.022291816621987929 0 0.049896637954744763 -0.0073960790217490677 0 0.066530330394949447 -0.012320269852860621 0 0.049896637954744763 -0.0073960790217490677 0 0.040314465242246092 -0.002276229875846851 0 0.04138045704507981 -0.013293391242584921 0 0.025695344612614111 0.0095801541182225364 0 0.02812452509478746 -0.0099579005571815878 0 0.040314465242246092 -0.002276229875846851 0 0.046640351189982193 0.001482106492276504 0 0.049896637954744763 -0.0073960790217490677 0 0.040314465242246092 -0.002276229875846851 0 0.02812452509478746 -0.0099579005571815878 0 0.040314465242246092 -0.002276229875846851 0 0.04138045704507981 -0.013293391242584921 0 0.075461568133428525 0.0044331687040122013 0 0.081703970602104437 -0.011974759962048749 0 0.098011391193308373 -0.0056982583262641584 0 0.075461568133428525 0.0044331687040122013 0 0.049896637954744763 -0.0073960790217490677 0 0.075461568133428525 0.0044331687040122013 0 0.049896637954744763 -0.0073960790217490677 0 0.066530330394949447 -0.012320269852860621 0 0.075461568133428525 0.0044331687040122013 0 0.081703970602104437 -0.011974759962048749 0 0.066530330394949447 -0.012320269852860621 0 0.081703970602104437 -0.011974759962048749 0 0.066530330394949447 -0.012320269852860621 0 0.073093181043766914 -0.026775388104941698 0 0.052999286202529479 -0.022291816621987929 0 0.066530330394949447 -0.012320269852860621 0 0.073093181043766914 -0.026775388104941698 0 0.081703970602104437 -0.011974759962048749 0 0.097837743661838034 -0.031049975793767819 0 0.098011391193308373 -0.0056982583262641584 0 0.081703970602104437 -0.011974759962048749 0 0.073093181043766914 -0.026775388104941698 0 0.097837743661838034 -0.031049975793767819 0 0.078080522715077566 -0.047080554594215653 0 0.097861902682226248 -0.045151270938537998 0 0.097837743661838034 -0.031049975793767819 0 0.073093181043766914 -0.026775388104941698 0 0.078080522715077566 -0.047080554594215653 0 0.097837743661838034 -0.031049975793767819 0 0.078080522715077566 -0.047080554594215653 0 0.097837743661838034 -0.031049975793767819 0 0.059903341899081253 -0.040049795258846832 0 0.073093181043766914 -0.026775388104941698 0 0.078080522715077566 -0.047080554594215653 0 0.058323301768317432 -0.063111133394663815 0 0.078080522715077566 -0.047080554594215653 0 0.058323301768317432 -0.063111133394663815 0 0.059903341899081253 -0.040049795258846832 0 0.078080522715077566 -0.047080554594215653 0 0.058323301768317432 -0.063111133394663815 0 0.078080522715077566 -0.047080554594215653 0 0.081939961595450139 -0.063935815506958552 0 0.078080522715077566 -0.047080554594215653 0 0.094142039140793971 -0.055881476276546937 0 0.081939961595450139 -0.063935815506958552 0 0.078080522715077566 -0.047080554594215653 0 0.094142039140793971 -0.055881476276546937 0 0.097861902682226248 -0.045151270938537998 0 0.094142039140793971 -0.055881476276546937 0 0.081939961595450139 -0.063935815506958552 0 0.1067368008806147 -0.064801708903802782 0 0.094142039140793971 -0.055881476276546937 0 0.1075629424949773 -0.053875431803618333 0 0.097861902682226248 -0.045151270938537998 0 0.094142039140793971 -0.055881476276546937 0 0.1075629424949773 -0.053875431803618333 0 0.1067368008806147 -0.064801708903802782 0 0.1075629424949773 -0.053875431803618333 0 0.1067368008806147 -0.064801708903802782 0 0.1075629424949773 -0.053875431803618333 0 0.1232921759667842 -0.047663851323270827 0 0.1067368008806147 -0.064801708903802782 0 0.1232921759667842 -0.047663851323270827 0 0.1067368008806147 -0.064801708903802782 0 0.1075629424949773 -0.053875431803618333 0 0.1232921759667842 -0.047663851323270827 0 0.1109518143893137 -0.039435966374661548 0 0.1232921759667842 -0.047663851323270827 0 0.1067368008806147 -0.064801708903802782 0 0.13548767730717889 -0.06580567532731052 0 0.1232921759667842 -0.047663851323270827 0 0.1109518143893137 -0.039435966374661548 0 0.124582941869709 -0.030507807285028901 0 0.1109518143893137 -0.039435966374661548 0 0.097861902682226248 -0.045151270938537998 0 0.097837743661838034 -0.031049975793767819 0 0.1075629424949773 -0.053875431803618333 0 0.1109518143893137 -0.039435966374661548 0 0.097861902682226248 -0.045151270938537998 0 0.097837743661838034 -0.031049975793767819 0 0.1175949646085984 -0.015019396993320021 0 0.097837743661838034 -0.031049975793767819 0 0.1175949646085984 -0.015019396993320021 0 0.098011391193308373 -0.0056982583262641584 0 0.1109518143893137 -0.039435966374661548 0 0.097837743661838034 -0.031049975793767819 0 0.1175949646085984 -0.015019396993320021 0 0.1109518143893137 -0.039435966374661548 0 0.124582941869709 -0.030507807285028901 0 0.1175949646085984 -0.015019396993320021 0 0.124582941869709 -0.030507807285028901 0 0.1175949646085984 -0.015019396993320021 0 0.13165260102391191 -0.019660205177744808 0 0.11882011836095251 0.0065886106746579649 0 0.1175949646085984 -0.015019396993320021 0 0.098011391193308373 -0.0056982583262641584 0 0.11882011836095251 0.0065886106746579649 0 0.13735218555535891 0.001011181807127467 0 0.1175949646085984 -0.015019396993320021 0 0.073111172643960082 -0.099610417542301155 0 0.10058413041743761 -0.090581864498492995 0 0.088608598291174498 -0.101420796185217 0 0.073111172643960082 -0.099610417542301155 0 0.10058413041743761 -0.090581864498492995 0 0.083297568291202648 -0.10670285905343881 0 0.088608598291174498 -0.101420796185217 0 0.073111172643960082 -0.099610417542301155 0 0.083297568291202648 -0.10670285905343881 0 0.088608598291174498 -0.101420796185217 0 0.097441521812097198 -0.10878804364663471 0 0.093527805260815264 -0.13002146576964491 0 0.079322302472514483 -0.11895376470488229 0 0.097441521812097198 -0.10878804364663471 0 0.083297568291202648 -0.10670285905343881 0 0.079322302472514483 -0.11895376470488229 0 0.097441521812097198 -0.10878804364663471 0 0.093527805260815264 -0.13002146576964491 0 0.079322302472514483 -0.11895376470488229 0 0.079322302472514483 -0.11895376470488229 0 0.065116799684213397 -0.10788606364011991 0 0.083297568291202648 -0.10670285905343881 0 0.079322302472514483 -0.11895376470488229 0 0.065116799684213397 -0.10788606364011991 0 0.079322302472514483 -0.11895376470488229 0 0.066569319149528045 -0.1206454253796948 0 0.065116799684213397 -0.10788606364011991 0 0.069539210615093855 -0.1345869923500955 0 0.079322302472514483 -0.11895376470488229 0 0.066569319149528045 -0.1206454253796948 0 0.060017785521926562 -0.10391335212725129 0 0.065116799684213397 -0.10788606364011991 0 0.060017785521926562 -0.10391335212725129 0 0.073111172643960082 -0.099610417542301155 0 0.065116799684213397 -0.10788606364011991 0 0.073111172643960082 -0.099610417542301155 0 0.083297568291202648 -0.10670285905343881 0 0.065116799684213397 -0.10788606364011991 0 0.073111172643960082 -0.099610417542301155 0 0.060017785521926562 -0.10391335212725129 0 0.065116799684213397 -0.10788606364011991 0 0.073111172643960082 -0.099610417542301155 0 0.060818353003097771 -0.090653503469919336 0 0.060017785521926562 -0.10391335212725129 0 0.073111172643960082 -0.099610417542301155 0 0.060818353003097771 -0.090653503469919336 0 0.073111172643960082 -0.099610417542301155 0 0.074211161232423301 -0.082716200610011378 0 0.060228637404373828 -0.081759239016750626 0 0.060818353003097771 -0.090653503469919336 0 0.074211161232423301 -0.082716200610011378 0 0.058323301768317432 -0.063111133394663815 0 0.081939961595450139 -0.063935815506958552 0 0.058323301768317432 -0.063111133394663815 0 0.074211161232423301 -0.082716200610011378 0 0.081939961595450139 -0.063935815506958552 0 0.058323301768317432 -0.063111133394663815 0 0.060228637404373828 -0.081759239016750626 0 0.074211161232423301 -0.082716200610011378 0 0.074211161232423301 -0.082716200610011378 0 0.081939961595450139 -0.063935815506958552 0 0.089190063779311518 -0.082965808471458069 0 0.081939961595450139 -0.063935815506958552 0 0.089190063779311518 -0.082965808471458069 0 0.1052689549146623 -0.0663211994006144 0 0.073111172643960082 -0.099610417542301155 0 0.074211161232423301 -0.082716200610011378 0 0.089190063779311518 -0.082965808471458069 0 0.073111172643960082 -0.099610417542301155 0 0.089190063779311518 -0.082965808471458069 0 0.073111172643960082 -0.099610417542301155 0 0.089190063779311518 -0.082965808471458069 0 0.10058413041743761 -0.090581864498492995 0 0.089190063779311518 -0.082965808471458069 0 0.1017080788123951 -0.087804556385465471 0 0.1052689549146623 -0.0663211994006144 0 0.089190063779311518 -0.082965808471458069 0 0.10058413041743761 -0.090581864498492995 0 0.1017080788123951 -0.087804556385465471 0 0.1017080788123951 -0.087804556385465471 0 0.1084674426683357 -0.077888137089068013 0 0.1052689549146623 -0.0663211994006144 0 0.089190063779311518 -0.082965808471458069 0 0.1052689549146623 -0.0663211994006144 0 0.081939961595450139 -0.063935815506958552 0 0.1067368008806147 -0.064801708903802782 0 0.1052689549146623 -0.0663211994006144 0 0.081939961595450139 -0.063935815506958552 0 0.1067368008806147 -0.064801708903802782 0 0.1017080788123951 -0.087804556385465471 0 0.1052689549146623 -0.0663211994006144 0 0.1084674426683357 -0.077888137089068013 0 0.1067368008806147 -0.064801708903802782 0 0.1052689549146623 -0.0663211994006144 0 0.1067368008806147 -0.064801708903802782 0 0.1052689549146623 -0.0663211994006144 0 0.1067368008806147 -0.064801708903802782 0 0.13548767730717889 -0.06580567532731052 0 0.1084674426683357 -0.077888137089068013 0 0.1067368008806147 -0.064801708903802782 0 0.1232061248222129 -0.075206297362028066 0 0.1067368008806147 -0.064801708903802782 0 0.1232061248222129 -0.075206297362028066 0 0.13548767730717889 -0.06580567532731052 0 0.1017080788123951 -0.087804556385465471 0 0.1084674426683357 -0.077888137089068013 0 0.1272797878356694 -0.088593758706814907 0 0.1017080788123951 -0.087804556385465471 0 0.1272797878356694 -0.088593758706814907 0 0.1084674426683357 -0.077888137089068013 0 0.1232061248222129 -0.075206297362028066 0 0.1272797878356694 -0.088593758706814907 0 0.1017080788123951 -0.087804556385465471 0 0.11567178204704499 -0.10568275569041199 0 0.1272797878356694 -0.088593758706814907 0 0.1017080788123951 -0.087804556385465471 0 0.11567178204704499 -0.10568275569041199 0 0.097441521812097198 -0.10878804364663471 0 0.1017080788123951 -0.087804556385465471 0 0.097441521812097198 -0.10878804364663471 0 0.088608598291174498 -0.101420796185217 0 0.10058413041743761 -0.090581864498492995 0 0.097441521812097198 -0.10878804364663471 0 0.10058413041743761 -0.090581864498492995 0 0.1017080788123951 -0.087804556385465471 0 0.097441521812097198 -0.10878804364663471 0 0.093527805260815264 -0.13002146576964491 0 0.097441521812097198 -0.10878804364663471 0 0.104312872852085 -0.12243825994362539 0 0.093527805260815264 -0.13002146576964491 0 0.097441521812097198 -0.10878804364663471 0 0.11567178204704499 -0.10568275569041199 0 0.097441521812097198 -0.10878804364663471 0 0.104312872852085 -0.12243825994362539 0 0.11567178204704499 -0.10568275569041199 0 0.104312872852085 -0.12243825994362539 0 0.12800820934211829 -0.12401417466047961 0 0.12800820934211829 -0.12401417466047961 0 0.14712201392247631 -0.1132275548916801 0 0.13655559816636781 -0.1031347463460832 0 0.12800820934211829 -0.12401417466047961 0 0.14712201392247631 -0.1132275548916801 0 0.11567178204704499 -0.10568275569041199 0 0.12800820934211829 -0.12401417466047961 0 0.13655559816636781 -0.1031347463460832 0 0.12800820934211829 -0.12401417466047961 0 0.14712201392247631 -0.1132275548916801 0 0.1486045981545247 -0.12747252536747111 0 0.14712201392247631 -0.1132275548916801 0 0.16095359288685571 -0.1184472051676727 0 0.1486045981545247 -0.12747252536747111 0 0.15146120268426411 -0.099532086410862586 0 0.13655559816636781 -0.1031347463460832 0 0.1528514968589437 -0.089382961028164357 0 0.14712201392247631 -0.1132275548916801 0 0.15146120268426411 -0.099532086410862586 0 0.16623581850283431 -0.10244093512288061 0 0.14712201392247631 -0.1132275548916801 0 0.15146120268426411 -0.099532086410862586 0 0.13655559816636781 -0.1031347463460832 0 0.11567178204704499 -0.10568275569041199 0 0.13655559816636781 -0.1031347463460832 0 0.1272797878356694 -0.088593758706814907 0 0.1272797878356694 -0.088593758706814907 0 0.13805891541926751 -0.078942206783145619 0 0.1528514968589437 -0.089382961028164357 0 0.1272797878356694 -0.088593758706814907 0 0.1528514968589437 -0.089382961028164357 0 0.13655559816636781 -0.1031347463460832 0 0.1272797878356694 -0.088593758706814907 0 0.1528514968589437 -0.089382961028164357 0 0.1232061248222129 -0.075206297362028066 0 0.1272797878356694 -0.088593758706814907 0 0.13805891541926751 -0.078942206783145619 0 0.1232061248222129 -0.075206297362028066 0 0.13805891541926751 -0.078942206783145619 0 0.13548767730717889 -0.06580567532731052 0 0.13548767730717889 -0.06580567532731052 0 0.16423855373374319 -0.066809641750814969 0 0.13548767730717889 -0.06580567532731052 0 0.1516507619880918 -0.076739651506421189 0 0.16423855373374319 -0.066809641750814969 0 0.13548767730717889 -0.06580567532731052 0 0.16423855373374319 -0.066809641750814969 0 0.16004124225532049 -0.061841453839887157 0 0.13805891541926751 -0.078942206783145619 0 0.13548767730717889 -0.06580567532731052 0 0.1516507619880918 -0.076739651506421189 0 0.13805891541926751 -0.078942206783145619 0 0.1516507619880918 -0.076739651506421189 0 0.1528514968589437 -0.089382961028164357 0 0.15146120268426411 -0.099532086410862586 0 0.1528514968589437 -0.089382961028164357 0 0.15581646250916109 -0.090151240212135456 0 0.1528514968589437 -0.089382961028164357 0 0.15581646250916109 -0.090151240212135456 0 0.17842320588221819 -0.090172163349513806 0 0.1528514968589437 -0.089382961028164357 0 0.17842320588221819 -0.090172163349513806 0 0.15581646250916109 -0.090151240212135456 0 0.16859491992305889 -0.093070393687126218 0 0.17842320588221819 -0.090172163349513806 0 0.1528514968589437 -0.089382961028164357 0 0.1653897445003264 -0.079862578323319361 0 0.17842320588221819 -0.090172163349513806 0 0.1516507619880918 -0.076739651506421189 0 0.1528514968589437 -0.089382961028164357 0 0.1653897445003264 -0.079862578323319361 0 0.1516507619880918 -0.076739651506421189 0 0.1653897445003264 -0.079862578323319361 0 0.16423855373374319 -0.066809641750814969 0 0.1653897445003264 -0.079862578323319361 0 0.16423855373374319 -0.066809641750814969 0 0.17833356117891219 -0.077628002067558224 0 0.16423855373374319 -0.066809641750814969 0 0.1727598808088672 -0.056322389892066158 0 0.1929894301603077 -0.067813608174319001 0 0.16423855373374319 -0.066809641750814969 0 0.1929894301603077 -0.067813608174319001 0 0.16423855373374319 -0.066809641750814969 0 0.17833356117891219 -0.077628002067558224 0 0.1929894301603077 -0.067813608174319001 0 0.17833356117891219 -0.077628002067558224 0 0.19040307974074269 -0.080139672987034255 0 0.1929894301603077 -0.067813608174319001 0 0.16859491992305889 -0.093070393687126218 0 0.17842320588221819 -0.090172163349513806 0 0.17335524666804841 -0.094081054567607611 0 0.17842320588221819 -0.090172163349513806 0 0.17824607109877541 -0.095663109832525739 0 0.17335524666804841 -0.094081054567607611 0 0.1653897445003264 -0.079862578323319361 0 0.17833356117891219 -0.077628002067558224 0 0.17842320588221819 -0.090172163349513806 0 0.17833356117891219 -0.077628002067558224 0 0.1854866420256687 -0.084161575248007242 0 0.19040307974074269 -0.080139672987034255 0 0.17833356117891219 -0.077628002067558224 0 0.17842320588221819 -0.090172163349513806 0 0.1854866420256687 -0.084161575248007242 0 0.18404025852736719 -0.096743595743047278 0 0.18504385230606449 -0.10434071571553651 0 0.19243594079672521 -0.096163448387799222 0 0.17824607109877541 -0.095663109832525739 0 0.18504385230606449 -0.10434071571553651 0 0.16623581850283431 -0.10244093512288061 0 0.18504385230606449 -0.10434071571553651 0 0.18014950107347269 -0.1188522098678762 0 0.16623581850283431 -0.10244093512288061 0 0.18404025852736719 -0.096743595743047278 0 0.17824607109877541 -0.095663109832525739 0 0.18504385230606449 -0.10434071571553651 0 0.17842320588221819 -0.090172163349513806 0 0.18404025852736719 -0.096743595743047278 0 0.19243594079672521 -0.096163448387799222 0 0.17842320588221819 -0.090172163349513806 0 0.18404025852736719 -0.096743595743047278 0 0.17824607109877541 -0.095663109832525739 0 0.17824607109877541 -0.095663109832525739 0 0.17335524666804841 -0.094081054567607611 0 0.16623581850283431 -0.10244093512288061 0 0.17824607109877541 -0.095663109832525739 0 0.16623581850283431 -0.10244093512288061 0 0.18504385230606449 -0.10434071571553651 0 0.18014950107347269 -0.1188522098678762 0 0.1922879604253335 -0.1099500278873989 0 0.18014950107347269 -0.1188522098678762 0 0.16623581850283431 -0.10244093512288061 0 0.18014950107347269 -0.1188522098678762 0 0.16095359288685571 -0.1184472051676727 0 0.16623581850283431 -0.10244093512288061 0 0.14712201392247631 -0.1132275548916801 0 0.16095359288685571 -0.1184472051676727 0 0.16623581850283431 -0.10244093512288061 0 0.18014950107347269 -0.1188522098678762 0 0.16095359288685571 -0.1184472051676727 0 0.16265603278097029 -0.1302428005884553 0 0.14712201392247631 -0.1132275548916801 0 0.16623581850283431 -0.10244093512288061 0 0.15581646250916109 -0.090151240212135456 0 0.16859491992305889 -0.093070393687126218 0 0.16623581850283431 -0.10244093512288061 0 0.15146120268426411 -0.099532086410862586 0 0.15581646250916109 -0.090151240212135456 0 0.16623581850283431 -0.10244093512288061 0 0.15581646250916109 -0.090151240212135456 0 0.16623581850283431 -0.10244093512288061 0 0.16859491992305889 -0.093070393687126218 0 0.17335524666804841 -0.094081054567607611 0 0.16623581850283431 -0.10244093512288061 0 0.13735218555535891 0.001011181807127467 0 0.1449152044553462 -0.019939696741877431 0 0.14216046477152491 0.0049125148476896544 0 0.15727218843160701 -0.01758578836774349 0 0.15849764294065671 -0.0060544572746906826 0 0.14216046477152491 0.0049125148476896544 0 0.15727218843160701 -0.01758578836774349 0 0.14216046477152491 0.0049125148476896544 0 0.1449152044553462 -0.019939696741877431 0 0.15727218843160701 -0.01758578836774349 0 0.14216046477152491 0.0049125148476896544 0 0.13735218555535891 0.001011181807127467 0 0.1449152044553462 -0.019939696741877431 0 0.13735218555535891 0.001011181807127467 0 0.1175949646085984 -0.015019396993320021 0 0.13735218555535891 0.001011181807127467 0 0.1175949646085984 -0.015019396993320021 0 0.13165260102391191 -0.019660205177744808 0 0.13735218555535891 0.001011181807127467 0 0.13165260102391191 -0.019660205177744808 0 0.1449152044553462 -0.019939696741877431 0 0.13165260102391191 -0.019660205177744808 0 0.13984755105295521 -0.030525993742740402 0 0.1449152044553462 -0.019939696741877431 0 0.124582941869709 -0.030507807285028901 0 0.13165260102391191 -0.019660205177744808 0 0.13984755105295521 -0.030525993742740402 0 0.1449152044553462 -0.019939696741877431 0 0.15247822335533329 -0.040890575290882317 0 0.15727218843160701 -0.01758578836774349 0 0.13984755105295521 -0.030525993742740402 0 0.1449152044553462 -0.019939696741877431 0 0.15247822335533329 -0.040890575290882317 0 0.1449152044553462 -0.019939696741877431 0 0.15247822335533329 -0.040890575290882317 0 0.15247822335533329 -0.040890575290882317 0 0.1379109625223634 -0.045605004272587249 0 0.14629243763992239 -0.054068479542427092 0 0.13984755105295521 -0.030525993742740402 0 0.15247822335533329 -0.040890575290882317 0 0.1379109625223634 -0.045605004272587249 0 0.1232921759667842 -0.047663851323270827 0 0.13984755105295521 -0.030525993742740402 0 0.1379109625223634 -0.045605004272587249 0 0.1232921759667842 -0.047663851323270827 0 0.124582941869709 -0.030507807285028901 0 0.13984755105295521 -0.030525993742740402 0 0.1232921759667842 -0.047663851323270827 0 0.13984755105295521 -0.030525993742740402 0 0.1232921759667842 -0.047663851323270827 0 0.13548767730717889 -0.06580567532731052 0 0.1379109625223634 -0.045605004272587249 0 0.13548767730717889 -0.06580567532731052 0 0.1379109625223634 -0.045605004272587249 0 0.14629243763992239 -0.054068479542427092 0 0.13548767730717889 -0.06580567532731052 0 0.14629243763992239 -0.054068479542427092 0 0.16004124225532049 -0.061841453839887157 0 0.15247822335533329 -0.040890575290882317 0 0.14629243763992239 -0.054068479542427092 0 0.16004124225532049 -0.061841453839887157 0 0.15247822335533329 -0.040890575290882317 0 0.16004124225532049 -0.061841453839887157 0 0.1644158146278025 -0.049784627651503079 0 0.1644158146278025 -0.049784627651503079 0 0.1727598808088672 -0.056322389892066158 0 0.1723839120916891 -0.040084091583176683 0 0.15247822335533329 -0.040890575290882317 0 0.16004124225532049 -0.061841453839887157 0 0.16423855373374319 -0.066809641750814969 0 0.16004124225532049 -0.061841453839887157 0 0.1727598808088672 -0.056322389892066158 0 0.16004124225532049 -0.061841453839887157 0 0.1644158146278025 -0.049784627651503079 0 0.1727598808088672 -0.056322389892066158 0 0.1727598808088672 -0.056322389892066158 0 0.18434240851125541 -0.050289724698312777 0 0.1723839120916891 -0.040084091583176683 0 0.1727598808088672 -0.056322389892066158 0 0.18434240851125541 -0.050289724698312777 0 0.1929894301603077 -0.067813608174319001 0 0.1723839120916891 -0.040084091583176683 0 0.18077822909658589 -0.032018797610549231 0 0.17598651952492231 -0.0227560541305885 0 0.18434240851125541 -0.050289724698312777 0 0.1723839120916891 -0.040084091583176683 0 0.18674227588606429 -0.037749552466939278 0 0.1723839120916891 -0.040084091583176683 0 0.18674227588606429 -0.037749552466939278 0 0.18077822909658589 -0.032018797610549231 0 0.18674227588606429 -0.037749552466939278 0 0.18077822909658589 -0.032018797610549231 0 0.18610830639217099 -0.030062433202775862 0 0.15247822335533329 -0.040890575290882317 0 0.1723839120916891 -0.040084091583176683 0 0.15727218843160701 -0.01758578836774349 0 0.15247822335533329 -0.040890575290882317 0 0.1644158146278025 -0.049784627651503079 0 0.1723839120916891 -0.040084091583176683 0 0.1723839120916891 -0.040084091583176683 0 0.15727218843160701 -0.01758578836774349 0 0.1723839120916891 -0.040084091583176683 0 0.1668946229318731 -0.019675061199070819 0 0.17598651952492231 -0.0227560541305885 0 0.1723839120916891 -0.040084091583176683 0 0.15727218843160701 -0.01758578836774349 0 0.1668946229318731 -0.019675061199070819 0 0.1668946229318731 -0.019675061199070819 0 0.17598651952492231 -0.0227560541305885 0 0.16985348277487761 -0.0099868764823510571 0 0.18077822909658589 -0.032018797610549231 0 0.18438258456793261 -0.021379302004443181 0 0.17598651952492231 -0.0227560541305885 0 0.18077822909658589 -0.032018797610549231 0 0.18610830639217099 -0.030062433202775862 0 0.18438258456793261 -0.021379302004443181 0 0.18438258456793261 -0.021379302004443181 0 0.17598651952492231 -0.0227560541305885 0 0.17878486519392331 -0.011645355321630489 0 0.17598651952492231 -0.0227560541305885 0 0.17878486519392331 -0.011645355321630489 0 0.16985348277487761 -0.0099868764823510571 0 0.17878486519392331 -0.011645355321630489 0 0.17506184651935949 -0.0021247232161890161 0 0.16985348277487761 -0.0099868764823510571 0 0.18438258456793261 -0.021379302004443181 0 0.17878486519392331 -0.011645355321630489 0 0.18863989258252481 -0.001979820774580698 0 0.17878486519392331 -0.011645355321630489 0 0.17506184651935949 -0.0021247232161890161 0 0.18863989258252481 -0.001979820774580698 0 0.1628037813635097 0.0015330777282007481 0 0.17506184651935949 -0.0021247232161890161 0 0.16985348277487761 -0.0099868764823510571 0 0.1668946229318731 -0.019675061199070819 0 0.16985348277487761 -0.0099868764823510571 0 0.15849764294065671 -0.0060544572746906826 0 0.15727218843160701 -0.01758578836774349 0 0.1668946229318731 -0.019675061199070819 0 0.15849764294065671 -0.0060544572746906826 0 0.1628037813635097 0.0015330777282007481 0 0.16985348277487761 -0.0099868764823510571 0 0.15849764294065671 -0.0060544572746906826 0 0.1628037813635097 0.0015330777282007481 0 0.15453230216132671 0.0032055715019124438 0 0.15849764294065671 -0.0060544572746906826 0 0.21174544862736719 0.0096628206364345465 0 0.20589386385567829 -0.0063134785331596111 0 0.2185782736923042 -0.0038367730406402641 0 0.20589386385567829 -0.0063134785331596111 0 0.2185782736923042 -0.0038367730406402641 0 0.2199828155312514 -0.0225516893132638 0 0.20589386385567829 -0.0063134785331596111 0 0.18863989258252481 -0.001979820774580698 0 0.1936475112771239 -0.030998707124919651 0 0.20589386385567829 -0.0063134785331596111 0 0.1936475112771239 -0.030998707124919651 0 0.20001428446098229 -0.034334459813343092 0 0.18863989258252481 -0.001979820774580698 0 0.1936475112771239 -0.030998707124919651 0 0.20589386385567829 -0.0063134785331596111 0 0.20001428446098229 -0.034334459813343092 0 0.18438258456793261 -0.021379302004443181 0 0.18863989258252481 -0.001979820774580698 0 0.1936475112771239 -0.030998707124919651 0 0.18610830639217099 -0.030062433202775862 0 0.18438258456793261 -0.021379302004443181 0 0.1936475112771239 -0.030998707124919651 0 0.20589386385567829 -0.0063134785331596111 0 0.20001428446098229 -0.034334459813343092 0 0.2199828155312514 -0.0225516893132638 0 0.20001428446098229 -0.034334459813343092 0 0.22061008072662569 -0.045125245157715169 0 0.20001428446098229 -0.034334459813343092 0 0.22061008072662569 -0.045125245157715169 0 0.2199828155312514 -0.0225516893132638 0 0.20001428446098229 -0.034334459813343092 0 0.19683654360934791 -0.049478981375062181 0 0.22061008072662569 -0.045125245157715169 0 0.1936475112771239 -0.030998707124919651 0 0.19683654360934791 -0.049478981375062181 0 0.18674227588606429 -0.037749552466939278 0 0.1936475112771239 -0.030998707124919651 0 0.19683654360934791 -0.049478981375062181 0 0.1936475112771239 -0.030998707124919651 0 0.20001428446098229 -0.034334459813343092 0 0.19683654360934791 -0.049478981375062181 0 0.1936475112771239 -0.030998707124919651 0 0.20001428446098229 -0.034334459813343092 0 0.18674227588606429 -0.037749552466939278 0 0.18610830639217099 -0.030062433202775862 0 0.1936475112771239 -0.030998707124919651 0 0.18434240851125541 -0.050289724698312777 0 0.18674227588606429 -0.037749552466939278 0 0.19683654360934791 -0.049478981375062181 0 0.20001428446098229 -0.034334459813343092 0 0.19683654360934791 -0.049478981375062181 0 0.19683654360934791 -0.049478981375062181 0 0.1929894301603077 -0.067813608174319001 0 0.2000429458732931 -0.068059913463883598 0 0.19683654360934791 -0.049478981375062181 0 0.21158346953455981 -0.057932445704329483 0 0.2000429458732931 -0.068059913463883598 0 0.19683654360934791 -0.049478981375062181 0 0.2000429458732931 -0.068059913463883598 0 0.19683654360934791 -0.049478981375062181 0 0.1929894301603077 -0.067813608174319001 0 0.18434240851125541 -0.050289724698312777 0 0.19683654360934791 -0.049478981375062181 0 0.1929894301603077 -0.067813608174319001 0 0.19683654360934791 -0.049478981375062181 0 0.21158346953455981 -0.057932445704329483 0 0.22061008072662569 -0.045125245157715169 0 0.24120587699226881 -0.055916030502087773 0 0.22061008072662569 -0.045125245157715169 0 0.2288443079289719 -0.069065642820655804 0 0.21158346953455981 -0.057932445704329483 0 0.22061008072662569 -0.045125245157715169 0 0.2288443079289719 -0.069065642820655804 0 0.24120587699226881 -0.055916030502087773 0 0.22061008072662569 -0.045125245157715169 0 0.25030159180115191 -0.034143426788088307 0 0.24120587699226881 -0.055916030502087773 0 0.23430517811137791 -0.037629801295311363 0 0.25030159180115191 -0.034143426788088307 0 0.23430517811137791 -0.037629801295311363 0 0.23651070060392609 -0.023431292744830981 0 0.22061008072662569 -0.045125245157715169 0 0.23430517811137791 -0.037629801295311363 0 0.2199828155312514 -0.0225516893132638 0 0.24120587699226881 -0.055916030502087773 0 0.22061008072662569 -0.045125245157715169 0 0.23430517811137791 -0.037629801295311363 0 0.2199828155312514 -0.0225516893132638 0 0.23651070060392609 -0.023431292744830981 0 0.2300866381754704 -0.0072438550720441714 0 0.23430517811137791 -0.037629801295311363 0 0.2199828155312514 -0.0225516893132638 0 0.23651070060392609 -0.023431292744830981 0 0.25030159180115191 -0.034143426788088307 0 0.23651070060392609 -0.023431292744830981 0 0.2464198669495459 -0.012097030270161889 0 0.23790413247208811 0.0091049515404343275 0 0.2464198669495459 -0.012097030270161889 0 0.2300866381754704 -0.0072438550720441714 0 0.23651070060392609 -0.023431292744830981 0 0.2464198669495459 -0.012097030270161889 0 0.2300866381754704 -0.0072438550720441714 0 0.2185782736923042 -0.0038367730406402641 0 0.2199828155312514 -0.0225516893132638 0 0.2300866381754704 -0.0072438550720441714 0 0.22518260227175371 0.0072623370788317187 0 0.2185782736923042 -0.0038367730406402641 0 0.2300866381754704 -0.0072438550720441714 0 0.20666963866093291 -0.1113398018781358 0 0.20399491490549271 -0.090961365670864353 0 0.20666963866093291 -0.1113398018781358 0 0.23081911420975029 -0.091789222750733895 0 0.20666963866093291 -0.1113398018781358 0 0.20399491490549271 -0.090961365670864353 0 0.23081911420975029 -0.091789222750733895 0 0.2184940671700534 -0.12394732724419751 0 0.20666963866093291 -0.1113398018781358 0 0.22056261316880149 -0.1108234873110058 0 0.2184940671700534 -0.12394732724419751 0 0.20975191972323501 -0.12432290509972491 0 0.20666963866093291 -0.1113398018781358 0 0.2184940671700534 -0.12394732724419751 0 0.20666963866093291 -0.1113398018781358 0 0.20975191972323501 -0.12432290509972491 0 0.20666963866093291 -0.1113398018781358 0 0.1971408692894723 -0.1190539635876471 0 0.20975191972323501 -0.12432290509972491 0 0.20666963866093291 -0.1113398018781358 0 0.18014950107347269 -0.1188522098678762 0 0.1971408692894723 -0.1190539635876471 0 0.19406318364410949 -0.13526348461287321 0 0.20666963866093291 -0.1113398018781358 0 0.1971408692894723 -0.1190539635876471 0 0.18014950107347269 -0.1188522098678762 0 0.1971408692894723 -0.1190539635876471 0 0.1922879604253335 -0.1099500278873989 0 0.20666963866093291 -0.1113398018781358 0 0.1971408692894723 -0.1190539635876471 0 0.1922879604253335 -0.1099500278873989 0 0.20666963866093291 -0.1113398018781358 0 0.19243594079672521 -0.096163448387799222 0 0.20399491490549271 -0.090961365670864353 0 0.18504385230606449 -0.10434071571553651 0 0.1922879604253335 -0.1099500278873989 0 0.19243594079672521 -0.096163448387799222 0 0.20666963866093291 -0.1113398018781358 0 0.1922879604253335 -0.1099500278873989 0 0.19243594079672521 -0.096163448387799222 0 0.20666963866093291 -0.1113398018781358 0 0.19243594079672521 -0.096163448387799222 0 0.1854866420256687 -0.084161575248007242 0 0.19040307974074269 -0.080139672987034255 0 0.20399491490549271 -0.090961365670864353 0 0.17842320588221819 -0.090172163349513806 0 0.19243594079672521 -0.096163448387799222 0 0.20399491490549271 -0.090961365670864353 0 0.17842320588221819 -0.090172163349513806 0 0.20399491490549271 -0.090961365670864353 0 0.17842320588221819 -0.090172163349513806 0 0.1854866420256687 -0.084161575248007242 0 0.20399491490549271 -0.090961365670864353 0 0.2000429458732931 -0.068059913463883598 0 0.20399491490549271 -0.090961365670864353 0 0.19040307974074269 -0.080139672987034255 0 0.2000429458732931 -0.068059913463883598 0 0.20399491490549271 -0.090961365670864353 0 0.19040307974074269 -0.080139672987034255 0 0.1929894301603077 -0.067813608174319001 0 0.2000429458732931 -0.068059913463883598 0 0.19040307974074269 -0.080139672987034255 0 0.1929894301603077 -0.067813608174319001 0 0.1929894301603077 -0.067813608174319001 0 0.2000429458732931 -0.068059913463883598 0 0.2000429458732931 -0.068059913463883598 0 0.2288443079289719 -0.069065642820655804 0 0.2000429458732931 -0.068059913463883598 0 0.21771238563745279 -0.081480669998114597 0 0.2288443079289719 -0.069065642820655804 0 0.21158346953455981 -0.057932445704329483 0 0.2000429458732931 -0.068059913463883598 0 0.2288443079289719 -0.069065642820655804 0 0.2000429458732931 -0.068059913463883598 0 0.20399491490549271 -0.090961365670864353 0 0.21771238563745279 -0.081480669998114597 0 0.20399491490549271 -0.090961365670864353 0 0.21771238563745279 -0.081480669998114597 0 0.23081911420975029 -0.091789222750733895 0 0.20399491490549271 -0.090961365670864353 0 0.23081911420975029 -0.091789222750733895 0 0.21771238563745279 -0.081480669998114597 0 0.23081911420975029 -0.091789222750733895 0 0.2288443079289719 -0.069065642820655804 0 0.25764566998465072 -0.070071372177431313 0 0.24120587699226881 -0.055916030502087773 0 0.2288443079289719 -0.069065642820655804 0 0.25764566998465072 -0.070071372177431313 0 0.2288443079289719 -0.069065642820655804 0 0.25764566998465072 -0.070071372177431313 0 0.2288443079289719 -0.069065642820655804 0 0.24423239209720191 -0.080930297464084477 0 0.25666672159796139 -0.092586939936295867 0 0.23081911420975029 -0.091789222750733895 0 0.23081911420975029 -0.091789222750733895 0 0.2288443079289719 -0.069065642820655804 0 0.24423239209720191 -0.080930297464084477 0 0.25666672159796139 -0.092586939936295867 0 0.23081911420975029 -0.091789222750733895 0 0.24423239209720191 -0.080930297464084477 0 0.23081911420975029 -0.091789222750733895 0 0.24423239209720191 -0.080930297464084477 0 0.25666672159796139 -0.092586939936295867 0 0.23081911420975029 -0.091789222750733895 0 0.23839025179526999 -0.1151992729885977 0 0.20666963866093291 -0.1113398018781358 0 0.23081911420975029 -0.091789222750733895 0 0.22056261316880149 -0.1108234873110058 0 0.23081911420975029 -0.091789222750733895 0 0.22056261316880149 -0.1108234873110058 0 0.23839025179526999 -0.1151992729885977 0 0.2184940671700534 -0.12394732724419751 0 0.22056261316880149 -0.1108234873110058 0 0.23839025179526999 -0.1151992729885977 0 0.2184940671700534 -0.12394732724419751 0 0.23839025179526999 -0.1151992729885977 0 0.22928680998153819 -0.13545484142638689 0 0.25915390151091949 -0.11811210275817149 0 0.25133622254172122 -0.13557462765415079 0 0.23839025179526999 -0.1151992729885977 0 0.25133622254172122 -0.13557462765415079 0 0.25208407187516418 -0.1419613505697605 0 0.23274332603383319 -0.13914027229300069 0 0.25133622254172122 -0.13557462765415079 0 0.23839025179526999 -0.1151992729885977 0 0.22928680998153819 -0.13545484142638689 0 0.25133622254172122 -0.13557462765415079 0 0.22928680998153819 -0.13545484142638689 0 0.25133622254172122 -0.13557462765415079 0 0.23274332603383319 -0.13914027229300069 0 0.22928680998153819 -0.13545484142638689 0 0.25208407187516418 -0.1419613505697605 0 0.23274332603383319 -0.13914027229300069 0 0.2530488896403309 -0.16079061319898569 0 0.23274332603383319 -0.13914027229300069 0 0.2530488896403309 -0.16079061319898569 0 0.23274332603383319 -0.13914027229300069 0 0.2334622085995452 -0.15779257262933219 0 0.2530488896403309 -0.16079061319898569 0 0.25208407187516418 -0.1419613505697605 0 0.23274332603383319 -0.13914027229300069 0 0.22694604844669111 -0.15137512496012309 0 0.2202725953444182 -0.1456731206256075 0 0.22100128495381829 -0.16152072110389429 0 0.22694604844669111 -0.15137512496012309 0 0.23274332603383319 -0.13914027229300069 0 0.2334622085995452 -0.15779257262933219 0 0.22694604844669111 -0.15137512496012309 0 0.2202725953444182 -0.1456731206256075 0 0.23274332603383319 -0.13914027229300069 0 0.23274332603383319 -0.13914027229300069 0 0.20959101376118139 -0.13576323162740581 0 0.22928680998153819 -0.13545484142638689 0 0.2116749968128239 -0.1353591630196288 0 0.23274332603383319 -0.13914027229300069 0 0.22928680998153819 -0.13545484142638689 0 0.2116749968128239 -0.1353591630196288 0 0.2184940671700534 -0.12394732724419751 0 0.22928680998153819 -0.13545484142638689 0 0.2116749968128239 -0.1353591630196288 0 0.2202725953444182 -0.1456731206256075 0 0.23274332603383319 -0.13914027229300069 0 0.20959101376118139 -0.13576323162740581 0 0.23274332603383319 -0.13914027229300069 0 0.22928680998153819 -0.13545484142638689 0 0.2184940671700534 -0.12394732724419751 0 0.22928680998153819 -0.13545484142638689 0 0.23274332603383319 -0.13914027229300069 0 0.20959101376118139 -0.13576323162740581 0 0.2116749968128239 -0.1353591630196288 0 0.20975191972323501 -0.12432290509972491 0 0.2116749968128239 -0.1353591630196288 0 0.19406318364410949 -0.13526348461287321 0 0.2184940671700534 -0.12394732724419751 0 0.20975191972323501 -0.12432290509972491 0 0.2116749968128239 -0.1353591630196288 0 0.20959101376118139 -0.13576323162740581 0 0.2116749968128239 -0.1353591630196288 0 0.19406318364410949 -0.13526348461287321 0 0.2202725953444182 -0.1456731206256075 0 0.21077041390333781 -0.15496976615408631 0 0.22100128495381829 -0.16152072110389429 0 0.2202725953444182 -0.1456731206256075 0 0.20959101376118139 -0.13576323162740581 0 0.21077041390333781 -0.15496976615408631 0 0.20959101376118139 -0.13576323162740581 0 0.21077041390333781 -0.15496976615408631 0 0.19406318364410949 -0.13526348461287321 0 0.21077041390333781 -0.15496976615408631 0 0.19019323353294471 -0.15547991582157239 0 0.19406318364410949 -0.13526348461287321 0 0.21077041390333781 -0.15496976615408631 0 0.19406318364410949 -0.13526348461287321 0 0.20975191972323501 -0.12432290509972491 0 0.1971408692894723 -0.1190539635876471 0 0.19406318364410949 -0.13526348461287321 0 0.2116749968128239 -0.1353591630196288 0 0.19406318364410949 -0.13526348461287321 0 0.2064216300685435 -0.1763378775815001 0 0.19333004299069351 -0.19482382871724169 0 0.185888281266576 -0.1738959907954824 0 0.21077041390333781 -0.15496976615408631 0 0.19019323353294471 -0.15547991582157239 0 0.2064216300685435 -0.1763378775815001 0 0.19019323353294471 -0.15547991582157239 0 0.2064216300685435 -0.1763378775815001 0 0.185888281266576 -0.1738959907954824 0 0.21077041390333781 -0.15496976615408631 0 0.2064216300685435 -0.1763378775815001 0 0.22100128495381829 -0.16152072110389429 0 0.2064216300685435 -0.1763378775815001 0 0.22637928715471201 -0.1750627007060517 0 0.22100128495381829 -0.16152072110389429 0 0.2064216300685435 -0.1763378775815001 0 0.22637928715471201 -0.1750627007060517 0 0.2213864998634191 -0.19074186604973761 0 0.22637928715471201 -0.1750627007060517 0 0.2363010186387848 -0.18586727398715949 0 0.2213864998634191 -0.19074186604973761 0 0.22637928715471201 -0.1750627007060517 0 0.22100128495381829 -0.16152072110389429 0 0.2334622085995452 -0.15779257262933219 0 0.22637928715471201 -0.1750627007060517 0 0.2334622085995452 -0.15779257262933219 0 0.24133419147104179 -0.17110858194103351 0 0.22694604844669111 -0.15137512496012309 0 0.22100128495381829 -0.16152072110389429 0 0.2334622085995452 -0.15779257262933219 0 0.2530488896403309 -0.16079061319898569 0 0.2334622085995452 -0.15779257262933219 0 0.24133419147104179 -0.17110858194103351 0 0.2550208565069661 -0.17514012483034949 0 0.2530488896403309 -0.16079061319898569 0 0.24133419147104179 -0.17110858194103351 0 0.22637928715471201 -0.1750627007060517 0 0.24133419147104179 -0.17110858194103351 0 0.2363010186387848 -0.18586727398715949 0 0.25030889548151403 -0.1837077448593728 0 0.2550208565069661 -0.17514012483034949 0 0.24133419147104179 -0.17110858194103351 0 0.25030889548151403 -0.1837077448593728 0 0.24133419147104179 -0.17110858194103351 0 0.2363010186387848 -0.18586727398715949 0 0.25030889548151403 -0.1837077448593728 0 0.2363010186387848 -0.18586727398715949 0 0.24624710011957149 -0.19756578472926509 0 0.2363010186387848 -0.18586727398715949 0 0.24624710011957149 -0.19756578472926509 0 0.23232272155890341 -0.19906227567560569 0 0.24624710011957149 -0.19756578472926509 0 0.2390873575194972 -0.2119906927462733 0 0.23232272155890341 -0.19906227567560569 0 0.25806059678156651 -0.21160485628964759 0 0.24624710011957149 -0.19756578472926509 0 0.2390873575194972 -0.2119906927462733 0 0.25806059678156651 -0.21160485628964759 0 0.2390873575194972 -0.2119906927462733 0 0.2485278721491469 -0.22983386195931649 0 0.22156570902884701 -0.2081716276760221 0 0.2275965143199381 -0.22680811778712909 0 0.21130945108473639 -0.22000441216527869 0 0.2390873575194972 -0.2119906927462733 0 0.22156570902884701 -0.2081716276760221 0 0.23232272155890341 -0.19906227567560569 0 0.2390873575194972 -0.2119906927462733 0 0.22156570902884701 -0.2081716276760221 0 0.2275965143199381 -0.22680811778712909 0 0.22156570902884701 -0.2081716276760221 0 0.2213864998634191 -0.19074186604973761 0 0.23232272155890341 -0.19906227567560569 0 0.2363010186387848 -0.18586727398715949 0 0.2213864998634191 -0.19074186604973761 0 0.23232272155890341 -0.19906227567560569 0 0.2410490216361528 -0.25300372010805161 0 0.2485278721491469 -0.22983386195931649 0 0.2275965143199381 -0.22680811778712909 0 0.25787859859726192 -0.24372773219337371 0 0.2410490216361528 -0.25300372010805161 0 0.2485278721491469 -0.22983386195931649 0 0.2390873575194972 -0.2119906927462733 0 0.2485278721491469 -0.22983386195931649 0 0.2275965143199381 -0.22680811778712909 0 0.2410490216361528 -0.25300372010805161 0 0.2275965143199381 -0.22680811778712909 0 0.2136455624920251 -0.24586339942155419 0 0.2410490216361528 -0.25300372010805161 0 0.2136455624920251 -0.24586339942155419 0 0.2136455624920251 -0.24586339942155419 0 0.1995187067769538 -0.22648505830905971 0 0.1970165427207646 -0.2431475676051908 0 0.2275965143199381 -0.22680811778712909 0 0.2136455624920251 -0.24586339942155419 0 0.21130945108473639 -0.22000441216527869 0 0.2136455624920251 -0.24586339942155419 0 0.21130945108473639 -0.22000441216527869 0 0.1995187067769538 -0.22648505830905971 0 0.1995187067769538 -0.22648505830905971 0 0.1970165427207646 -0.2431475676051908 0 0.1843931124890181 -0.23269732176232691 0 0.21130945108473639 -0.22000441216527869 0 0.1995187067769538 -0.22648505830905971 0 0.19847161958806309 -0.21206345826637629 0 0.2064216300685435 -0.1763378775815001 0 0.2213864998634191 -0.19074186604973761 0 0.20705859430259141 -0.20063481153153051 0 0.22156570902884701 -0.2081716276760221 0 0.2213864998634191 -0.19074186604973761 0 0.20705859430259141 -0.20063481153153051 0 0.22156570902884701 -0.2081716276760221 0 0.21130945108473639 -0.22000441216527869 0 0.20705859430259141 -0.20063481153153051 0 0.21130945108473639 -0.22000441216527869 0 0.20705859430259141 -0.20063481153153051 0 0.19847161958806309 -0.21206345826637629 0 0.19847161958806309 -0.21206345826637629 0 0.19333004299069351 -0.19482382871724169 0 0.184507054165965 -0.21658659277756609 0 0.1995187067769538 -0.22648505830905971 0 0.19847161958806309 -0.21206345826637629 0 0.184507054165965 -0.21658659277756609 0 0.20705859430259141 -0.20063481153153051 0 0.19847161958806309 -0.21206345826637629 0 0.19333004299069351 -0.19482382871724169 0 0.2064216300685435 -0.1763378775815001 0 0.20705859430259141 -0.20063481153153051 0 0.19333004299069351 -0.19482382871724169 0 0.1776330785524223 -0.18942424135099509 0 0.184507054165965 -0.21658659277756609 0 0.16837846483810831 -0.20319749351435479 0 0.19333004299069351 -0.19482382871724169 0 0.1776330785524223 -0.18942424135099509 0 0.184507054165965 -0.21658659277756609 0 0.1776330785524223 -0.18942424135099509 0 0.184507054165965 -0.21658659277756609 0 0.184507054165965 -0.21658659277756609 0 0.1749867686249286 -0.21735889230250449 0 0.16837846483810831 -0.20319749351435479 0 0.1749867686249286 -0.21735889230250449 0 0.16837846483810831 -0.20319749351435479 0 0.15045483047290331 -0.2082327262959493 0 0.1749867686249286 -0.21735889230250449 0 0.15045483047290331 -0.2082327262959493 0 0.1749867686249286 -0.21735889230250449 0 0.16226861639455931 -0.22172210758959859 0 0.15045483047290331 -0.2082327262959493 0 0.16837846483810831 -0.20319749351435479 0 0.15045483047290331 -0.2082327262959493 0 0.15431059237432221 -0.18438501484475869 0 0.1776330785524223 -0.18942424135099509 0 0.16837846483810831 -0.20319749351435479 0 0.15431059237432221 -0.18438501484475869 0 0.1970165427207646 -0.2431475676051908 0 0.18013525364959199 -0.24590787480667409 0 0.1843931124890181 -0.23269732176232691 0 0.18013525364959199 -0.24590787480667409 0 0.1843931124890181 -0.23269732176232691 0 0.17030829067285161 -0.2305872157882054 0 0.1995187067769538 -0.22648505830905971 0 0.1749867686249286 -0.21735889230250449 0 0.1995187067769538 -0.22648505830905971 0 0.1749867686249286 -0.21735889230250449 0 0.1843931124890181 -0.23269732176232691 0 0.1995187067769538 -0.22648505830905971 0 0.184507054165965 -0.21658659277756609 0 0.1749867686249286 -0.21735889230250449 0 0.1749867686249286 -0.21735889230250449 0 0.1843931124890181 -0.23269732176232691 0 0.17030829067285161 -0.2305872157882054 0 0.16226861639455931 -0.22172210758959859 0 0.17030829067285161 -0.2305872157882054 0 0.15332457580755371 -0.23070959597173549 0 0.1749867686249286 -0.21735889230250449 0 0.16226861639455931 -0.22172210758959859 0 0.17030829067285161 -0.2305872157882054 0 0.16103468924722281 -0.25381861710109321 0 0.18013525364959199 -0.24590787480667409 0 0.17030829067285161 -0.2305872157882054 0 0.16103468924722281 -0.25381861710109321 0 0.17030829067285161 -0.2305872157882054 0 0.15332457580755371 -0.23070959597173549 0 0.16103468924722281 -0.25381861710109321 0 0.1412434604122122 -0.24631040783256791 0 0.15332457580755371 -0.23070959597173549 0 0.1412434604122122 -0.24631040783256791 0 0.15332457580755371 -0.23070959597173549 0 0.1284413173888232 -0.22347585252773641 0 0.15332457580755371 -0.23070959597173549 0 0.1284413173888232 -0.22347585252773641 0 0.15045483047290331 -0.2082327262959493 0 0.16226861639455931 -0.22172210758959859 0 0.15332457580755371 -0.23070959597173549 0 0.15045483047290331 -0.2082327262959493 0 0.1200034520355143 -0.24749468667538321 0 0.1412434604122122 -0.24631040783256791 0 0.1284413173888232 -0.22347585252773641 0 0.15045483047290331 -0.2082327262959493 0 0.12592289232087811 -0.19910656028939411 0 0.15431059237432221 -0.18438501484475869 0 0.15045483047290331 -0.2082327262959493 0 0.12592289232087811 -0.19910656028939411 0 0.1284413173888232 -0.22347585252773641 0 0.15045483047290331 -0.2082327262959493 0 0.12592289232087811 -0.19910656028939411 0 0.11404320040195411 -0.17785048998131209 0 0.12592289232087811 -0.19910656028939411 0 0.1362427207560932 -0.1734399905344442 0 0.12592289232087811 -0.19910656028939411 0 0.1362427207560932 -0.1734399905344442 0 0.15431059237432221 -0.18438501484475869 0 0.1362427207560932 -0.1734399905344442 0 0.15431059237432221 -0.18438501484475869 0 0.1498051255961938 -0.157092757972084 0 0.11404320040195411 -0.17785048998131209 0 0.1362427207560932 -0.1734399905344442 0 0.1305387904294309 -0.15561497697083931 0 0.1362427207560932 -0.1734399905344442 0 0.1498051255961938 -0.157092757972084 0 0.1305387904294309 -0.15561497697083931 0 0.1498051255961938 -0.157092757972084 0 0.1305387904294309 -0.15561497697083931 0 0.13638976604354719 -0.13495016646355951 0 0.1161887790728692 -0.1476769396888597 0 0.1305387904294309 -0.15561497697083931 0 0.13638976604354719 -0.13495016646355951 0 0.12800820934211829 -0.12401417466047961 0 0.13638976604354719 -0.13495016646355951 0 0.1486045981545247 -0.12747252536747111 0 0.13638976604354719 -0.13495016646355951 0 0.16388512732533739 -0.13509953849785281 0 0.13638976604354719 -0.13495016646355951 0 0.1486045981545247 -0.12747252536747111 0 0.16388512732533739 -0.13509953849785281 0 0.1498051255961938 -0.157092757972084 0 0.13638976604354719 -0.13495016646355951 0 0.16388512732533739 -0.13509953849785281 0 0.16388512732533739 -0.13509953849785281 0 0.17075910293887969 -0.16226188992442411 0 0.1498051255961938 -0.157092757972084 0 0.16388512732533739 -0.13509953849785281 0 0.17075910293887969 -0.16226188992442411 0 0.18014950107347269 -0.1188522098678762 0 0.16265603278097029 -0.1302428005884553 0 0.16388512732533739 -0.13509953849785281 0 0.16095359288685571 -0.1184472051676727 0 0.1486045981545247 -0.12747252536747111 0 0.16265603278097029 -0.1302428005884553 0 0.1486045981545247 -0.12747252536747111 0 0.16265603278097029 -0.1302428005884553 0 0.16388512732533739 -0.13509953849785281 0 0.16265603278097029 -0.1302428005884553 0 0.16388512732533739 -0.13509953849785281 0 0.19406318364410949 -0.13526348461287321 0 0.16388512732533739 -0.13509953849785281 0 0.18014950107347269 -0.1188522098678762 0 0.19406318364410949 -0.13526348461287321 0 0.18014950107347269 -0.1188522098678762 0 0.19406318364410949 -0.13526348461287321 0 0.16388512732533739 -0.13509953849785281 0 0.19019323353294471 -0.15547991582157239 0 0.16388512732533739 -0.13509953849785281 0 0.17075910293887969 -0.16226188992442411 0 0.19019323353294471 -0.15547991582157239 0 0.19406318364410949 -0.13526348461287321 0 0.16388512732533739 -0.13509953849785281 0 0.19019323353294471 -0.15547991582157239 0 0.185888281266576 -0.1738959907954824 0 0.17075910293887969 -0.16226188992442411 0 0.1776330785524223 -0.18942424135099509 0 0.185888281266576 -0.1738959907954824 0 0.17075910293887969 -0.16226188992442411 0 0.1776330785524223 -0.18942424135099509 0 0.17075910293887969 -0.16226188992442411 0 0.19333004299069351 -0.19482382871724169 0 0.1776330785524223 -0.18942424135099509 0 0.185888281266576 -0.1738959907954824 0 0.1776330785524223 -0.18942424135099509 0 0.15431059237432221 -0.18438501484475869 0 0.17075910293887969 -0.16226188992442411 0 0.15431059237432221 -0.18438501484475869 0 0.1498051255961938 -0.157092757972084 0 0.17075910293887969 -0.16226188992442411 0 
</DataArray>
</Points>
<Cells>
<DataArray type="UInt32" Name="connectivity" format="ascii">
0 1 2 3 4 5 6 7 8 9 10 11 12 13 14 15 16 17 18 19 20 21 22 23 24 25 26 27 28 29 30 31 32 33 34 35 36 37 38 39 40 41 42 43 44 45 46 47 48 49 50 51 52 53 54 55 56 57 58 59 60 61 62 63 64 65 66 67 68 69 70 71 72 73 74 75 76 77 78 79 80 81 82 83 84 85 86 87 88 89 90 91 92 93 94 95 96 97 98 99 100 101 102 103 104 105 106 107 108 109 110 111 112 113 114 115 116 117 118 119 120 121 122 123 124 125 126 127 128 129 130 131 132 133 134 135 136 137 138 139 140 141 142 143 144 145 146 147 148 149 150 151 152 153 154 155 156 157 158 159 160 161 162 163 164 165 166 167 168 169 170 171 172 173 174 175 176 177 178 179 180 181 182 183 184 185 186 187 188 189 190 191 192 193 194 195 196 197 198 199 200 201 202 203 204 205 206 207 208 209 210 211 212 213 214 215 216 217 218 219 220 221 222 223 224 225 226 227 228 229 230 231 232 233 234 235 236 237 238 239 240 241 242 243 244 245 246 247 248 249 250 251 252 253 254 255 256 257 258 259 260 261 262 263 264 265 266 267 268 269 270 271 272 273 274 275 276 277 278 279 280 281 282 283 284 285 286 287 288 289 290 291 292 293 294 295 296 297 298 299 300 301 302 303 304 305 306 307 308 309 310 311 312 313 314 315 316 317 318 319 320 321 322 323 324 325 326 327 328 329 330 331 332 333 334 335 336 337 338 339 340 341 342 343 344 345 346 347 348 349 350 351 352 353 354 355 356 357 358 359 360 361 362 363 364 365 366 367 368 369 370 371 372 373 374 375 376 377 378 379 380 381 382 383 384 385 386 387 388 389 390 391 392 393 394 395 396 397 398 399 400 401 402 403 404 405 406 407 408 409 410 411 412 413 414 415 416 417 418 419 420 421 422 423 424 425 426 427 428 429 430 431 432 433 434 435 436 437 438 439 440 441 442 443 444 445 446 447 448 449 450 451 452 453 454 455 456 457 458 459 460 461 462 463 464 465 466 467 468 469 470 471 472 473 474 475 476 477 478 479 480 481 482 483 484 485 486 487 488 489 490 491 492 493 494 495 496 497 498 499 500 501 502 503 504 505 506 507 508 509 510 511 512 513 514 515 516 517 518 519 520 521 522 523 524 525 526 527 528 529 530 531 532 533 534 535 536 537 538 539 540 541 542 543 544 545 546 547 548 549 550 551 552 553 554 555 556 557 558 559 560 561 562 563 564 565 566 567 568 569 570 571 572 573 574 575 576 577 578 579 580 581 582 583 584 585 586 587 588 589 590 591 592 593 594 595 596 597 598 599 600 601 602 603 604 605 606 607 608 609 610 611 612 613 614 615 616 617 618 619 620 621 622 623 624 625 626 627 628 629 630 631 632 633 634 635 636 637 638 639 640 641 642 643 644 645 646 647 648 649 650 651 652 653 654 655 656 657 658 659 660 661 662 663 664 665 666 667 668 669 670 671 672 673 674 675 676 677 678 679 680 681 682 683 684 685 686 687 688 689 690 691 692 693 694 695 696 697 698 699 700 701 702 703 704 705 706 707 708 709 710 711 712 713 714 715 716 717 718 719 720 721 722 723 724 725 726 727 728 729 730 731 732 733 734 735 736 737 738 739 740 741 742 743 744 745 746 747 748 749 750 751 752 753 754 755 756 757 758 759 760 761 762 763 764 765 766 767 768 769 770 771 772 773 774 775 776 777 778 779 780 781 782 783 784 785 786 787 788 789 790 791 792 793 794 795 796 797 798 799 800 801 802 803 804 805 806 807 808 809 810 811 812 813 814 815 816 817 818 819 820 821 822 823 824 825 826 827 828 829 830 831 832 833 834 835 836 837 838 839 840 841 842 843 844 845 846 847 848 849 850 851 852 853 854 855 856 857 858 859 860 861 862 863 864 865 866 867 868 869 870 871 872 873 874 875 876 877 878 879 880 881 882 883 884 885 886 887 888 889 890 891 892 893 894 895 896 897 898 899 900 901 902 903 904 905 906 907 908 909 910 911 912 913 914 915 916 917 918 919 920 921 922 923 924 925 926 927 928 929 930 931 932 933 934 935 936 937 938 939 940 941 942 943 944 945 946 947 948 949 950 951 952 953 954 955 956 957 958 959 960 961 962 963 964 965 966 967 968 969 970 971 972 973 974 975 976 977 978 979 980 981 982 983 984 985 986 987 988 989 990 991 992 993 994 995 996 997 998 999 1000 1001 1002 1003 1004 1005 1006 1007 1008 1009 1010 1011 1012 1013 1014 1015 1016 1017 1018 1019 1020 1021 1022 1023 1024 1025 1026 1027 1028 1029 1030 1031 1032 1033 1034 1035 1036 1037 1038 1039 1040 1041 1042 1043 1044 1045 1046 1047 1048 1049 1050 1051 1052 1053 1054 1055 1056 1057 1058 1059 1060 1061 1062 1063 1064 1065 1066 1067 1068 1069 1070 1071 1072 1073 1074 1075 1076 1077 1078 1079 1080 1081 1082 1083 1084 1085 1086 1087 1088 1089 1090 1091 1092 1093 1094 1095 1096 1097 1098 1099 1100 1101 1102 1103 1104 1105 1106 1107 1108 1109 1110 1111 1112 1113 1114 1115 1116 1117 1118 1119 1120 1121 1122 1123 1124 1125 1126 1127 1128 1129 1130 1131 1132 1133 1134 1135 1136 1137 1138 1139 1140 1141 1142 1143 1144 1145 1146 1147 1148 1149 1150 1151 1152 1153 1154 1155 1156 1157 1158 1159 1160 1161 1162 1163 1164 1165 1166 1167 1168 1169 1170 1171 1172 1173 1174 1175 1176 1177 1178 1179 1180 1181 1182 1183 1184 1185 1186 1187 1188 1189 1190 1191 1192 1193 1194 1195 1196 1197 1198 1199 1200 1201 1202 1203 1204 1205 1206 1207 1208 1209 1210 1211 1212 1213 1214 1215 1216 1217 1218 1219 1220 1221 1222 1223 1224 1225 1226 1227 1228 1229 1230 1231 1232 1233 1234 1235 1236 1237 1238 1239 1240 1241 1242 1243 1244 1245 1246 1247 1248 1249 1250 1251 1252 1253 1254 1255 1256 1257 1258 1259 1260 1261 1262 1263 1264 1265 1266 1267 1268 1269 1270 1271 1272 1273 1274 1275 1276 1277 1278 1279 1280 1281 1282 1283 1284 1285 1286 1287 1288 1289 1290 1291 1292 1293 1294 1295 1296 1297 1298 1299 1300 1301 1302 1303 1304 1305 1306 1307 1308 1309 1310 1311 1312 1313 1314 1315 1316 1317 1318 1319 1320 1321 1322 1323 1324 1325 1326 1327 1328 1329 1330 1331 1332 1333 1334 1335 1336 1337 1338 1339 1340 1341 1342 1343 1344 1345 1346 1347 1348 1349 1350 1351 1352 1353 1354 1355 1356 1357 1358 1359 1360 1361 1362 1363 1364 1365 1366 1367 1368 1369 1370 1371 1372 1373 1374 1375 1376 1377 1378 1379 1380 1381 1382 1383 1384 1385 1386 1387 1388 1389 1390 1391 1392 1393 1394 1395 1396 1397 1398 1399 1400 1401 1402 1403 1404 1405 1406 1407 1408 1409 1410 1411 1412 1413 1414 1415 1416 1417 1418 1419 1420 1421 1422 1423 1424 1425 1426 1427 1428 1429 1430 1431 1432 1433 1434 1435 1436 1437 1438 1439 1440 1441 1442 1443 1444 1445 1446 1447 1448 1449 1450 1451 1452 1453 1454 1455 1456 1457 1458 1459 1460 1461 1462 1463 1464 1465 1466 1467 1468 1469 1470 1471 1472 1473 1474 1475 1476 1477 1478 1479 1480 1481 1482 1483 1484 1485 1486 1487 1488 1489 1490 1491 1492 1493 1494 1495 1496 1497 1498 1499 1500 1501 1502 1503 1504 1505 1506 1507 1508 1509 1510 1511 1512 1513 1514 1515 1516 1517 1518 1519 1520 1521 1522 1523 1524 1525 1526 1527 1528 1529 1530 1531 1532 1533 1534 1535 1536 1537 1538 1539 1540 1541 1542 1543 1544 1545 1546 1547 1548 1549 1550 1551 1552 1553 1554 1555 1556 1557 1558 1559 1560 1561 1562 1563 1564 1565 1566 1567 1568 1569 1570 1571 1572 1573 1574 1575 1576 1577 1578 1579 1580 1581 1582 1583 1584 1585 1586 1587 1588 1589 1590 1591 1592 1593 1594 1595 1596 1597 1598 1599 1600 1601 1602 1603 1604 1605 1606 1607 1608 1609 1610 1611 1612 1613 1614 1615 1616 1617 1618 1619 1620 1621 1622 1623 1624 1625 1626 1627 1628 1629 1630 1631 1632 1633 1634 1635 1636 1637 1638 1639 1640 1641 1642 1643 1644 1645 1646 1647 1648 1649 1650 1651 1652 1653 1654 1655 1656 1657 1658 1659 1660 1661 1662 1663 1664 1665 1666 1667 1668 1669 1670 1671 1672 1673 1674 1675 1676 1677 1678 1679 1680 1681 1682 1683 1684 1685 1686 1687 1688 1689 1690 1691 1692 1693 1694 1695 1696 1697 1698 1699 1700 1701 1702 1703 1704 1705 1706 1707 1708 1709 1710 1711 1712 1713 1714 1715 1716 1717 1718 1719 1720 1721 1722 1723 1724 1725 1726 1727 1728 1729 1730 1731 1732 1733 1734 1735 1736 1737 1738 1739 1740 1741 1742 1743 1744 1745 1746 1747 1748 1749 1750 1751 1752 1753 1754 1755 1756 1757 1758 1759 1760 1761 1762 1763 1764 1765 1766 1767 1768 1769 1770 1771 1772 1773 1774 1775 1776 1777 1778 1779 1780 1781 1782 1783 1784 1785 1786 1787 1788 1789 1790 1791 1792 1793 1794 1795 1796 1797 1798 1799 1800 1801 1802 1803 1804 1805 1806 1807 1808 1809 1810 1811 1812 1813 1814 1815 1816 1817 1818 1819 1820 1821 1822 1823 1824 1825 1826 1827 1828 1829 1830 1831 1832 1833 1834 1835 1836 1837 1838 1839 1840 1841 1842 1843 1844 1845 1846 1847 1848 1849 1850 1851 1852 1853 1854 1855 1856 1857 1858 1859 1860 1861 1862 1863 1864 1865 1866 1867 1868 1869 1870 1871 1872 1873 1874 1875 1876 1877 1878 1879 1880 1881 1882 1883 1884 1885 1886 1887 1888 1889 1890 1891 1892 1893 1894 1895 1896 1897 1898 1899 1900 1901 1902 1903 1904 1905 1906 1907 1908 1909 1910 1911 1912 1913 1914 1915 1916 1917 1918 1919 1920 1921 1922 1923 1924 1925 1926 1927 1928 1929 1930 1931 1932 1933 1934 1935 1936 1937 1938 1939 1940 1941 1942 1943 1944 1945 1946 1947 1948 1949 1950 1951 1952 1953 1954 1955 1956 1957 1958 1959 1960 1961 1962 1963 1964 1965 1966 1967 1968 1969 1970 1971 1972 1973 1974 1975 1976 1977 1978 1979 1980 1981 1982 1983 1984 1985 1986 1987 1988 1989 1990 1991 1992 1993 1994 1995 1996 1997 1998 1999 2000 2001 2002 2003 2004 2005 2006 2007 2008 2009 2010 2011 2012 2013 2014 2015 2016 2017 2018 2019 2020 2021 2022 2023 2024 2025 2026 2027 2028 2029 2030 2031 2032 2033 2034 2035 2036 2037 2038 2039 2040 2041 2042 2043 2044 2045 2046 2047 2048 2049 2050 2051 2052 2053 2054 2055 2056 2057 2058 2059 2060 2061 2062 2063 2064 2065 2066 2067 2068 2069 2070 2071 2072 2073 2074 2075 2076 2077 2078 2079 2080 2081 2082 2083 2084 2085 2086 2087 2088 2089 2090 2091 2092 2093 2094 2095 2096 2097 2098 2099 2100 2101 2102 2103 2104 2105 2106 2107 2108 2109 2110 2111 2112 2113 2114 2115 2116 2117 2118 2119 2120 2121 2122 2123 2124 2125 2126 2127 2128 2129 2130 2131 2132 2133 2134 2135 2136 2137 2138 2139 2140 2141 2142 2143 2144 2145 2146 2147 2148 2149 2150 2151 2152 2153 2154 2155 2156 2157 2158 2159 2160 2161 2162 2163 2164 2165 2166 2167 2168 2169 2170 2171 2172 2173 2174 2175 2176 2177 2178 2179 2180 2181 2182 2183 2184 2185 2186 2187 2188 2189 2190 2191 2192 2193 2194 2195 2196 2197 2198 2199 2200 2201 2202 2203 2204 2205 2206 2207 2208 2209 2210 2211 2212 2213 2214 2215 2216 2217 2218 2219 2220 2221 2222 2223 2224 2225 2226 2227 2228 2229 2230 2231 2232 2233 2234 2235 2236 2237 2238 2239 2240 2241 2242 2243 2244 2245 2246 2247 2248 2249 2250 2251 2252 2253 2254 2255 2256 2257 2258 2259 2260 2261 2262 2263 2264 2265 2266 2267 2268 2269 2270 2271 2272 2273 2274 2275 2276 2277 2278 2279 2280 2281 2282 2283 2284 2285 2286 2287 2288 2289 2290 2291 2292 2293 2294 2295 2296 2297 2298 2299 2300 2301 2302 2303 2304 2305 2306 2307 2308 2309 2310 2311 2312 2313 2314 2315 2316 2317 2318 2319 2320 2321 2322 2323 2324 2325 2326 2327 2328 2329 2330 2331 2332 2333 2334 2335 2336 2337 2338 2339 2340 2341 2342 2343 2344 2345 2346 2347 2348 2349 2350 2351 2352 2353 2354 2355 2356 2357 2358 2359 2360 2361 2362 2363 2364 2365 2366 2367 2368 2369 2370 2371 2372 2373 2374 2375 2376 2377 2378 2379 2380 2381 2382 2383 2384 2385 2386 2387 2388 2389 2390 2391 2392 2393 2394 2395 2396 2397 2398 2399 2400 2401 2402 2403 2404 2405 2406 2407 2408 2409 2410 2411 2412 2413 2414 2415 2416 2417 2418 2419 2420 2421 2422 2423 2424 2425 2426 2427 2428 2429 2430 2431 2432 2433 2434 2435 2436 2437 2438 2439 2440 2441 2442 2443 2444 2445 2446 2447 2448 2449 2450 2451 2452 2453 2454 2455 2456 2457 2458 2459 2460 2461 2462 2463 2464 2465 2466 2467 2468 2469 2470 2471 2472 2473 2474 2475 2476 2477 2478 2479 2480 2481 2482 2483 2484 2485 2486 2487 2488 2489 2490 2491 2492 2493 2494 2495 2496 2497 2498 2499 2500 2501 2502 2503 2504 2505 2506 2507 2508 2509 2510 2511 2512 2513 2514 2515 2516 2517 2518 2519 2520 2521 2522 2523 2524 2525 2526 2527 2528 2529 2530 2531 2532 2533 2534 2535 2536 2537 2538 2539 2540 2541 2542 2543 2544 2545 2546 2547 2548 2549 2550 2551 2552 2553 2554 2555 2556 2557 2558 2559 2560 2561 2562 2563 2564 2565 2566 2567 2568 2569 2570 2571 2572 2573 2574 2575 2576 2577 2578 2579 2580 2581 2582 2583 2584 2585 2586 2587 2588 2589 2590 2591 2592 2593 2594 2595 2596 2597 2598 2599 2600 2601 2602 2603 2604 2605 2606 2607 2608 2609 2610 2611 2612 2613 2614 2615 2616 2617 2618 2619 2620 2621 2622 2623 2624 2625 2626 2627 2628 2629 2630 2631 2632 2633 2634 2635 2636 2637 2638 2639 2640 2641 2642 2643 2644 2645 2646 2647 2648 2649 2650 2651 2652 2653 2654 2655 2656 2657 2658 2659 2660 2661 2662 2663 2664 2665 2666 2667 2668 2669 2670 2671 2672 2673 2674 2675 2676 2677 2678 2679 2680 2681 2682 2683 2684 2685 2686 2687 2688 2689 2690 2691 2692 2693 2694 2695 2696 2697 2698 2699 2700 2701 2702 2703 2704 2705 2706 2707 2708 2709 2710 2711 2712 2713 2714 2715 2716 2717 2718 2719 2720 2721 2722 2723 2724 2725 2726 2727 2728 2729 2730 2731 2732 2733 2734 2735 2736 2737 2738 2739 2740 2741 2742 2743 2744 2745 2746 2747 2748 2749 2750 2751 2752 2753 2754 2755 2756 2757 2758 2759 2760 2761 2762 2763 2764 2765 2766 2767 2768 2769 2770 2771 2772 2773 2774 2775 2776 2777 2778 2779 2780 2781 2782 2783 2784 2785 2786 2787 2788 2789 2790 2791 2792 2793 2794 2795 2796 2797 2798 2799 2800 2801 2802 2803 2804 2805 2806 2807 2808 2809 2810 2811 2812 2813 2814 2815 2816 2817 2818 2819 2820 2821 2822 2823 2824 2825 2826 2827 2828 2829 2830 2831 2832 2833 2834 2835 2836 2837 2838 2839 2840 2841 2842 2843 2844 2845 2846 2847 2848 2849 2850 2851 2852 2853 2854 2855 2856 2857 2858 2859 2860 2861 2862 2863 2864 2865 2866 2867 2868 2869 2870 2871 2872 2873 2874 2875 2876 2877 2878 2879 2880 2881 2882 2883 2884 2885 2886 2887 2888 2889 2890 2891 2892 2893 2894 2895 2896 2897 2898 2899 2900 2901 2902 2903 2904 2905 2906 2907 2908 2909 2910 2911 2912 2913 2914 2915 2916 2917 2918 2919 2920 2921 2922 2923 2924 2925 2926 2927 2928 2929 2930 2931 2932 2933 2934 2935 2936 2937 2938 2939 2940 2941 2942 2943 2944 2945 2946 2947 2948 2949 2950 2951 2952 2953 2954 2955 2956 2957 2958 2959 2960 2961 2962 2963 2964 2965 2966 2967 2968 2969 2970 2971 2972 2973 2974 2975 2976 2977 2978 2979 2980 2981 2982 2983 2984 2985 2986 2987 2988 2989 2990 2991 2992 2993 2994 2995 2996 2997 2998 2999 3000 3001 3002 3003 3004 3005 3006 3007 3008 3009 3010 3011 3012 3013 3014 3015 3016 3017 3018 3019 3020 3021 3022 3023 3024 3025 3026 3027 3028 3029 3030 3031 3032 3033 3034 3035 3036 3037 3038 3039 3040 3041 3042 3043 3044 3045 3046 3047 3048 3049 3050 3051 3052 3053 3054 3055 3056 3057 3058 3059 3060 3061 3062 3063 3064 3065 3066 3067 3068 3069 3070 3071 3072 3073 3074 3075 3076 3077 3078 3079 3080 3081 3082 3083 3084 3085 3086 3087 3088 3089 3090 3091 3092 3093 3094 3095 3096 3097 3098 3099 3100 3101 3102 3103 3104 3105 3106 3107 3108 3109 3110 3111 3112 3113 3114 3115 3116 3117 3118 3119 3120 3121 3122 3123 3124 3125 3126 3127 3128 3129 3130 3131 3132 3133 3134 3135 3136 3137 3138 3139 3140 3141 3142 3143 3144 3145 3146 3147 3148 3149 3150 3151 3152 3153 3154 3155 3156 3157 3158 3159 3160 3161 3162 3163 3164 3165 3166 3167 3168 3169 3170 3171 3172 3173 3174 3175 3176 3177 3178 3179 3180 3181 3182 3183 3184 3185 3186 3187 3188 3189 3190 3191 3192 3193 3194 3195 3196 3197 3198 3199 3200 3201 3202 3203 3204 3205 3206 3207 3208 3209 3210 3211 3212 3213 3214 3215 3216 3217 3218 3219 3220 3221 3222 3223 3224 3225 3226 3227 3228 3229 3230 3231 3232 3233 3234 3235 3236 3237 3238 3239 3240 3241 3242 3243 3244 3245 3246 3247 3248 3249 3250 3251 3252 3253 3254 3255 3256 3257 3258 3259 3260 3261 3262 3263 3264 3265 3266 3267 3268 3269 3270 3271 3272 3273 3274 3275 3276 3277 3278 3279 3280 3281 3282 3283 3284 3285 3286 3287 3288 3289 3290 3291 3292 3293 3294 3295 3296 3297 3298 3299 3300 3301 3302 3303 3304 3305 3306 3307 3308 3309 3310 3311 3312 3313 3314 3315 3316 3317 3318 3319 3320 3321 3322 3323 3324 3325 3326 3327 3328 3329 3330 3331 3332 3333 3334 3335 3336 3337 3338 3339 3340 3341 3342 3343 3344 3345 3346 3347 3348 3349 3350 3351 3352 3353 3354 3355 3356 3357 3358 3359 3360 3361 3362 3363 3364 3365 3366 3367 3368 3369 3370 3371 3372 3373 3374 3375 3376 3377 3378 3379 3380 3381 3382 3383 3384 3385 3386 3387 3388 3389 3390 3391 3392 3393 3394 3395 3396 3397 3398 3399 3400 3401 3402 3403 3404 3405 3406 3407 3408 3409 3410 3411 3412 3413 3414 3415 3416 3417 3418 3419 3420 3421 3422 3423 3424 3425 3426 3427 3428 3429 3430 3431 3432 3433 3434 3435 3436 3437 3438 3439 3440 3441 3442 3443 3444 3445 3446 3447 3448 3449 3450 3451 3452 3453 3454 3455 3456 3457 3458 3459 3460 3461 3462 3463 3464 3465 3466 3467 3468 3469 3470 3471 3472 3473 3474 3475 3476 3477 3478 3479 3480 3481 3482 3483 3484 3485 3486 3487 3488 3489 3490 3491 3492 3493 3494 3495 3496 3497 3498 3499 3500 3501 3502 3503 3504 3505 3506 3507 3508 3509 3510 3511 3512 3513 3514 3515 3516 3517 3518 3519 3520 3521 3522 3523 3524 3525 3526 3527 3528 3529 3530 3531 3532 3533 3534 3535 3536 3537 3538 3539 3540 3541 3542 3543 3544 3545 3546 3547 3548 3549 3550 3551 3552 3553 3554 3555 3556 3557 3558 3559 3560 3561 3562 3563 3564 3565 3566 3567 3568 3569 3570 3571 3572 3573 3574 3575 3576 3577 3578 3579 3580 3581 3582 3583 3584 3585 3586 3587 3588 3589 3590 3591 3592 3593 3594 3595 3596 3597 3598 3599 3600 3601 3602 3603 3604 3605 3606 3607 3608 3609 3610 3611 3612 3613 3614 3615 3616 3617 3618 3619 3620 3621 3622 3623 3624 3625 3626 3627 3628 3629 3630 3631 3632 3633 3634 3635 3636 3637 3638 3639 3640 3641 3642 3643 3644 3645 3646 3647 3648 3649 3650 3651 3652 3653 3654 3655 3656 3657 3658 3659 3660 3661 3662 3663 3664 3665 3666 3667 3668 3669 3670 3671 3672 3673 3674 3675 3676 3677 3678 3679 3680 3681 3682 3683 3684 3685 3686 3687 3688 3689 3690 3691 3692 3693 3694 3695 3696 3697 3698 3699 3700 3701 3702 3703 3704 3705 3706 3707 3708 3709 3710 3711 3712 3713 3714 3715 3716 3717 3718 3719 3720 3721 3722 3723 3724 3725 3726 3727 3728 3729 3730 3731 3732 3733 3734 3735 3736 3737 3738 3739 3740 3741 3742 3743 3744 3745 3746 3747 3748 3749 3750 3751 3752 3753 3754 3755 3756 3757 3758 3759 3760 3761 3762 3763 3764 3765 3766 3767 3768 3769 3770 3771 3772 3773 3774 3775 3776 3777 3778 3779 3780 3781 3782 3783 3784 3785 3786 3787 3788 3789 3790 3791 3792 3793 3794 3795 3796 3797 3798 3799 3800 3801 3802 3803 3804 3805 3806 3807 3808 3809 3810 3811 3812 3813 3814 3815 3816 3817 3818 3819 3820 3821 3822 3823 3824 3825 3826 3827 3828 3829 3830 3831 3832 3833 3834 3835 3836 3837 3838 3839 3840 3841 3842 3843 3844 3845 3846 3847 3848 3849 3850 3851 3852 3853 3854 3855 3856 3857 3858 3859 3860 3861 3862 3863 3864 3865 3866 3867 3868 3869 3870 3871 3872 3873 3874 3875 3876 3877 3878 3879 3880 3881 3882 3883 3884 3885 3886 3887 3888 3889 3890 3891 3892 3893 3894 3895 3896 3897 3898 3899 3900 3901 3902 3903 3904 3905 3906 3907 3908 3909 3910 3911 3912 3913 3914 3915 3916 3917 3918 3919 3920 3921 3922 3923 3924 3925 3926 3927 3928 3929 3930 3931 3932 3933 3934 3935 3936 3937 3938 3939 3940 3941 3942 3943 3944 3945 3946 3947 3948 3949 3950 3951 3952 3953 3954 3955 3956 3957 3958 3959 3960 3961 3962 3963 3964 3965 3966 3967 3968 3969 3970 3971 3972 3973 3974 3975 3976 3977 3978 3979 3980 3981 3982 3983 3984 3985 3986 3987 3988 3989 3990 3991 3992 3993 3994 3995 3996 3997 3998 3999 4000 4001 4002 4003 4004 4005 4006 4007 4008 4009 4010 4011 4012 4013 4014 4015 4016 4017 4018 4019 4020 4021 4022 4023 4024 4025 4026 4027 4028 4029 4030 4031 4032 4033 4034 4035 4036 4037 4038 4039 4040 4041 4042 4043 4044 4045 4046 4047 4048 4049 4050 4051 4052 4053 4054 4055 4056 4057 4058 4059 4060 4061 4062 4063 4064 4065 4066 4067 4068 4069 4070 4071 4072 4073 4074 4075 4076 4077 4078 4079 4080 4081 4082 4083 4084 4085 4086 4087 4088 4089 4090 4091 4092 4093 4094 4095 4096 4097 4098 4099 4100 4101 4102 4103 4104 4105 4106 4107 4108 4109 4110 4111 4112 4113 4114 4115 4116 4117 4118 4119 4120 4121 4122 4123 4124 4125 4126 4127 4128 4129 4130 4131 4132 4133 4134 4135 4136 4137 4138 4139 4140 4141 4142 4143 4144 4145 4146 4147 4148 4149 4150 4151 4152 4153 4154 4155 4156 4157 4158 4159 4160 4161 4162 4163 4164 4165 4166 4167 4168 4169 4170 4171 4172 4173 4174 4175 4176 4177 4178 4179 4180 4181 4182 4183 4184 4185 4186 4187 4188 4189 4190 4191 4192 4193 4194 4195 4196 4197 4198 4199 4200 4201 4202 4203 4204 4205 4206 4207 4208 4209 4210 4211 4212 4213 4214 4215 4216 4217 4218 4219 4220 4221 4222 4223 4224 4225 4226 4227 4228 4229 4230 4231 4232 4233 4234 4235 4236 4237 4238 4239 4240 4241 4242 4243 4244 4245 4246 4247 4248 4249 4250 4251 4252 4253 4254 4255 4256 4257 4258 4259 4260 4261 4262 4263 4264 4265 4266 4267 4268 4269 4270 4271 4272 4273 4274 4275 4276 4277 4278 4279 4280 4281 4282 4283 4284 4285 4286 4287 4288 4289 4290 4291 4292 4293 4294 4295 4296 4297 4298 4299 4300 4301 4302 4303 4304 4305 4306 4307 4308 4309 4310 4311 4312 4313 4314 4315 4316 4317 4318 4319 4320 4321 4322 4323 4324 4325 4326 4327 4328 4329 4330 4331 4332 4333 4334 4335 4336 4337 4338 4339 4340 4341 4342 4343 4344 4345 4346 4347 4348 4349 4350 4351 4352 4353 4354 4355 4356 4357 4358 4359 4360 4361 4362 4363 4364 4365 4366 4367 4368 4369 4370 4371 4372 4373 4374 4375 4376 4377 4378 4379 4380 4381 4382 4383 4384 4385 4386 4387 4388 4389 4390 4391 4392 4393 4394 4395 4396 4397 4398 4399 4400 4401 4402 4403 4404 4405 4406 4407 4408 4409 4410 4411 4412 4413 4414 4415 4416 4417 4418 4419 4420 4421 4422 4423 4424 4425 4426 4427 4428 4429 4430 4431 4432 4433 4434 4435 4436 4437 4438 4439 4440 4441 4442 4443 4444 4445 4446 4447 4448 4449 4450 4451 4452 4453 4454 4455 4456 4457 4458 4459 4460 4461 4462 4463 4464 4465 4466 4467 4468 4469 4470 4471 4472 4473 4474 4475 4476 4477 4478 4479 4480 4481 4482 4483 4484 4485 4486 4487 4488 4489 4490 4491 4492 4493 4494 4495 4496 4497 4498 4499 4500 4501 4502 4503 4504 4505 4506 4507 4508 4509 4510 4511 4512 4513 4514 4515 4516 4517 4518 4519 4520 4521 4522 4523 4524 4525 4526 4527 4528 4529 4530 4531 4532 4533 4534 4535 4536 4537 4538 4539 4540 4541 4542 4543 4544 4545 4546 4547 4548 4549 4550 4551 4552 4553 4554 4555 4556 4557 4558 4559 4560 4561 4562 4563 4564 4565 4566 4567 4568 4569 4570 4571 4572 4573 4574 4575 4576 4577 4578 4579 4580 4581 4582 4583 4584 4585 4586 4587 4588 4589 4590 4591 4592 4593 4594 4595 4596 4597 4598 4599 4600 4601 4602 4603 4604 4605 4606 4607 4608 4609 4610 4611 4612 4613 4614 4615 4616 4617 4618 4619 4620 4621 4622 4623 4624 4625 4626 4627 4628 4629 4630 4631 4632 4633 4634 4635 4636 4637 4638 4639 4640 4641 4642 4643 4644 4645 4646 4647 4648 4649 4650 4651 4652 4653 4654 4655 4656 4657 4658 4659 4660 4661 4662 4663 4664 4665 4666 4667 4668 4669 4670 4671 4672 4673 4674 4675 4676 4677 4678 4679 4680 4681 4682 4683 4684 4685 4686 4687 4688 4689 4690 4691 4692 4693 4694 4695 4696 4697 4698 4699 4700 4701 4702 4703 4704 4705 4706 4707 4708 4709 4710 4711 4712 4713 4714 4715 4716 4717 4718 4719 4720 4721 4722 4723 4724 4725 4726 4727 4728 4729 4730 4731 4732 4733 4734 4735 4736 4737 4738 4739 4740 4741 4742 4743 4744 4745 4746 4747 4748 4749 4750 4751 4752 4753 4754 4755 4756 4757 4758 4759 4760 4761 4762 4763 4764 4765 4766 4767 4768 4769 4770 4771 4772 4773 4774 4775 4776 4777 4778 4779 4780 4781 4782 4783 4784 4785 4786 4787 4788 4789 4790 4791 4792 4793 4794 4795 4796 4797 4798 4799 4800 4801 4802 4803 4804 4805 4806 4807 4808 4809 4810 4811 4812 4813 4814 4815 4816 4817 4818 4819 4820 4821 4822 4823 4824 4825 4826 4827 4828 4829 4830 4831 4832 4833 4834 4835 4836 4837 4838 4839 4840 4841 4842 4843 4844 4845 4846 4847 4848 4849 4850 4851 4852 4853 4854 4855 4856 4857 4858 4859 4860 4861 4862 4863 4864 4865 4866 4867 4868 4869 4870 4871 4872 4873 4874 4875 4876 4877 4878 4879 4880 4881 4882 4883 4884 4885 4886 4887 4888 4889 4890 4891 4892 4893 4894 4895 4896 4897 4898 4899 4900 4901 4902 4903 4904 4905 4906 4907 4908 4909 4910 4911 4912 4913 4914 4915 4916 4917 4918 4919 4920 4921 4922 4923 4924 4925 4926 4927 4928 4929 4930 4931 4932 4933 4934 4935 4936 4937 4938 4939 4940 4941 4942 4943 4944 4945 4946 4947 4948 4949 4950 4951 4952 4953 4954 4955 4956 4957 4958 4959 4960 4961 4962 4963 4964 4965 4966 4967 4968 4969 4970 4971 4972 4973 4974 4975 4976 4977 4978 4979 4980 4981 4982 4983 4984 4985 4986 4987 4988 4989 4990 4991 4992 4993 4994 4995 4996 4997 4998 4999 5000 5001 5002 5003 5004 5005 5006 5007 5008 5009 5010 5011 5012 5013 5014 5015 5016 5017 5018 5019 5020 5021 5022 5023 5024 5025 5026 5027 5028 5029 5030 5031 5032 5033 5034 5035 5036 5037 5038 5039 5040 5041 5042 5043 5044 5045 5046 5047 5048 5049 5050 5051 5052 5053 5054 5055 5056 5057 5058 5059 5060 5061 5062 5063 5064 5065 5066 5067 5068 5069 5070 5071 5072 5073 5074 5075 5076 5077 5078 5079 5080 5081 5082 5083 5084 5085 5086 5087 5088 5089 5090 5091 5092 5093 5094 5095 5096 5097 5098 5099 5100 5101 5102 5103 5104 5105 5106 5107 5108 5109 5110 5111 5112 5113 5114 5115 5116 5117 5118 5119 5120 5121 5122 5123 5124 5125 5126 5127 5128 5129 5130 5131 5132 5133 5134 5135 5136 5137 5138 5139 5140 5141 5142 5143 5144 5145 5146 5147 5148 5149 5150 5151 5152 5153 5154 5155 5156 5157 5158 5159 5160 5161 5162 5163 5164 5165 5166 5167 5168 5169 5170 5171 5172 5173 5174 5175 5176 5177 5178 5179 5180 5181 5182 5183 5184 5185 5186 5187 5188 5189 5190 5191 5192 5193 5194 5195 5196 5197 5198 5199 5200 5201 5202 5203 5204 5205 5206 5207 5208 5209 5210 5211 5212 5213 5214 5215 5216 5217 5218 5219 5220 5221 5222 5223 5224 5225 5226 5227 5228 5229 5230 5231 5232 5233 5234 5235 5236 5237 5238 5239 5240 5241 5242 5243 5244 5245 5246 5247 5248 5249 5250 5251 5252 5253 5254 5255 5256 5257 5258 5259 5260 5261 5262 5263 5264 5265 5266 5267 5268 5269 5270 5271 5272 5273 5274 5275 5276 5277 5278 5279 5280 5281 5282 5283 5284 5285 5286 5287 5288 5289 5290 5291 5292 5293 5294 5295 5296 5297 5298 5299 5300 5301 5302 5303 5304 5305 5306 5307 5308 5309 5310 5311 5312 5313 5314 5315 5316 5317 5318 5319 5320 5321 5322 5323 5324 5325 5326 5327 5328 5329 5330 5331 5332 5333 5334 5335 5336 5337 5338 5339 5340 5341 5342 5343 5344 5345 5346 5347 5348 5349 5350 5351 5352 5353 5354 5355 5356 5357 5358 5359 5360 5361 5362 5363 5364 5365 5366 5367 5368 5369 5370 5371 5372 5373 5374 5375 5376 5377 5378 5379 5380 5381 5382 5383 5384 5385 5386 5387 5388 5389 5390 5391 5392 5393 5394 5395 5396 5397 5398 5399 5400 5401 5402 5403 5404 5405 5406 5407 5408 5409 5410 5411 5412 5413 5414 5415 5416 5417 5418 5419 5420 5421 5422 5423 5424 5425 5426 5427 5428 5429 5430 5431 5432 5433 5434 5435 5436 5437 5438 5439 5440 5441 5442 5443 5444 5445 5446 5447 5448 5449 5450 5451 5452 5453 5454 5455 5456 5457 5458 5459 5460 5461 5462 5463 5464 5465 5466 5467 5468 5469 5470 5471 5472 5473 5474 5475 5476 5477 5478 5479 5480 5481 5482 5483 5484 5485 5486 5487 5488 5489 5490 5491 5492 5493 5494 5495 5496 5497 5498 5499 5500 5501 5502 5503 5504 5505 5506 5507 5508 5509 5510 5511 5512 5513 5514 5515 5516 5517 5518 5519 5520 5521 5522 5523 5524 5525 5526 5527 5528 5529 5530 5531 5532 5533 5534 5535 5536 5537 5538 5539 5540 5541 5542 5543 5544 5545 5546 5547 5548 5549 5550 5551 5552 5553 5554 5555 5556 5557 5558 5559 5560 5561 5562 5563 5564 5565 5566 5567 5568 5569 5570 5571 5572 5573 5574 5575 5576 5577 5578 5579 5580 5581 5582 5583 5584 5585 5586 5587 5588 5589 5590 5591 5592 5593 5594 5595 5596 5597 5598 5599 5600 5601 5602 5603 5604 5605 5606 5607 5608 5609 5610 5611 5612 5613 5614 5615 5616 5617 5618 5619 5620 5621 5622 5623 5624 5625 5626 5627 5628 5629 5630 5631 5632 5633 5634 5635 5636 5637 5638 5639 5640 5641 5642 5643 5644 5645 5646 5647 5648 5649 5650 5651 5652 5653 5654 5655 5656 5657 5658 5659 5660 5661 5662 5663 5664 5665 5666 5667 5668 5669 5670 5671 5672 5673 5674 5675 5676 5677 5678 5679 5680 5681 5682 5683 5684 5685 5686 5687 5688 5689 5690 5691 5692 5693 5694 5695 5696 5697 5698 5699 5700 5701 5702 5703 5704 5705 5706 5707 5708 5709 5710 5711 5712 5713 5714 5715 5716 5717 5718 5719 5720 5721 5722 5723 5724 5725 5726 5727 5728 5729 5730 5731 5732 5733 5734 5735 5736 5737 5738 5739 5740 5741 5742 5743 5744 5745 5746 5747 5748 5749 5750 5751 5752 5753 5754 5755 5756 5757 5758 5759 5760 5761 5762 5763 5764 5765 5766 5767 5768 5769 5770 5771 5772 5773 5774 5775 5776 5777 5778 5779 5780 5781 5782 5783 5784 5785 5786 5787 5788 5789 5790 5791 5792 5793 5794 5795 5796 5797 5798 5799 5800 5801 5802 5803 5804 5805 5806 5807 5808 5809 5810 5811 5812 5813 5814 5815 5816 5817 5818 5819 5820 5821 5822 5823 5824 5825 5826 5827 5828 5829 5830 5831 5832 5833 5834 5835 5836 5837 5838 5839 5840 5841 5842 5843 5844 5845 5846 5847 5848 5849 5850 5851 5852 5853 5854 5855 5856 5857 5858 5859 5860 5861 5862 5863 5864 5865 5866 5867 5868 5869 5870 5871 5872 5873 5874 5875 5876 5877 5878 5879 5880 5881 5882 5883 5884 5885 5886 5887 5888 5889 5890 5891 5892 5893 5894 5895 5896 5897 5898 5899 5900 5901 5902 5903 5904 5905 5906 5907 5908 5909 5910 5911 5912 5913 5914 5915 5916 5917 5918 5919 5920 5921 5922 5923 5924 5925 5926 5927 5928 5929 5930 5931 5932 5933 5934 5935 5936 5937 5938 5939 5940 5941 5942 5943 5944 5945 5946 5947 5948 5949 5950 5951 5952 5953 5954 5955 5956 5957 5958 5959 5960 5961 5962 5963 5964 5965 5966 5967 5968 5969 5970 5971 5972 5973 5974 5975 5976 5977 5978 5979 5980 5981 5982 5983 5984 5985 5986 5987 5988 5989 5990 5991 5992 5993 5994 5995 5996 5997 5998 5999 6000 6001 6002 6003 6004 6005 6006 6007 6008 6009 6010 6011 6012 6013 6014 6015 6016 6017 6018 6019 6020 6021 6022 6023 6024 6025 6026 6027 6028 6029 6030 6031 6032 6033 6034 6035 6036 6037 6038 6039 6040 6041 6042 6043 6044 6045 6046 6047 6048 6049 6050 6051 6052 6053 6054 6055 6056 6057 6058 6059 6060 6061 6062 6063 6064 6065 6066 6067 6068 6069 6070 6071 6072 6073 6074 6075 6076 6077 6078 6079 6080 6081 6082 6083 6084 6085 6086 6087 6088 6089 6090 6091 6092 6093 6094 6095 6096 6097 6098 6099 6100 6101 6102 6103 6104 6105 6106 6107 6108 6109 6110 6111 6112 6113 6114 6115 6116 6117 6118 6119 6120 6121 6122 6123 6124 6125 6126 6127 6128 6129 6130 6131 6132 6133 6134 6135 6136 6137 6138 6139 6140 6141 6142 6143 6144 6145 6146 6147 6148 6149 6150 6151 6152 6153 6154 6155 6156 6157 6158 6159 6160 6161 6162 6163 6164 6165 6166 6167 6168 6169 6170 6171 6172 6173 6174 6175 6176 6177 6178 6179 6180 6181 6182 6183 6184 6185 6186 6187 6188 6189 6190 6191 6192 6193 6194 6195 6196 6197 6198 6199 6200 6201 6202 6203 6204 6205 6206 6207 6208 6209 6210 6211 6212 6213 6214 6215 6216 6217 6218 6219 6220 6221 6222 6223 6224 6225 6226 6227 6228 6229 6230 6231 6232 6233 6234 6235 6236 6237 6238 6239 6240 6241 6242 6243 6244 6245 6246 6247 6248 6249 6250 6251 6252 6253 6254 6255 6256 6257 6258 6259 6260 6261 6262 6263 6264 6265 6266 6267 6268 6269 6270 6271 6272 6273 6274 6275 6276 6277 6278 6279 6280 6281 6282 6283 6284 6285 6286 6287 6288 6289 6290 6291 6292 6293 6294 6295 6296 6297 6298 6299 6300 6301 6302 6303 6304 6305 6306 6307 6308 6309 6310 6311 6312 6313 6314 6315 6316 6317 6318 6319 6320 6321 6322 6323 6324 6325 6326 6327 6328 6329 6330 6331 6332 6333 6334 6335 6336 6337 6338 6339 6340 6341 6342 6343 6344 6345 6346 6347 6348 6349 6350 6351 6352 6353 6354 6355 6356 6357 6358 6359 6360 6361 6362 6363 6364 6365 6366 6367 6368 6369 6370 6371 6372 6373 6374 6375 6376 6377 6378 6379 6380 6381 6382 6383 6384 6385 6386 6387 6388 6389 6390 6391 6392 6393 6394 6395 6396 6397 6398 6399 6400 6401 6402 6403 6404 6405 6406 6407 6408 6409 6410 6411 6412 6413 6414 6415 6416 6417 6418 6419 6420 6421 6422 6423 6424 6425 6426 6427 6428 6429 6430 6431 6432 6433 6434 6435 6436 6437 6438 6439 6440 6441 6442 6443 6444 6445 6446 6447 6448 6449 6450 6451 6452 6453 6454 6455 6456 6457 6458 6459 6460 6461 6462 6463 6464 6465 6466 6467 6468 6469 6470 6471 6472 6473 6474 6475 6476 6477 6478 6479 6480 6481 6482 6483 6484 6485 6486 6487 6488 6489 6490 6491 6492 6493 6494 6495 6496 6497 6498 6499 6500 6501 6502 6503 6504 6505 6506 6507 6508 6509 6510 6511 6512 6513 6514 6515 6516 6517 6518 6519 6520 6521 6522 6523 6524 6525 6526 6527 6528 6529 6530 6531 6532 6533 6534 6535 6536 6537 6538 6539 6540 6541 6542 6543 6544 6545 6546 6547 6548 6549 6550 6551 6552 6553 6554 6555 6556 6557 6558 6559 6560 6561 6562 6563 6564 6565 6566 6567 6568 6569 6570 6571 6572 6573 6574 6575 6576 6577 6578 6579 6580 6581 6582 6583 6584 6585 6586 6587 6588 6589 6590 6591 6592 6593 6594 6595 6596 6597 6598 6599 6600 6601 6602 6603 6604 6605 6606 6607 6608 6609 6610 6611 6612 6613 6614 6615 6616 6617 6618 6619 6620 6621 6622 6623 6624 6625 6626 6627 6628 6629 6630 6631 6632 6633 6634 6635 6636 6637 6638 6639 6640 6641 6642 6643 6644 6645 6646 6647 6648 6649 6650 6651 6652 6653 6654 6655 6656 6657 6658 6659 6660 6661 6662 6663 6664 6665 6666 6667 6668 6669 6670 6671 6672 6673 6674 6675 6676 6677 6678 6679 6680 6681 6682 6683 6684 6685 6686 6687 6688 6689 6690 6691 6692 6693 6694 6695 6696 6697 6698 6699 6700 6701 6702 6703 6704 6705 6706 6707 6708 6709 6710 6711 6712 6713 6714 6715 6716 6717 6718 6719 6720 6721 6722 6723 6724 6725 6726 6727 6728 6729 6730 6731 6732 6733 6734 6735 6736 6737 6738 6739 6740 6741 6742 6743 6744 6745 6746 6747 6748 6749 6750 6751 6752 6753 6754 6755 6756 6757 6758 6759 6760 6761 6762 6763 6764 6765 6766 6767 6768 6769 6770 6771 6772 6773 6774 6775 6776 6777 6778 6779 6780 6781 6782 6783 6784 6785 6786 6787 6788 6789 6790 6791 6792 6793 6794 6795 6796 6797 6798 6799 6800 6801 6802 6803 6804 6805 6806 6807 6808 6809 6810 6811 6812 6813 6814 6815 6816 6817 6818 6819 6820 6821 6822 6823 6824 6825 6826 6827 6828 6829 6830 6831 6832 6833 6834 6835 6836 6837 6838 6839 6840 6841 6842 6843 6844 6845 6846 6847 6848 6849 6850 6851 6852 6853 6854 6855 6856 6857 6858 6859 6860 6861 6862 6863 6864 6865 6866 6867 6868 6869 6870 6871 6872 6873 6874 6875 6876 6877 6878 6879 6880 6881 6882 6883 6884 6885 6886 6887 6888 6889 6890 6891 6892 6893 6894 6895 6896 6897 6898 6899 6900 6901 6902 6903 6904 6905 6906 6907 6908 6909 6910 6911 6912 6913 6914 6915 6916 6917 6918 6919 6920 6921 6922 6923 6924 6925 6926 6927 6928 6929 6930 6931 6932 6933 6934 6935 6936 6937 6938 6939 6940 6941 6942 6943 6944 6945 6946 6947 6948 6949 6950 6951 6952 6953 6954 6955 6956 6957 6958 6959 6960 6961 6962 6963 6964 6965 6966 6967 6968 6969 6970 6971 6972 6973 6974 6975 6976 6977 6978 6979 6980 6981 6982 6983 6984 6985 6986 6987 6988 6989 6990 6991 6992 6993 6994 6995 6996 6997 6998 6999 7000 7001 7002 7003 7004 7005 7006 7007 7008 7009 7010 7011 7012 7013 7014 7015 7016 7017 7018 7019 7020 7021 7022 7023 7024 7025 7026 7027 7028 7029 7030 7031 7032 7033 7034 7035 7036 7037 7038 7039 7040 7041 7042 7043 7044 7045 7046 7047 7048 7049 7050 7051 7052 7053 7054 7055 7056 7057 7058 7059 7060 7061 7062 7063 7064 7065 7066 7067 7068 7069 7070 7071 7072 7073 7074 7075 7076 7077 7078 7079 7080 7081 7082 7083 7084 7085 7086 7087 7088 7089 7090 7091 7092 7093 7094 7095 7096 7097 7098 7099 7100 7101 7102 7103 7104 7105 7106 7107 7108 7109 7110 7111 7112 7113 7114 7115 7116 7117 7118 7119 7120 7121 7122 7123 7124 7125 7126 7127 7128 7129 7130 7131 7132 7133 7134 7135 7136 7137 7138 7139 7140 7141 7142 7143 7144 7145 7146 7147 7148 7149 7150 7151 7152 7153 7154 7155 7156 7157 7158 7159 7160 7161 7162 7163 7164 7165 7166 7167 7168 7169 7170 7171 7172 7173 7174 7175 7176 7177 7178 7179 7180 7181 7182 7183 7184 7185 7186 7187 7188 7189 7190 7191 7192 7193 7194 7195 7196 7197 7198 7199 7200 7201 7202 7203 7204 7205 7206 7207 7208 7209 7210 7211 7212 7213 7214 7215 7216 7217 7218 7219 7220 7221 7222 7223 7224 7225 7226 7227 7228 7229 7230 7231 7232 7233 7234 7235 7236 7237 7238 7239 7240 7241 7242 7243 7244 7245 7246 7247 7248 7249 7250 7251 7252 7253 7254 7255 7256 7257 7258 7259 7260 7261 7262 7263 7264 7265 7266 7267 7268 7269 7270 7271 7272 7273 7274 7275 7276 7277 7278 7279 7280 7281 7282 7283 7284 7285 7286 7287 7288 7289 7290 7291 7292 7293 7294 7295 7296 7297 7298 7299 7300 7301 7302 7303 7304 7305 7306 7307 7308 7309 7310 7311 7312 7313 7314 7315 7316 7317 7318 7319 7320 7321 7322 7323 7324 7325 7326 7327 7328 7329 7330 7331 7332 7333 7334 7335 7336 7337 7338 7339 7340 7341 7342 7343 7344 7345 7346 7347 7348 7349 7350 7351 7352 7353 7354 7355 7356 7357 7358 7359 7360 7361 7362 7363 7364 7365 7366 7367 7368 7369 7370 7371 7372 7373 7374 7375 7376 7377 7378 7379 7380 7381 7382 7383 7384 7385 7386 7387 7388 7389 7390 7391 7392 7393 7394 7395 7396 7397 7398 7399 7400 7401 7402 7403 7404 7405 7406 7407 7408 7409 7410 7411 7412 7413 7414 7415 7416 7417 7418 7419 7420 7421 7422 7423 7424 7425 7426 7427 7428 7429 7430 7431 7432 7433 7434 7435 7436 7437 7438 7439 7440 7441 7442 7443 7444 7445 7446 7447 7448 7449 7450 7451 7452 7453 7454 7455 7456 7457 7458 7459 7460 7461 7462 7463 7464 7465 7466 7467 7468 7469 7470 7471 7472 7473 7474 7475 7476 7477 7478 7479 7480 7481 7482 7483 7484 7485 7486 7487 7488 7489 7490 7491 7492 7493 7494 7495 7496 7497 7498 7499 7500 7501 7502 7503 7504 7505 7506 7507 7508 7509 7510 7511 7512 7513 7514 7515 7516 7517 7518 7519 7520 7521 7522 7523 7524 7525 7526 7527 7528 7529 7530 7531 7532 7533 7534 7535 7536 7537 7538 7539 7540 7541 7542 7543 7544 7545 7546 7547 7548 7549 7550 7551 7552 7553 7554 7555 7556 7557 7558 7559 7560 7561 7562 7563 7564 7565 7566 7567 7568 7569 7570 7571 7572 7573 7574 7575 7576 7577 7578 7579 7580 7581 7582 7583 7584 7585 7586 7587 7588 7589 7590 7591 7592 7593 7594 7595 7596 7597 7598 7599 7600 7601 7602 7603 7604 7605 7606 7607 7608 7609 7610 7611 7612 7613 7614 7615 7616 7617 7618 7619 7620 7621 7622 7623 7624 7625 7626 7627 7628 7629 7630 7631 7632 7633 7634 7635 7636 7637 7638 7639 7640 7641 7642 7643 7644 7645 7646 7647 7648 7649 7650 7651 7652 7653 7654 7655 7656 7657 7658 7659 7660 7661 7662 7663 7664 7665 7666 7667 7668 7669 7670 7671 7672 7673 7674 7675 7676 7677 7678 7679 7680 7681 7682 7683 7684 7685 7686 7687 7688 7689 7690 7691 7692 7693 7694 7695 7696 7697 7698 7699 7700 7701 7702 7703 7704 7705 7706 7707 7708 7709 7710 7711 7712 7713 7714 7715 7716 7717 7718 7719 7720 7721 7722 7723 7724 7725 7726 7727 7728 7729 7730 7731 7732 7733 7734 7735 7736 7737 7738 7739 7740 7741 7742 7743 7744 7745 7746 7747 7748 7749 7750 7751 7752 7753 7754 7755 7756 7757 7758 7759 7760 7761 7762 7763 7764 7765 7766 7767 7768 7769 7770 7771 7772 7773 7774 7775 7776 7777 7778 7779 7780 7781 7782 7783 7784 7785 7786 7787 7788 7789 7790 7791 7792 7793 7794 7795 7796 7797 7798 7799 7800 7801 7802 7803 7804 7805 7806 7807 7808 7809 7810 7811 7812 7813 7814 7815 7816 7817 7818 7819 7820 7821 7822 7823 7824 7825 7826 7827 7828 7829 7830 7831 7832 7833 7834 7835 7836 7837 7838 7839 7840 7841 7842 7843 7844 7845 7846 7847 7848 7849 7850 7851 7852 7853 7854 7855 7856 7857 7858 7859 7860 7861 7862 7863 7864 7865 7866 7867 7868 7869 7870 7871 7872 7873 7874 7875 7876 7877 7878 7879 7880 7881 7882 7883 7884 7885 7886 7887 7888 7889 7890 7891 7892 7893 7894 7895 7896 7897 7898 7899 7900 7901 7902 7903 7904 7905 7906 7907 7908 7909 7910 7911 7912 7913 7914 7915 7916 7917 7918 7919 7920 7921 7922 7923 7924 7925 7926 7927 7928 7929 7930 7931 7932 7933 7934 7935 7936 7937 7938 7939 7940 7941 7942 7943 7944 7945 7946 7947 7948 7949 7950 7951 7952 7953 7954 7955 7956 7957 7958 7959 7960 7961 7962 7963 7964 7965 7966 7967 7968 7969 7970 7971 7972 7973 7974 7975 7976 7977 7978 7979 7980 7981 7982 7983 7984 7985 7986 7987 7988 7989 7990 7991 7992 7993 7994 7995 7996 7997 7998 7999 8000 8001 8002 8003 8004 8005 8006 8007 8008 8009 8010 8011 8012 8013 8014 8015 8016 8017 8018 8019 8020 8021 8022 8023 8024 8025 8026 8027 8028 8029 8030 8031 8032 8033 8034 8035 8036 8037 8038 8039 8040 8041 8042 8043 8044 8045 8046 8047 8048 8049 8050 8051 8052 8053 8054 8055 8056 8057 8058 8059 8060 8061 8062 8063 8064 8065 8066 8067 8068 8069 8070 8071 8072 8073 8074 8075 8076 8077 8078 8079 8080 8081 8082 8083 8084 8085 8086 8087 8088 8089 8090 8091 8092 8093 8094 8095 8096 8097 8098 8099 8100 8101 8102 8103 8104 8105 8106 8107 8108 8109 8110 8111 8112 8113 8114 8115 8116 8117 8118 8119 8120 8121 8122 8123 8124 8125 8126 8127 8128 8129 8130 8131 8132 8133 8134 8135 8136 8137 8138 8139 8140 8141 8142 8143 8144 8145 8146 8147 8148 8149 8150 8151 8152 8153 8154 8155 8156 8157 8158 8159 8160 8161 8162 8163 8164 8165 8166 8167 8168 8169 8170 8171 8172 8173 8174 8175 8176 8177 8178 8179 8180 8181 8182 8183 8184 8185 8186 8187 8188 8189 8190 8191 8192 8193 8194 8195 8196 8197 8198 8199 8200 8201 8202 8203 8204 8205 8206 8207 8208 8209 8210 8211 8212 8213 8214 8215 8216 8217 8218 8219 8220 8221 8222 8223 8224 8225 8226 8227 8228 8229 8230 8231 8232 8233 8234 8235 8236 8237 8238 8239 8240 8241 8242 8243 8244 8245 8246 8247 8248 8249 8250 8251 8252 8253 8254 8255 8256 8257 8258 8259 8260 8261 8262 8263 8264 8265 8266 8267 8268 8269 8270 8271 8272 8273 8274 8275 8276 8277 8278 8279 8280 8281 8282 8283 8284 8285 8286 8287 8288 8289 8290 8291 8292 8293 8294 8295 8296 8297 8298 8299 8300 8301 8302 8303 8304 8305 8306 8307 8308 8309 8310 8311 8312 8313 8314 8315 8316 8317 8318 8319 8320 8321 8322 8323 8324 8325 8326 8327 8328 8329 8330 8331 8332 8333 8334 8335 8336 8337 8338 8339 8340 8341 8342 8343 8344 8345 8346 8347 8348 8349 8350 8351 8352 8353 8354 8355 8356 8357 8358 8359 8360 8361 8362 8363 8364 8365 8366 8367 8368 8369 8370 8371 8372 8373 8374 8375 8376 8377 8378 8379 8380 8381 8382 8383 8384 8385 8386 8387 8388 8389 8390 8391 8392 8393 8394 8395 8396 8397 8398 8399 8400 8401 8402 8403 8404 8405 8406 8407 8408 8409 8410 8411 8412 8413 8414 8415 8416 8417 8418 8419 8420 8421 8422 8423 8424 8425 8426 8427 8428 8429 8430 8431 8432 8433 8434 8435 8436 8437 8438 8439 8440 8441 8442 8443 8444 8445 8446 8447 8448 8449 8450 8451 8452 8453 8454 8455 8456 8457 8458 8459 8460 8461 8462 8463 8464 8465 8466 8467 8468 8469 8470 8471 8472 8473 8474 8475 8476 8477 8478 8479 8480 8481 8482 8483 8484 8485 8486 8487 8488 8489 8490 8491 8492 8493 8494 8495 8496 8497 8498 8499 8500 8501 8502 8503 8504 8505 8506 8507 8508 8509 8510 8511 8512 8513 8514 8515 8516 8517 8518 8519 8520 8521 8522 8523 8524 8525 8526 8527 8528 8529 8530 8531 8532 8533 8534 8535 8536 8537 8538 8539 8540 8541 8542 8543 8544 8545 8546 8547 8548 8549 8550 8551 8552 8553 8554 8555 8556 8557 8558 8559 8560 8561 8562 8563 8564 8565 8566 8567 8568 8569 8570 8571 8572 8573 8574 8575 8576 8577 8578 8579 8580 8581 8582 8583 8584 8585 8586 8587 8588 8589 8590 8591 8592 8593 8594 8595 8596 8597 8598 8599 8600 8601 8602 8603 8604 8605 8606 8607 8608 8609 8610 8611 8612 8613 8614 8615 8616 8617 8618 8619 8620 8621 8622 8623 8624 8625 8626 8627 8628 8629 8630 8631 8632 8633 8634 8635 8636 8637 8638 8639 8640 8641 8642 8643 8644 8645 8646 8647 8648 8649 8650 8651 8652 8653 8654 8655 8656 8657 8658 8659 8660 8661 8662 8663 8664 8665 8666 8667 8668 8669 8670 8671 8672 8673 8674 8675 8676 8677 8678 8679 8680 8681 8682 8683 8684 8685 8686 8687 8688 8689 8690 8691 8692 8693 8694 8695 8696 8697 8698 8699 8700 8701 8702 8703 8704 8705 8706 8707 8708 8709 8710 8711 8712 8713 8714 8715 8716 8717 8718 8719 8720 8721 8722 8723 8724 8725 8726 8727 8728 8729 8730 8731 8732 8733 8734 8735 8736 8737 8738 8739 8740 8741 8742 8743 8744 8745 8746 8747 8748 8749 8750 8751 8752 8753 8754 8755 8756 8757 8758 8759 8760 8761 8762 8763 8764 8765 8766 8767 8768 8769 8770 8771 8772 8773 8774 8775 8776 8777 8778 8779 8780 8781 8782 8783 8784 8785 8786 8787 8788 8789 8790 8791 8792 8793 8794 8795 8796 8797 8798 8799 8800 8801 8802 8803 8804 8805 8806 8807 8808 8809 8810 8811 8812 8813 8814 8815 8816 8817 8818 8819 8820 8821 8822 8823 8824 8825 8826 8827 8828 8829 8830 8831 8832 8833 8834 8835 8836 8837 8838 8839 8840 8841 8842 8843 8844 8845 8846 8847 8848 8849 8850 8851 8852 8853 8854 8855 8856 8857 8858 8859 8860 8861 8862 8863 8864 8865 8866 8867 8868 8869 8870 8871 8872 8873 8874 8875 8876 8877 8878 8879 8880 8881 8882 8883 8884 8885 8886 8887 8888 8889 8890 8891 8892 8893 8894 8895 8896 8897 8898 8899 8900 8901 8902 8903 8904 8905 8906 8907 8908 8909 8910 8911 8912 8913 8914 8915 8916 8917 8918 8919 8920 8921 8922 8923 8924 8925 8926 8927 8928 8929 8930 8931 8932 8933 8934 8935 8936 8937 8938 8939 8940 8941 8942 8943 8944 8945 8946 8947 8948 8949 8950 8951 8952 8953 8954 8955 8956 8957 8958 8959 8960 8961 8962 8963 8964 8965 8966 8967 8968 8969 8970 8971 8972 8973 8974 8975 8976 8977 8978 8979 8980 8981 8982 8983 8984 8985 8986 8987 8988 8989 8990 8991 8992 8993 8994 8995 8996 8997 8998 8999 9000 9001 9002 9003 9004 9005 9006 9007 9008 9009 9010 9011 9012 9013 9014 9015 9016 9017 9018 9019 9020 9021 9022 9023 9024 9025 9026 9027 9028 9029 9030 9031 9032 9033 9034 9035 9036 9037 9038 9039 9040 9041 9042 9043 9044 9045 9046 9047 9048 9049 9050 9051 9052 9053 9054 9055 9056 9057 9058 9059 9060 9061 9062 9063 9064 9065 9066 9067 9068 9069 9070 9071 9072 9073 9074 9075 9076 9077 9078 9079 9080 9081 9082 9083 9084 9085 9086 9087 9088 9089 9090 9091 9092 9093 9094 9095 9096 9097 9098 9099 9100 9101 9102 9103 9104 9105 9106 9107 9108 9109 9110 9111 9112 9113 9114 9115 9116 9117 9118 9119 9120 9121 9122 9123 9124 9125 9126 9127 9128 9129 9130 9131 9132 9133 9134 9135 9136 9137 9138 9139 9140 9141 9142 9143 9144 9145 9146 9147 9148 9149 9150 9151 9152 9153 9154 9155 9156 9157 9158 9159 9160 9161 9162 9163 9164 9165 9166 9167 9168 9169 9170 9171 9172 9173 9174 9175 9176 9177 9178 9179 9180 9181 9182 9183 9184 9185 9186 9187 9188 9189 9190 9191 9192 9193 9194 9195 9196 9197 9198 9199 9200 9201 9202 9203 9204 9205 9206 9207 9208 9209 9210 9211 9212 9213 9214 9215 9216 9217 9218 9219 9220 9221 9222 9223 9224 9225 9226 9227 9228 9229 9230 9231 9232 9233 9234 9235 9236 9237 9238 9239 9240 9241 9242 9243 9244 9245 9246 9247 9248 9249 9250 9251 9252 9253 9254 9255 9256 9257 9258 9259 9260 9261 9262 9263 9264 9265 9266 9267 9268 9269 9270 9271 9272 9273 9274 9275 9276 9277 9278 9279 9280 9281 9282 9283 9284 9285 9286 9287 9288 9289 9290 9291 9292 9293 9294 9295 9296 9297 9298 9299 9300 9301 9302 9303 9304 9305 9306 9307 9308 9309 9310 9311 9312 9313 9314 9315 9316 9317 9318 9319 9320 9321 9322 9323 9324 9325 9326 9327 9328 9329 9330 9331 9332 9333 9334 9335 9336 9337 9338 9339 9340 9341 9342 9343 9344 9345 9346 9347 9348 9349 9350 9351 9352 9353 9354 9355 9356 9357 9358 9359 9360 9361 9362 9363 9364 9365 9366 9367 9368 9369 9370 9371 9372 9373 9374 9375 9376 9377 9378 9379 9380 9381 9382 9383 9384 9385 9386 9387 9388 9389 9390 9391 9392 9393 9394 9395 9396 9397 9398 9399 9400 9401 9402 9403 9404 9405 9406 9407 9408 9409 9410 9411 9412 9413 9414 9415 9416 9417 9418 9419 9420 9421 9422 9423 9424 9425 9426 9427 9428 9429 9430 9431 9432 9433 9434 9435 9436 9437 9438 9439 9440 9441 9442 9443 9444 9445 9446 9447 9448 9449 9450 9451 9452 9453 9454 9455 9456 9457 9458 9459 9460 9461 9462 9463 9464 9465 9466 9467 9468 9469 9470 9471 9472 9473 9474 9475 9476 9477 9478 9479 9480 9481 9482 9483 9484 9485 9486 9487 9488 9489 9490 9491 9492 9493 9494 9495 9496 9497 9498 9499 9500 9501 9502 9503 9504 9505 9506 9507 9508 9509 9510 9511 9512 9513 9514 9515 9516 9517 9518 9519 9520 9521 9522 9523 9524 9525 9526 9527 9528 9529 9530 9531 9532 9533 9534 9535 9536 9537 9538 9539 9540 9541 9542 9543 9544 9545 9546 9547 9548 9549 9550 9551 9552 9553 9554 9555 9556 9557 9558 9559 9560 9561 9562 9563 9564 9565 9566 9567 9568 9569 9570 9571 9572 9573 9574 9575 9576 9577 9578 9579 9580 9581 9582 9583 9584 9585 9586 9587 9588 9589 9590 9591 9592 9593 9594 9595 9596 9597 9598 9599 9600 9601 9602 9603 9604 9605 9606 9607 9608 9609 9610 9611 9612 9613 9614 9615 9616 9617 9618 9619 9620 9621 9622 9623 9624 9625 9626 9627 9628 9629 9630 9631 9632 9633 9634 9635 9636 9637 9638 9639 9640 9641 9642 9643 9644 9645 9646 9647 9648 9649 9650 9651 9652 9653 9654 9655 9656 9657 9658 9659 9660 9661 9662 9663 9664 9665 9666 9667 9668 9669 9670 9671 9672 9673 9674 9675 9676 9677 9678 9679 9680 9681 9682 9683 9684 9685 9686 9687 9688 9689 9690 9691 9692 9693 9694 9695 9696 9697 9698 9699 9700 9701 9702 9703 9704 9705 9706 9707 9708 9709 9710 9711 9712 9713 9714 9715 9716 9717 9718 9719 9720 9721 9722 9723 9724 9725 9726 9727 9728 9729 9730 9731 9732 9733 9734 9735 9736 9737 9738 9739 9740 9741 9742 9743 9744 9745 9746 9747 9748 9749 9750 9751 9752 9753 9754 9755 9756 9757 9758 9759 9760 9761 9762 9763 9764 9765 9766 9767 9768 9769 9770 9771 9772 9773 9774 9775 9776 9777 9778 9779 9780 9781 9782 9783 9784 9785 9786 9787 9788 9789 9790 9791 9792 9793 9794 9795 9796 9797 9798 9799 9800 9801 9802 9803 9804 9805 9806 9807 9808 9809 9810 9811 9812 9813 9814 9815 9816 9817 9818 9819 9820 9821 9822 9823 9824 9825 9826 9827 9828 9829 9830 9831 9832 9833 9834 9835 9836 9837 9838 9839 9840 9841 9842 9843 9844 9845 9846 9847 9848 9849 9850 9851 9852 9853 9854 9855 9856 9857 9858 9859 9860 9861 9862 9863 9864 9865 9866 9867 9868 9869 9870 9871 9872 9873 9874 9875 9876 9877 9878 9879 9880 9881 9882 9883 9884 9885 9886 9887 9888 9889 9890 9891 9892 9893 9894 9895 9896 9897 9898 9899 9900 9901 9902 9903 9904 9905 9906 9907 9908 9909 9910 9911 9912 9913 9914 9915 9916 9917 9918 9919 9920 9921 9922 9923 9924 9925 9926 9927 9928 9929 9930 9931 9932 9933 9934 9935 9936 9937 9938 9939 9940 9941 9942 9943 9944 9945 9946 9947 9948 9949 9950 9951 9952 9953 9954 9955 9956 9957 9958 9959 9960 9961 9962 9963 9964 9965 9966 9967 9968 9969 9970 9971 9972 9973 9974 9975 9976 9977 9978 9979 9980 9981 9982 9983 9984 9985 9986 9987 9988 9989 9990 9991 9992 9993 9994 9995 9996 9997 9998 9999 10000 10001 10002 10003 10004 10005 10006 10007 10008 10009 10010 10011 10012 10013 10014 10015 10016 10017 10018 10019 10020 10021 10022 10023 10024 10025 10026 10027 10028 10029 10030 10031 10032 10033 10034 10035 10036 10037 10038 10039 10040 10041 10042 10043 10044 10045 10046 10047 10048 10049 10050 10051 10052 10053 10054 10055 10056 10057 10058 10059 10060 10061 10062 10063 10064 10065 10066 10067 10068 10069 10070 10071 10072 10073 10074 10075 10076 10077 10078 10079 10080 10081 10082 10083 10084 10085 10086 10087 10088 10089 10090 10091 10092 10093 10094 10095 10096 10097 10098 10099 10100 10101 10102 10103 10104 10105 10106 10107 10108 10109 10110 10111 10112 10113 10114 10115 10116 10117 10118 10119 10120 10121 10122 10123 10124 10125 10126 10127 10128 10129 10130 10131 10132 10133 10134 10135 10136 10137 10138 10139 10140 10141 10142 10143 10144 10145 10146 10147 10148 10149 10150 10151 10152 10153 10154 10155 10156 10157 10158 10159 10160 10161 10162 10163 10164 10165 10166 10167 10168 10169 10170 10171 10172 10173 10174 10175 10176 10177 10178 10179 10180 10181 10182 10183 10184 10185 10186 10187 10188 10189 10190 10191 10192 10193 10194 10195 10196 10197 10198 10199 10200 10201 10202 10203 10204 10205 10206 10207 10208 10209 10210 10211 10212 10213 10214 10215 10216 10217 10218 10219 10220 10221 10222 10223 10224 10225 10226 10227 10228 10229 10230 10231 10232 10233 10234 10235 10236 10237 10238 10239 10240 10241 10242 10243 10244 10245 10246 10247 10248 10249 10250 10251 10252 10253 10254 10255 10256 10257 10258 10259 10260 10261 10262 10263 10264 10265 10266 10267 10268 10269 10270 10271 10272 10273 10274 10275 10276 10277 10278 10279 10280 10281 10282 10283 10284 10285 10286 10287 10288 10289 10290 10291 10292 10293 10294 10295 10296 10297 10298 10299 10300 10301 10302 10303 10304 10305 10306 10307 10308 10309 10310 10311 10312 10313 10314 10315 10316 10317 10318 10319 10320 10321 10322 10323 10324 10325 10326 10327 10328 10329 10330 10331 10332 10333 10334 10335 10336 10337 10338 10339 10340 10341 10342 10343 10344 10345 10346 10347 10348 10349 10350 10351 10352 10353 10354 10355 10356 10357 10358 10359 10360 10361 10362 10363 10364 10365 10366 10367 10368 10369 10370 10371 10372 10373 10374 10375 10376 10377 10378 10379 10380 10381 10382 10383 10384 10385 10386 10387 10388 10389 10390 10391 10392 10393 10394 10395 10396 10397 10398 10399 10400 10401 10402 10403 10404 10405 10406 10407 10408 10409 10410 10411 10412 10413 10414 10415 10416 10417 10418 10419 10420 10421 10422 10423 10424 10425 10426 10427 10428 10429 10430 10431 10432 10433 10434 10435 10436 10437 10438 10439 10440 10441 10442 10443 10444 10445 10446 10447 10448 10449 10450 10451 10452 10453 10454 10455 10456 10457 10458 10459 10460 10461 10462 10463 10464 10465 10466 10467 10468 10469 10470 10471 10472 10473 10474 10475 10476 10477 10478 10479 10480 10481 10482 10483 10484 10485 10486 10487 10488 10489 10490 10491 10492 10493 10494 10495 10496 10497 10498 10499 10500 10501 10502 10503 10504 10505 10506 10507 10508 10509 10510 10511 10512 10513 10514 10515 10516 10517 10518 10519 10520 10521 10522 10523 10524 10525 10526 10527 10528 10529 10530 10531 10532 10533 10534 10535 10536 10537 10538 10539 10540 10541 10542 10543 10544 10545 10546 10547 10548 10549 10550 10551 10552 10553 10554 10555 10556 10557 10558 10559 10560 10561 10562 10563 10564 10565 10566 10567 10568 10569 10570 10571 10572 10573 10574 10575 10576 10577 10578 10579 10580 10581 10582 10583 10584 10585 10586 10587 10588 10589 10590 10591 10592 10593 10594 10595 10596 10597 10598 10599 10600 10601 10602 10603 10604 10605 10606 10607 10608 10609 10610 10611 10612 10613 10614 10615 10616 10617 10618 10619 10620 10621 10622 10623 10624 10625 10626 10627 10628 10629 10630 10631 10632 10633 10634 10635 10636 10637 10638 10639 10640 10641 10642 10643 10644 10645 10646 10647 10648 10649 10650 10651 10652 10653 10654 10655 10656 10657 10658 10659 10660 10661 10662 10663 10664 10665 10666 10667 10668 10669 10670 10671 10672 10673 10674 10675 10676 10677 10678 10679 10680 10681 10682 10683 10684 10685 10686 10687 10688 10689 10690 10691 10692 10693 10694 10695 10696 10697 10698 10699 10700 10701 10702 10703 10704 10705 10706 10707 10708 10709 10710 10711 10712 10713 10714 10715 10716 10717 10718 10719 10720 10721 10722 10723 10724 10725 10726 10727 10728 10729 10730 10731 10732 10733 10734 10735 10736 10737 10738 10739 10740 10741 10742 10743 10744 10745 10746 10747 10748 10749 10750 10751 10752 10753 10754 10755 10756 10757 10758 10759 10760 10761 10762 10763 10764 10765 10766 10767 10768 10769 10770 10771 10772 10773 10774 10775 10776 10777 10778 10779 10780 10781 10782 10783 10784 10785 10786 10787 10788 10789 10790 10791 10792 10793 10794 10795 10796 10797 10798 10799 10800 10801 10802 10803 10804 10805 10806 10807 10808 10809 10810 10811 10812 10813 10814 10815 10816 10817 10818 10819 10820 10821 10822 10823 10824 10825 10826 10827 10828 10829 10830 10831 10832 10833 10834 10835 10836 10837 10838 10839 10840 10841 10842 10843 10844 10845 10846 10847 10848 10849 10850 10851 10852 10853 10854 10855 10856 10857 10858 10859 10860 10861 10862 10863 10864 10865 10866 10867 10868 10869 10870 10871 10872 10873 10874 10875 10876 10877 10878 10879 10880 10881 10882 10883 10884 10885 10886 10887 10888 10889 10890 10891 10892 10893 10894 10895 10896 10897 10898 10899 10900 10901 10902 10903 10904 10905 10906 10907 10908 10909 10910 10911 10912 10913 10914 10915 10916 10917 10918 10919 10920 10921 10922 10923 10924 10925 10926 10927 10928 10929 10930 10931 10932 10933 10934 10935 10936 10937 10938 10939 10940 10941 10942 10943 10944 10945 10946 10947 10948 10949 10950 10951 10952 10953 10954 10955 10956 10957 10958 10959 10960 10961 10962 10963 10964 10965 10966 10967 10968 10969 10970 10971 10972 10973 10974 10975 10976 10977 10978 10979 10980 10981 10982 10983 10984 10985 10986 10987 10988 10989 10990 10991 10992 10993 10994 10995 10996 10997 10998 10999 11000 11001 11002 11003 11004 11005 11006 11007 11008 11009 11010 11011 11012 11013 11014 11015 11016 11017 11018 11019 11020 11021 11022 11023 11024 11025 11026 11027 11028 11029 11030 11031 11032 11033 11034 11035 11036 11037 11038 11039 11040 11041 11042 11043 11044 11045 11046 11047 11048 11049 11050 11051 11052 11053 11054 11055 11056 11057 11058 11059 11060 11061 11062 11063 11064 11065 11066 11067 11068 11069 11070 11071 11072 11073 11074 11075 11076 11077 11078 11079 11080 11081 11082 11083 11084 11085 11086 11087 11088 11089 11090 11091 11092 11093 11094 11095 11096 11097 11098 11099 11100 11101 11102 11103 11104 11105 11106 11107 11108 11109 11110 11111 11112 11113 11114 11115 11116 11117 11118 11119 11120 11121 11122 11123 11124 11125 11126 11127 11128 11129 11130 11131 11132 11133 11134 11135 11136 11137 11138 11139 11140 11141 11142 11143 11144 11145 11146 11147 11148 11149 11150 11151 11152 11153 11154 11155 11156 11157 11158 11159 11160 11161 11162 11163 11164 11165 11166 11167 11168 11169 11170 11171 11172 11173 11174 11175 11176 11177 11178 11179 11180 11181 11182 11183 11184 11185 11186 11187 11188 11189 11190 11191 11192 11193 11194 11195 11196 11197 11198 11199 11200 11201 11202 11203 11204 11205 11206 11207 11208 11209 11210 11211 11212 11213 11214 11215 11216 11217 11218 11219 11220 11221 11222 11223 11224 11225 11226 11227 11228 11229 11230 11231 11232 11233 11234 11235 11236 11237 11238 11239 11240 11241 11242 11243 11244 11245 11246 11247 11248 11249 11250 11251 11252 11253 11254 11255 11256 11257 11258 11259 11260 11261 11262 11263 11264 11265 11266 11267 11268 11269 11270 11271 11272 11273 11274 11275 11276 11277 11278 11279 11280 11281 11282 11283 11284 11285 11286 11287 11288 11289 11290 11291 11292 11293 11294 11295 11296 11297 11298 11299 11300 11301 11302 11303 11304 11305 11306 11307 11308 11309 11310 11311 11312 11313 11314 11315 11316 11317 11318 11319 11320 11321 11322 11323 11324 11325 11326 11327 11328 11329 11330 11331 11332 11333 11334 11335 11336 11337 11338 11339 11340 11341 11342 11343 11344 11345 11346 11347 11348 11349 11350 11351 11352 11353 11354 11355 11356 11357 11358 11359 11360 11361 11362 11363 11364 11365 11366 11367 11368 11369 11370 11371 11372 11373 11374 11375 11376 11377 11378 11379 11380 11381 11382 11383 11384 11385 11386 11387 11388 11389 11390 11391 11392 11393 11394 11395 11396 11397 11398 11399 11400 11401 11402 11403 11404 11405 11406 11407 11408 11409 11410 11411 11412 11413 11414 11415 11416 11417 11418 11419 11420 11421 11422 11423 11424 11425 11426 11427 11428 11429 11430 11431 11432 11433 11434 11435 11436 11437 11438 11439 11440 11441 11442 11443 11444 11445 11446 11447 11448 11449 11450 11451 11452 11453 11454 11455 11456 11457 11458 11459 11460 11461 11462 11463 11464 11465 11466 11467 11468 11469 11470 11471 11472 11473 11474 11475 11476 11477 11478 11479 11480 11481 11482 11483 11484 11485 11486 11487 11488 11489 11490 11491 11492 11493 11494 11495 11496 11497 11498 11499 11500 11501 11502 11503 11504 11505 11506 11507 11508 11509 11510 11511 11512 11513 11514 11515 11516 11517 11518 11519 11520 11521 11522 11523 11524 11525 11526 11527 11528 11529 11530 11531 11532 11533 11534 11535 11536 11537 11538 11539 11540 11541 11542 11543 11544 11545 11546 11547 11548 11549 11550 11551 11552 11553 11554 11555 11556 11557 11558 11559 11560 11561 11562 11563 11564 11565 11566 11567 11568 11569 11570 11571 11572 11573 11574 11575 11576 11577 11578 11579 11580 11581 11582 11583 11584 11585 11586 11587 11588 11589 11590 11591 11592 11593 11594 11595 11596 11597 11598 11599 11600 11601 11602 11603 11604 11605 11606 11607 11608 11609 11610 11611 11612 11613 11614 11615 11616 11617 11618 11619 11620 11621 11622 11623 11624 11625 11626 11627 11628 11629 11630 11631 11632 11633 11634 11635 11636 11637 11638 11639 11640 11641 11642 11643 11644 11645 11646 11647 11648 11649 11650 11651 11652 11653 11654 11655 11656 11657 11658 11659 11660 11661 11662 11663 11664 11665 11666 11667 11668 11669 11670 11671 11672 11673 11674 11675 11676 11677 11678 11679 11680 11681 11682 11683 11684 11685 11686 11687 11688 11689 11690 11691 11692 11693 11694 11695 11696 11697 11698 11699 11700 11701 11702 11703 11704 11705 11706 11707 11708 11709 11710 11711 11712 11713 11714 11715 11716 11717 11718 11719 11720 11721 11722 11723 11724 11725 11726 11727 11728 11729 11730 11731 11732 11733 11734 11735 11736 11737 11738 11739 11740 11741 11742 11743 11744 11745 11746 11747 11748 11749 11750 11751 11752 11753 11754 11755 11756 11757 11758 11759 11760 11761 11762 11763 11764 11765 11766 11767 11768 11769 11770 11771 11772 11773 11774 11775 11776 11777 11778 11779 11780 11781 11782 11783 11784 11785 11786 11787 11788 11789 11790 11791 11792 11793 11794 11795 11796 11797 11798 11799 11800 11801 11802 11803 11804 11805 11806 11807 11808 11809 11810 11811 11812 11813 11814 11815 11816 11817 11818 11819 11820 11821 11822 11823 11824 11825 11826 11827 11828 11829 11830 11831 11832 11833 11834 11835 11836 11837 11838 11839 11840 11841 11842 11843 11844 11845 11846 11847 11848 11849 11850 11851 11852 11853 11854 11855 11856 11857 11858 11859 11860 11861 11862 11863 11864 11865 11866 11867 11868 11869 11870 11871 11872 11873 11874 11875 11876 11877 11878 11879 11880 11881 11882 11883 11884 11885 11886 11887 11888 11889 11890 11891 11892 11893 11894 11895 11896 11897 11898 11899 11900 11901 11902 11903 11904 11905 11906 11907 11908 11909 11910 11911 11912 11913 11914 11915 11916 11917 11918 11919 11920 11921 11922 11923 11924 11925 11926 11927 11928 11929 11930 11931 11932 11933 11934 11935 11936 11937 11938 11939 11940 11941 11942 11943 11944 11945 11946 11947 11948 11949 11950 11951 11952 11953 11954 11955 11956 11957 11958 11959 11960 11961 11962 11963 11964 11965 11966 11967 11968 11969 11970 11971 11972 11973 11974 11975 11976 11977 11978 11979 11980 11981 11982 11983 11984 11985 11986 11987 11988 11989 11990 11991 11992 11993 11994 11995 11996 11997 11998 11999 12000 12001 12002 12003 12004 12005 12006 12007 12008 12009 12010 12011 12012 12013 12014 12015 12016 12017 12018 12019 12020 12021 12022 12023 12024 12025 12026 12027 12028 12029 12030 12031 12032 12033 12034 12035 12036 12037 12038 12039 12040 12041 12042 12043 12044 12045 12046 12047 12048 12049 12050 12051 12052 12053 12054 12055 12056 12057 12058 12059 12060 12061 12062 12063 12064 12065 12066 12067 12068 12069 12070 12071 12072 12073 12074 12075 12076 12077 12078 12079 12080 12081 12082 12083 12084 12085 12086 12087 12088 12089 12090 12091 12092 12093 12094 12095 12096 12097 12098 12099 12100 12101 12102 12103 12104 12105 12106 12107 12108 12109 12110 12111 12112 12113 12114 12115 12116 12117 12118 12119 12120 12121 12122 12123 12124 12125 12126 12127 12128 12129 12130 12131 12132 12133 12134 12135 12136 12137 12138 12139 12140 12141 12142 12143 12144 12145 12146 12147 12148 12149 12150 12151 12152 12153 12154 12155 12156 12157 12158 12159 12160 12161 12162 12163 12164 12165 12166 12167 12168 12169 12170 12171 12172 12173 12174 12175 12176 12177 12178 12179 12180 12181 12182 12183 12184 12185 12186 12187 12188 12189 12190 12191 12192 12193 12194 12195 12196 12197 12198 12199 12200 12201 12202 12203 12204 12205 12206 12207 12208 12209 12210 12211 12212 12213 12214 12215 12216 12217 12218 12219 12220 12221 12222 12223 12224 12225 12226 12227 12228 12229 12230 12231 12232 12233 12234 12235 12236 12237 12238 12239 12240 12241 12242 12243 12244 12245 12246 12247 12248 12249 12250 12251 12252 12253 12254 12255 12256 12257 12258 12259 12260 12261 12262 12263 12264 12265 12266 12267 12268 12269 12270 12271 12272 12273 12274 12275 12276 12277 12278 12279 12280 12281 12282 12283 12284 12285 12286 12287 12288 12289 12290 12291 12292 12293 12294 12295 12296 12297 12298 12299 12300 12301 12302 12303 12304 12305 12306 12307 12308 12309 12310 12311 12312 12313 12314 12315 12316 12317 12318 12319 12320 12321 12322 12323 12324 12325 12326 12327 12328 12329 12330 12331 12332 12333 12334 12335 12336 12337 12338 12339 12340 12341 12342 12343 12344 12345 12346 12347 12348 12349 12350 12351 12352 12353 12354 12355 12356 12357 12358 12359 12360 12361 12362 12363 12364 12365 12366 12367 12368 12369 12370 12371 12372 12373 12374 12375 12376 12377 12378 12379 12380 12381 12382 12383 12384 12385 12386 12387 12388 12389 12390 12391 12392 12393 12394 12395 12396 12397 12398 12399 12400 12401 12402 12403 12404 12405 12406 12407 12408 12409 12410 12411 12412 12413 12414 12415 12416 12417 12418 12419 12420 12421 12422 12423 12424 12425 12426 12427 12428 12429 12430 12431 12432 12433 12434 12435 12436 12437 12438 12439 12440 12441 12442 12443 12444 12445 12446 12447 12448 12449 12450 12451 12452 12453 12454 12455 12456 12457 12458 12459 12460 12461 12462 12463 12464 12465 12466 12467 12468 12469 12470 12471 12472 12473 12474 12475 12476 12477 12478 12479 12480 12481 12482 12483 12484 12485 12486 12487 12488 12489 12490 12491 12492 12493 12494 12495 12496 12497 12498 12499 12500 12501 12502 12503 12504 12505 12506 12507 12508 12509 12510 12511 12512 12513 12514 12515 12516 12517 12518 12519 12520 12521 12522 12523 12524 12525 12526 12527 12528 12529 12530 12531 12532 12533 12534 12535 12536 12537 12538 12539 12540 12541 12542 12543 12544 12545 12546 12547 12548 12549 12550 12551 12552 12553 12554 12555 12556 12557 12558 12559 12560 12561 12562 12563 12564 12565 12566 12567 12568 12569 12570 12571 12572 12573 12574 12575 12576 12577 12578 12579 12580 12581 12582 12583 12584 12585 12586 12587 12588 12589 12590 12591 12592 12593 12594 12595 12596 12597 12598 12599 12600 12601 12602 12603 12604 12605 12606 12607 12608 12609 12610 12611 12612 12613 12614 12615 12616 12617 12618 12619 12620 12621 12622 12623 12624 12625 12626 12627 12628 12629 12630 12631 12632 12633 12634 12635 12636 12637 12638 12639 12640 12641 12642 12643 12644 12645 12646 12647 12648 12649 12650 12651 12652 12653 12654 12655 12656 12657 12658 12659 12660 12661 12662 12663 12664 12665 12666 12667 12668 12669 12670 12671 12672 12673 12674 12675 12676 12677 12678 12679 12680 12681 12682 12683 12684 12685 12686 12687 12688 12689 12690 12691 12692 12693 12694 12695 12696 12697 12698 12699 12700 12701 12702 12703 12704 12705 12706 12707 12708 12709 12710 12711 12712 12713 12714 12715 12716 12717 12718 12719 12720 12721 12722 12723 12724 12725 12726 12727 12728 12729 12730 12731 12732 12733 12734 12735 12736 12737 12738 12739 12740 12741 12742 12743 12744 12745 12746 12747 12748 12749 12750 12751 12752 12753 12754 12755 12756 12757 12758 12759 12760 12761 12762 12763 12764 12765 12766 12767 12768 12769 12770 12771 12772 12773 12774 12775 12776 12777 12778 12779 12780 12781 12782 12783 12784 12785 12786 12787 12788 12789 12790 12791 12792 12793 12794 12795 12796 12797 12798 12799 12800 12801 12802 12803 12804 12805 12806 12807 12808 12809 12810 12811 12812 12813 12814 12815 12816 12817 12818 12819 12820 12821 12822 12823 12824 12825 12826 12827 12828 12829 12830 12831 12832 12833 12834 12835 12836 12837 12838 12839 12840 12841 12842 12843 12844 12845 12846 12847 12848 12849 12850 12851 12852 12853 12854 12855 12856 12857 12858 12859 12860 12861 12862 12863 12864 12865 12866 12867 12868 12869 12870 12871 12872 12873 12874 12875 12876 12877 12878 12879 12880 12881 12882 12883 12884 12885 12886 12887 12888 12889 12890 12891 12892 12893 12894 12895 12896 12897 12898 12899 12900 12901 12902 12903 12904 12905 12906 12907 12908 12909 12910 12911 12912 12913 12914 12915 12916 12917 12918 12919 12920 12921 12922 12923 12924 12925 12926 12927 12928 12929 12930 12931 12932 12933 12934 12935 12936 12937 12938 12939 12940 12941 12942 12943 12944 12945 12946 12947 12948 12949 12950 12951 12952 12953 12954 12955 12956 12957 12958 12959 12960 12961 12962 12963 12964 12965 12966 12967 12968 12969 12970 12971 12972 12973 12974 12975 12976 12977 12978 12979 12980 12981 12982 12983 12984 12985 12986 12987 12988 12989 12990 12991 12992 12993 12994 12995 12996 12997 12998 12999 13000 13001 13002 13003 13004 13005 13006 13007 13008 13009 13010 13011 13012 13013 13014 13015 13016 13017 13018 13019 13020 13021 13022 13023 13024 13025 13026 13027 13028 13029 13030 13031 13032 13033 13034 13035 13036 13037 13038 13039 13040 13041 13042 13043 13044 13045 13046 13047 13048 13049 13050 13051 13052 13053 13054 13055 13056 13057 13058 13059 13060 13061 13062 13063 13064 13065 13066 13067 13068 13069 13070 13071 13072 13073 13074 13075 13076 13077 13078 13079 13080 13081 13082 13083 13084 13085 13086 13087 13088 13089 13090 13091 13092 13093 13094 13095 13096 13097 13098 13099 13100 13101 13102 13103 13104 13105 13106 13107 13108 13109 13110 13111 13112 13113 13114 13115 13116 13117 13118 13119 13120 13121 13122 13123 13124 13125 13126 13127 13128 13129 13130 13131 13132 13133 13134 13135 13136 13137 13138 13139 13140 13141 13142 13143 13144 13145 13146 13147 13148 13149 13150 13151 13152 13153 13154 13155 13156 13157 13158 13159 13160 13161 13162 13163 13164 13165 13166 13167 13168 13169 13170 13171 13172 13173 13174 13175 13176 13177 13178 13179 13180 13181 13182 13183 13184 13185 13186 13187 13188 13189 13190 13191 13192 13193 13194 13195 13196 13197 13198 13199 13200 13201 13202 13203 13204 13205 13206 13207 13208 13209 13210 13211 13212 13213 13214 13215 13216 13217 13218 13219 13220 13221 13222 13223 13224 13225 13226 13227 13228 13229 13230 13231 13232 13233 13234 13235 13236 13237 13238 13239 13240 13241 13242 13243 13244 13245 13246 13247 13248 13249 13250 13251 13252 13253 13254 13255 13256 13257 13258 13259 13260 13261 13262 13263 13264 13265 13266 13267 13268 13269 13270 13271 13272 13273 13274 13275 13276 13277 13278 13279 13280 13281 13282 13283 13284 13285 13286 13287 13288 13289 13290 13291 13292 13293 13294 13295 13296 13297 13298 13299 13300 13301 13302 13303 13304 13305 13306 13307 13308 13309 13310 13311 13312 13313 13314 13315 13316 13317 13318 13319 13320 13321 13322 13323 13324 13325 13326 13327 13328 13329 13330 13331 13332 13333 13334 13335 13336 13337 13338 13339 13340 13341 13342 13343 13344 13345 13346 13347 13348 13349 13350 13351 13352 13353 13354 13355 13356 13357 13358 13359 13360 13361 13362 13363 13364 13365 13366 13367 13368 13369 13370 13371 13372 13373 13374 13375 13376 13377 13378 13379 13380 13381 13382 13383 13384 13385 13386 13387 13388 13389 13390 13391 13392 13393 13394 13395 13396 13397 13398 13399 13400 13401 13402 13403 13404 13405 13406 13407 13408 13409 13410 13411 13412 13413 13414 13415 13416 13417 13418 13419 13420 13421 13422 13423 13424 13425 13426 13427 13428 13429 13430 13431 13432 13433 13434 13435 13436 13437 13438 13439 13440 13441 13442 13443 13444 13445 13446 13447 13448 13449 13450 13451 13452 13453 13454 13455 13456 13457 13458 13459 13460 13461 13462 13463 13464 13465 13466 13467 13468 13469 13470 13471 13472 13473 13474 13475 13476 13477 13478 13479 13480 13481 13482 13483 13484 13485 13486 13487 13488 13489 13490 13491 13492 13493 13494 13495 13496 13497 13498 13499 13500 13501 13502 13503 13504 13505 13506 13507 13508 13509 13510 13511 13512 13513 13514 13515 13516 13517 13518 13519 13520 13521 13522 13523 13524 13525 13526 13527 13528 13529 13530 13531 13532 13533 13534 13535 13536 13537 13538 13539 13540 13541 13542 13543 13544 13545 13546 13547 13548 13549 13550 13551 13552 13553 13554 13555 13556 13557 13558 13559 13560 13561 13562 13563 13564 13565 13566 13567 13568 13569 13570 13571 13572 13573 13574 13575 13576 13577 13578 13579 13580 13581 13582 13583 13584 13585 13586 13587 13588 13589 13590 13591 13592 13593 13594 13595 13596 13597 13598 13599 13600 13601 13602 13603 13604 13605 13606 13607 13608 13609 13610 13611 13612 13613 13614 13615 13616 13617 13618 13619 13620 13621 13622 13623 13624 13625 13626 13627 13628 13629 13630 13631 13632 13633 13634 13635 13636 13637 13638 13639 13640 13641 13642 13643 13644 13645 13646 13647 13648 13649 13650 13651 13652 13653 13654 13655 13656 13657 13658 13659 13660 13661 13662 13663 13664 13665 13666 13667 13668 13669 13670 13671 13672 13673 13674 13675 13676 13677 13678 13679 13680 13681 13682 13683 13684 13685 13686 13687 13688 13689 13690 13691 13692 13693 13694 13695 13696 13697 13698 13699 13700 13701 13702 13703 13704 13705 13706 13707 13708 13709 13710 13711 13712 13713 13714 13715 13716 13717 13718 13719 13720 13721 13722 13723 13724 13725 13726 13727 13728 13729 13730 13731 13732 13733 13734 13735 13736 13737 13738 13739 13740 13741 13742 13743 13744 13745 13746 13747 13748 13749 13750 13751 13752 13753 13754 13755 13756 13757 13758 13759 13760 13761 13762 13763 13764 13765 13766 13767 13768 13769 13770 13771 13772 13773 13774 13775 13776 13777 13778 13779 13780 13781 13782 13783 13784 13785 13786 13787 13788 13789 13790 13791 13792 13793 13794 13795 13796 13797 13798 13799 13800 13801 13802 13803 13804 13805 13806 13807 13808 13809 13810 13811 13812 13813 13814 13815 13816 13817 13818 13819 13820 13821 13822 13823 13824 13825 13826 13827 13828 13829 13830 13831 13832 13833 13834 13835 13836 13837 13838 13839 13840 13841 13842 13843 13844 13845 13846 13847 13848 13849 13850 13851 13852 13853 13854 13855 13856 13857 13858 13859 13860 13861 13862 13863 13864 13865 13866 13867 13868 13869 13870 13871 13872 13873 13874 13875 13876 13877 13878 13879 13880 13881 13882 13883 13884 13885 13886 13887 13888 13889 13890 13891 13892 13893 13894 13895 13896 13897 13898 13899 13900 13901 13902 13903 13904 13905 13906 13907 13908 13909 13910 13911 13912 13913 13914 13915 13916 13917 13918 13919 13920 13921 13922 13923 13924 13925 13926 13927 13928 13929 13930 13931 13932 13933 13934 13935 13936 13937 13938 13939 13940 13941 13942 13943 13944 13945 13946 13947 13948 13949 13950 13951 13952 13953 13954 13955 13956 13957 13958 13959 13960 13961 13962 13963 13964 13965 13966 13967 13968 13969 13970 13971 13972 13973 13974 13975 13976 13977 13978 13979 13980 13981 13982 13983 13984 13985 13986 13987 13988 13989 13990 13991 13992 13993 13994 13995 13996 13997 13998 13999 14000 14001 14002 14003 14004 14005 14006 14007 14008 14009 14010 14011 14012 14013 14014 14015 14016 14017 14018 14019 14020 14021 14022 14023 14024 14025 14026 14027 14028 14029 14030 14031 14032 14033 14034 14035 14036 14037 14038 14039 14040 14041 14042 14043 14044 14045 14046 14047 14048 14049 14050 14051 14052 14053 14054 14055 14056 14057 14058 14059 14060 14061 14062 14063 14064 14065 14066 14067 14068 14069 14070 14071 14072 14073 14074 14075 14076 14077 14078 14079 14080 14081 14082 14083 14084 14085 14086 14087 14088 14089 14090 14091 14092 14093 14094 14095 14096 14097 14098 14099 14100 14101 14102 14103 14104 14105 14106 14107 14108 14109 14110 14111 14112 14113 14114 14115 14116 14117 14118 14119 14120 14121 14122 14123 14124 14125 14126 14127 14128 14129 14130 14131 14132 14133 14134 14135 14136 14137 14138 14139 14140 14141 14142 14143 14144 14145 14146 14147 14148 14149 14150 14151 14152 14153 14154 14155 14156 14157 14158 14159 14160 14161 14162 14163 14164 14165 14166 14167 14168 14169 14170 14171 14172 14173 14174 14175 14176 14177 14178 14179 14180 14181 14182 14183 14184 14185 14186 14187 14188 14189 14190 14191 14192 14193 14194 14195 14196 14197 14198 14199 14200 14201 14202 14203 14204 14205 14206 14207 14208 14209 14210 14211 14212 14213 14214 14215 14216 14217 14218 14219 14220 14221 14222 14223 14224 14225 14226 14227 14228 14229 14230 14231 14232 14233 14234 14235 14236 14237 14238 14239 14240 14241 14242 14243 14244 14245 14246 14247 14248 14249 14250 14251 14252 14253 14254 14255 14256 14257 14258 14259 14260 14261 14262 14263 14264 14265 14266 14267 14268 14269 14270 14271 14272 14273 14274 14275 14276 14277 14278 14279 14280 14281 14282 14283 14284 14285 14286 14287 14288 14289 14290 14291 14292 14293 14294 14295 14296 14297 14298 14299 14300 14301 14302 14303 14304 14305 14306 14307 14308 14309 14310 14311 14312 14313 14314 14315 14316 14317 14318 14319 14320 14321 14322 14323 14324 14325 14326 14327 14328 14329 14330 14331 14332 14333 14334 14335 14336 14337 14338 14339 14340 14341 14342 14343 14344 14345 14346 14347 14348 14349 14350 14351 14352 14353 14354 14355 14356 14357 14358 14359 14360 14361 14362 14363 14364 14365 14366 14367 14368 14369 14370 14371 14372 14373 14374 14375 14376 14377 14378 14379 14380 14381 14382 14383 14384 14385 14386 14387 14388 14389 14390 14391 14392 14393 14394 14395 14396 14397 14398 14399 14400 14401 14402 14403 14404 14405 14406 14407 14408 14409 14410 14411 14412 14413 14414 14415 14416 14417 14418 14419 14420 14421 14422 14423 14424 14425 14426 14427 14428 14429 14430 14431 14432 14433 14434 14435 14436 14437 14438 14439 14440 14441 14442 14443 14444 14445 14446 14447 14448 14449 14450 14451 14452 14453 14454 14455 14456 14457 14458 14459 14460 14461 14462 14463 14464 14465 14466 14467 14468 14469 14470 14471 14472 14473 14474 14475 14476 14477 14478 14479 14480 14481 14482 14483 14484 14485 14486 14487 14488 14489 14490 14491 14492 14493 14494 14495 14496 14497 14498 14499 14500 14501 14502 14503 14504 14505 14506 14507 14508 14509 14510 14511 14512 14513 14514 14515 14516 14517 14518 14519 14520 14521 14522 14523 14524 14525 14526 14527 14528 14529 14530 14531 14532 14533 14534 14535 14536 14537 14538 14539 14540 14541 14542 14543 14544 14545 14546 14547 14548 14549 14550 14551 14552 14553 14554 14555 14556 14557 14558 14559 14560 14561 14562 14563 14564 14565 14566 14567 14568 14569 14570 14571 14572 14573 14574 14575 14576 14577 14578 14579 14580 14581 14582 14583 14584 14585 14586 14587 14588 14589 14590 14591 14592 14593 14594 14595 14596 14597 14598 14599 14600 14601 14602 14603 14604 14605 14606 14607 14608 14609 14610 14611 14612 14613 14614 14615 14616 14617 14618 14619 14620 14621 14622 14623 14624 14625 14626 14627 14628 14629 14630 14631 14632 14633 14634 14635 14636 14637 14638 14639 14640 14641 14642 14643 14644 14645 14646 14647 14648 14649 14650 14651 14652 14653 14654 14655 14656 14657 14658 14659 14660 14661 14662 14663 14664 14665 14666 14667 14668 14669 14670 14671 14672 14673 14674 14675 14676 14677 14678 14679 14680 14681 14682 14683 14684 14685 14686 14687 14688 14689 14690 14691 14692 14693 14694 14695 14696 14697 14698 14699 14700 14701 14702 14703 14704 14705 14706 14707 14708 14709 14710 14711 14712 14713 14714 14715 14716 14717 14718 14719 14720 14721 14722 14723 14724 14725 14726 14727 14728 14729 14730 14731 14732 14733 14734 14735 14736 14737 14738 14739 14740 14741 14742 14743 14744 14745 14746 14747 14748 14749 14750 14751 14752 14753 14754 14755 14756 14757 14758 14759 14760 14761 14762 14763 14764 14765 14766 14767 14768 14769 14770 14771 14772 14773 14774 14775 14776 14777 14778 14779 14780 14781 14782 14783 14784 14785 14786 14787 14788 14789 14790 14791 14792 14793 14794 14795 14796 14797 14798 14799 14800 14801 14802 14803 14804 14805 14806 14807 14808 14809 14810 14811 14812 14813 14814 14815 14816 14817 14818 14819 14820 14821 14822 14823 14824 14825 14826 14827 14828 14829 14830 14831 14832 14833 14834 14835 14836 14837 14838 14839 14840 14841 14842 14843 14844 14845 14846 14847 14848 14849 14850 14851 14852 14853 14854 14855 14856 14857 14858 14859 14860 14861 14862 14863 14864 14865 14866 14867 14868 14869 14870 14871 14872 14873 14874 14875 14876 14877 14878 14879 14880 14881 14882 14883 14884 14885 14886 14887 14888 14889 14890 14891 14892 14893 14894 14895 14896 14897 14898 14899 14900 14901 14902 14903 14904 14905 14906 14907 14908 14909 14910 14911 14912 14913 14914 14915 14916 14917 14918 14919 14920 14921 14922 14923 14924 14925 14926 14927 14928 14929 14930 14931 14932 14933 14934 14935 14936 14937 14938 14939 14940 14941 14942 14943 14944 14945 14946 14947 14948 14949 14950 14951 14952 14953 14954 14955 14956 14957 14958 14959 14960 14961 14962 14963 14964 14965 14966 14967 14968 14969 14970 14971 14972 14973 14974 14975 14976 14977 14978 14979 14980 14981 14982 14983 14984 14985 14986 14987 14988 14989 14990 14991 14992 14993 14994 14995 14996 14997 14998 14999 15000 15001 15002 15003 15004 15005 15006 15007 15008 15009 15010 15011 15012 15013 15014 15015 15016 15017 15018 15019 15020 15021 15022 15023 15024 15025 15026 15027 15028 15029 15030 15031 15032 15033 15034 15035 15036 15037 15038 15039 15040 15041 15042 15043 15044 15045 15046 15047 15048 15049 15050 15051 15052 15053 15054 15055 15056 15057 15058 15059 15060 15061 15062 15063 15064 15065 15066 15067 15068 15069 15070 15071 15072 15073 15074 15075 15076 15077 15078 15079 15080 15081 15082 15083 15084 15085 15086 15087 15088 15089 15090 15091 15092 15093 15094 15095 15096 15097 15098 15099 15100 15101 15102 15103 15104 15105 15106 15107 15108 15109 15110 15111 15112 15113 15114 15115 15116 15117 15118 15119 15120 15121 15122 15123 15124 15125 15126 15127 15128 15129 15130 15131 15132 15133 15134 15135 15136 15137 15138 15139 15140 15141 15142 15143 15144 15145 15146 15147 15148 15149 15150 15151 15152 15153 15154 15155 15156 15157 15158 15159 15160 15161 15162 15163 15164 15165 15166 15167 15168 15169 15170 15171 15172 15173 15174 15175 15176 15177 15178 15179 15180 15181 15182 15183 15184 15185 15186 15187 15188 15189 15190 15191 15192 15193 15194 15195 15196 15197 15198 15199 15200 15201 15202 15203 15204 15205 15206 15207 15208 15209 15210 15211 15212 15213 15214 15215 15216 15217 15218 15219 15220 15221 15222 15223 15224 15225 15226 15227 15228 15229 15230 15231 15232 15233 15234 15235 15236 15237 15238 15239 15240 15241 15242 15243 15244 15245 15246 15247 15248 15249 15250 15251 15252 15253 15254 15255 15256 15257 15258 15259 15260 15261 15262 15263 15264 15265 15266 15267 15268 15269 15270 15271 15272 15273 15274 15275 15276 15277 15278 15279 15280 15281 15282 15283 15284 15285 15286 15287 15288 15289 15290 15291 15292 15293 15294 15295 15296 15297 15298 15299 15300 15301 15302 15303 15304 15305 15306 15307 15308 15309 15310 15311 15312 15313 15314 15315 15316 15317 15318 15319 15320 15321 15322 15323 15324 15325 15326 15327 15328 15329 15330 15331 15332 15333 15334 15335 15336 15337 15338 15339 15340 15341 15342 15343 15344 15345 15346 15347 15348 15349 15350 15351 15352 15353 15354 15355 15356 15357 15358 15359 15360 15361 15362 15363 15364 15365 15366 15367 15368 15369 15370 15371 15372 15373 15374 15375 15376 15377 15378 15379 15380 15381 15382 15383 15384 15385 15386 15387 15388 15389 15390 15391 15392 15393 15394 15395 15396 15397 15398 15399 15400 15401 15402 15403 15404 15405 15406 15407 15408 15409 15410 15411 15412 15413 15414 15415 15416 15417 15418 15419 15420 15421 15422 15423 15424 15425 15426 15427 15428 15429 15430 15431 15432 15433 15434 15435 15436 15437 15438 15439 15440 15441 15442 15443 15444 15445 15446 15447 15448 15449 15450 15451 15452 15453 15454 15455 15456 15457 15458 15459 15460 15461 15462 15463 15464 15465 15466 15467 15468 15469 15470 15471 15472 15473 15474 15475 15476 15477 15478 15479 15480 15481 15482 15483 15484 15485 15486 15487 15488 15489 15490 15491 15492 15493 15494 15495 15496 15497 15498 15499 15500 15501 15502 15503 15504 15505 15506 15507 15508 15509 15510 15511 15512 15513 15514 15515 15516 15517 15518 15519 15520 15521 15522 15523 15524 15525 15526 15527 15528 15529 15530 15531 15532 15533 15534 15535 15536 15537 15538 15539 15540 15541 15542 15543 15544 15545 15546 15547 15548 15549 15550 15551 15552 15553 15554 15555 15556 15557 15558 15559 15560 15561 15562 15563 15564 15565 15566 15567 15568 15569 15570 15571 15572 15573 15574 15575 15576 15577 15578 15579 15580 15581 15582 15583 15584 15585 15586 15587 15588 15589 15590 15591 15592 15593 15594 15595 15596 15597 15598 15599 15600 15601 15602 15603 15604 15605 15606 15607 15608 15609 15610 15611 15612 15613 15614 15615 15616 15617 15618 15619 15620 15621 15622 15623 15624 15625 15626 15627 15628 15629 15630 15631 15632 15633 15634 15635 15636 15637 15638 15639 15640 15641 15642 15643 15644 15645 15646 15647 15648 15649 15650 15651 15652 15653 15654 15655 15656 15657 15658 15659 15660 15661 15662 15663 15664 15665 15666 15667 15668 15669 15670 15671 15672 15673 15674 15675 15676 15677 15678 15679 15680 15681 15682 15683 15684 15685 15686 15687 15688 15689 15690 15691 15692 15693 15694 15695 15696 15697 15698 15699 15700 15701 15702 15703 15704 15705 15706 15707 15708 15709 15710 15711 15712 15713 15714 15715 15716 15717 15718 15719 15720 15721 15722 15723 15724 15725 15726 15727 15728 15729 15730 15731 15732 15733 15734 15735 15736 15737 15738 15739 15740 15741 15742 15743 15744 15745 15746 15747 15748 15749 15750 15751 15752 15753 15754 15755 15756 15757 15758 15759 15760 15761 15762 15763 15764 15765 15766 15767 15768 15769 15770 15771 15772 15773 15774 15775 15776 15777 15778 15779 15780 15781 15782 15783 15784 15785 15786 15787 15788 15789 15790 15791 15792 15793 15794 15795 15796 15797 15798 15799 15800 15801 15802 15803 15804 15805 15806 15807 15808 15809 15810 15811 15812 15813 15814 15815 15816 15817 15818 15819 15820 15821 15822 15823 15824 15825 15826 15827 15828 15829 15830 15831 15832 15833 15834 15835 15836 15837 15838 15839 15840 15841 15842 15843 15844 15845 15846 15847 15848 15849 15850 15851 15852 15853 15854 15855 15856 15857 15858 15859 15860 15861 15862 15863 15864 15865 15866 15867 15868 15869 15870 15871 15872 15873 15874 15875 15876 15877 15878 15879 15880 15881 15882 15883 15884 15885 15886 15887 15888 15889 15890 15891 15892 15893 15894 15895 15896 15897 15898 15899 15900 15901 15902 15903 15904 15905 15906 15907 15908 15909 15910 15911 15912 15913 15914 15915 15916 15917 15918 15919 15920 15921 15922 15923 15924 15925 15926 15927 15928 15929 15930 15931 15932 15933 15934 15935 15936 15937 15938 15939 15940 15941 15942 15943 15944 15945 15946 15947 15948 15949 15950 15951 15952 15953 15954 15955 15956 15957 15958 15959 15960 15961 15962 15963 15964 15965 15966 15967 15968 15969 15970 15971 15972 15973 15974 15975 15976 15977 15978 15979 15980 15981 15982 15983 15984 15985 15986 15987 15988 15989 15990 15991 15992 15993 15994 15995 15996 15997 15998 15999 16000 16001 16002 16003 16004 16005 16006 16007 16008 16009 16010 16011 16012 16013 16014 16015 16016 16017 16018 16019 16020 16021 16022 16023 16024 16025 16026 16027 16028 16029 16030 16031 16032 16033 16034 16035 16036 16037 16038 16039 16040 16041 16042 16043 16044 16045 16046 16047 16048 16049 16050 16051 16052 16053 16054 16055 16056 16057 16058 16059 16060 16061 16062 16063 16064 16065 16066 16067 16068 16069 16070 16071 16072 16073 16074 16075 16076 16077 16078 16079 16080 16081 16082 16083 16084 16085 16086 16087 16088 16089 16090 16091 16092 16093 16094 16095 16096 16097 16098 16099 16100 16101 16102 16103 16104 16105 16106 16107 16108 16109 16110 16111 16112 16113 16114 16115 16116 16117 16118 16119 16120 16121 16122 16123 16124 16125 16126 16127 16128 16129 16130 16131 16132 16133 16134 16135 16136 16137 16138 16139 16140 16141 16142 16143 16144 16145 16146 16147 16148 16149 16150 16151 16152 16153 16154 16155 16156 16157 16158 16159 16160 16161 16162 16163 16164 16165 16166 16167 16168 16169 16170 16171 16172 16173 16174 16175 16176 16177 16178 16179 16180 16181 16182 16183 16184 16185 16186 16187 16188 16189 16190 16191 16192 16193 16194 16195 16196 16197 16198 16199 16200 16201 16202 16203 16204 16205 16206 16207 16208 16209 16210 16211 16212 16213 16214 16215 16216 16217 16218 16219 16220 16221 16222 16223 16224 16225 16226 16227 16228 16229 16230 16231 16232 16233 16234 16235 16236 16237 16238 16239 16240 16241 16242 16243 16244 16245 16246 16247 16248 16249 16250 16251 16252 16253 16254 16255 16256 16257 16258 16259 16260 16261 16262 16263 16264 16265 16266 16267 16268 16269 16270 16271 16272 16273 16274 16275 16276 16277 16278 16279 16280 16281 16282 16283 16284 16285 16286 16287 16288 16289 16290 16291 16292 16293 16294 16295 16296 16297 16298 16299 16300 16301 16302 16303 16304 16305 16306 16307 16308 16309 16310 16311 16312 16313 16314 16315 16316 16317 16318 16319 16320 16321 16322 16323 16324 16325 16326 16327 16328 16329 16330 16331 16332 16333 16334 16335 16336 16337 16338 16339 16340 16341 16342 16343 16344 16345 16346 16347 16348 16349 16350 16351 16352 16353 16354 16355 16356 16357 16358 16359 16360 16361 16362 16363 16364 16365 16366 16367 16368 16369 16370 16371 16372 16373 16374 16375 16376 16377 16378 16379 16380 16381 16382 16383 16384 16385 16386 16387 16388 16389 16390 16391 16392 16393 16394 16395 16396 16397 16398 16399 16400 16401 16402 16403 16404 16405 16406 16407 16408 16409 16410 16411 16412 16413 16414 16415 16416 16417 16418 16419 16420 16421 16422 16423 16424 16425 16426 16427 16428 16429 16430 16431 16432 16433 16434 16435 16436 16437 16438 16439 16440 16441 16442 16443 16444 16445 16446 16447 16448 16449 16450 16451 16452 16453 16454 16455 16456 16457 16458 16459 16460 16461 16462 16463 16464 16465 16466 16467 16468 16469 16470 16471 16472 16473 16474 16475 16476 16477 16478 16479 16480 16481 16482 16483 16484 16485 16486 16487 16488 16489 16490 16491 16492 16493 16494 16495 16496 16497 16498 16499 16500 16501 16502 16503 16504 16505 16506 16507 16508 16509 16510 16511 16512 16513 16514 16515 16516 16517 16518 16519 16520 16521 16522 16523 16524 16525 16526 16527 16528 16529 16530 16531 16532 16533 16534 16535 16536 16537 16538 16539 16540 16541 16542 16543 16544 16545 16546 16547 16548 16549 16550 16551 16552 16553 16554 16555 16556 16557 16558 16559 16560 16561 16562 16563 16564 16565 16566 16567 16568 16569 16570 16571 16572 16573 16574 16575 16576 16577 16578 16579 16580 16581 16582 16583 16584 16585 16586 16587 16588 16589 16590 16591 16592 16593 16594 16595 16596 16597 16598 16599 16600 16601 16602 16603 16604 16605 16606 16607 16608 16609 16610 16611 16612 16613 16614 16615 16616 16617 16618 16619 16620 16621 16622 16623 16624 16625 16626 16627 16628 16629 16630 16631 16632 16633 16634 16635 16636 16637 16638 16639 16640 16641 16642 16643 16644 16645 16646 16647 16648 16649 16650 16651 16652 16653 16654 16655 16656 16657 16658 16659 16660 16661 16662 16663 16664 16665 16666 16667 16668 16669 16670 16671 16672 16673 16674 16675 16676 16677 16678 16679 16680 16681 16682 16683 16684 16685 16686 16687 16688 16689 16690 16691 16692 16693 16694 16695 16696 16697 16698 16699 16700 16701 16702 16703 16704 16705 16706 16707 16708 16709 16710 16711 16712 16713 16714 16715 16716 16717 16718 16719 16720 16721 16722 16723 16724 16725 16726 16727 16728 16729 16730 16731 16732 16733 16734 16735 16736 16737 16738 16739 16740 16741 16742 16743 16744 16745 16746 16747 16748 16749 16750 16751 16752 16753 16754 16755 16756 16757 16758 16759 16760 16761 16762 16763 16764 16765 16766 16767 16768 16769 16770 16771 16772 16773 16774 16775 16776 16777 16778 16779 16780 16781 16782 16783 16784 16785 16786 16787 16788 16789 16790 16791 16792 16793 16794 16795 16796 16797 16798 16799 16800 16801 16802 16803 16804 16805 16806 16807 16808 16809 16810 16811 16812 16813 16814 16815 16816 16817 16818 16819 16820 16821 16822 16823 16824 16825 16826 16827 16828 16829 16830 16831 16832 16833 16834 16835 16836 16837 16838 16839 16840 16841 16842 16843 16844 16845 16846 16847 16848 16849 16850 16851 16852 16853 16854 16855 16856 16857 16858 16859 16860 16861 16862 16863 16864 16865 16866 16867 16868 16869 16870 16871 16872 16873 16874 16875 16876 16877 16878 16879 16880 16881 16882 16883 16884 16885 16886 16887 16888 16889 16890 16891 16892 16893 16894 16895 16896 16897 16898 16899 16900 16901 16902 16903 16904 16905 16906 16907 16908 16909 16910 16911 16912 16913 16914 16915 16916 16917 16918 16919 16920 16921 16922 16923 16924 16925 16926 16927 16928 16929 16930 16931 16932 16933 16934 16935 16936 16937 16938 16939 16940 16941 16942 16943 16944 16945 16946 16947 16948 16949 16950 16951 16952 16953 16954 16955 16956 16957 16958 16959 16960 16961 16962 16963 16964 16965 16966 16967 16968 16969 16970 16971 16972 16973 16974 16975 16976 16977 16978 16979 16980 16981 16982 16983 16984 16985 16986 16987 16988 16989 16990 16991 16992 16993 16994 16995 16996 16997 16998 16999 17000 17001 17002 17003 17004 17005 17006 17007 17008 17009 17010 17011 17012 17013 17014 17015 17016 17017 17018 17019 17020 17021 17022 17023 17024 17025 17026 17027 17028 17029 17030 17031 17032 17033 17034 17035 17036 17037 17038 17039 17040 17041 17042 17043 17044 17045 17046 17047 17048 17049 17050 17051 17052 17053 17054 17055 17056 17057 17058 17059 17060 17061 17062 17063 17064 17065 17066 17067 17068 17069 17070 17071 17072 17073 17074 17075 17076 17077 17078 17079 17080 17081 17082 17083 17084 17085 17086 17087 17088 17089 17090 17091 17092 17093 17094 17095 17096 17097 17098 17099 17100 17101 17102 17103 17104 17105 17106 17107 17108 17109 17110 17111 17112 17113 17114 17115 17116 17117 17118 17119 17120 17121 17122 17123 17124 17125 17126 17127 17128 17129 17130 17131 17132 17133 17134 17135 17136 17137 17138 17139 17140 17141 17142 17143 17144 17145 17146 17147 17148 17149 17150 17151 17152 17153 17154 17155 17156 17157 17158 17159 17160 17161 17162 17163 17164 17165 17166 17167 17168 17169 17170 17171 17172 17173 17174 17175 17176 17177 17178 17179 17180 17181 17182 17183 17184 17185 17186 17187 17188 17189 17190 17191 17192 17193 17194 17195 17196 17197 17198 17199 17200 17201 17202 17203 17204 17205 17206 17207 17208 17209 17210 17211 17212 17213 17214 17215 17216 17217 17218 17219 17220 17221 17222 17223 17224 17225 17226 17227 17228 17229 17230 17231 17232 17233 17234 17235 17236 17237 17238 17239 17240 17241 17242 17243 17244 17245 17246 17247 17248 17249 17250 17251 17252 17253 17254 17255 17256 17257 17258 17259 17260 17261 17262 17263 17264 17265 17266 17267 17268 17269 17270 17271 17272 17273 17274 17275 17276 17277 17278 17279 17280 17281 17282 17283 17284 17285 17286 17287 17288 17289 17290 17291 17292 17293 17294 17295 17296 17297 17298 17299 17300 17301 17302 17303 17304 17305 17306 17307 17308 17309 17310 17311 17312 17313 17314 17315 17316 17317 17318 17319 17320 17321 17322 17323 17324 17325 17326 17327 17328 17329 17330 17331 17332 17333 17334 17335 17336 17337 17338 17339 17340 17341 17342 17343 17344 17345 17346 17347 17348 17349 17350 17351 17352 17353 17354 17355 17356 17357 17358 17359 17360 17361 17362 17363 17364 17365 17366 17367 17368 17369 17370 17371 17372 17373 17374 17375 17376 17377 17378 17379 17380 17381 17382 17383 17384 17385 17386 17387 17388 17389 17390 17391 17392 17393 17394 17395 17396 17397 17398 17399 17400 17401 17402 17403 17404 17405 17406 17407 17408 17409 17410 17411 17412 17413 17414 17415 17416 17417 17418 17419 17420 17421 17422 17423 17424 17425 17426 17427 17428 17429 17430 17431 17432 17433 17434 17435 17436 17437 17438 17439 17440 17441 17442 17443 17444 17445 17446 17447 17448 17449 17450 17451 17452 17453 17454 17455 17456 17457 17458 17459 17460 17461 17462 17463 17464 17465 17466 17467 17468 17469 17470 17471 17472 17473 17474 17475 17476 17477 17478 17479 17480 17481 17482 17483 17484 17485 17486 17487 17488 17489 17490 17491 17492 17493 17494 17495 17496 17497 17498 17499 17500 17501 17502 17503 17504 17505 17506 17507 17508 17509 17510 17511 17512 17513 17514 17515 17516 17517 17518 17519 17520 17521 17522 17523 17524 17525 17526 17527 17528 17529 17530 17531 17532 17533 17534 17535 17536 17537 17538 17539 17540 17541 17542 17543 17544 17545 17546 17547 17548 17549 17550 17551 17552 17553 17554 17555 17556 17557 17558 17559 17560 17561 17562 17563 17564 17565 17566 17567 17568 17569 17570 17571 17572 17573 17574 17575 17576 17577 17578 17579 17580 17581 17582 17583 17584 17585 17586 17587 17588 17589 17590 17591 17592 17593 17594 17595 17596 17597 17598 17599 17600 17601 17602 17603 17604 17605 17606 17607 17608 17609 17610 17611 17612 17613 17614 17615 17616 17617 17618 17619 17620 17621 17622 17623 17624 17625 17626 17627 17628 17629 17630 17631 17632 17633 17634 17635 17636 17637 17638 17639 17640 17641 17642 17643 17644 17645 17646 17647 17648 17649 17650 17651 17652 17653 17654 17655 17656 17657 17658 17659 17660 17661 17662 17663 17664 17665 17666 17667 17668 17669 17670 17671 17672 17673 17674 17675 17676 17677 17678 17679 17680 17681 17682 17683 17684 17685 17686 17687 17688 17689 17690 17691 17692 17693 17694 17695 17696 17697 17698 17699 17700 17701 17702 17703 17704 17705 17706 17707 17708 17709 17710 17711 17712 17713 17714 17715 17716 17717 17718 17719 17720 17721 17722 17723 17724 17725 17726 17727 17728 17729 17730 17731 17732 17733 17734 17735 17736 17737 17738 17739 17740 17741 17742 17743 17744 17745 17746 17747 17748 17749 17750 17751 17752 17753 17754 17755 17756 17757 17758 17759 17760 17761 17762 17763 17764 17765 17766 17767 17768 17769 17770 17771 17772 17773 17774 17775 17776 17777 17778 17779 17780 17781 17782 17783 17784 17785 17786 17787 17788 17789 17790 17791 17792 17793 17794 17795 17796 17797 17798 17799 17800 17801 17802 17803 17804 17805 17806 17807 17808 17809 17810 17811 17812 17813 17814 17815 17816 17817 17818 17819 17820 17821 17822 17823 17824 17825 17826 17827 17828 17829 17830 17831 17832 17833 17834 17835 17836 17837 17838 17839 17840 17841 17842 17843 17844 17845 17846 17847 17848 17849 17850 17851 17852 17853 17854 17855 17856 17857 17858 17859 17860 17861 17862 17863 17864 17865 17866 17867 17868 17869 17870 17871 17872 17873 17874 17875 17876 17877 17878 17879 17880 17881 17882 17883 17884 17885 17886 17887 17888 17889 17890 17891 17892 17893 17894 17895 17896 17897 17898 17899 17900 17901 17902 17903 17904 17905 17906 17907 17908 17909 17910 17911 17912 17913 17914 17915 17916 17917 17918 17919 17920 17921 17922 17923 17924 17925 17926 17927 17928 17929 17930 17931 17932 17933 17934 17935 17936 17937 17938 17939 17940 17941 17942 17943 17944 17945 17946 17947 17948 17949 17950 17951 17952 17953 17954 17955 17956 17957 17958 17959 17960 17961 17962 17963 17964 17965 17966 17967 17968 17969 17970 17971 17972 17973 17974 17975 17976 17977 17978 17979 17980 17981 17982 17983 17984 17985 17986 17987 17988 17989 17990 17991 17992 17993 17994 17995 17996 17997 17998 17999 18000 18001 18002 18003 18004 18005 18006 18007 18008 18009 18010 18011 18012 18013 18014 18015 18016 18017 18018 18019 18020 18021 18022 18023 18024 18025 18026 18027 18028 18029 18030 18031 18032 18033 18034 18035 18036 18037 18038 18039 18040 18041 18042 18043 18044 18045 18046 18047 18048 18049 18050 18051 18052 18053 18054 18055 18056 18057 18058 18059 18060 18061 18062 18063 18064 18065 18066 18067 18068 18069 18070 18071 18072 18073 18074 18075 18076 18077 18078 18079 18080 18081 18082 18083 18084 18085 18086 18087 18088 18089 18090 18091 18092 18093 18094 18095 18096 18097 18098 18099 18100 18101 18102 18103 18104 18105 18106 18107 18108 18109 18110 18111 18112 18113 18114 18115 18116 18117 18118 18119 18120 18121 18122 18123 18124 18125 18126 18127 18128 18129 18130 18131 18132 18133 18134 18135 18136 18137 18138 18139 18140 18141 18142 18143 18144 18145 18146 18147 18148 18149 18150 18151 18152 18153 18154 18155 18156 18157 18158 18159 18160 18161 18162 18163 18164 18165 18166 18167 18168 18169 18170 18171 18172 18173 18174 18175 18176 18177 18178 18179 18180 18181 18182 18183 18184 18185 18186 18187 18188 18189 18190 18191 18192 18193 18194 18195 18196 18197 18198 18199 18200 18201 18202 18203 18204 18205 18206 18207 18208 18209 18210 18211 18212 18213 18214 18215 18216 18217 18218 18219 18220 18221 18222 18223 18224 18225 18226 18227 18228 18229 18230 18231 18232 18233 18234 18235 18236 18237 18238 18239 18240 18241 18242 18243 18244 18245 18246 18247 18248 18249 18250 18251 18252 18253 18254 18255 18256 18257 18258 18259 18260 18261 18262 18263 18264 18265 18266 18267 18268 18269 18270 18271 18272 18273 18274 18275 18276 18277 18278 18279 18280 18281 18282 18283 18284 18285 18286 18287 18288 18289 18290 18291 18292 18293 18294 18295 18296 18297 18298 18299 18300 18301 18302 18303 18304 18305 18306 18307 18308 18309 18310 18311 18312 18313 18314 18315 18316 18317 18318 18319 18320 18321 18322 18323 18324 18325 18326 18327 18328 18329 18330 18331 18332 18333 18334 18335 18336 18337 18338 18339 18340 18341 18342 18343 18344 18345 18346 18347 18348 18349 18350 18351 18352 18353 18354 18355 18356 18357 18358 18359 18360 18361 18362 18363 18364 18365 18366 18367 18368 18369 18370 18371 18372 18373 18374 18375 18376 18377 18378 18379 18380 18381 18382 18383 18384 18385 18386 18387 18388 18389 18390 18391 18392 18393 18394 18395 18396 18397 18398 18399 18400 18401 18402 18403 18404 18405 18406 18407 18408 18409 18410 18411 18412 18413 18414 18415 18416 18417 18418 18419 18420 18421 18422 18423 18424 18425 18426 18427 18428 18429 18430 18431 18432 18433 18434 18435 18436 18437 18438 18439 18440 18441 18442 18443 18444 18445 18446 18447 18448 18449 18450 18451 18452 18453 18454 18455 18456 18457 18458 18459 18460 18461 18462 18463 18464 18465 18466 18467 18468 18469 18470 18471 18472 18473 18474 18475 18476 18477 18478 18479 18480 18481 18482 18483 18484 18485 18486 18487 18488 18489 18490 18491 18492 18493 18494 18495 18496 18497 18498 18499 18500 18501 18502 18503 18504 18505 18506 18507 18508 18509 18510 18511 18512 18513 18514 18515 18516 18517 18518 18519 18520 18521 18522 18523 18524 18525 18526 18527 18528 18529 18530 18531 18532 18533 18534 18535 18536 18537 18538 18539 18540 18541 18542 18543 18544 18545 18546 18547 18548 18549 18550 18551 18552 18553 18554 18555 18556 18557 18558 18559 18560 18561 18562 18563 18564 18565 18566 18567 18568 18569 18570 18571 18572 18573 18574 18575 18576 18577 18578 18579 18580 18581 18582 18583 18584 18585 18586 18587 18588 18589 18590 18591 18592 18593 18594 18595 18596 18597 18598 18599 18600 18601 18602 18603 18604 18605 18606 18607 18608 18609 18610 18611 18612 18613 18614 18615 18616 18617 18618 18619 18620 18621 18622 18623 18624 18625 18626 18627 18628 18629 18630 18631 18632 18633 18634 18635 18636 18637 18638 18639 18640 18641 18642 18643 18644 18645 18646 18647 18648 18649 18650 18651 18652 18653 18654 18655 18656 18657 18658 18659 18660 18661 18662 18663 18664 18665 18666 18667 18668 18669 18670 18671 18672 18673 18674 18675 18676 18677 18678 18679 18680 18681 18682 18683 18684 18685 18686 18687 18688 18689 18690 18691 18692 18693 18694 18695 18696 18697 18698 18699 18700 18701 18702 18703 18704 18705 18706 18707 18708 18709 18710 18711 18712 18713 18714 18715 18716 18717 18718 18719 18720 18721 18722 18723 18724 18725 18726 18727 18728 18729 18730 18731 18732 18733 18734 18735 18736 18737 18738 18739 18740 18741 18742 18743 18744 18745 18746 18747 18748 18749 18750 18751 18752 18753 18754 18755 18756 18757 18758 18759 18760 18761 18762 18763 18764 18765 18766 18767 18768 18769 18770 18771 18772 18773 18774 18775 18776 18777 18778 18779 18780 18781 18782 18783 18784 18785 18786 18787 18788 18789 18790 18791 18792 18793 18794 18795 18796 18797 18798 18799 18800 18801 18802 18803 18804 18805 18806 18807 18808 18809 18810 18811 18812 18813 18814 18815 18816 18817 18818 18819 18820 18821 18822 18823 18824 18825 18826 18827 18828 18829 18830 18831 18832 18833 18834 18835 18836 18837 18838 18839 18840 18841 18842 18843 18844 18845 18846 18847 18848 18849 18850 18851 18852 18853 18854 18855 18856 18857 18858 18859 18860 18861 18862 18863 18864 18865 18866 18867 18868 18869 18870 18871 18872 18873 18874 18875 18876 18877 18878 18879 18880 18881 18882 18883 18884 18885 18886 18887 18888 18889 18890 18891 18892 18893 18894 18895 18896 18897 18898 18899 18900 18901 18902 18903 18904 18905 18906 18907 18908 18909 18910 18911 18912 18913 18914 18915 18916 18917 18918 18919 18920 18921 18922 18923 18924 18925 18926 18927 18928 18929 18930 18931 18932 18933 18934 18935 18936 18937 18938 18939 18940 18941 18942 18943 18944 18945 18946 18947 18948 18949 18950 18951 18952 18953 18954 18955 18956 18957 18958 18959 18960 18961 18962 18963 18964 18965 18966 18967 18968 18969 18970 18971 18972 18973 18974 18975 18976 18977 18978 18979 18980 18981 18982 18983 18984 18985 18986 18987 18988 18989 18990 18991 18992 18993 18994 18995 18996 18997 18998 18999 19000 19001 19002 19003 19004 19005 19006 19007 19008 19009 19010 19011 19012 19013 19014 19015 19016 19017 19018 19019 19020 19021 19022 19023 19024 19025 19026 19027 19028 19029 19030 19031 19032 19033 19034 19035 19036 19037 19038 19039 19040 19041 19042 19043 19044 19045 19046 19047 19048 19049 19050 19051 19052 19053 19054 19055 19056 19057 19058 19059 19060 19061 19062 19063 19064 19065 19066 19067 19068 19069 19070 19071 19072 19073 19074 19075 19076 19077 19078 19079 19080 19081 19082 19083 19084 19085 19086 19087 19088 19089 19090 19091 19092 19093 19094 19095 19096 19097 19098 19099 19100 19101 19102 19103 19104 19105 19106 19107 19108 19109 19110 19111 19112 19113 19114 19115 19116 19117 19118 19119 19120 19121 19122 19123 19124 19125 19126 19127 19128 19129 19130 19131 19132 19133 19134 19135 19136 19137 19138 19139 19140 19141 19142 19143 19144 19145 19146 19147 19148 19149 19150 19151 19152 19153 19154 19155 19156 19157 19158 19159 19160 19161 19162 19163 19164 19165 19166 19167 19168 19169 19170 19171 19172 19173 19174 19175 19176 19177 19178 19179 19180 19181 19182 19183 19184 19185 19186 19187 19188 19189 19190 19191 19192 19193 19194 19195 19196 19197 19198 19199 19200 19201 19202 19203 19204 19205 19206 19207 19208 19209 19210 19211 19212 19213 19214 19215 19216 19217 19218 19219 19220 19221 19222 19223 19224 19225 19226 19227 19228 19229 19230 19231 19232 19233 19234 19235 19236 19237 19238 19239 19240 19241 19242 19243 19244 19245 19246 19247 19248 19249 19250 19251 19252 19253 19254 19255 19256 19257 19258 19259 19260 19261 19262 19263 19264 19265 19266 19267 19268 19269 19270 19271 19272 19273 19274 19275 19276 19277 19278 19279 19280 19281 19282 19283 19284 19285 19286 19287 19288 19289 19290 19291 19292 19293 19294 19295 19296 19297 19298 19299 19300 19301 19302 19303 19304 19305 19306 19307 19308 19309 19310 19311 19312 19313 19314 19315 19316 19317 19318 19319 19320 19321 19322 19323 19324 19325 19326 19327 19328 19329 19330 19331 19332 19333 19334 19335 19336 19337 19338 19339 19340 19341 19342 19343 19344 19345 19346 19347 19348 19349 19350 19351 19352 19353 19354 19355 19356 19357 19358 19359 19360 19361 19362 19363 19364 19365 19366 19367 19368 19369 19370 19371 19372 19373 19374 19375 19376 19377 19378 19379 19380 19381 19382 19383 19384 19385 19386 19387 19388 19389 19390 19391 19392 19393 19394 19395 19396 19397 19398 19399 19400 19401 19402 19403 19404 19405 19406 19407 19408 19409 19410 19411 19412 19413 19414 19415 19416 19417 19418 19419 19420 19421 19422 19423 19424 19425 19426 19427 19428 19429 19430 19431 19432 19433 19434 19435 19436 19437 19438 19439 19440 19441 19442 19443 19444 19445 19446 19447 19448 19449 19450 19451 19452 19453 19454 19455 19456 19457 19458 19459 19460 19461 19462 19463 19464 19465 19466 19467 19468 19469 19470 19471 19472 19473 19474 19475 19476 19477 19478 19479 19480 19481 19482 19483 19484 19485 19486 19487 19488 19489 19490 19491 19492 19493 19494 19495 19496 19497 19498 19499 19500 19501 19502 19503 19504 19505 19506 19507 19508 19509 19510 19511 19512 19513 19514 19515 19516 19517 19518 19519 19520 19521 19522 19523 19524 19525 19526 19527 19528 19529 19530 19531 19532 19533 19534 19535 19536 19537 19538 19539 19540 19541 19542 19543 19544 19545 19546 19547 19548 19549 19550 19551 19552 19553 19554 19555 19556 19557 19558 19559 19560 19561 19562 19563 19564 19565 19566 19567 19568 19569 19570 19571 19572 19573 19574 19575 19576 19577 19578 19579 19580 19581 19582 19583 19584 19585 19586 19587 19588 19589 19590 19591 19592 19593 19594 19595 19596 19597 19598 19599 19600 19601 19602 19603 19604 19605 19606 19607 19608 19609 19610 19611 19612 19613 19614 19615 19616 19617 19618 19619 19620 19621 19622 19623 19624 19625 19626 19627 19628 19629 19630 19631 19632 19633 19634 19635 19636 19637 19638 19639 19640 19641 19642 19643 19644 19645 19646 19647 19648 19649 19650 19651 19652 19653 19654 19655 19656 19657 19658 19659 19660 19661 19662 19663 19664 19665 19666 19667 19668 19669 19670 19671 19672 19673 19674 19675 19676 19677 19678 19679 19680 19681 19682 19683 19684 19685 19686 19687 19688 19689 19690 19691 19692 19693 19694 19695 19696 19697 19698 19699 19700 19701 19702 19703 19704 19705 19706 19707 19708 19709 19710 19711 19712 19713 19714 19715 19716 19717 19718 19719 19720 19721 19722 19723 19724 19725 19726 19727 19728 19729 19730 19731 19732 19733 19734 19735 19736 19737 19738 19739 19740 19741 19742 19743 19744 19745 19746 19747 19748 19749 19750 19751 19752 19753 19754 19755 19756 19757 19758 19759 19760 19761 19762 19763 19764 19765 19766 19767 19768 19769 19770 19771 19772 19773 19774 19775 19776 19777 19778 19779 19780 19781 19782 19783 19784 19785 19786 19787 19788 19789 19790 19791 19792 19793 19794 19795 19796 19797 19798 19799 19800 19801 19802 19803 19804 19805 19806 19807 19808 19809 19810 19811 19812 19813 19814 19815 19816 19817 19818 19819 19820 19821 19822 19823 19824 19825 19826 19827 19828 19829 19830 19831 19832 19833 19834 19835 19836 19837 19838 19839 19840 19841 19842 19843 19844 19845 19846 19847 19848 19849 19850 19851 19852 19853 19854 19855 19856 19857 19858 19859 19860 19861 19862 19863 19864 19865 19866 19867 19868 19869 19870 19871 19872 19873 19874 19875 19876 19877 19878 19879 19880 19881 19882 19883 19884 19885 19886 19887 19888 19889 19890 19891 19892 19893 19894 19895 19896 19897 19898 19899 19900 19901 19902 19903 19904 19905 19906 19907 19908 19909 19910 19911 19912 19913 19914 19915 19916 19917 19918 19919 19920 19921 19922 19923 19924 19925 19926 19927 19928 19929 19930 19931 19932 19933 19934 19935 19936 19937 19938 19939 19940 19941 19942 19943 19944 19945 19946 19947 19948 19949 19950 19951 19952 19953 19954 19955 19956 19957 19958 19959 19960 19961 19962 19963 19964 19965 19966 19967 19968 19969 19970 19971 19972 19973 19974 19975 19976 19977 19978 19979 19980 19981 19982 19983 19984 19985 19986 19987 19988 19989 19990 19991 19992 19993 19994 19995 19996 19997 19998 19999 20000 20001 20002 20003 20004 20005 20006 20007 20008 20009 20010 20011 20012 20013 20014 20015 20016 20017 20018 20019 20020 20021 20022 20023 20024 20025 20026 20027 20028 20029 20030 20031 20032 20033 20034 20035 20036 20037 20038 20039 20040 20041 20042 20043 20044 20045 20046 20047 20048 20049 20050 20051 20052 20053 20054 20055 20056 20057 20058 20059 20060 20061 20062 20063 20064 20065 20066 20067 20068 20069 20070 20071 20072 20073 20074 20075 20076 20077 20078 20079 20080 20081 20082 20083 20084 20085 20086 20087 20088 20089 20090 20091 20092 20093 20094 20095 20096 20097 20098 20099 20100 20101 20102 20103 20104 20105 20106 20107 20108 20109 20110 20111 20112 20113 20114 20115 20116 20117 20118 20119 20120 20121 20122 20123 20124 20125 20126 20127 20128 20129 20130 20131 20132 20133 20134 20135 20136 20137 20138 20139 20140 20141 20142 20143 20144 20145 20146 20147 20148 20149 20150 20151 20152 20153 20154 20155 20156 20157 20158 20159 20160 20161 20162 20163 20164 20165 20166 20167 20168 20169 20170 20171 20172 20173 20174 20175 20176 20177 20178 20179 20180 20181 20182 20183 20184 20185 20186 20187 20188 20189 20190 20191 20192 20193 20194 20195 20196 20197 20198 20199 20200 20201 20202 20203 20204 20205 20206 20207 20208 20209 20210 20211 20212 20213 20214 20215 20216 20217 20218 20219 20220 20221 20222 20223 20224 20225 20226 20227 20228 20229 20230 20231 20232 20233 20234 20235 20236 20237 20238 20239 20240 20241 20242 20243 20244 20245 20246 20247 20248 20249 20250 20251 20252 20253 20254 20255 20256 20257 20258 20259 20260 20261 20262 20263 20264 20265 20266 20267 20268 20269 20270 20271 20272 20273 20274 20275 20276 20277 20278 20279 20280 20281 20282 20283 20284 20285 20286 20287 20288 20289 20290 20291 20292 20293 20294 20295 20296 20297 20298 20299 20300 20301 20302 20303 20304 20305 20306 20307 20308 20309 20310 20311 20312 20313 20314 20315 20316 20317 20318 20319 20320 20321 20322 20323 20324 20325 20326 20327 20328 20329 20330 20331 20332 20333 20334 20335 20336 20337 20338 20339 20340 20341 20342 20343 20344 20345 20346 20347 20348 20349 20350 20351 20352 20353 20354 20355 20356 20357 20358 20359 20360 20361 20362 20363 20364 20365 20366 20367 20368 20369 20370 20371 20372 20373 20374 20375 20376 20377 20378 20379 20380 20381 20382 20383 20384 20385 20386 20387 20388 20389 20390 20391 20392 20393 20394 20395 20396 20397 20398 20399 20400 20401 20402 20403 20404 20405 20406 20407 20408 20409 20410 20411 20412 20413 20414 20415 20416 20417 20418 20419 20420 20421 20422 20423 20424 20425 20426 20427 20428 20429 20430 20431 20432 20433 20434 20435 20436 20437 20438 20439 20440 20441 20442 20443 20444 20445 20446 20447 20448 20449 20450 20451 20452 20453 20454 20455 20456 20457 20458 20459 20460 20461 20462 20463 20464 20465 20466 20467 20468 20469 20470 20471 20472 20473 20474 20475 20476 20477 20478 20479 20480 20481 20482 20483 20484 20485 20486 20487 20488 20489 20490 20491 20492 20493 20494 20495 20496 20497 20498 20499 20500 20501 20502 20503 20504 20505 20506 20507 20508 20509 20510 20511 20512 20513 20514 20515 20516 20517 20518 20519 20520 20521 20522 20523 20524 20525 20526 20527 20528 20529 20530 20531 20532 20533 20534 20535 20536 20537 20538 20539 20540 20541 20542 20543 20544 20545 20546 20547 20548 20549 20550 20551 20552 20553 20554 20555 20556 20557 20558 20559 20560 20561 20562 20563 20564 20565 20566 20567 20568 20569 20570 20571 20572 20573 20574 20575 20576 20577 20578 20579 20580 20581 20582 20583 20584 20585 20586 20587 20588 20589 20590 20591 20592 20593 20594 20595 20596 20597 20598 20599 20600 20601 20602 20603 20604 20605 20606 20607 20608 20609 20610 20611 20612 20613 20614 20615 20616 20617 20618 20619 20620 20621 20622 20623 20624 20625 20626 20627 20628 20629 20630 20631 20632 20633 20634 20635 20636 20637 20638 20639 20640 20641 20642 20643 20644 20645 20646 20647 20648 20649 20650 20651 20652 20653 20654 20655 20656 20657 20658 20659 20660 20661 20662 20663 20664 20665 20666 20667 20668 20669 20670 20671 20672 20673 20674 20675 20676 20677 20678 20679 20680 20681 20682 20683 20684 20685 20686 20687 20688 20689 20690 20691 20692 20693 20694 20695 20696 20697 20698 20699 20700 20701 20702 20703 20704 20705 20706 20707 20708 20709 20710 20711 20712 20713 20714 20715 20716 20717 20718 20719 20720 20721 20722 20723 20724 20725 20726 20727 20728 20729 20730 20731 20732 20733 20734 20735 20736 20737 20738 20739 20740 20741 20742 20743 20744 20745 20746 20747 20748 20749 20750 20751 20752 20753 20754 20755 20756 20757 20758 20759 20760 20761 20762 20763 20764 20765 20766 20767 20768 20769 20770 20771 20772 20773 20774 20775 20776 20777 20778 20779 20780 20781 20782 20783 20784 20785 20786 20787 20788 20789 20790 20791 20792 20793 20794 20795 20796 20797 20798 20799 20800 20801 20802 20803 20804 20805 20806 20807 20808 20809 20810 20811 20812 20813 20814 20815 20816 20817 20818 20819 20820 20821 20822 20823 20824 20825 20826 20827 20828 20829 20830 20831 20832 20833 20834 20835 20836 20837 20838 20839 20840 20841 20842 20843 20844 20845 20846 20847 20848 20849 20850 20851 20852 20853 20854 20855 20856 20857 20858 20859 20860 20861 20862 20863 20864 20865 20866 20867 20868 20869 20870 20871 20872 20873 20874 20875 20876 20877 20878 20879 20880 20881 20882 20883 20884 20885 20886 20887 20888 20889 20890 20891 20892 20893 20894 20895 20896 20897 20898 20899 20900 20901 20902 20903 20904 20905 20906 20907 20908 20909 20910 20911 20912 20913 20914 20915 20916 20917 20918 20919 20920 20921 20922 20923 20924 20925 20926 20927 20928 20929 20930 20931 20932 20933 20934 20935 20936 20937 20938 20939 20940 20941 20942 20943 20944 20945 20946 20947 20948 20949 20950 20951 20952 20953 20954 20955 20956 20957 20958 20959 20960 20961 20962 20963 20964 20965 20966 20967 20968 20969 20970 20971 20972 20973 20974 20975 20976 20977 20978 20979 20980 20981 20982 20983 20984 20985 20986 20987 20988 20989 20990 20991 20992 20993 20994 20995 20996 20997 20998 20999 21000 21001 21002 21003 21004 21005 21006 21007 21008 21009 21010 21011 21012 21013 21014 21015 21016 21017 21018 21019 21020 21021 21022 21023 21024 21025 21026 21027 21028 21029 21030 21031 21032 21033 21034 21035 21036 21037 21038 21039 21040 21041 21042 21043 21044 21045 21046 21047 21048 21049 21050 21051 21052 21053 21054 21055 21056 21057 21058 21059 21060 21061 21062 21063 21064 21065 21066 21067 21068 21069 21070 21071 21072 21073 21074 21075 21076 21077 21078 21079 21080 21081 21082 21083 21084 21085 21086 21087 21088 21089 21090 21091 21092 21093 21094 21095 21096 21097 21098 21099 21100 21101 21102 21103 21104 21105 21106 21107 21108 21109 21110 21111 21112 21113 21114 21115 21116 21117 21118 21119 21120 21121 21122 21123 21124 21125 21126 21127 21128 21129 21130 21131 21132 21133 21134 21135 21136 21137 21138 21139 21140 21141 21142 21143 21144 21145 21146 21147 21148 21149 21150 21151 21152 21153 21154 21155 21156 21157 21158 21159 21160 21161 21162 21163 21164 21165 21166 21167 21168 21169 21170 21171 21172 21173 21174 21175 21176 21177 21178 21179 21180 21181 21182 21183 21184 21185 21186 21187 21188 21189 21190 21191 21192 21193 21194 21195 21196 21197 21198 21199 21200 21201 21202 21203 21204 21205 21206 21207 21208 21209 21210 21211 21212 21213 21214 21215 21216 21217 21218 21219 21220 21221 21222 21223 21224 21225 21226 21227 21228 21229 21230 21231 21232 21233 21234 21235 21236 21237 21238 21239 21240 21241 21242 21243 21244 21245 21246 21247 21248 21249 21250 21251 21252 21253 21254 21255 21256 21257 21258 21259 21260 21261 21262 21263 21264 21265 21266 21267 21268 21269 21270 21271 21272 21273 21274 21275 21276 21277 21278 21279 21280 21281 21282 21283 21284 21285 21286 21287 21288 21289 21290 21291 21292 21293 21294 21295 21296 21297 21298 21299 21300 21301 21302 21303 21304 21305 21306 21307 21308 21309 21310 21311 21312 21313 21314 21315 21316 21317 21318 21319 21320 21321 21322 21323 21324 21325 21326 21327 21328 21329 21330 21331 21332 21333 21334 21335 21336 21337 21338 21339 21340 21341 21342 21343 21344 21345 21346 21347 21348 21349 21350 21351 21352 21353 21354 21355 21356 21357 21358 21359 21360 21361 21362 21363 21364 21365 21366 21367 21368 21369 21370 21371 21372 21373 21374 21375 21376 21377 21378 21379 21380 21381 21382 21383 21384 21385 21386 21387 21388 21389 21390 21391 21392 21393 21394 21395 21396 21397 21398 21399 21400 21401 21402 21403 21404 21405 21406 21407 21408 21409 21410 21411 21412 21413 21414 21415 21416 21417 21418 21419 21420 21421 21422 21423 21424 21425 21426 21427 21428 21429 21430 21431 21432 21433 21434 21435 21436 21437 21438 21439 21440 21441 21442 21443 21444 21445 21446 21447 21448 21449 21450 21451 21452 21453 21454 21455 21456 21457 21458 21459 21460 21461 21462 21463 21464 21465 21466 21467 21468 21469 21470 21471 21472 21473 21474 21475 21476 21477 21478 21479 21480 21481 21482 21483 21484 21485 21486 21487 21488 21489 21490 21491 21492 21493 21494 21495 21496 21497 21498 21499 21500 21501 21502 21503 21504 21505 21506 21507 21508 21509 21510 21511 21512 21513 21514 21515 21516 21517 21518 21519 21520 21521 21522 21523 21524 21525 21526 21527 21528 21529 21530 21531 21532 21533 21534 21535 21536 21537 21538 21539 21540 21541 21542 21543 21544 21545 21546 21547 21548 21549 21550 21551 21552 21553 21554 21555 21556 21557 21558 21559 21560 21561 21562 21563 21564 21565 21566 21567 21568 21569 21570 21571 21572 21573 21574 21575 21576 21577 21578 21579 21580 21581 21582 21583 21584 21585 21586 21587 21588 21589 21590 21591 21592 21593 21594 21595 21596 21597 21598 21599 21600 21601 21602 21603 21604 21605 21606 21607 21608 21609 21610 21611 21612 21613 21614 21615 21616 21617 21618 21619 21620 21621 21622 21623 21624 21625 21626 21627 21628 21629 21630 21631 21632 21633 21634 21635 21636 21637 21638 21639 21640 21641 21642 21643 21644 21645 21646 21647 21648 21649 21650 21651 21652 21653 21654 21655 21656 21657 21658 21659 21660 21661 21662 21663 21664 21665 21666 21667 21668 21669 21670 21671 21672 21673 21674 21675 21676 21677 21678 21679 21680 21681 21682 21683 21684 21685 21686 21687 21688 21689 21690 21691 21692 21693 21694 21695 21696 21697 21698 21699 21700 21701 21702 21703 21704 21705 21706 21707 21708 21709 21710 21711 21712 21713 21714 21715 21716 21717 21718 21719 21720 21721 21722 21723 21724 21725 21726 21727 21728 21729 21730 21731 21732 21733 21734 21735 21736 21737 21738 21739 21740 21741 21742 21743 21744 21745 21746 21747 21748 21749 21750 21751 21752 21753 21754 21755 21756 21757 21758 21759 21760 21761 21762 21763 21764 21765 21766 21767 21768 21769 21770 21771 21772 21773 21774 21775 21776 21777 21778 21779 21780 21781 21782 21783 21784 21785 21786 21787 21788 21789 21790 21791 21792 21793 21794 21795 21796 21797 21798 21799 21800 21801 21802 21803 21804 21805 21806 21807 21808 21809 21810 21811 21812 21813 21814 21815 21816 21817 21818 21819 21820 21821 21822 21823 21824 21825 21826 21827 21828 21829 21830 21831 21832 21833 21834 21835 21836 21837 21838 21839 21840 21841 21842 21843 21844 21845 21846 21847 21848 21849 21850 21851 21852 21853 21854 21855 21856 21857 21858 21859 21860 21861 21862 21863 21864 21865 21866 21867 21868 21869 21870 21871 21872 21873 21874 21875 21876 21877 21878 21879 21880 21881 21882 21883 21884 21885 21886 21887 21888 21889 21890 21891 21892 21893 21894 21895 21896 21897 21898 21899 21900 21901 21902 21903 21904 21905 21906 21907 21908 21909 21910 21911 21912 21913 21914 21915 21916 21917 21918 21919 21920 21921 21922 21923 21924 21925 21926 21927 21928 21929 21930 21931 21932 21933 21934 21935 21936 21937 21938 21939 21940 21941 21942 21943 21944 21945 21946 21947 21948 21949 21950 21951 21952 21953 21954 21955 21956 21957 21958 21959 21960 21961 21962 21963 21964 21965 21966 21967 21968 21969 21970 21971 21972 21973 21974 21975 21976 21977 21978 21979 21980 21981 21982 21983 21984 21985 21986 21987 21988 21989 21990 21991 21992 21993 21994 21995 21996 21997 21998 21999 22000 22001 22002 22003 22004 22005 22006 22007 22008 22009 22010 22011 22012 22013 22014 22015 22016 22017 22018 22019 22020 22021 22022 22023 22024 22025 22026 22027 22028 22029 22030 22031 22032 22033 22034 22035 22036 22037 22038 22039 22040 22041 22042 22043 22044 22045 22046 22047 22048 22049 22050 22051 22052 22053 22054 22055 22056 22057 22058 22059 22060 22061 22062 22063 22064 22065 22066 22067 22068 22069 22070 22071 22072 22073 22074 22075 22076 22077 22078 22079 22080 22081 22082 22083 22084 22085 22086 22087 22088 22089 22090 22091 22092 22093 22094 22095 22096 22097 22098 22099 22100 22101 22102 22103 22104 22105 22106 22107 22108 22109 22110 22111 22112 22113 22114 22115 22116 22117 22118 22119 22120 22121 22122 22123 22124 22125 22126 22127 22128 22129 22130 22131 22132 22133 22134 22135 22136 22137 22138 22139 22140 22141 22142 22143 22144 22145 22146 22147 22148 22149 22150 22151 22152 22153 22154 22155 22156 22157 22158 22159 22160 22161 22162 22163 22164 22165 22166 22167 22168 22169 22170 22171 22172 22173 22174 22175 22176 22177 22178 22179 22180 22181 22182 22183 22184 22185 22186 22187 22188 22189 22190 22191 22192 22193 22194 22195 22196 22197 22198 22199 22200 22201 22202 22203 22204 22205 22206 22207 22208 22209 22210 22211 22212 22213 22214 22215 22216 22217 22218 22219 22220 22221 22222 22223 22224 22225 22226 22227 22228 22229 22230 22231 22232 22233 22234 22235 22236 22237 22238 22239 22240 22241 22242 22243 22244 22245 22246 22247 22248 22249 22250 22251 22252 22253 22254 22255 22256 22257 22258 22259 22260 22261 22262 22263 22264 22265 22266 22267 22268 22269 22270 22271 22272 22273 22274 22275 22276 22277 22278 22279 22280 22281 22282 22283 22284 22285 22286 22287 22288 22289 22290 22291 22292 22293 22294 22295 22296 22297 22298 22299 22300 22301 22302 22303 22304 22305 22306 22307 22308 22309 22310 22311 22312 22313 22314 22315 22316 22317 22318 22319 22320 22321 22322 22323 22324 22325 22326 22327 22328 22329 22330 22331 22332 22333 22334 22335 22336 22337 22338 22339 22340 22341 22342 22343 22344 22345 22346 22347 22348 22349 22350 22351 22352 22353 22354 22355 22356 22357 22358 22359 22360 22361 22362 22363 22364 22365 22366 22367 22368 22369 22370 22371 22372 22373 22374 22375 22376 22377 22378 22379 22380 22381 22382 22383 22384 22385 22386 22387 22388 22389 22390 22391 22392 22393 22394 22395 22396 22397 22398 22399 22400 22401 22402 22403 22404 22405 22406 22407 22408 22409 22410 22411 22412 22413 22414 22415 22416 22417 22418 22419 22420 22421 22422 22423 22424 22425 22426 22427 22428 22429 22430 22431 22432 22433 22434 22435 22436 22437 22438 22439 22440 22441 22442 22443 22444 22445 22446 22447 22448 22449 22450 22451 22452 22453 22454 22455 22456 22457 22458 22459 22460 22461 22462 22463 22464 22465 22466 22467 22468 22469 22470 22471 22472 22473 22474 22475 22476 22477 22478 22479 22480 22481 22482 22483 22484 22485 22486 22487 22488 22489 22490 22491 22492 22493 22494 22495 22496 22497 22498 22499 22500 22501 22502 22503 22504 22505 22506 22507 22508 22509 22510 22511 22512 22513 22514 22515 22516 22517 22518 22519 22520 22521 22522 22523 22524 22525 22526 22527 22528 22529 22530 22531 22532 22533 22534 22535 22536 22537 22538 22539 22540 22541 22542 22543 22544 22545 22546 22547 22548 22549 22550 22551 22552 22553 22554 22555 22556 22557 22558 22559 22560 22561 22562 22563 22564 22565 22566 22567 22568 22569 22570 22571 22572 22573 22574 22575 22576 22577 22578 22579 22580 22581 22582 22583 22584 22585 22586 22587 22588 22589 22590 22591 22592 22593 22594 22595 22596 22597 22598 22599 22600 22601 22602 22603 22604 22605 22606 22607 22608 22609 22610 22611 22612 22613 22614 22615 22616 22617 22618 22619 22620 22621 22622 22623 22624 22625 22626 22627 22628 22629 22630 22631 22632 22633 22634 22635 22636 22637 22638 22639 22640 22641 22642 22643 22644 22645 22646 22647 22648 22649 22650 22651 22652 22653 22654 22655 22656 22657 22658 22659 22660 22661 22662 22663 22664 22665 22666 22667 22668 22669 22670 22671 22672 22673 22674 22675 22676 22677 22678 22679 22680 22681 22682 22683 22684 22685 22686 22687 22688 22689 22690 22691 22692 22693 22694 22695 22696 22697 22698 22699 22700 22701 22702 22703 22704 22705 22706 22707 22708 22709 22710 22711 22712 22713 22714 22715 22716 22717 22718 22719 22720 22721 22722 22723 22724 22725 22726 22727 22728 22729 22730 22731 22732 22733 22734 22735 22736 22737 22738 22739 22740 22741 22742 22743 22744 22745 22746 22747 22748 22749 22750 22751 22752 22753 22754 22755 22756 22757 22758 22759 22760 22761 22762 22763 22764 22765 22766 22767 22768 22769 22770 22771 22772 22773 22774 22775 22776 22777 22778 22779 22780 22781 22782 22783 22784 22785 22786 22787 22788 22789 22790 22791 22792 22793 22794 22795 22796 22797 22798 22799 22800 22801 22802 22803 22804 22805 22806 22807 22808 22809 22810 22811 22812 22813 22814 22815 22816 22817 22818 22819 22820 22821 22822 22823 22824 22825 22826 22827 22828 22829 22830 22831 22832 22833 22834 22835 22836 22837 22838 22839 22840 22841 22842 22843 22844 22845 22846 22847 22848 22849 22850 22851 22852 22853 22854 22855 22856 22857 22858 22859 22860 22861 22862 22863 22864 22865 22866 22867 22868 22869 22870 22871 22872 22873 22874 22875 22876 22877 22878 22879 22880 22881 22882 22883 22884 22885 22886 22887 22888 22889 22890 22891 22892 22893 22894 22895 22896 22897 22898 22899 22900 22901 22902 22903 22904 22905 22906 22907 22908 22909 22910 22911 22912 22913 22914 22915 22916 22917 22918 22919 22920 22921 22922 22923 22924 22925 22926 22927 22928 22929 22930 22931 22932 22933 22934 22935 22936 22937 22938 22939 22940 22941 22942 22943 22944 22945 22946 22947 22948 22949 22950 22951 22952 22953 22954 22955 22956 22957 22958 22959 22960 22961 22962 22963 22964 22965 22966 22967 22968 22969 22970 22971 22972 22973 22974 22975 22976 22977 22978 22979 22980 22981 22982 22983 22984 22985 22986 22987 22988 22989 22990 22991 22992 22993 22994 22995 22996 22997 22998 22999 23000 23001 23002 23003 23004 23005 23006 23007 23008 23009 23010 23011 23012 23013 23014 23015 23016 23017 23018 23019 23020 23021 23022 23023 23024 23025 23026 23027 23028 23029 23030 23031 23032 23033 23034 23035 23036 23037 23038 23039 23040 23041 23042 23043 23044 23045 23046 23047 23048 23049 23050 23051 23052 23053 23054 23055 23056 23057 23058 23059 23060 23061 23062 23063 23064 23065 23066 23067 23068 23069 23070 23071 23072 23073 23074 23075 23076 23077 23078 23079 23080 23081 23082 23083 23084 23085 23086 23087 23088 23089 23090 23091 23092 23093 23094 23095 23096 23097 23098 23099 23100 23101 23102 23103 23104 23105 23106 23107 23108 23109 23110 23111 23112 23113 23114 23115 23116 23117 23118 23119 23120 23121 23122 23123 23124 23125 23126 23127 23128 23129 23130 23131 23132 23133 23134 23135 23136 23137 23138 23139 23140 23141 23142 23143 23144 23145 23146 23147 23148 23149 23150 23151 23152 23153 23154 23155 23156 23157 23158 23159 23160 23161 23162 23163 23164 23165 23166 23167 23168 23169 23170 23171 23172 23173 23174 23175 23176 23177 23178 23179 23180 23181 23182 23183 23184 23185 23186 23187 23188 23189 23190 23191 23192 23193 23194 23195 23196 23197 23198 23199 23200 23201 23202 23203 23204 23205 23206 23207 23208 23209 23210 23211 23212 23213 23214 23215 23216 23217 23218 23219 23220 23221 23222 23223 23224 23225 23226 23227 23228 23229 23230 23231 23232 23233 23234 23235 23236 23237 23238 23239 23240 23241 23242 23243 23244 23245 23246 23247 23248 23249 23250 23251 23252 23253 23254 23255 23256 23257 23258 23259 23260 23261 23262 23263 23264 23265 23266 23267 23268 23269 23270 23271 23272 23273 23274 23275 23276 23277 23278 23279 23280 23281 23282 23283 23284 23285 23286 23287 23288 23289 23290 23291 23292 23293 23294 23295 23296 23297 23298 23299 23300 23301 23302 23303 23304 23305 23306 23307 23308 23309 23310 23311 23312 23313 23314 23315 23316 23317 23318 23319 23320 23321 23322 23323 23324 23325 23326 23327 23328 23329 23330 23331 23332 23333 23334 23335 23336 23337 23338 23339 23340 23341 23342 23343 23344 23345 23346 23347 23348 23349 23350 23351 23352 23353 23354 23355 23356 23357 23358 23359 23360 23361 23362 23363 23364 23365 23366 23367 23368 23369 23370 23371 23372 23373 23374 23375 23376 23377 23378 23379 23380 23381 23382 23383 23384 23385 23386 23387 23388 23389 23390 23391 23392 23393 23394 23395 23396 23397 23398 23399 23400 23401 23402 23403 23404 23405 23406 23407 23408 23409 23410 23411 23412 23413 23414 23415 23416 23417 23418 23419 23420 23421 23422 23423 23424 23425 23426 23427 23428 23429 23430 23431 23432 23433 23434 23435 23436 23437 23438 23439 23440 23441 23442 23443 23444 23445 23446 23447 23448 23449 23450 23451 23452 23453 23454 23455 23456 23457 23458 23459 23460 23461 23462 23463 23464 23465 23466 23467 23468 23469 23470 23471 23472 23473 23474 23475 23476 23477 23478 23479 23480 23481 23482 23483 23484 23485 23486 23487 23488 23489 23490 23491 23492 23493 23494 23495 23496 23497 23498 23499 23500 23501 23502 23503 23504 23505 23506 23507 23508 23509 23510 23511 23512 23513 23514 23515 23516 23517 23518 23519 23520 23521 23522 23523 23524 23525 23526 23527 23528 23529 23530 23531 23532 23533 23534 23535 23536 23537 23538 23539 23540 23541 23542 23543 23544 23545 23546 23547 23548 23549 23550 23551 23552 23553 23554 23555 23556 23557 23558 23559 23560 23561 23562 23563 23564 23565 23566 23567 23568 23569 23570 23571 23572 23573 23574 23575 23576 23577 23578 23579 23580 23581 23582 23583 23584 23585 23586 23587 23588 23589 23590 23591 23592 23593 23594 23595 23596 23597 23598 23599 23600 23601 23602 23603 23604 23605 23606 23607 23608 23609 23610 23611 23612 23613 23614 23615 23616 23617 23618 23619 23620 23621 23622 23623 23624 23625 23626 23627 23628 23629 23630 23631 23632 23633 23634 23635 23636 23637 23638 23639 23640 23641 23642 23643 23644 23645 23646 23647 23648 23649 23650 23651 23652 23653 23654 23655 23656 23657 23658 23659 23660 23661 23662 23663 23664 23665 23666 23667 23668 23669 23670 23671 23672 23673 23674 23675 23676 23677 23678 23679 23680 23681 23682 23683 23684 23685 23686 23687 23688 23689 23690 23691 23692 23693 23694 23695 23696 23697 23698 23699 23700 23701 23702 23703 23704 23705 23706 23707 23708 23709 23710 23711 23712 23713 23714 23715 23716 23717 23718 23719 23720 23721 23722 23723 23724 23725 23726 23727 23728 23729 23730 23731 23732 23733 23734 23735 23736 23737 23738 23739 23740 23741 23742 23743 23744 23745 23746 23747 23748 23749 23750 23751 23752 23753 23754 23755 23756 23757 23758 23759 23760 23761 23762 23763 23764 23765 23766 23767 23768 23769 23770 23771 23772 23773 23774 23775 23776 23777 23778 23779 23780 23781 23782 23783 23784 23785 23786 23787 23788 23789 23790 23791 23792 23793 23794 23795 23796 23797 23798 23799 23800 23801 23802 23803 23804 23805 23806 23807 23808 23809 23810 23811 23812 23813 23814 23815 23816 23817 23818 23819 23820 23821 23822 23823 23824 23825 23826 23827 23828 23829 23830 23831 23832 23833 23834 23835 23836 23837 23838 23839 23840 23841 23842 23843 23844 23845 23846 23847 23848 23849 23850 23851 23852 23853 23854 23855 23856 23857 23858 23859 23860 23861 23862 23863 23864 23865 23866 23867 23868 23869 23870 23871 23872 23873 23874 23875 23876 23877 23878 23879 23880 23881 23882 23883 23884 23885 23886 23887 23888 23889 23890 23891 23892 23893 23894 23895 23896 23897 23898 23899 23900 23901 23902 23903 23904 23905 23906 23907 23908 23909 23910 23911 23912 23913 23914 23915 23916 23917 23918 23919 23920 23921 23922 23923 23924 23925 23926 23927 23928 23929 23930 23931 23932 23933 23934 23935 23936 23937 23938 23939 23940 23941 23942 23943 23944 23945 23946 23947 23948 23949 23950 23951 23952 23953 23954 23955 23956 23957 23958 23959 23960 23961 23962 23963 23964 23965 23966 23967 23968 23969 23970 23971 23972 23973 23974 23975 23976 23977 23978 23979 23980 23981 23982 23983 23984 23985 23986 23987 23988 23989 23990 23991 23992 23993 23994 23995 23996 23997 23998 23999 24000 24001 24002 24003 24004 24005 24006 24007 24008 24009 24010 24011 24012 24013 24014 24015 24016 24017 24018 24019 24020 24021 24022 24023 24024 24025 24026 24027 24028 24029 24030 24031 24032 24033 24034 24035 24036 24037 24038 24039 24040 24041 24042 24043 24044 24045 24046 24047 24048 24049 24050 24051 24052 24053 24054 24055 24056 24057 24058 24059 24060 24061 24062 24063 24064 24065 24066 24067 24068 24069 24070 24071 24072 24073 24074 24075 24076 24077 24078 24079 24080 24081 24082 24083 24084 24085 24086 24087 24088 24089 24090 24091 24092 24093 24094 24095 24096 24097 24098 24099 24100 24101 24102 24103 24104 24105 24106 24107 24108 24109 24110 24111 24112 24113 24114 24115 24116 24117 24118 24119 24120 24121 24122 24123 24124 24125 24126 24127 24128 24129 24130 24131 24132 24133 24134 24135 24136 24137 24138 24139 24140 24141 24142 24143 24144 24145 24146 24147 24148 24149 24150 24151 24152 24153 24154 24155 24156 24157 24158 24159 24160 24161 24162 24163 24164 24165 24166 24167 24168 24169 24170 24171 24172 24173 24174 24175 24176 24177 24178 24179 24180 24181 24182 24183 24184 24185 24186 24187 24188 24189 24190 24191 24192 24193 24194 24195 24196 24197 24198 24199 24200 24201 24202 24203 24204 24205 24206 24207 24208 24209 24210 24211 24212 24213 24214 24215 24216 24217 24218 24219 24220 24221 24222 24223 24224 24225 24226 24227 24228 24229 24230 24231 24232 24233 24234 24235 24236 24237 24238 24239 24240 24241 24242 24243 24244 24245 24246 24247 24248 24249 24250 24251 24252 24253 24254 24255 24256 24257 24258 24259 24260 24261 24262 24263 24264 24265 24266 24267 24268 24269 24270 24271 24272 24273 24274 24275 24276 24277 24278 24279 24280 24281 24282 24283 24284 24285 24286 24287 24288 24289 24290 24291 24292 24293 24294 24295 24296 24297 24298 24299 24300 24301 24302 24303 24304 24305 24306 24307 24308 24309 24310 24311 24312 24313 24314 24315 24316 24317 24318 24319 24320 24321 24322 24323 24324 24325 24326 24327 24328 24329 24330 24331 24332 24333 24334 24335 24336 24337 24338 24339 24340 24341 24342 24343 24344 24345 24346 24347 24348 24349 24350 24351 24352 24353 24354 24355 24356 24357 24358 24359 24360 24361 24362 24363 24364 24365 24366 24367 24368 24369 24370 24371 24372 24373 24374 24375 24376 24377 24378 24379 24380 24381 24382 24383 24384 24385 24386 24387 24388 24389 24390 24391 24392 24393 24394 24395 24396 24397 24398 24399 24400 24401 24402 24403 24404 24405 24406 24407 24408 24409 24410 24411 24412 24413 24414 24415 24416 24417 24418 24419 24420 24421 24422 24423 24424 24425 24426 24427 24428 24429 24430 24431 24432 24433 24434 24435 24436 24437 24438 24439 24440 24441 24442 24443 24444 24445 24446 24447 24448 24449 24450 24451 24452 24453 24454 24455 24456 24457 24458 24459 24460 24461 24462 24463 24464 24465 24466 24467 24468 24469 24470 24471 24472 24473 24474 24475 24476 24477 24478 24479 24480 24481 24482 24483 24484 24485 24486 24487 24488 24489 24490 24491 24492 24493 24494 24495 24496 24497 24498 24499 24500 24501 24502 24503 24504 24505 24506 24507 24508 24509 24510 24511 24512 24513 24514 24515 24516 24517 24518 24519 24520 24521 24522 24523 24524 24525 24526 24527 24528 24529 24530 24531 24532 24533 24534 24535 24536 24537 24538 24539 24540 24541 24542 24543 24544 24545 24546 24547 24548 24549 24550 24551 24552 24553 24554 24555 24556 24557 24558 24559 24560 24561 24562 24563 24564 24565 24566 24567 24568 24569 24570 24571 24572 24573 24574 24575 24576 24577 24578 24579 24580 24581 24582 24583 24584 24585 24586 24587 24588 24589 24590 24591 24592 24593 24594 24595 24596 24597 24598 24599 24600 24601 24602 24603 24604 24605 24606 24607 24608 24609 24610 24611 24612 24613 24614 24615 24616 24617 24618 24619 24620 24621 24622 24623 24624 24625 24626 24627 24628 24629 24630 24631 24632 24633 24634 24635 24636 24637 24638 24639 24640 24641 24642 24643 24644 24645 24646 24647 24648 24649 24650 24651 24652 24653 24654 24655 24656 24657 24658 24659 24660 24661 24662 24663 24664 24665 24666 24667 24668 24669 24670 24671 24672 24673 24674 24675 24676 24677 24678 24679 24680 24681 24682 24683 24684 24685 24686 24687 24688 24689 24690 24691 24692 24693 24694 24695 24696 24697 24698 24699 24700 24701 24702 24703 24704 24705 24706 24707 24708 24709 24710 24711 24712 24713 24714 24715 24716 24717 24718 24719 24720 24721 24722 24723 24724 24725 24726 24727 24728 24729 24730 24731 24732 24733 24734 24735 24736 24737 24738 24739 24740 24741 24742 24743 24744 24745 24746 24747 24748 24749 24750 24751 24752 24753 24754 24755 24756 24757 24758 24759 24760 24761 24762 24763 24764 24765 24766 24767 24768 24769 24770 24771 24772 24773 24774 24775 24776 24777 24778 24779 24780 24781 24782 24783 24784 24785 24786 24787 24788 24789 24790 24791 24792 24793 24794 24795 24796 24797 24798 24799 24800 24801 24802 24803 24804 24805 24806 24807 24808 24809 24810 24811 24812 24813 24814 24815 24816 24817 24818 24819 24820 24821 24822 24823 24824 24825 24826 24827 24828 24829 24830 24831 24832 24833 24834 24835 24836 24837 24838 24839 24840 24841 24842 24843 24844 24845 24846 24847 24848 24849 24850 24851 24852 24853 24854 24855 24856 24857 24858 24859 24860 24861 24862 24863 24864 24865 24866 24867 24868 24869 24870 24871 24872 24873 24874 24875 24876 24877 24878 24879 24880 24881 24882 24883 24884 24885 24886 24887 24888 24889 24890 24891 24892 24893 24894 24895 24896 24897 24898 24899 24900 24901 24902 24903 24904 24905 24906 24907 24908 24909 24910 24911 24912 24913 24914 24915 24916 24917 24918 24919 24920 24921 24922 24923 24924 24925 24926 24927 24928 24929 24930 24931 24932 24933 24934 24935 24936 24937 24938 24939 24940 24941 24942 24943 24944 24945 24946 24947 24948 24949 24950 24951 24952 24953 24954 24955 24956 24957 24958 24959 24960 24961 24962 24963 24964 24965 24966 24967 24968 24969 24970 24971 24972 24973 24974 24975 24976 24977 24978 24979 24980 24981 24982 24983 24984 24985 24986 24987 24988 24989 24990 24991 24992 24993 24994 24995 24996 24997 24998 24999 25000 25001 25002 25003 25004 25005 25006 25007 25008 25009 25010 25011 25012 25013 25014 25015 25016 25017 25018 25019 25020 25021 25022 25023 25024 25025 25026 25027 25028 25029 25030 25031 25032 25033 25034 25035 25036 25037 25038 25039 25040 25041 25042 25043 25044 25045 25046 25047 25048 25049 25050 25051 25052 25053 25054 25055 25056 25057 25058 25059 25060 25061 25062 25063 25064 25065 25066 25067 25068 25069 25070 25071 25072 25073 25074 25075 25076 25077 25078 25079 25080 25081 25082 25083 25084 25085 25086 25087 25088 25089 25090 25091 25092 25093 25094 25095 25096 25097 25098 25099 25100 25101 25102 25103 25104 25105 25106 25107 25108 25109 25110 25111 25112 25113 25114 25115 25116 25117 25118 25119 25120 25121 25122 25123 25124 25125 25126 25127 25128 25129 25130 25131 25132 25133 25134 25135 25136 25137 25138 25139 25140 25141 25142 25143 25144 25145 25146 25147 25148 25149 25150 25151 25152 25153 25154 25155 25156 25157 25158 25159 25160 25161 25162 25163 25164 25165 25166 25167 25168 25169 25170 25171 25172 25173 25174 25175 25176 25177 25178 25179 25180 25181 25182 25183 25184 25185 25186 25187 25188 25189 25190 25191 25192 25193 25194 25195 25196 25197 25198 25199 25200 25201 25202 25203 25204 25205 25206 25207 25208 25209 25210 25211 25212 25213 25214 25215 25216 25217 25218 25219 25220 25221 25222 25223 25224 25225 25226 25227 25228 25229 25230 25231 25232 25233 25234 25235 25236 25237 25238 25239 25240 25241 25242 25243 25244 25245 25246 25247 25248 25249 25250 25251 25252 25253 25254 25255 25256 25257 25258 25259 25260 25261 25262 25263 25264 25265 25266 25267 25268 25269 25270 25271 25272 25273 25274 25275 25276 25277 25278 25279 25280 25281 25282 25283 25284 25285 25286 25287 25288 25289 25290 25291 25292 25293 25294 25295 25296 25297 25298 25299 25300 25301 25302 25303 25304 25305 25306 25307 25308 25309 25310 25311 25312 25313 25314 25315 25316 25317 25318 25319 25320 25321 25322 25323 25324 25325 25326 25327 25328 25329 25330 25331 25332 25333 25334 25335 25336 25337 25338 25339 25340 25341 25342 25343 25344 25345 25346 25347 25348 25349 25350 25351 25352 25353 25354 25355 25356 25357 25358 25359 25360 25361 25362 25363 25364 25365 25366 25367 25368 25369 25370 25371 25372 25373 25374 25375 25376 25377 25378 25379 25380 25381 25382 25383 25384 25385 25386 25387 25388 25389 25390 25391 25392 25393 25394 25395 25396 25397 25398 25399 25400 25401 25402 25403 25404 25405 25406 25407 25408 25409 25410 25411 25412 25413 25414 25415 25416 25417 25418 25419 25420 25421 25422 25423 25424 25425 25426 25427 25428 25429 25430 25431 25432 25433 25434 25435 25436 25437 25438 25439 25440 25441 25442 25443 25444 25445 25446 25447 25448 25449 25450 25451 25452 25453 25454 25455 25456 25457 25458 25459 25460 25461 25462 25463 25464 25465 25466 25467 25468 25469 25470 25471 25472 25473 25474 25475 25476 25477 25478 25479 25480 25481 25482 25483 25484 25485 25486 25487 25488 25489 25490 25491 25492 25493 25494 25495 25496 25497 25498 25499 25500 25501 25502 25503 25504 25505 25506 25507 25508 25509 25510 25511 25512 25513 25514 25515 25516 25517 25518 25519 25520 25521 25522 25523 25524 25525 25526 25527 25528 25529 25530 25531 25532 25533 25534 25535 25536 25537 25538 25539 25540 25541 25542 25543 25544 25545 25546 25547 25548 25549 25550 25551 25552 25553 25554 25555 25556 25557 25558 25559 25560 25561 25562 25563 25564 25565 25566 25567 25568 25569 25570 25571 25572 25573 25574 25575 25576 25577 25578 25579 25580 25581 25582 25583 25584 25585 25586 25587 25588 25589 25590 25591 25592 25593 25594 25595 25596 25597 25598 25599 25600 25601 25602 25603 25604 25605 25606 25607 25608 25609 25610 25611 25612 25613 25614 25615 25616 25617 25618 25619 25620 25621 25622 25623 25624 25625 25626 25627 25628 25629 25630 25631 25632 25633 25634 25635 25636 25637 25638 25639 25640 25641 25642 25643 25644 25645 25646 25647 25648 25649 25650 25651 25652 25653 25654 25655 25656 25657 25658 25659 25660 25661 25662 25663 25664 25665 25666 25667 25668 25669 25670 25671 25672 25673 25674 25675 25676 25677 25678 25679 25680 25681 25682 25683 25684 25685 25686 25687 25688 25689 25690 25691 25692 25693 25694 25695 25696 25697 25698 25699 25700 25701 25702 25703 25704 25705 25706 25707 25708 25709 25710 25711 25712 25713 25714 25715 25716 25717 25718 25719 25720 25721 25722 25723 25724 25725 25726 25727 25728 25729 25730 25731 25732 25733 25734 25735 25736 25737 25738 25739 25740 25741 25742 25743 25744 25745 25746 25747 25748 25749 25750 25751 25752 25753 25754 25755 25756 25757 25758 25759 25760 25761 25762 25763 25764 25765 25766 25767 25768 25769 25770 25771 25772 25773 25774 25775 25776 25777 25778 25779 25780 25781 25782 25783 25784 25785 25786 25787 25788 25789 25790 25791 25792 25793 25794 25795 25796 25797 25798 25799 25800 25801 25802 25803 25804 25805 25806 25807 25808 25809 25810 25811 25812 25813 25814 25815 25816 25817 25818 25819 25820 25821 25822 25823 25824 25825 25826 25827 25828 25829 25830 25831 25832 25833 25834 25835 25836 25837 25838 25839 25840 25841 25842 25843 25844 25845 25846 25847 25848 25849 25850 25851 25852 25853 25854 25855 25856 25857 25858 25859 25860 25861 25862 25863 25864 25865 25866 25867 25868 25869 25870 25871 25872 25873 25874 25875 25876 25877 25878 25879 25880 25881 25882 25883 25884 25885 25886 25887 25888 25889 25890 25891 25892 25893 25894 25895 25896 25897 25898 25899 25900 25901 25902 25903 25904 25905 25906 25907 25908 25909 25910 25911 25912 25913 25914 25915 25916 25917 25918 25919 25920 25921 25922 25923 25924 25925 25926 25927 25928 25929 25930 25931 25932 25933 25934 25935 25936 25937 25938 25939 25940 25941 25942 25943 25944 25945 25946 25947 25948 25949 25950 25951 25952 25953 25954 25955 25956 25957 25958 25959 25960 25961 25962 25963 25964 25965 25966 25967 25968 25969 25970 25971 25972 25973 25974 25975 25976 25977 25978 25979 25980 25981 25982 25983 25984 25985 25986 25987 25988 25989 25990 25991 25992 25993 25994 25995 25996 25997 25998 25999 26000 26001 26002 26003 26004 26005 26006 26007 26008 26009 26010 26011 26012 26013 26014 26015 26016 26017 26018 26019 26020 26021 26022 26023 26024 26025 26026 26027 26028 26029 26030 26031 26032 26033 26034 26035 26036 26037 26038 26039 26040 26041 26042 26043 26044 26045 26046 26047 26048 26049 26050 26051 26052 26053 26054 26055 26056 26057 26058 26059 26060 26061 26062 26063 26064 26065 26066 26067 26068 26069 26070 26071 26072 26073 26074 26075 26076 26077 26078 26079 26080 26081 26082 26083 26084 26085 26086 26087 26088 26089 26090 26091 26092 26093 26094 26095 26096 26097 26098 26099 26100 26101 26102 26103 26104 26105 26106 26107 26108 26109 26110 26111 26112 26113 26114 26115 26116 26117 26118 26119 26120 26121 26122 26123 26124 26125 26126 26127 26128 26129 26130 26131 26132 26133 26134 26135 26136 26137 26138 26139 26140 26141 26142 26143 26144 26145 26146 26147 26148 26149 26150 26151 26152 26153 26154 26155 26156 26157 26158 26159 26160 26161 26162 26163 26164 26165 26166 26167 26168 26169 26170 26171 26172 26173 26174 26175 26176 26177 26178 26179 26180 26181 26182 26183 26184 26185 26186 26187 26188 26189 26190 26191 26192 26193 26194 26195 26196 26197 26198 26199 26200 26201 26202 26203 26204 26205 26206 26207 26208 26209 26210 26211 26212 26213 26214 26215 26216 26217 26218 26219 26220 26221 26222 26223 26224 26225 26226 26227 26228 26229 26230 26231 26232 26233 26234 26235 26236 26237 26238 26239 26240 26241 26242 26243 26244 26245 26246 26247 26248 26249 26250 26251 26252 26253 26254 26255 26256 26257 26258 26259 26260 26261 26262 26263 26264 26265 26266 26267 26268 26269 26270 26271 26272 26273 26274 26275 26276 26277 26278 26279 26280 26281 26282 26283 26284 26285 26286 26287 26288 26289 26290 26291 26292 26293 26294 26295 26296 26297 26298 26299 26300 26301 26302 26303 26304 26305 26306 26307 26308 26309 26310 26311 26312 26313 26314 26315 26316 26317 26318 26319 26320 26321 26322 26323 26324 26325 26326 26327 26328 26329 26330 26331 26332 26333 26334 26335 26336 26337 26338 26339 26340 26341 26342 26343 26344 26345 26346 26347 26348 26349 26350 26351 26352 26353 26354 26355 26356 26357 26358 26359 26360 26361 26362 26363 26364 26365 26366 26367 26368 26369 26370 26371 26372 26373 26374 26375 26376 26377 26378 26379 26380 26381 26382 26383 26384 26385 26386 26387 26388 26389 26390 26391 26392 26393 26394 26395 26396 26397 26398 26399 26400 26401 26402 26403 26404 26405 26406 26407 26408 26409 26410 26411 26412 26413 26414 26415 26416 26417 26418 26419 26420 26421 26422 26423 26424 26425 26426 26427 26428 26429 26430 26431 26432 26433 26434 26435 26436 26437 26438 26439 26440 26441 26442 26443 26444 26445 26446 26447 26448 26449 26450 26451 26452 26453 26454 26455 26456 26457 26458 26459 26460 26461 26462 26463 26464 26465 26466 26467 26468 26469 26470 26471 26472 26473 26474 26475 26476 26477 26478 26479 26480 26481 26482 26483 26484 26485 26486 26487 26488 26489 26490 26491 26492 26493 26494 26495 26496 26497 26498 26499 26500 26501 26502 26503 26504 26505 26506 26507 26508 26509 26510 26511 26512 26513 26514 26515 26516 26517 26518 26519 26520 26521 26522 26523 26524 26525 26526 26527 26528 26529 26530 26531 26532 26533 26534 26535 26536 26537 26538 26539 26540 26541 26542 26543 26544 26545 26546 26547 26548 26549 26550 26551 26552 26553 26554 26555 26556 26557 26558 26559 26560 26561 26562 26563 26564 26565 26566 26567 26568 26569 26570 26571 26572 26573 26574 26575 26576 26577 26578 26579 26580 26581 26582 26583 26584 26585 26586 26587 26588 26589 26590 26591 26592 26593 26594 26595 26596 26597 26598 26599 26600 26601 26602 26603 26604 26605 26606 26607 26608 26609 26610 26611 26612 26613 26614 26615 26616 26617 26618 26619 26620 26621 26622 26623 26624 26625 26626 26627 26628 26629 26630 26631 26632 26633 26634 26635 26636 26637 26638 26639 26640 26641 26642 26643 26644 26645 26646 26647 26648 26649 26650 26651 26652 26653 26654 26655 26656 26657 26658 26659 26660 26661 26662 26663 26664 26665 26666 26667 26668 26669 26670 26671 26672 26673 26674 26675 26676 26677 26678 26679 26680 26681 26682 26683 26684 26685 26686 26687 26688 26689 26690 26691 26692 26693 26694 26695 26696 26697 26698 26699 26700 26701 26702 26703 26704 26705 26706 26707 26708 26709 26710 26711 26712 26713 26714 26715 26716 26717 26718 26719 26720 26721 26722 26723 26724 26725 26726 26727 26728 26729 26730 26731 26732 26733 26734 26735 26736 26737 26738 26739 26740 26741 26742 26743 26744 26745 26746 26747 26748 26749 26750 26751 26752 26753 26754 26755 26756 26757 26758 26759 26760 26761 26762 26763 26764 26765 26766 26767 26768 26769 26770 26771 26772 26773 26774 26775 26776 26777 26778 26779 26780 26781 26782 26783 26784 26785 26786 26787 26788 26789 26790 26791 26792 26793 26794 26795 26796 26797 26798 26799 26800 26801 26802 26803 26804 26805 26806 26807 26808 26809 26810 26811 26812 26813 26814 26815 26816 26817 26818 26819 26820 26821 26822 26823 26824 26825 26826 26827 26828 26829 26830 26831 26832 26833 26834 26835 26836 26837 26838 26839 26840 26841 26842 26843 26844 26845 26846 26847 26848 26849 26850 26851 26852 26853 26854 26855 26856 26857 26858 26859 26860 26861 26862 26863 26864 26865 26866 26867 26868 26869 26870 26871 26872 26873 26874 26875 26876 26877 26878 26879 26880 26881 26882 26883 26884 26885 26886 26887 26888 26889 26890 26891 26892 26893 26894 26895 26896 26897 26898 26899 26900 26901 26902 26903 26904 26905 26906 26907 26908 26909 26910 26911 26912 26913 26914 26915 26916 26917 26918 26919 26920 26921 26922 26923 26924 26925 26926 26927 26928 26929 26930 26931 26932 26933 26934 26935 26936 26937 26938 26939 26940 26941 26942 26943 26944 26945 26946 26947 26948 26949 26950 26951 26952 26953 26954 26955 26956 26957 26958 26959 26960 26961 26962 26963 26964 26965 26966 26967 26968 26969 26970 26971 26972 26973 26974 26975 26976 26977 26978 26979 26980 26981 26982 26983 26984 26985 26986 26987 26988 26989 26990 26991 26992 26993 26994 26995 26996 26997 26998 26999 27000 27001 27002 27003 27004 27005 27006 27007 27008 27009 27010 27011 27012 27013 27014 27015 27016 27017 27018 27019 27020 27021 27022 27023 27024 27025 27026 27027 27028 27029 27030 27031 27032 27033 27034 27035 27036 27037 27038 27039 27040 27041 27042 27043 27044 27045 27046 27047 27048 27049 27050 27051 27052 27053 27054 27055 27056 27057 27058 27059 27060 27061 27062 27063 27064 27065 27066 27067 27068 27069 27070 27071 27072 27073 27074 27075 27076 27077 27078 27079 27080 27081 27082 27083 27084 27085 27086 27087 27088 27089 27090 27091 27092 27093 27094 27095 27096 27097 27098 27099 27100 27101 27102 27103 27104 27105 27106 27107 27108 27109 27110 27111 27112 27113 27114 27115 27116 27117 27118 27119 27120 27121 27122 27123 27124 27125 27126 27127 27128 27129 27130 27131 27132 27133 27134 27135 27136 27137 27138 27139 27140 27141 27142 27143 27144 27145 27146 27147 27148 27149 27150 27151 27152 27153 27154 27155 27156 27157 27158 27159 27160 27161 27162 27163 27164 27165 27166 27167 27168 27169 27170 27171 27172 27173 27174 27175 27176 27177 27178 27179 27180 27181 27182 27183 27184 27185 27186 27187 27188 27189 27190 27191 27192 27193 27194 27195 27196 27197 27198 27199 27200 27201 27202 27203 27204 27205 27206 27207 27208 27209 27210 27211 27212 27213 27214 27215 27216 27217 27218 27219 27220 27221 27222 27223 27224 27225 27226 27227 27228 27229 27230 27231 27232 27233 27234 27235 27236 27237 27238 27239 27240 27241 27242 27243 27244 27245 27246 27247 27248 27249 27250 27251 27252 27253 27254 27255 27256 27257 27258 27259 27260 27261 27262 27263 27264 27265 27266 27267 27268 27269 27270 27271 27272 27273 27274 27275 27276 27277 27278 27279 27280 27281 27282 27283 27284 27285 27286 27287 27288 27289 27290 27291 27292 27293 27294 27295 27296 27297 27298 27299 27300 27301 27302 27303 27304 27305 27306 27307 27308 27309 27310 27311 27312 27313 27314 27315 27316 27317 27318 27319 27320 27321 27322 27323 27324 27325 27326 27327 27328 27329 27330 27331 27332 27333 27334 27335 27336 27337 27338 27339 27340 27341 27342 27343 27344 27345 27346 27347 27348 27349 27350 27351 27352 27353 27354 27355 27356 27357 27358 27359 27360 27361 27362 27363 27364 27365 27366 27367 27368 27369 27370 27371 27372 27373 27374 27375 27376 27377 27378 27379 27380 27381 27382 27383 27384 27385 27386 27387 27388 27389 27390 27391 27392 27393 27394 27395 27396 27397 27398 27399 27400 27401 27402 27403 27404 27405 27406 27407 27408 27409 27410 27411 27412 27413 27414 27415 27416 27417 27418 27419 27420 27421 27422 27423 27424 27425 27426 27427 27428 27429 27430 27431 27432 27433 27434 27435 27436 27437 27438 27439 27440 27441 27442 27443 27444 27445 27446 27447 27448 27449 27450 27451 27452 27453 27454 27455 27456 27457 27458 27459 27460 27461 27462 27463 27464 27465 27466 27467 27468 27469 27470 27471 27472 27473 27474 27475 27476 27477 27478 27479 27480 27481 27482 27483 27484 27485 27486 27487 27488 27489 27490 27491 27492 27493 27494 27495 27496 27497 27498 27499 27500 27501 27502 27503 27504 27505 27506 27507 27508 27509 27510 27511 27512 27513 27514 27515 27516 27517 27518 27519 27520 27521 27522 27523 27524 27525 27526 27527 27528 27529 27530 27531 27532 27533 27534 27535 27536 27537 27538 27539 27540 27541 27542 27543 27544 27545 27546 27547 27548 27549 27550 27551 27552 27553 27554 27555 27556 27557 27558 27559 27560 27561 27562 27563 27564 27565 27566 27567 27568 27569 27570 27571 27572 27573 27574 27575 27576 27577 27578 27579 27580 27581 27582 27583 27584 27585 27586 27587 27588 27589 27590 27591 27592 27593 27594 27595 27596 27597 27598 27599 27600 27601 27602 27603 27604 27605 27606 27607 27608 27609 27610 27611 27612 27613 27614 27615 27616 27617 27618 27619 27620 27621 27622 27623 27624 27625 27626 27627 27628 27629 27630 27631 27632 27633 27634 27635 27636 27637 27638 27639 27640 27641 27642 27643 27644 27645 27646 27647 27648 27649 27650 27651 27652 27653 27654 27655 27656 27657 27658 27659 27660 27661 27662 27663 27664 27665 27666 27667 27668 27669 27670 27671 27672 27673 27674 27675 27676 27677 27678 27679 27680 27681 27682 27683 27684 27685 27686 27687 27688 27689 27690 27691 27692 27693 27694 27695 27696 27697 27698 27699 27700 27701 27702 27703 27704 27705 27706 27707 27708 27709 27710 27711 27712 27713 27714 27715 27716 27717 27718 27719 27720 27721 27722 27723 27724 27725 27726 27727 27728 27729 27730 27731 27732 27733 27734 27735 27736 27737 27738 27739 27740 27741 27742 27743 27744 27745 27746 27747 27748 27749 27750 27751 27752 27753 27754 27755 27756 27757 27758 27759 27760 27761 27762 27763 27764 27765 27766 27767 27768 27769 27770 27771 27772 27773 27774 27775 27776 27777 27778 27779 27780 27781 27782 27783 27784 27785 27786 27787 27788 27789 27790 27791 27792 27793 27794 27795 27796 27797 27798 27799 27800 27801 27802 27803 27804 27805 27806 27807 27808 27809 27810 27811 27812 27813 27814 27815 27816 27817 27818 27819 27820 27821 27822 27823 27824 27825 27826 27827 27828 27829 27830 27831 27832 27833 27834 27835 27836 27837 27838 27839 27840 27841 27842 27843 27844 27845 27846 27847 27848 27849 27850 27851 27852 27853 27854 27855 27856 27857 27858 27859 27860 27861 27862 27863 27864 27865 27866 27867 27868 27869 27870 27871 27872 27873 27874 27875 27876 27877 27878 27879 27880 27881 27882 27883 27884 27885 27886 27887 27888 27889 27890 27891 27892 27893 27894 27895 27896 27897 27898 27899 27900 27901 27902 27903 27904 27905 27906 27907 27908 27909 27910 27911 27912 27913 27914 27915 27916 27917 27918 27919 27920 27921 27922 27923 27924 27925 27926 27927 27928 27929 27930 27931 27932 27933 27934 27935 27936 27937 27938 27939 27940 27941 27942 27943 27944 27945 27946 27947 27948 27949 27950 27951 27952 27953 27954 27955 27956 27957 27958 27959 27960 27961 27962 27963 27964 27965 27966 27967 27968 27969 27970 27971 27972 27973 27974 27975 27976 27977 27978 27979 27980 27981 27982 27983 27984 27985 27986 27987 27988 27989 27990 27991 27992 27993 27994 27995 27996 27997 27998 27999 28000 28001 28002 28003 28004 28005 28006 28007 28008 28009 28010 28011 28012 28013 28014 28015 28016 28017 28018 28019 28020 28021 28022 28023 28024 28025 28026 28027 28028 28029 28030 28031 28032 28033 28034 28035 28036 28037 28038 28039 28040 28041 28042 28043 28044 28045 28046 28047 28048 28049 28050 28051 28052 28053 28054 28055 28056 28057 28058 28059 28060 28061 28062 28063 28064 28065 28066 28067 28068 28069 28070 28071 28072 28073 28074 28075 28076 28077 28078 28079 28080 28081 28082 28083 28084 28085 28086 28087 28088 28089 28090 28091 28092 28093 28094 28095 28096 28097 28098 28099 28100 28101 28102 28103 28104 28105 28106 28107 28108 28109 28110 28111 28112 28113 28114 28115 28116 28117 28118 28119 28120 28121 28122 28123 28124 28125 28126 28127 28128 28129 28130 28131 28132 28133 28134 28135 28136 28137 28138 28139 28140 28141 28142 28143 28144 28145 28146 28147 28148 28149 28150 28151 28152 28153 28154 28155 28156 28157 28158 28159 28160 28161 28162 28163 28164 28165 28166 28167 28168 28169 28170 28171 28172 28173 28174 28175 28176 28177 28178 28179 28180 28181 28182 28183 28184 28185 28186 28187 28188 28189 28190 28191 28192 28193 28194 28195 28196 28197 28198 28199 28200 28201 28202 28203 28204 28205 28206 28207 28208 28209 28210 28211 28212 28213 28214 28215 28216 28217 28218 28219 28220 28221 28222 28223 28224 28225 28226 28227 28228 28229 28230 28231 28232 28233 28234 28235 28236 28237 28238 28239 28240 28241 28242 28243 28244 28245 28246 28247 28248 28249 28250 28251 28252 28253 28254 28255 28256 28257 28258 28259 28260 28261 28262 28263 28264 28265 28266 28267 28268 28269 28270 28271 28272 28273 28274 28275 28276 28277 28278 28279 28280 28281 28282 28283 28284 28285 28286 28287 28288 28289 28290 28291 28292 28293 28294 28295 28296 28297 28298 28299 28300 28301 28302 28303 28304 28305 28306 28307 28308 28309 28310 28311 28312 28313 28314 28315 28316 28317 28318 28319 28320 28321 28322 28323 28324 28325 28326 28327 28328 28329 28330 28331 28332 28333 28334 28335 28336 28337 28338 28339 28340 28341 28342 28343 28344 28345 28346 28347 28348 28349 28350 28351 28352 28353 28354 28355 28356 28357 28358 28359 28360 28361 28362 28363 28364 28365 28366 28367 28368 28369 28370 28371 28372 28373 28374 28375 28376 28377 28378 28379 28380 28381 28382 28383 28384 28385 28386 28387 28388 28389 28390 28391 28392 28393 28394 28395 28396 28397 28398 28399 28400 28401 28402 28403 28404 28405 28406 28407 28408 28409 28410 28411 28412 28413 28414 28415 28416 28417 28418 28419 28420 28421 28422 28423 28424 28425 28426 28427 28428 28429 28430 28431 28432 28433 28434 28435 28436 28437 28438 28439 28440 28441 28442 28443 28444 28445 28446 28447 28448 28449 28450 28451 28452 28453 28454 28455 28456 28457 28458 28459 28460 28461 28462 28463 28464 28465 28466 28467 28468 28469 28470 28471 28472 28473 28474 28475 28476 28477 28478 28479 28480 28481 28482 28483 28484 28485 28486 28487 28488 28489 28490 28491 28492 28493 28494 28495 28496 28497 28498 28499 28500 28501 28502 28503 28504 28505 28506 28507 28508 28509 28510 28511 28512 28513 28514 28515 28516 28517 28518 28519 28520 28521 28522 28523 28524 28525 28526 28527 28528 28529 28530 28531 28532 28533 28534 28535 28536 28537 28538 28539 28540 28541 28542 28543 28544 28545 28546 28547 28548 28549 28550 28551 28552 28553 28554 28555 28556 28557 28558 28559 28560 28561 28562 28563 28564 28565 28566 28567 28568 28569 28570 28571 28572 28573 28574 28575 28576 28577 28578 28579 28580 28581 28582 28583 28584 28585 28586 28587 28588 28589 28590 28591 28592 28593 28594 28595 28596 28597 28598 28599 28600 28601 28602 28603 28604 28605 28606 28607 28608 28609 28610 28611 28612 28613 28614 28615 28616 28617 28618 28619 28620 28621 28622 28623 28624 28625 28626 28627 28628 28629 28630 28631 28632 28633 28634 28635 28636 28637 28638 28639 28640 28641 28642 28643 28644 28645 28646 28647 28648 28649 28650 28651 28652 28653 28654 28655 28656 28657 28658 28659 28660 28661 28662 28663 28664 28665 28666 28667 28668 28669 28670 28671 28672 28673 28674 28675 28676 28677 28678 28679 28680 28681 28682 28683 28684 28685 28686 28687 28688 28689 28690 28691 28692 28693 28694 28695 28696 28697 28698 28699 28700 28701 28702 28703 28704 28705 28706 28707 28708 28709 28710 28711 28712 28713 28714 28715 28716 28717 28718 28719 28720 28721 28722 28723 28724 28725 28726 28727 28728 28729 28730 28731 28732 28733 28734 28735 28736 28737 28738 28739 28740 28741 28742 28743 28744 28745 28746 28747 28748 28749 28750 28751 28752 28753 28754 28755 28756 28757 28758 28759 28760 28761 28762 28763 28764 28765 28766 28767 28768 28769 28770 28771 28772 28773 28774 28775 28776 28777 28778 28779 28780 28781 28782 28783 28784 28785 28786 28787 28788 28789 28790 28791 28792 28793 28794 28795 28796 28797 28798 28799 28800 28801 28802 28803 28804 28805 28806 28807 28808 28809 28810 28811 28812 28813 28814 28815 28816 28817 28818 28819 28820 28821 28822 28823 28824 28825 28826 28827 28828 28829 28830 28831 28832 28833 28834 28835 28836 28837 28838 28839 28840 28841 28842 28843 28844 28845 28846 28847 28848 28849 28850 28851 28852 28853 28854 28855 28856 28857 28858 28859 28860 28861 28862 28863 28864 28865 28866 28867 28868 28869 28870 28871 28872 28873 28874 28875 28876 28877 28878 28879 28880 28881 28882 28883 28884 28885 28886 28887 28888 28889 28890 28891 28892 28893 28894 28895 28896 28897 28898 28899 28900 28901 28902 28903 28904 28905 28906 28907 28908 28909 28910 28911 28912 28913 28914 28915 28916 28917 28918 28919 28920 28921 28922 28923 28924 28925 28926 28927 28928 28929 28930 28931 28932 28933 28934 28935 28936 28937 28938 28939 28940 28941 28942 28943 28944 28945 28946 28947 28948 28949 28950 28951 28952 28953 28954 28955 28956 28957 28958 28959 28960 28961 28962 28963 28964 28965 28966 28967 28968 28969 28970 28971 28972 28973 28974 28975 28976 28977 28978 28979 28980 28981 28982 28983 28984 28985 28986 28987 28988 28989 28990 28991 28992 28993 28994 28995 28996 28997 28998 28999 29000 29001 29002 29003 29004 29005 29006 29007 29008 29009 29010 29011 29012 29013 29014 29015 29016 29017 29018 29019 29020 29021 29022 29023 29024 29025 29026 29027 29028 29029 29030 29031 29032 29033 29034 29035 29036 29037 29038 29039 29040 29041 29042 29043 29044 29045 29046 29047 29048 29049 29050 29051 29052 29053 29054 29055 29056 29057 29058 29059 29060 29061 29062 29063 29064 29065 29066 29067 29068 29069 29070 29071 29072 29073 29074 29075 29076 29077 29078 29079 29080 29081 29082 29083 29084 29085 29086 29087 29088 29089 29090 29091 29092 29093 29094 29095 29096 29097 29098 29099 29100 29101 29102 29103 29104 29105 29106 29107 29108 29109 29110 29111 29112 29113 29114 29115 29116 29117 29118 29119 29120 29121 29122 29123 29124 29125 29126 29127 29128 29129 29130 29131 29132 29133 29134 29135 29136 29137 29138 29139 29140 29141 29142 29143 29144 29145 29146 29147 29148 29149 29150 29151 29152 29153 29154 29155 29156 29157 29158 29159 29160 29161 29162 29163 29164 29165 29166 29167 29168 29169 29170 29171 29172 29173 29174 29175 29176 29177 29178 29179 29180 29181 29182 29183 29184 29185 29186 29187 29188 29189 29190 29191 29192 29193 29194 29195 29196 29197 29198 29199 29200 29201 29202 29203 29204 29205 29206 29207 29208 29209 29210 29211 29212 29213 29214 29215 29216 29217 29218 29219 29220 29221 29222 29223 29224 29225 29226 29227 29228 29229 29230 29231 29232 29233 29234 29235 29236 29237 29238 29239 29240 29241 29242 29243 29244 29245 29246 29247 29248 29249 29250 29251 29252 29253 29254 29255 29256 29257 29258 29259 29260 29261 29262 29263 29264 29265 29266 29267 29268 29269 29270 29271 29272 29273 29274 29275 29276 29277 29278 29279 29280 29281 29282 29283 29284 29285 29286 29287 29288 29289 29290 29291 29292 29293 29294 29295 29296 29297 29298 29299 29300 29301 29302 29303 29304 29305 29306 29307 29308 29309 29310 29311 29312 29313 29314 29315 29316 29317 29318 29319 29320 29321 29322 29323 29324 29325 29326 29327 29328 29329 29330 29331 29332 29333 29334 29335 29336 29337 29338 29339 29340 29341 29342 29343 29344 29345 29346 29347 29348 29349 29350 29351 29352 29353 29354 29355 29356 29357 29358 29359 29360 29361 29362 29363 29364 29365 29366 29367 29368 29369 29370 29371 29372 29373 29374 29375 29376 29377 29378 29379 29380 29381 29382 29383 29384 29385 29386 29387 29388 29389 29390 29391 29392 29393 29394 29395 29396 29397 29398 29399 29400 29401 29402 29403 29404 29405 29406 29407 29408 29409 29410 29411 29412 29413 29414 29415 29416 29417 29418 29419 29420 29421 29422 29423 29424 29425 29426 29427 29428 29429 29430 29431 29432 29433 29434 29435 29436 29437 29438 29439 29440 29441 29442 29443 29444 29445 29446 29447 29448 29449 29450 29451 29452 29453 29454 29455 29456 29457 29458 29459 29460 29461 29462 29463 29464 29465 29466 29467 29468 29469 29470 29471 29472 29473 29474 29475 29476 29477 29478 29479 29480 29481 29482 29483 29484 29485 29486 29487 29488 29489 29490 29491 29492 29493 29494 29495 29496 29497 29498 29499 29500 29501 29502 29503 29504 29505 29506 29507 29508 29509 29510 29511 29512 29513 29514 29515 29516 29517 29518 29519 29520 29521 29522 29523 29524 29525 29526 29527 29528 29529 29530 29531 29532 29533 29534 29535 29536 29537 29538 29539 29540 29541 29542 29543 29544 29545 29546 29547 29548 29549 29550 29551 29552 29553 29554 29555 29556 29557 29558 29559 29560 29561 29562 29563 29564 29565 29566 29567 29568 29569 29570 29571 29572 29573 29574 29575 29576 29577 29578 29579 29580 29581 29582 29583 29584 29585 29586 29587 29588 29589 29590 29591 29592 29593 29594 29595 29596 29597 29598 29599 29600 29601 29602 29603 29604 29605 29606 29607 29608 29609 29610 29611 29612 29613 29614 29615 29616 29617 29618 29619 29620 29621 29622 29623 29624 29625 29626 29627 29628 29629 29630 29631 29632 29633 29634 29635 29636 29637 29638 29639 29640 29641 29642 29643 29644 29645 29646 29647 29648 29649 29650 29651 29652 29653 29654 29655 29656 29657 29658 29659 29660 29661 29662 29663 29664 29665 29666 29667 29668 29669 29670 29671 29672 29673 29674 29675 29676 29677 29678 29679 29680 29681 29682 29683 29684 29685 29686 29687 29688 29689 29690 29691 29692 29693 29694 29695 29696 29697 29698 29699 29700 29701 29702 29703 29704 29705 29706 29707 29708 29709 29710 29711 29712 29713 29714 29715 29716 29717 29718 29719 29720 29721 29722 29723 29724 29725 29726 29727 29728 29729 29730 29731 29732 29733 29734 29735 29736 29737 29738 29739 29740 29741 29742 29743 29744 29745 29746 29747 29748 29749 29750 29751 29752 29753 29754 29755 29756 29757 29758 29759 29760 29761 29762 29763 29764 29765 29766 29767 29768 29769 29770 29771 29772 29773 29774 29775 29776 29777 29778 29779 29780 29781 29782 29783 29784 29785 29786 29787 29788 29789 29790 29791 29792 29793 29794 29795 29796 29797 29798 29799 29800 29801 29802 29803 29804 29805 29806 29807 29808 29809 29810 29811 29812 29813 29814 29815 29816 29817 29818 29819 29820 29821 29822 29823 29824 29825 29826 29827 29828 29829 29830 29831 29832 29833 29834 29835 29836 29837 29838 29839 29840 29841 29842 29843 29844 29845 29846 29847 29848 29849 29850 29851 29852 29853 29854 29855 29856 29857 29858 29859 29860 29861 29862 29863 29864 29865 29866 29867 29868 29869 29870 29871 29872 29873 29874 29875 29876 29877 29878 29879 29880 29881 29882 29883 29884 29885 29886 29887 29888 29889 29890 29891 29892 29893 29894 29895 29896 29897 29898 29899 29900 29901 29902 29903 29904 29905 29906 29907 29908 29909 29910 29911 29912 29913 29914 29915 29916 29917 29918 29919 29920 29921 29922 29923 29924 29925 29926 29927 29928 29929 29930 29931 29932 29933 29934 29935 29936 29937 29938 29939 29940 29941 29942 29943 29944 29945 29946 29947 29948 29949 29950 29951 29952 29953 29954 29955 29956 29957 29958 29959 29960 29961 29962 29963 29964 29965 29966 29967 29968 29969 29970 29971 29972 29973 29974 29975 29976 29977 29978 29979 29980 29981 29982 29983 29984 29985 29986 29987 29988 29989 29990 29991 29992 29993 29994 29995 29996 29997 29998 29999 30000 30001 30002 30003 30004 30005 30006 30007 30008 30009 30010 30011 30012 30013 30014 30015 30016 30017 30018 30019 30020 30021 30022 30023 30024 30025 30026 30027 30028 30029 30030 30031 30032 30033 30034 30035 30036 30037 30038 30039 30040 30041 30042 30043 30044 30045 30046 30047 30048 30049 30050 30051 30052 30053 30054 30055 30056 30057 30058 30059 30060 30061 30062 30063 30064 30065 30066 30067 30068 30069 30070 30071 30072 30073 30074 30075 30076 30077 30078 30079 30080 30081 30082 30083 30084 30085 30086 30087 30088 30089 30090 30091 30092 30093 30094 30095 30096 30097 30098 30099 30100 30101 30102 30103 30104 30105 30106 30107 30108 30109 30110 30111 30112 30113 30114 30115 30116 30117 30118 30119 30120 30121 30122 30123 30124 30125 30126 30127 30128 30129 30130 30131 30132 30133 30134 30135 30136 30137 30138 30139 30140 30141 30142 30143 30144 30145 30146 30147 30148 30149 30150 30151 30152 30153 30154 30155 30156 30157 30158 30159 30160 30161 30162 30163 30164 30165 30166 30167 30168 30169 30170 30171 30172 30173 30174 30175 30176 30177 30178 30179 30180 30181 30182 30183 30184 30185 30186 30187 30188 30189 30190 30191 30192 30193 30194 30195 30196 30197 30198 30199 30200 30201 30202 30203 30204 30205 30206 30207 30208 30209 30210 30211 30212 30213 30214 30215 30216 30217 30218 30219 30220 30221 30222 30223 30224 30225 30226 30227 30228 30229 30230 30231 30232 30233 30234 30235 30236 30237 30238 30239 30240 30241 30242 30243 30244 30245 30246 30247 30248 30249 30250 30251 30252 30253 30254 30255 30256 30257 30258 30259 30260 30261 30262 30263 30264 30265 30266 30267 30268 30269 30270 30271 30272 30273 30274 30275 30276 30277 30278 30279 30280 30281 30282 30283 30284 30285 30286 30287 30288 30289 30290 30291 30292 30293 30294 30295 30296 30297 30298 30299 30300 30301 30302 30303 30304 30305 30306 30307 30308 30309 30310 30311 30312 30313 30314 30315 30316 30317 30318 30319 30320 30321 30322 30323 30324 30325 30326 30327 30328 30329 30330 30331 30332 30333 30334 30335 30336 30337 30338 30339 30340 30341 30342 30343 30344 30345 30346 30347 30348 30349 30350 30351 30352 30353 30354 30355 30356 30357 30358 30359 30360 30361 30362 30363 30364 30365 30366 30367 30368 30369 30370 30371 30372 30373 30374 30375 30376 30377 30378 30379 30380 30381 30382 30383 30384 30385 30386 30387 30388 30389 30390 30391 30392 30393 30394 30395 30396 30397 30398 30399 30400 30401 30402 30403 30404 30405 30406 30407 30408 30409 30410 30411 30412 30413 30414 30415 30416 30417 30418 30419 30420 30421 30422 30423 30424 30425 30426 30427 30428 30429 30430 30431 30432 30433 30434 30435 30436 30437 30438 30439 30440 30441 30442 30443 30444 30445 30446 30447 30448 30449 30450 30451 30452 30453 30454 30455 30456 30457 30458 30459 30460 30461 30462 30463 30464 30465 30466 30467 30468 30469 30470 30471 30472 30473 30474 30475 30476 30477 30478 30479 30480 30481 30482 30483 30484 30485 30486 30487 30488 30489 30490 30491 30492 30493 30494 30495 30496 30497 30498 30499 30500 30501 30502 30503 30504 30505 30506 30507 30508 30509 30510 30511 30512 30513 30514 30515 30516 30517 30518 30519 30520 30521 30522 30523 30524 30525 30526 30527 30528 30529 30530 30531 30532 30533 30534 30535 30536 30537 30538 30539 30540 30541 30542 30543 30544 30545 30546 30547 30548 30549 30550 30551 30552 30553 30554 30555 30556 30557 30558 30559 30560 30561 30562 30563 30564 30565 30566 30567 30568 30569 30570 30571 30572 30573 30574 30575 30576 30577 30578 30579 30580 30581 30582 30583 30584 30585 30586 30587 30588 30589 30590 30591 30592 30593 30594 30595 30596 30597 30598 30599 30600 30601 30602 30603 30604 30605 30606 30607 30608 30609 30610 30611 30612 30613 30614 30615 30616 30617 30618 30619 30620 30621 30622 30623 30624 30625 30626 30627 30628 30629 30630 30631 30632 30633 30634 30635 30636 30637 30638 30639 30640 30641 30642 30643 30644 30645 30646 30647 30648 30649 30650 30651 30652 30653 30654 30655 30656 30657 30658 30659 30660 30661 30662 30663 30664 30665 30666 30667 30668 30669 30670 30671 30672 30673 30674 30675 30676 30677 30678 30679 30680 30681 30682 30683 30684 30685 30686 30687 30688 30689 30690 30691 30692 30693 30694 30695 30696 30697 30698 30699 30700 30701 30702 30703 30704 30705 30706 30707 30708 30709 30710 30711 30712 30713 30714 30715 30716 30717 30718 30719 30720 30721 30722 30723 30724 30725 30726 30727 30728 30729 30730 30731 30732 30733 30734 30735 30736 30737 30738 30739 30740 30741 30742 30743 30744 30745 30746 30747 30748 30749 30750 30751 30752 30753 30754 30755 30756 30757 30758 30759 30760 30761 30762 30763 30764 30765 30766 30767 30768 30769 30770 30771 30772 30773 30774 30775 30776 30777 30778 30779 30780 30781 30782 30783 30784 30785 30786 30787 30788 30789 30790 30791 30792 30793 30794 30795 30796 30797 30798 30799 30800 30801 30802 30803 30804 30805 30806 30807 30808 30809 30810 30811 30812 30813 30814 30815 30816 30817 30818 30819 30820 30821 30822 30823 30824 30825 30826 30827 30828 30829 30830 30831 30832 30833 30834 30835 30836 30837 30838 30839 30840 30841 30842 30843 30844 30845 30846 30847 30848 30849 30850 30851 30852 30853 30854 30855 30856 30857 30858 30859 30860 30861 30862 30863 30864 30865 30866 30867 30868 30869 30870 30871 30872 30873 30874 30875 30876 30877 30878 30879 30880 
</DataArray>
<DataArray type="UInt32" Name="offsets" format="ascii">
3 6 8 11 14 17 20 22 25 28 31 34 37 40 43 46 49 52 55 58 60 63 66 69 72 74 77 80 83 86 89 92 95 97 100 103 106 109 112 115 118 121 123 126 129 132 135 138 141 144 147 150 153 156 158 160 163 166 169 172 175 178 181 184 186 189 192 195 198 201 204 207 210 213 216 219 222 225 228 231 234 237 240 243 246 249 252 254 257 260 263 266 269 272 275 278 281 284 287 289 292 295 298 300 303 306 309 312 315 318 321 324 327 330 333 336 339 342 345 348 351 354 357 360 363 366 369 372 375 378 381 384 387 390 393 396 399 402 405 408 411 414 417 420 423 426 429 432 435 437 440 442 445 448 451 454 457 460 463 466 469 472 475 478 481 484 487 490 493 496 499 502 505 508 511 514 517 520 522 525 528 530 533 535 538 541 544 547 550 553 556 559 562 565 568 571 574 577 579 582 584 587 590 593 596 599 602 605 607 610 612 615 618 621 624 627 630 632 635 638 640 643 646 649 652 655 658 660 662 665 668 670 673 675 678 680 682 685 688 691 693 696 699 702 705 708 711 714 717 720 723 726 729 732 734 737 740 743 746 749 752 755 757 760 763 766 769 772 775 778 780 783 786 789 792 794 797 800 803 806 809 812 814 817 820 823 825 828 831 834 837 840 843 846 848 851 854 857 860 863 866 868 871 874 877 880 883 886 888 891 894 897 900 903 906 909 911 914 917 920 923 926 929 932 935 938 941 944 947 950 953 956 959 962 965 968 971 974 976 978 981 984 987 990 993 995 998 1001 1004 1007 1010 1013 1016 1018 1021 1023 1026 1029 1032 1034 1037 1040 1043 1045 1048 1050 1053 1056 1059 1062 1065 1068 1071 1073 1076 1079 1082 1085 1088 1091 1094 1096 1099 1102 1105 1107 1110 1113 1116 1119 1122 1125 1128 1131 1134 1137 1140 1143 1146 1149 1152 1155 1158 1161 1164 1167 1170 1173 1176 1179 1182 1185 1188 1191 1194 1197 1200 1203 1205 1208 1211 1214 1217 1220 1223 1226 1229 1232 1235 1238 1241 1244 1247 1250 1253 1256 1259 1262 1265 1268 1271 1274 1277 1280 1283 1286 1289 1292 1295 1298 1301 1303 1306 1309 1312 1315 1318 1321 1324 1327 1330 1333 1336 1339 1342 1345 1348 1351 1354 1357 1360 1363 1365 1368 1371 1374 1377 1380 1383 1386 1388 1391 1394 1397 1400 1403 1405 1408 1411 1413 1416 1418 1421 1424 1427 1430 1432 1435 1438 1440 1443 1446 1449 1452 1455 1458 1460 1463 1466 1469 1472 1475 1478 1481 1484 1487 1490 1493 1496 1499 1502 1505 1508 1511 1514 1517 1519 1522 1525 1528 1531 1534 1537 1540 1543 1546 1549 1552 1554 1556 1559 1562 1565 1568 1571 1574 1577 1580 1583 1586 1589 1592 1595 1598 1601 1604 1607 1610 1613 1616 1619 1621 1624 1626 1628 1631 1634 1636 1639 1642 1645 1648 1651 1654 1657 1660 1663 1666 1669 1672 1675 1677 1680 1683 1686 1689 1692 1695 1698 1700 1702 1705 1708 1711 1714 1717 1720 1723 1726 1728 1730 1733 1736 1739 1741 1744 1747 1750 1753 1756 1759 1762 1765 1768 1771 1774 1777 1780 1783 1786 1789 1792 1795 1798 1801 1804 1807 1810 1813 1816 1819 1822 1825 1828 1831 1834 1837 1840 1843 1846 1848 1851 1854 1856 1859 1862 1865 1868 1870 1873 1876 1879 1881 1884 1887 1890 1892 1895 1898 1900 1903 1906 1909 1912 1915 1918 1921 1924 1927 1930 1933 1936 1939 1942 1945 1948 1951 1954 1957 1960 1963 1965 1968 1971 1974 1976 1979 1982 1985 1988 1991 1993 1996 1999 2002 2005 2008 2011 2013 2016 2019 2022 2025 2028 2031 2034 2037 2040 2043 2046 2049 2052 2055 2058 2061 2064 2067 2069 2072 2075 2078 2081 2084 2087 2090 2093 2096 2099 2102 2105 2108 2111 2114 2117 2120 2123 2126 2129 2132 2134 2137 2140 2143 2146 2149 2152 2155 2158 2161 2164 2167 2170 2173 2176 2179 2181 2184 2187 2190 2193 2196 2199 2202 2205 2208 2211 2214 2217 2220 2223 2226 2229 2232 2235 2237 2240 2243 2246 2249 2252 2255 2258 2260 2263 2266 2269 2272 2275 2278 2281 2284 2287 2290 2293 2296 2299 2302 2305 2308 2311 2314 2317 2320 2323 2325 2328 2331 2334 2337 2340 2343 2346 2349 2352 2354 2357 2360 2363 2366 2369 2372 2375 2378 2380 2383 2386 2389 2392 2395 2398 2401 2404 2407 2410 2413 2416 2419 2422 2425 2428 2431 2434 2437 2439 2442 2445 2448 2451 2454 2456 2459 2462 2465 2467 2470 2473 2476 2479 2482 2485 2487 2490 2493 2496 2499 2502 2505 2508 2511 2514 2517 2519 2522 2525 2528 2531 2534 2537 2540 2543 2546 2549 2552 2555 2557 2560 2562 2565 2568 2571 2574 2577 2580 2583 2585 2588 2590 2593 2596 2599 2602 2605 2608 2611 2614 2617 2620 2623 2626 2629 2632 2635 2638 2641 2644 2647 2650 2653 2656 2659 2662 2665 2668 2671 2674 2677 2680 2683 2686 2689 2692 2695 2698 2701 2704 2707 2710 2713 2716 2719 2722 2725 2727 2729 2732 2735 2737 2740 2743 2746 2749 2752 2755 2758 2761 2764 2767 2770 2773 2776 2779 2782 2785 2787 2790 2793 2796 2799 2801 2804 2807 2809 2812 2815 2818 2821 2824 2827 2829 2832 2834 2837 2840 2842 2845 2848 2851 2854 2857 2860 2863 2866 2869 2872 2874 2877 2880 2883 2886 2889 2891 2893 2896 2899 2902 2905 2907 2910 2913 2915 2918 2920 2923 2926 2929 2932 2935 2937 2940 2943 2945 2948 2951 2954 2957 2960 2963 2966 2969 2972 2975 2978 2981 2983 2986 2989 2992 2995 2998 3001 3004 3007 3010 3013 3016 3019 3022 3025 3028 3030 3033 3035 3038 3040 3042 3045 3047 3050 3053 3055 3058 3061 3064 3067 3070 3073 3075 3078 3080 3083 3086 3088 3091 3094 3097 3099 3102 3105 3107 3110 3113 3116 3119 3122 3124 3127 3130 3132 3135 3138 3141 3144 3147 3149 3152 3154 3157 3160 3162 3165 3168 3170 3173 3176 3179 3182 3185 3188 3191 3194 3196 3199 3202 3205 3208 3211 3214 3217 3220 3223 3226 3228 3231 3234 3237 3240 3242 3245 3248 3250 3253 3256 3259 3262 3265 3267 3270 3273 3276 3279 3282 3284 3287 3289 3292 3295 3298 3301 3304 3307 3309 3312 3315 3318 3321 3324 3327 3330 3333 3335 3337 3339 3342 3345 3348 3351 3353 3356 3358 3361 3364 3367 3369 3371 3374 3377 3380 3382 3385 3388 3391 3393 3396 3398 3401 3403 3405 3408 3410 3413 3416 3419 3422 3424 3427 3430 3433 3435 3438 3440 3443 3445 3448 3451 3454 3457 3460 3463 3466 3468 3471 3474 3477 3480 3482 3485 3488 3491 3494 3497 3500 3503 3506 3508 3511 3513 3515 3518 3521 3524 3526 3529 3532 3535 3538 3540 3542 3545 3548 3550 3552 3555 3558 3561 3564 3567 3569 3572 3575 3578 3581 3584 3587 3590 3593 3595 3598 3600 3603 3606 3609 3612 3615 3618 3621 3624 3627 3630 3633 3636 3639 3642 3645 3648 3651 3653 3656 3659 3662 3665 3668 3671 3674 3677 3680 3683 3686 3689 3692 3695 3698 3701 3704 3707 3710 3713 3716 3719 3722 3725 3728 3730 3733 3735 3738 3741 3744 3747 3750 3752 3754 3757 3760 3763 3766 3768 3770 3773 3775 3778 3781 3783 3786 3789 3791 3794 3797 3800 3803 3805 3807 3810 3813 3816 3819 3822 3825 3828 3831 3833 3836 3839 3841 3844 3847 3850 3852 3855 3858 3860 3863 3866 3869 3872 3875 3878 3880 3883 3886 3889 3892 3895 3898 3900 3903 3906 3909 3912 3915 3917 3920 3923 3925 3927 3930 3933 3935 3938 3941 3943 3946 3949 3952 3955 3958 3961 3964 3967 3970 3973 3976 3979 3981 3984 3986 3989 3992 3994 3997 4000 4003 4006 4009 4012 4014 4017 4020 4023 4025 4027 4029 4032 4035 4038 4040 4042 4045 4047 4049 4052 4055 4057 4060 4063 4065 4068 4070 4073 4075 4078 4081 4084 4086 4088 4091 4094 4096 4098 4100 4102 4105 4108 4111 4113 4115 4118 4121 4123 4125 4127 4130 4132 4134 4137 4140 4142 4145 4147 4149 4152 4154 4157 4160 4162 4165 4167 4169 4172 4175 4178 4181 4183 4185 4188 4191 4193 4196 4199 4202 4204 4207 4210 4213 4216 4219 4222 4225 4228 4231 4234 4237 4240 4243 4246 4249 4252 4255 4258 4261 4264 4267 4270 4273 4276 4279 4282 4285 4288 4291 4294 4297 4300 4303 4306 4309 4312 4315 4318 4321 4324 4327 4330 4333 4336 4339 4342 4345 4348 4351 4354 4357 4360 4363 4366 4369 4372 4375 4378 4380 4383 4385 4388 4391 4394 4397 4400 4403 4406 4409 4412 4415 4418 4421 4424 4427 4429 4432 4435 4438 4441 4444 4447 4450 4453 4456 4459 4461 4464 4467 4470 4473 4476 4479 4482 4485 4488 4491 4494 4497 4500 4503 4506 4509 4512 4515 4518 4521 4524 4527 4530 4533 4536 4539 4542 4545 4548 4551 4554 4557 4560 4563 4566 4569 4572 4575 4578 4581 4584 4587 4590 4593 4596 4599 4601 4604 4607 4610 4612 4615 4617 4620 4623 4626 4629 4632 4634 4637 4639 4642 4645 4648 4651 4654 4657 4660 4663 4666 4669 4672 4675 4678 4681 4684 4687 4690 4693 4696 4699 4702 4705 4708 4711 4714 4716 4719 4722 4725 4728 4731 4734 4736 4739 4741 4744 4747 4750 4752 4755 4758 4760 4763 4766 4769 4772 4775 4778 4781 4784 4787 4790 4793 4796 4799 4802 4805 4808 4811 4814 4817 4820 4823 4826 4829 4832 4835 4838 4841 4844 4847 4850 4853 4856 4859 4862 4865 4868 4871 4873 4876 4878 4881 4884 4887 4890 4893 4896 4899 4902 4905 4908 4910 4913 4916 4919 4922 4925 4928 4931 4934 4937 4940 4943 4946 4949 4952 4955 4958 4961 4963 4966 4969 4972 4974 4976 4979 4981 4984 4987 4990 4993 4996 4999 5002 5005 5007 5010 5013 5016 5019 5021 5024 5027 5030 5033 5036 5039 5042 5044 5047 5050 5052 5055 5057 5060 5063 5065 5068 5071 5073 5075 5078 5081 5084 5087 5090 5093 5096 5099 5102 5105 5108 5111 5114 5117 5120 5122 5125 5127 5130 5133 5136 5138 5141 5143 5146 5149 5152 5155 5158 5161 5164 5167 5170 5173 5176 5179 5181 5184 5186 5189 5192 5195 5198 5201 5204 5207 5210 5212 5215 5218 5220 5223 5226 5229 5231 5233 5236 5239 5242 5245 5248 5251 5254 5257 5260 5263 5266 5269 5272 5275 5278 5281 5284 5287 5290 5293 5296 5298 5301 5304 5307 5310 5313 5315 5318 5320 5323 5326 5329 5332 5334 5337 5340 5342 5345 5348 5351 5354 5357 5359 5362 5365 5368 5371 5373 5376 5379 5382 5385 5388 5391 5394 5396 5399 5402 5405 5407 5410 5413 5416 5419 5422 5425 5428 5431 5434 5437 5440 5442 5445 5448 5451 5454 5457 5460 5463 5466 5468 5471 5474 5477 5480 5483 5486 5488 5491 5494 5497 5500 5503 5506 5508 5511 5514 5517 5520 5523 5526 5529 5532 5535 5538 5541 5543 5546 5549 5552 5554 5557 5560 5563 5565 5568 5570 5573 5576 5579 5582 5585 5588 5590 5593 5596 5599 5602 5605 5608 5611 5614 5617 5620 5623 5626 5629 5632 5635 5637 5640 5643 5646 5649 5652 5654 5657 5660 5663 5666 5669 5672 5675 5678 5680 5683 5686 5689 5692 5695 5698 5701 5704 5707 5710 5713 5716 5719 5722 5725 5728 5730 5733 5736 5739 5742 5744 5747 5750 5753 5756 5759 5762 5765 5768 5771 5774 5777 5780 5783 5786 5789 5792 5795 5798 5801 5804 5807 5810 5813 5816 5819 5822 5824 5827 5830 5833 5835 5838 5840 5843 5846 5849 5852 5854 5857 5859 5862 5865 5868 5871 5874 5876 5879 5882 5885 5888 5891 5894 5897 5900 5903 5905 5908 5911 5914 5917 5920 5923 5926 5929 5932 5935 5938 5941 5944 5947 5950 5953 5956 5959 5962 5965 5968 5971 5974 5977 5979 5981 5984 5987 5990 5993 5996 5998 6001 6004 6007 6009 6012 6015 6018 6020 6023 6026 6028 6031 6033 6036 6039 6042 6045 6047 6050 6053 6056 6059 6061 6063 6066 6069 6072 6075 6078 6081 6084 6087 6090 6093 6096 6099 6101 6104 6107 6110 6113 6115 6118 6121 6124 6127 6130 6132 6135 6138 6140 6143 6146 6149 6152 6155 6158 6161 6164 6167 6170 6173 6176 6179 6182 6185 6188 6190 6193 6196 6198 6201 6204 6207 6209 6212 6215 6218 6221 6224 6227 6230 6233 6236 6239 6242 6244 6247 6250 6253 6256 6259 6262 6265 6268 6271 6274 6277 6280 6283 6286 6289 6292 6294 6297 6300 6302 6305 6307 6310 6313 6315 6318 6320 6323 6325 6328 6331 6334 6337 6340 6343 6346 6349 6352 6355 6358 6361 6364 6366 6369 6371 6373 6376 6379 6381 6383 6386 6389 6391 6393 6396 6399 6402 6404 6407 6409 6412 6415 6417 6420 6423 6426 6429 6431 6433 6436 6438 6441 6444 6446 6448 6451 6454 6456 6459 6462 6465 6467 6470 6473 6476 6478 6480 6482 6485 6488 6490 6493 6495 6497 6500 6503 6506 6509 6512 6515 6518 6521 6524 6527 6530 6532 6534 6537 6539 6542 6544 6547 6549 6552 6555 6558 6560 6563 6566 6569 6572 6575 6577 6580 6583 6586 6589 6592 6595 6598 6601 6604 6607 6610 6613 6616 6619 6622 6625 6628 6631 6634 6637 6640 6643 6646 6649 6651 6654 6657 6660 6663 6666 6669 6672 6675 6678 6681 6684 6687 6690 6693 6696 6699 6702 6705 6707 6710 6713 6716 6719 6722 6725 6728 6731 6734 6737 6740 6742 6745 6748 6751 6754 6757 6759 6762 6765 6768 6771 6774 6777 6780 6783 6786 6789 6792 6795 6798 6801 6803 6806 6809 6812 6815 6818 6821 6824 6827 6830 6833 6836 6839 6842 6845 6847 6850 6852 6855 6858 6861 6864 6866 6869 6872 6875 6878 6881 6884 6887 6890 6893 6896 6899 6902 6904 6907 6909 6912 6915 6918 6921 6923 6926 6929 6932 6935 6938 6941 6944 6946 6949 6952 6955 6958 6961 6964 6967 6969 6972 6975 6978 6980 6983 6985 6988 6991 6994 6997 7000 7003 7006 7009 7012 7014 7017 7020 7023 7026 7029 7032 7035 7038 7041 7044 7047 7050 7053 7056 7059 7062 7065 7068 7071 7074 7077 7080 7083 7086 7089 7092 7095 7098 7101 7104 7107 7110 7113 7116 7119 7122 7125 7128 7131 7134 7137 7140 7143 7145 7148 7151 7153 7156 7159 7162 7165 7168 7171 7174 7177 7180 7183 7185 7188 7191 7194 7197 7200 7202 7205 7208 7210 7213 7216 7219 7222 7225 7228 7230 7233 7236 7239 7242 7244 7247 7250 7252 7255 7257 7260 7263 7266 7269 7272 7275 7278 7281 7284 7287 7290 7292 7295 7297 7300 7303 7306 7309 7311 7314 7317 7320 7323 7326 7329 7332 7335 7338 7341 7344 7347 7350 7353 7356 7359 7362 7365 7368 7371 7374 7376 7379 7382 7385 7388 7390 7393 7396 7399 7402 7405 7408 7411 7413 7416 7419 7422 7425 7428 7430 7433 7436 7439 7441 7444 7447 7450 7452 7455 7458 7460 7463 7466 7469 7471 7474 7477 7479 7482 7485 7488 7491 7494 7497 7500 7503 7506 7509 7512 7515 7518 7521 7524 7527 7530 7533 7536 7539 7542 7545 7548 7551 7554 7557 7560 7563 7566 7569 7572 7574 7577 7580 7583 7586 7589 7592 7595 7598 7601 7604 7607 7609 7612 7615 7618 7621 7624 7627 7630 7633 7636 7639 7642 7645 7648 7651 7654 7656 7658 7661 7664 7667 7669 7672 7675 7678 7681 7683 7686 7689 7691 7694 7697 7700 7703 7706 7709 7712 7715 7718 7721 7724 7727 7730 7732 7734 7737 7740 7743 7746 7749 7752 7755 7758 7761 7764 7767 7769 7772 7775 7777 7780 7783 7786 7789 7792 7795 7798 7801 7804 7807 7810 7813 7816 7819 7822 7825 7828 7831 7834 7836 7839 7842 7845 7847 7850 7853 7856 7859 7862 7864 7867 7870 7873 7876 7879 7882 7885 7888 7891 7894 7897 7900 7903 7906 7909 7912 7915 7918 7921 7924 7926 7929 7932 7934 7937 7940 7943 7946 7949 7952 7955 7958 7961 7964 7967 7970 7973 7976 7979 7982 7985 7988 7991 7993 7996 7999 8002 8005 8008 8011 8014 8017 8020 8023 8026 8029 8032 8035 8038 8041 8044 8047 8050 8053 8056 8059 8062 8065 8068 8071 8074 8077 8080 8083 8086 8089 8091 8094 8097 8100 8103 8106 8109 8111 8114 8117 8120 8123 8126 8128 8131 8134 8137 8140 8142 8145 8148 8151 8154 8157 8160 8163 8166 8169 8172 8175 8178 8181 8184 8187 8190 8193 8196 8199 8202 8205 8208 8210 8213 8216 8219 8222 8225 8228 8231 8233 8236 8239 8241 8244 8247 8249 8252 8255 8258 8261 8264 8267 8269 8272 8275 8278 8281 8284 8287 8290 8293 8296 8299 8301 8304 8306 8309 8312 8315 8318 8321 8324 8327 8330 8332 8335 8338 8340 8343 8346 8349 8351 8354 8357 8360 8362 8365 8368 8371 8373 8375 8378 8381 8383 8386 8389 8391 8394 8397 8399 8402 8405 8408 8411 8414 8417 8420 8423 8426 8428 8431 8434 8437 8439 8442 8445 8448 8450 8453 8456 8459 8461 8464 8466 8469 8472 8474 8477 8480 8483 8486 8489 8492 8495 8498 8500 8503 8506 8508 8511 8514 8517 8520 8523 8526 8529 8532 8535 8538 8541 8544 8547 8549 8552 8554 8557 8560 8563 8565 8567 8570 8572 8575 8578 8581 8584 8586 8589 8591 8594 8597 8600 8603 8606 8609 8612 8615 8618 8620 8623 8626 8629 8632 8635 8638 8641 8644 8647 8650 8653 8656 8659 8662 8665 8668 8671 8674 8677 8680 8683 8686 8689 8692 8695 8698 8701 8704 8706 8709 8712 8715 8718 8721 8724 8726 8729 8732 8735 8738 8741 8744 8746 8749 8752 8755 8758 8761 8764 8766 8769 8772 8775 8777 8780 8783 8786 8788 8791 8794 8796 8799 8802 8805 8808 8811 8814 8816 8819 8822 8825 8827 8829 8832 8835 8838 8841 8844 8847 8850 8853 8856 8859 8862 8865 8868 8871 8874 8877 8880 8882 8885 8888 8891 8894 8897 8900 8903 8905 8908 8911 8914 8917 8920 8922 8925 8928 8931 8934 8937 8939 8942 8945 8947 8950 8953 8956 8959 8961 8964 8967 8970 8973 8976 8979 8981 8984 8986 8989 8991 8993 8996 8998 9001 9004 9007 9009 9012 9015 9018 9021 9024 9026 9029 9032 9035 9037 9040 9043 9046 9049 9051 9053 9055 9058 9061 9064 9067 9069 9071 9074 9076 9079 9082 9085 9088 9091 9094 9096 9099 9101 9104 9107 9109 9112 9115 9118 9120 9123 9126 9128 9131 9134 9137 9140 9143 9146 9149 9152 9155 9158 9161 9164 9166 9169 9172 9175 9178 9180 9183 9186 9189 9192 9194 9197 9200 9203 9206 9209 9212 9215 9218 9221 9223 9225 9227 9230 9233 9236 9238 9240 9243 9246 9248 9251 9253 9256 9259 9262 9265 9268 9271 9274 9276 9279 9282 9285 9288 9291 9294 9297 9300 9303 9306 9309 9312 9315 9318 9321 9324 9326 9329 9332 9335 9338 9341 9344 9347 9350 9353 9355 9358 9361 9363 9366 9368 9371 9373 9376 9379 9381 9384 9387 9390 9392 9394 9397 9400 9402 9405 9408 9411 9413 9416 9419 9422 9425 9427 9430 9433 9436 9439 9442 9445 9448 9451 9454 9457 9460 9462 9464 9467 9470 9473 9476 9479 9482 9485 9488 9491 9494 9497 9500 9503 9506 9509 9512 9515 9518 9521 9524 9527 9530 9533 9536 9539 9542 9545 9548 9551 9554 9557 9560 9562 9565 9568 9571 9574 9577 9580 9583 9586 9589 9592 9595 9598 9601 9604 9607 9610 9613 9616 9619 9621 9624 9627 9630 9633 9636 9639 9641 9643 9646 9649 9651 9653 9656 9659 9662 9664 9667 9670 9673 9676 9679 9682 9685 9688 9691 9694 9697 9700 9703 9706 9709 9712 9715 9718 9721 9724 9727 9730 9733 9735 9738 9740 9743 9745 9748 9751 9754 9757 9760 9763 9765 9768 9770 9772 9775 9778 9780 9783 9786 9789 9792 9795 9798 9800 9802 9805 9808 9810 9812 9815 9818 9820 9822 9825 9828 9831 9834 9837 9840 9843 9846 9848 9851 9854 9857 9860 9863 9865 9868 9871 9873 9876 9879 9882 9884 9887 9890 9893 9896 9899 9902 9905 9908 9911 9914 9917 9920 9923 9926 9929 9932 9935 9938 9941 9944 9947 9950 9953 9956 9959 9962 9965 9968 9971 9974 9977 9980 9983 9986 9988 9991 9994 9996 9999 10001 10003 10006 10009 10012 10015 10018 10021 10024 10027 10030 10032 10035 10038 10041 10044 10047 10049 10052 10055 10058 10061 10064 10067 10070 10072 10075 10078 10081 10084 10087 10090 10093 10096 10098 10101 10104 10107 10110 10113 10115 10118 10121 10124 10127 10130 10133 10136 10139 10142 10145 10148 10151 10154 10157 10160 10163 10166 10169 10172 10175 10178 10181 10184 10187 10190 10193 10196 10199 10202 10205 10207 10209 10212 10215 10218 10221 10224 10227 10230 10232 10235 10238 10241 10243 10246 10248 10251 10254 10257 10260 10263 10266 10269 10272 10275 10278 10281 10284 10287 10290 10293 10296 10299 10302 10305 10308 10311 10313 10316 10319 10322 10325 10328 10331 10333 10336 10339 10342 10345 10348 10351 10354 10356 10359 10362 10364 10367 10370 10373 10376 10379 10382 10384 10387 10390 10393 10395 10398 10401 10403 10405 10408 10411 10414 10417 10420 10423 10426 10429 10432 10435 10438 10441 10444 10447 10450 10453 10456 10459 10462 10465 10468 10471 10474 10477 10480 10483 10486 10489 10491 10494 10497 10500 10503 10506 10509 10512 10515 10518 10521 10524 10527 10530 10533 10536 10539 10542 10545 10548 10550 10553 10556 10559 10561 10563 10566 10569 10572 10575 10578 10580 10583 10586 10589 10591 10594 10597 10600 10603 10606 10608 10611 10614 10617 10620 10623 10626 10629 10632 10635 10638 10641 10644 10647 10650 10653 10656 10659 10662 10665 10668 10671 10673 10676 10679 10682 10685 10688 10691 10693 10696 10699 10702 10705 10708 10711 10714 10717 10720 10723 10726 10729 10731 10734 10737 10740 10743 10745 10748 10750 10753 10756 10759 10762 10765 10768 10771 10774 10777 10780 10783 10786 10789 10791 10794 10797 10800 10803 10806 10808 10811 10814 10817 10820 10823 10826 10828 10831 10834 10837 10840 10843 10846 10849 10852 10855 10858 10861 10864 10866 10869 10872 10874 10877 10880 10882 10885 10888 10890 10893 10896 10899 10902 10905 10908 10911 10914 10917 10920 10922 10925 10928 10931 10934 10937 10940 10943 10946 10948 10951 10954 10957 10959 10962 10965 10968 10970 10973 10976 10978 10981 10984 10987 10989 10992 10995 10998 11001 11004 11006 11009 11011 11014 11017 11020 11023 11025 11027 11030 11033 11036 11038 11041 11044 11047 11050 11052 11055 11058 11061 11064 11067 11070 11073 11076 11079 11082 11085 11088 11091 11094 11097 11099 11102 11105 11107 11109 11112 11115 11118 11121 11123 11126 11129 11132 11135 11138 11141 11143 11146 11149 11152 11155 11158 11161 11163 11166 11169 11172 11175 11178 11181 11184 11187 11189 11192 11195 11198 11201 11204 11207 11210 11213 11216 11219 11221 11224 11227 11229 11232 11235 11237 11240 11243 11246 11249 11252 11254 11256 11259 11262 11264 11266 11269 11271 11274 11276 11279 11281 11283 11286 11289 11291 11294 11296 11299 11301 11304 11306 11309 11311 11314 11317 11319 11322 11324 11327 11329 11332 11335 11338 11341 11344 11347 11349 11352 11355 11358 11360 11363 11366 11369 11372 11375 11378 11381 11384 11387 11389 11392 11395 11397 11400 11402 11405 11407 11410 11413 11416 11418 11420 11423 11426 11429 11432 11435 11438 11441 11444 11447 11450 11453 11455 11458 11461 11464 11467 11470 11472 11475 11478 11481 11484 11487 11490 11493 11496 11499 11502 11505 11508 11511 11514 11517 11520 11523 11525 11528 11531 11534 11537 11540 11543 11545 11548 11551 11554 11556 11559 11562 11564 11567 11570 11573 11575 11578 11580 11582 11585 11588 11591 11594 11597 11600 11603 11606 11609 11611 11614 11617 11620 11623 11626 11629 11632 11634 11637 11639 11642 11644 11647 11650 11653 11656 11659 11662 11665 11668 11671 11674 11677 11680 11683 11686 11689 11692 11695 11698 11701 11704 11707 11710 11713 11716 11719 11722 11725 11728 11731 11734 11737 11740 11743 11746 11749 11752 11755 11757 11760 11763 11765 11767 11770 11773 11776 11779 11781 11784 11787 11790 11793 11796 11798 11801 11804 11806 11808 11811 11814 11817 11820 11823 11826 11828 11831 11833 11836 11839 11841 11843 11846 11848 11851 11854 11857 11859 11862 11865 11868 11871 11873 11876 11879 11882 11884 11887 11890 11892 11894 11897 11900 11903 11905 11908 11911 11914 11917 11919 11922 11925 11927 11930 11933 11936 11938 11941 11944 11946 11949 11952 11955 11957 11960 11962 11965 11968 11970 11973 11976 11978 11980 11983 11986 11988 11991 11993 11995 11998 12001 12004 12007 12009 12012 12015 12018 12021 12023 12026 12029 12032 12035 12038 12041 12044 12047 12050 12053 12056 12059 12061 12064 12067 12070 12073 12075 12078 12080 12083 12086 12089 12092 12095 12097 12099 12101 12104 12107 12110 12113 12116 12119 12122 12125 12127 12130 12133 12136 12139 12142 12145 12147 12150 12153 12156 12159 12161 12164 12167 12170 12173 12176 12179 12182 12185 12188 12191 12194 12197 12200 12203 12206 12209 12212 12215 12217 12220 12222 12225 12228 12230 12232 12235 12237 12240 12243 12245 12248 12250 12253 12255 12258 12260 12263 12266 12269 12272 12274 12277 12280 12283 12285 12288 12291 12294 12297 12300 12303 12306 12309 12312 12315 12318 12321 12324 12327 12330 12333 12336 12339 12342 12345 12348 12351 12354 12357 12360 12362 12365 12368 12371 12374 12377 12379 12382 12385 12388 12391 12394 12397 12400 12403 12406 12409 12412 12414 12417 12420 12423 12426 12429 12431 12434 12437 12439 12441 12444 12447 12450 12452 12455 12458 12460 12462 12465 12467 12470 12473 12476 12479 12482 12485 12488 12491 12494 12497 12500 12503 12506 12509 12512 12515 12517 12520 12523 12526 12529 12531 12534 12537 12540 12543 12546 12549 12552 12555 12557 12559 12562 12565 12567 12570 12573 12576 12579 12582 12585 12588 12591 12594 12596 12598 12601 12604 12606 12609 12612 12615 12617 12620 12623 12626 12629 12632 12635 12638 12641 12644 12647 12650 12653 12656 12659 12662 12665 12668 12671 12674 12677 12680 12683 12686 12689 12692 12695 12697 12700 12703 12706 12709 12712 12715 12718 12721 12724 12727 12730 12733 12736 12739 12742 12745 12748 12751 12754 12757 12759 12762 12765 12768 12770 12772 12775 12778 12781 12783 12786 12789 12791 12794 12797 12800 12803 12806 12808 12811 12813 12816 12819 12822 12825 12828 12831 12834 12837 12839 12842 12845 12848 12850 12853 12856 12858 12861 12863 12866 12869 12872 12874 12877 12880 12883 12885 12888 12891 12894 12897 12900 12903 12906 12909 12912 12915 12918 12921 12924 12927 12930 12933 12936 12938 12941 12944 12947 12950 12953 12956 12959 12962 12965 12967 12970 12973 12976 12979 12982 12985 12988 12991 12993 12996 12999 13002 13005 13008 13011 13014 13017 13020 13023 13026 13029 13032 13034 13037 13040 13043 13045 13048 13051 13054 13057 13060 13063 13066 13069 13072 13075 13078 13081 13084 13087 13090 13093 13096 13099 13102 13104 13107 13110 13113 13115 13118 13120 13123 13126 13129 13131 13134 13137 13140 13142 13144 13147 13150 13153 13156 13159 13162 13165 13168 13171 13174 13177 13180 13183 13186 13189 13192 13195 13198 13201 13204 13207 13210 13212 13215 13218 13221 13224 13226 13229 13232 13235 13238 13240 13243 13246 13249 13252 13255 13258 13261 13263 13266 13269 13272 13275 13277 13280 13283 13286 13289 13292 13295 13297 13300 13303 13306 13309 13312 13315 13317 13320 13323 13326 13328 13331 13334 13337 13340 13343 13346 13349 13352 13355 13357 13360 13363 13366 13369 13372 13375 13377 13380 13383 13386 13389 13392 13395 13398 13401 13404 13407 13410 13412 13415 13418 13420 13423 13426 13429 13432 13435 13437 13440 13443 13445 13448 13451 13454 13457 13460 13463 13466 13468 13470 13473 13476 13479 13482 13484 13487 13490 13493 13496 13499 13502 13504 13507 13510 13513 13516 13519 13522 13525 13528 13531 13534 13536 13539 13542 13545 13548 13551 13554 13557 13560 13563 13566 13569 13572 13574 13577 13579 13582 13585 13588 13590 13593 13596 13598 13601 13604 13607 13610 13612 13615 13618 13621 13624 13627 13629 13632 13635 13638 13641 13644 13647 13650 13653 13655 13658 13661 13664 13667 13669 13672 13675 13678 13681 13684 13687 13690 13692 13695 13698 13701 13704 13707 13710 13713 13716 13719 13722 13724 13727 13730 13733 13735 13738 13740 13743 13746 13749 13752 13755 13758 13760 13763 13765 13768 13770 13773 13776 13779 13782 13784 13787 13790 13793 13796 13799 13802 13805 13808 13811 13814 13817 13820 13823 13826 13828 13831 13833 13836 13839 13842 13845 13848 13851 13854 13856 13859 13862 13865 13868 13871 13874 13877 13880 13883 13886 13889 13892 13895 13897 13900 13903 13906 13909 13911 13914 13917 13920 13923 13926 13929 13932 13935 13938 13941 13944 13947 13950 13953 13956 13959 13962 13965 13968 13971 13974 13977 13980 13983 13985 13988 13991 13994 13997 13999 14002 14005 14008 14010 14013 14016 14018 14021 14024 14026 14029 14032 14035 14038 14041 14044 14047 14050 14053 14056 14059 14062 14065 14068 14071 14073 14076 14079 14081 14084 14087 14090 14093 14096 14099 14102 14104 14107 14110 14113 14116 14119 14121 14124 14127 14130 14132 14135 14138 14141 14143 14146 14149 14152 14155 14158 14161 14164 14166 14169 14172 14175 14177 14180 14182 14184 14187 14190 14193 14196 14199 14201 14204 14207 14210 14213 14216 14219 14222 14225 14228 14231 14233 14236 14239 14242 14245 14248 14251 14254 14257 14260 14263 14266 14269 14272 14275 14278 14281 14284 14287 14290 14293 14296 14299 14302 14305 14308 14311 14314 14317 14320 14323 14326 14329 14332 14335 14338 14341 14344 14346 14349 14352 14355 14358 14361 14364 14367 14370 14373 14376 14379 14382 14385 14388 14391 14394 14396 14399 14402 14405 14408 14411 14414 14417 14420 14423 14425 14428 14431 14434 14437 14440 14443 14446 14448 14451 14454 14457 14460 14463 14466 14469 14472 14475 14478 14481 14484 14487 14490 14493 14496 14499 14502 14505 14508 14511 14513 14516 14519 14522 14525 14528 14531 14534 14537 14540 14543 14546 14549 14552 14555 14558 14561 14564 14566 14569 14572 14575 14578 14581 14584 14587 14590 14593 14596 14599 14602 14605 14608 14611 14614 14617 14620 14623 14626 14629 14632 14635 14638 14641 14644 14647 14650 14653 14656 14659 14662 14665 14668 14671 14674 14677 14680 14683 14686 14689 14692 14695 14698 14701 14704 14706 14709 14712 14715 14718 14721 14724 14727 14730 14733 14736 14739 14742 14745 14747 14750 14752 14755 14758 14761 14764 14767 14769 14772 14775 14778 14781 14784 14786 14788 14791 14794 14797 14800 14803 14806 14809 14812 14815 14818 14821 14824 14827 14830 14833 14836 14839 14841 14843 14846 14849 14852 14855 14858 14861 14863 14866 14868 14871 14874 14877 14880 14883 14886 14889 14892 14895 14897 14900 14903 14906 14909 14912 14915 14918 14921 14924 14927 14930 14933 14936 14939 14942 14945 14948 14951 14954 14956 14959 14962 14965 14968 14971 14973 14976 14978 14981 14984 14987 14990 14993 14996 14999 15001 15004 15007 15010 15012 15015 15018 15021 15023 15026 15029 15031 15034 15037 15040 15042 15045 15048 15050 15053 15055 15058 15060 15063 15066 15068 15071 15074 15077 15080 15083 15086 15089 15092 15095 15098 15101 15104 15107 15110 15113 15116 15119 15122 15125 15128 15131 15133 15136 15138 15141 15144 15147 15150 15153 15156 15159 15161 15164 15167 15170 15173 15176 15179 15182 15185 15188 15191 15194 15197 15200 15203 15206 15209 15212 15215 15218 15220 15223 15226 15229 15231 15234 15237 15240 15243 15246 15249 15252 15255 15258 15261 15263 15266 15269 15272 15275 15277 15280 15283 15285 15288 15291 15294 15297 15300 15302 15305 15308 15311 15314 15316 15319 15321 15324 15327 15329 15332 15335 15338 15341 15344 15347 15350 15352 15355 15358 15360 15363 15365 15368 15371 15374 15377 15380 15383 15386 15389 15392 15395 15398 15401 15404 15407 15410 15413 15416 15419 15421 15424 15427 15430 15433 15436 15439 15442 15444 15447 15450 15453 15456 15458 15461 15464 15467 15470 15473 15476 15479 15482 15485 15487 15490 15493 15496 15499 15501 15504 15507 15510 15513 15516 15519 15522 15525 15528 15531 15534 15537 15539 15542 15545 15548 15551 15554 15557 15560 15563 15566 15568 15571 15574 15577 15580 15583 15586 15589 15592 15595 15598 15601 15604 15606 15609 15612 15614 15617 15620 15623 15626 15629 15632 15635 15638 15641 15643 15645 15647 15650 15653 15656 15658 15661 15664 15667 15670 15673 15676 15678 15681 15684 15687 15689 15691 15694 15697 15700 15703 15706 15709 15712 15715 15718 15721 15724 15727 15729 15732 15735 15738 15740 15742 15745 15748 15751 15754 15757 15759 15762 15765 15768 15771 15773 15776 15779 15782 15785 15787 15790 15793 15796 15799 15802 15804 15806 15808 15811 15814 15817 15819 15821 15824 15827 15830 15833 15836 15839 15842 15845 15848 15850 15852 15855 15858 15861 15863 15865 15868 15871 15874 15877 15880 15883 15886 15889 15892 15895 15898 15901 15904 15907 15910 15913 15916 15918 15921 15923 15926 15929 15932 15935 15937 15940 15943 15946 15949 15952 15955 15958 15960 15963 15966 15969 15972 15975 15978 15981 15983 15986 15989 15991 15994 15996 15998 16001 16004 16007 16009 16011 16014 16017 16020 16022 16024 16027 16030 16033 16036 16039 16042 16045 16048 16051 16054 16056 16059 16062 16065 16068 16071 16074 16077 16079 16082 16085 16088 16091 16093 16096 16099 16102 16105 16108 16111 16113 16116 16119 16122 16125 16127 16130 16132 16135 16138 16141 16144 16147 16150 16153 16156 16159 16162 16165 16168 16171 16174 16176 16179 16182 16185 16188 16191 16194 16197 16199 16202 16205 16208 16211 16213 16216 16219 16222 16224 16227 16230 16233 16236 16239 16242 16245 16248 16251 16254 16257 16260 16263 16266 16269 16272 16275 16278 16281 16284 16287 16290 16292 16295 16297 16300 16303 16305 16308 16311 16314 16316 16319 16322 16324 16327 16330 16333 16336 16339 16342 16345 16348 16351 16354 16357 16360 16363 16366 16369 16372 16375 16378 16381 16384 16386 16388 16390 16393 16396 16399 16402 16405 16408 16411 16414 16417 16420 16423 16426 16429 16431 16434 16437 16440 16442 16445 16448 16450 16453 16456 16459 16462 16464 16467 16470 16472 16474 16477 16480 16483 16486 16488 16491 16494 16496 16499 16501 16504 16507 16510 16513 16516 16519 16522 16525 16528 16531 16534 16537 16539 16542 16545 16548 16551 16554 16557 16560 16562 16565 16567 16570 16573 16576 16579 16581 16584 16587 16590 16593 16596 16599 16602 16605 16608 16611 16614 16617 16620 16623 16626 16629 16632 16635 16638 16641 16644 16647 16650 16652 16655 16658 16661 16663 16666 16668 16671 16674 16677 16679 16682 16685 16688 16691 16694 16696 16699 16702 16704 16707 16710 16713 16716 16719 16722 16725 16728 16730 16733 16736 16739 16742 16745 16747 16750 16753 16756 16759 16762 16765 16768 16771 16774 16777 16780 16783 16786 16789 16791 16794 16797 16800 16803 16805 16808 16811 16814 16817 16820 16823 16826 16829 16832 16835 16838 16841 16843 16846 16849 16852 16855 16857 16860 16863 16866 16869 16872 16875 16878 16881 16884 16887 16890 16893 16896 16898 16901 16904 16906 16909 16912 16915 16917 16920 16923 16926 16929 16932 16935 16938 16941 16944 16947 16950 16953 16956 16958 16960 16963 16965 16967 16970 16973 16976 16978 16980 16983 16985 16988 16990 16993 16995 16998 17001 17004 17006 17009 17011 17014 17017 17020 17023 17025 17028 17031 17034 17037 17040 17043 17045 17048 17051 17054 17057 17060 17062 17065 17068 17070 17073 17076 17078 17081 17084 17086 17089 17092 17095 17098 17101 17103 17106 17108 17111 17114 17117 17120 17123 17126 17129 17132 17135 17138 17141 17144 17147 17149 17152 17155 17157 17160 17163 17166 17169 17172 17175 17178 17181 17184 17186 17189 17192 17195 17198 17201 17204 17207 17210 17213 17215 17218 17221 17223 17226 17228 17231 17234 17237 17240 17243 17246 17249 17251 17254 17257 17260 17263 17266 17269 17272 17274 17277 17279 17282 17285 17287 17290 17293 17296 17298 17301 17304 17307 17310 17312 17315 17318 17321 17324 17327 17329 17332 17335 17338 17341 17344 17347 17350 17353 17356 17359 17362 17365 17368 17371 17374 17377 17380 17383 17386 17389 17392 17394 17397 17400 17402 17405 17408 17411 17413 17416 17419 17422 17425 17427 17430 17433 17436 17439 17442 17445 17448 17451 17454 17457 17460 17463 17466 17469 17472 17475 17478 17481 17484 17487 17490 17493 17496 17498 17501 17504 17507 17510 17513 17516 17518 17521 17524 17527 17530 17533 17536 17539 17542 17545 17548 17551 17554 17557 17559 17562 17564 17567 17570 17572 17575 17578 17581 17584 17586 17588 17591 17593 17596 17598 17601 17604 17607 17610 17613 17615 17618 17621 17623 17625 17628 17631 17634 17637 17640 17642 17645 17648 17650 17653 17656 17659 17662 17665 17668 17671 17674 17676 17678 17681 17684 17687 17689 17692 17694 17697 17700 17703 17706 17709 17711 17714 17716 17719 17722 17725 17728 17731 17733 17735 17738 17741 17744 17747 17749 17752 17755 17758 17761 17763 17766 17769 17772 17775 17778 17781 17784 17787 17790 17793 17796 17799 17802 17805 17808 17811 17814 17816 17819 17822 17824 17827 17830 17833 17835 17838 17841 17844 17847 17850 17853 17856 17859 17862 17865 17868 17871 17874 17877 17880 17883 17886 17889 17892 17894 17897 17900 17903 17906 17909 17912 17915 17918 17921 17924 17927 17930 17933 17936 17938 17940 17943 17946 17949 17951 17954 17957 17960 17963 17966 17968 17971 17974 17977 17980 17983 17986 17989 17992 17995 17998 18001 18003 18006 18009 18011 18014 18017 18020 18023 18026 18029 18032 18035 18038 18041 18043 18046 18049 18052 18054 18057 18059 18062 18064 18067 18070 18073 18075 18077 18080 18082 18085 18088 18090 18093 18096 18098 18100 18103 18106 18109 18111 18114 18117 18119 18122 18124 18127 18130 18133 18135 18138 18141 18143 18145 18148 18150 18153 18156 18158 18161 18163 18166 18169 18172 18175 18178 18181 18184 18187 18190 18192 18195 18198 18201 18204 18207 18209 18212 18215 18218 18221 18224 18227 18230 18233 18236 18239 18241 18244 18247 18250 18253 18255 18257 18260 18263 18265 18268 18270 18273 18276 18279 18282 18285 18287 18290 18293 18295 18298 18300 18303 18306 18309 18312 18315 18318 18321 18323 18326 18329 18332 18335 18338 18341 18344 18347 18350 18352 18355 18357 18360 18362 18365 18367 18370 18373 18376 18379 18381 18384 18387 18390 18393 18396 18398 18400 18403 18406 18409 18412 18415 18418 18420 18423 18426 18429 18432 18435 18437 18440 18443 18446 18449 18451 18454 18457 18459 18462 18464 18467 18470 18473 18475 18478 18480 18483 18486 18488 18490 18492 18495 18498 18501 18504 18507 18510 18512 18514 18516 18519 18522 18525 18528 18530 18533 18535 18538 18540 18543 18546 18549 18552 18555 18558 18560 18563 18566 18569 18572 18575 18578 18581 18584 18587 18590 18593 18596 18599 18602 18605 18608 18611 18614 18617 18620 18623 18626 18629 18632 18635 18638 18641 18644 18647 18650 18653 18656 18659 18662 18665 18668 18671 18674 18677 18680 18683 18686 18689 18692 18695 18698 18701 18704 18707 18709 18712 18715 18718 18720 18722 18725 18728 18731 18734 18737 18740 18743 18746 18749 18752 18755 18758 18761 18764 18767 18770 18773 18776 18779 18781 18784 18787 18790 18793 18796 18799 18802 18804 18807 18810 18812 18815 18818 18820 18823 18826 18828 18831 18833 18836 18839 18841 18844 18847 18850 18852 18855 18857 18860 18862 18864 18867 18870 18873 18875 18877 18880 18883 18885 18888 18891 18893 18896 18899 18902 18905 18908 18911 18914 18917 18920 18923 18926 18929 18931 18934 18937 18940 18943 18945 18948 18951 18954 18957 18959 18962 18965 18968 18971 18974 18977 18980 18983 18986 18988 18991 18993 18996 18999 19002 19005 19007 19010 19013 19016 19018 19021 19024 19027 19030 19033 19036 19038 19041 19044 19046 19049 19052 19055 19057 19060 19063 19066 19069 19072 19075 19078 19080 19083 19086 19089 19092 19095 19097 19100 19103 19106 19109 19112 19115 19118 19121 19124 19127 19130 19133 19136 19139 19142 19144 19147 19150 19153 19156 19159 19161 19164 19167 19169 19172 19174 19177 19180 19183 19186 19188 19190 19193 19196 19198 19201 19204 19207 19210 19213 19216 19219 19222 19225 19228 19231 19233 19236 19238 19241 19244 19247 19250 19253 19255 19258 19261 19264 19266 19269 19272 19275 19277 19280 19283 19286 19289 19292 19295 19298 19301 19304 19307 19310 19313 19316 19318 19321 19324 19327 19330 19333 19336 19339 19341 19344 19346 19349 19352 19355 19358 19361 19364 19367 19369 19371 19374 19377 19380 19383 19386 19389 19392 19395 19398 19400 19403 19406 19409 19412 19415 19418 19420 19422 19424 19427 19429 19432 19435 19438 19441 19444 19447 19449 19452 19454 19457 19459 19462 19464 19467 19470 19473 19476 19479 19482 19484 19487 19490 19492 19495 19498 19501 19504 19506 19509 19512 19515 19518 19521 19524 19527 19530 19533 19536 19539 19542 19545 19548 19551 19554 19557 19560 19563 19566 19569 19571 19574 19576 19579 19582 19585 19588 19591 19594 19597 19600 19603 19606 19609 19612 19615 19618 19621 19624 19627 19630 19633 19636 19639 19642 19645 19648 19651 19654 19657 19660 19663 19666 19669 19672 19675 19678 19681 19684 19687 19690 19693 19696 19699 19702 19705 19708 19711 19714 19717 19720 19723 19726 19729 19732 19735 19738 19741 19744 19747 19750 19752 19755 19758 19761 19764 19767 19770 19773 19776 19779 19782 19785 19788 19791 19794 19797 19800 19803 19806 19809 19812 19815 19818 19821 19823 19826 19829 19832 19834 19837 19839 19842 19845 19848 19851 19854 19857 19860 19863 19866 19869 19872 19875 19878 19881 19884 19887 19890 19893 19896 19899 19902 19905 19908 19911 19914 19917 19920 19923 19926 19929 19932 19935 19938 19941 19944 19947 19950 19953 19956 19958 19961 19963 19966 19969 19972 19975 19978 19981 19984 19987 19990 19993 19996 19999 20002 20005 20008 20011 20014 20017 20020 20023 20026 20029 20032 20035 20038 20040 20043 20046 20049 20052 20055 20058 20061 20064 20067 20070 20073 20076 20079 20082 20085 20088 20091 20094 20097 20100 20103 20106 20109 20112 20115 20118 20121 20124 20127 20130 20133 20136 20139 20142 20145 20148 20151 20154 20157 20160 20163 20166 20169 20172 20175 20178 20181 20184 20187 20190 20193 20196 20199 20202 20205 20208 20211 20214 20217 20220 20223 20226 20229 20232 20235 20238 20241 20244 20247 20249 20252 20255 20258 20261 20264 20267 20270 20272 20275 20278 20280 20283 20286 20289 20292 20295 20298 20301 20304 20307 20310 20313 20316 20319 20322 20325 20328 20331 20334 20337 20340 20342 20345 20348 20351 20354 20357 20360 20363 20366 20369 20372 20375 20378 20381 20384 20387 20390 20393 20396 20399 20402 20405 20408 20411 20414 20417 20420 20423 20426 20429 20432 20435 20438 20440 20443 20446 20449 20452 20454 20457 20459 20462 20465 20468 20471 20474 20477 20479 20482 20485 20487 20490 20493 20495 20497 20500 20502 20505 20508 20511 20513 20516 20519 20522 20525 20528 20531 20534 20537 20540 20543 20546 20549 20552 20555 20558 20560 20563 20566 20569 20572 20575 20578 20581 20584 20586 20589 20592 20595 20598 20601 20604 20607 20610 20613 20616 20619 20622 20625 20628 20631 20634 20637 20640 20643 20646 20649 20652 20655 20658 20661 20664 20667 20670 20673 20676 20679 20682 20685 20688 20691 20694 20696 20699 20702 20705 20708 20711 20714 20717 20719 20722 20725 20727 20730 20732 20735 20738 20741 20744 20747 20750 20753 20756 20759 20762 20765 20767 20769 20772 20775 20777 20780 20783 20785 20787 20790 20793 20796 20799 20801 20804 20806 20809 20812 20814 20817 20819 20821 20824 20826 20829 20831 20834 20837 20840 20843 20846 20849 20852 20854 20857 20859 20862 20865 20868 20871 20874 20876 20879 20882 20885 20887 20890 20893 20895 20898 20900 20903 20905 20907 20910 20913 20915 20918 20921 20924 20927 20930 20933 20935 20938 20941 20944 20947 20950 20953 20956 20959 20961 20963 20966 20969 20972 20974 20977 20980 20983 20986 20988 20990 20993 20995 20998 21001 21004 21006 21009 21012 21015 21018 21021 21024 21027 21030 21033 21036 21039 21042 21045 21048 21051 21054 21056 21059 21062 21065 21068 21071 21074 21076 21079 21081 21084 21087 21090 21092 21094 21097 21100 21102 21105 21107 21110 21113 21116 21119 21122 21125 21128 21131 21134 21137 21140 21143 21145 21147 21150 21153 21156 21159 21162 21164 21167 21170 21173 21176 21179 21182 21185 21187 21190 21193 21196 21198 21201 21203 21206 21209 21211 21214 21217 21220 21223 21226 21229 21232 21235 21238 21240 21243 21246 21248 21251 21254 21257 21260 21263 21266 21269 21272 21275 21278 21281 21283 21286 21289 21292 21295 21298 21301 21304 21307 21310 21313 21316 21319 21322 21325 21328 21331 21334 21337 21340 21343 21346 21349 21351 21354 21357 21360 21363 21366 21369 21372 21375 21378 21381 21384 21386 21389 21392 21395 21398 21400 21403 21406 21409 21412 21415 21418 21421 21424 21427 21430 21433 21435 21438 21441 21444 21447 21450 21452 21455 21457 21460 21463 21466 21469 21472 21475 21478 21481 21484 21486 21489 21492 21494 21497 21500 21502 21505 21508 21511 21514 21516 21519 21522 21525 21528 21531 21534 21537 21540 21543 21546 21549 21552 21555 21558 21561 21564 21567 21570 21573 21576 21579 21581 21584 21587 21589 21592 21594 21597 21600 21603 21606 21609 21612 21615 21618 21621 21623 21626 21629 21631 21633 21635 21638 21641 21644 21646 21649 21652 21655 21658 21661 21664 21666 21668 21671 21673 21676 21679 21681 21684 21687 21689 21692 21695 21698 21701 21703 21706 21709 21712 21715 21717 21720 21723 21726 21729 21732 21735 21738 21741 21744 21747 21750 21752 21755 21758 21760 21763 21765 21767 21770 21773 21775 21777 21779 21782 21785 21788 21791 21794 21797 21800 21803 21806 21809 21811 21814 21817 21820 21823 21826 21829 21832 21835 21838 21840 21843 21846 21849 21852 21855 21857 21860 21863 21866 21869 21872 21875 21878 21881 21884 21887 21889 21892 21895 21898 21901 21904 21907 21910 21913 21916 21919 21922 21925 21928 21931 21934 21937 21940 21943 21946 21949 21952 21955 21958 21961 21963 21965 21968 21971 21974 21977 21980 21983 21986 21989 21991 21994 21997 22000 22003 22006 22009 22012 22015 22018 22021 22024 22027 22030 22033 22036 22039 22041 22044 22047 22050 22053 22055 22058 22061 22064 22066 22068 22071 22074 22077 22080 22083 22086 22088 22091 22093 22096 22099 22102 22104 22107 22110 22113 22116 22119 22122 22125 22128 22130 22133 22135 22137 22140 22143 22146 22149 22152 22155 22158 22161 22164 22167 22170 22173 22175 22178 22181 22183 22186 22188 22191 22194 22197 22200 22203 22206 22209 22212 22215 22218 22221 22224 22227 22230 22233 22236 22239 22242 22245 22248 22251 22254 22257 22259 22262 22265 22268 22271 22274 22276 22279 22282 22285 22288 22291 22294 22297 22300 22303 22306 22308 22311 22314 22317 22319 22322 22325 22328 22331 22334 22337 22340 22343 22346 22349 22352 22354 22356 22359 22362 22365 22368 22371 22373 22376 22379 22382 22384 22387 22390 22393 22396 22399 22402 22405 22408 22411 22414 22416 22419 22422 22425 22428 22431 22434 22437 22439 22441 22444 22446 22449 22452 22455 22458 22460 22463 22466 22469 22472 22475 22477 22480 22483 22486 22489 22492 22495 22498 22501 22504 22507 22509 22512 22515 22518 22521 22524 22527 22530 22533 22536 22539 22541 22544 22547 22550 22553 22556 22559 22562 22564 22567 22570 22573 22576 22579 22582 22585 22588 22591 22594 22597 22600 22603 22606 22609 22612 22615 22618 22621 22624 22626 22629 22632 22635 22637 22640 22643 22646 22649 22652 22655 22658 22661 22664 22667 22670 22673 22676 22678 22681 22683 22685 22688 22690 22692 22695 22698 22701 22704 22707 22709 22712 22715 22718 22721 22724 22727 22730 22732 22735 22738 22740 22743 22746 22748 22751 22754 22756 22759 22762 22764 22766 22768 22770 22773 22776 22778 22780 22783 22786 22788 22791 22794 22796 22799 22802 22805 22808 22810 22812 22814 22816 22819 22822 22825 22827 22830 22832 22835 22837 22840 22842 22844 22847 22850 22853 22856 22859 22862 22865 22867 22870 22873 22875 22878 22880 22883 22886 22888 22890 22893 22896 22899 22902 22905 22908 22911 22914 22917 22920 22923 22926 22929 22932 22935 22938 22941 22943 22946 22949 22952 22955 22958 22961 22964 22967 22970 22973 22976 22979 22982 22985 22988 22991 22994 22996 22999 23002 23005 23008 23011 23014 23017 23020 23023 23026 23029 23032 23035 23038 23040 23042 23045 23048 23051 23054 23056 23059 23061 23064 23067 23070 23072 23074 23077 23079 23082 23085 23088 23091 23094 23097 23100 23103 23106 23109 23112 23115 23118 23121 23124 23127 23130 23133 23136 23138 23141 23143 23146 23149 23152 23155 23157 23160 23163 23166 23169 23172 23175 23178 23181 23184 23187 23190 23193 23196 23199 23202 23205 23208 23211 23214 23217 23219 23222 23225 23228 23231 23234 23237 23240 23243 23246 23249 23252 23255 23258 23261 23263 23266 23269 23272 23275 23278 23281 23284 23287 23290 23293 23296 23299 23302 23305 23308 23311 23314 23317 23320 23323 23326 23329 23332 23335 23338 23341 23344 23347 23350 23353 23356 23359 23362 23365 23368 23371 23374 23377 23380 23383 23386 23389 23392 23395 23398 23401 23404 23407 23410 23413 23416 23419 23422 23425 23428 23431 23434 23437 23440 23443 23446 23449 23451 23454 23457 23460 23462 23465 23468 23470 23473 23476 23479 23482 23485 23488 23491 23494 23497 23500 23503 23505 23508 23511 23514 23517 23519 23522 23525 23528 23531 23534 23537 23540 23543 23546 23549 23552 23555 23558 23561 23564 23567 23570 23573 23576 23579 23582 23585 23588 23591 23594 23597 23600 23603 23606 23608 23611 23614 23617 23620 23622 23625 23628 23631 23634 23637 23640 23643 23646 23649 23652 23654 23657 23660 23662 23665 23668 23671 23674 23677 23680 23683 23686 23689 23692 23695 23698 23700 23703 23706 23709 23712 23715 23718 23721 23724 23726 23729 23732 23735 23738 23741 23744 23747 23750 23753 23756 23758 23761 23763 23766 23769 23772 23774 23777 23780 23783 23785 23788 23790 23793 23795 23797 23800 23803 23806 23809 23812 23814 23817 23820 23823 23826 23829 23832 23835 23838 23841 23844 23847 23850 23853 23856 23859 23862 23865 23868 23871 23874 23877 23880 23883 23885 23888 23891 23893 23896 23899 23902 23904 23907 23909 23912 23915 23918 23921 23924 23927 23930 23933 23936 23939 23942 23945 23947 23950 23953 23956 23959 23962 23965 23968 23971 23974 23977 23980 23983 23986 23989 23992 23995 23998 24001 24004 24006 24009 24012 24015 24018 24021 24024 24027 24030 24033 24036 24039 24042 24045 24048 24051 24054 24057 24060 24063 24066 24069 24072 24075 24078 24081 24084 24087 24089 24092 24095 24098 24101 24104 24107 24110 24113 24116 24119 24122 24125 24128 24131 24134 24137 24140 24143 24145 24148 24151 24154 24156 24159 24162 24165 24167 24169 24172 24175 24178 24181 24184 24186 24189 24192 24195 24198 24201 24204 24207 24209 24211 24214 24217 24220 24222 24225 24227 24230 24233 24236 24239 24242 24245 24247 24249 24252 24255 24257 24259 24262 24265 24268 24271 24274 24277 24280 24283 24286 24289 24291 24294 24297 24300 24303 24306 24309 24311 24314 24317 24320 24323 24326 24329 24332 24335 24338 24341 24344 24347 24350 24353 24356 24359 24362 24364 24367 24370 24373 24376 24378 24381 24384 24386 24389 24392 24395 24398 24401 24404 24407 24410 24413 24416 24419 24421 24424 24426 24429 24431 24434 24437 24440 24443 24446 24449 24452 24455 24458 24461 24464 24467 24470 24473 24476 24479 24482 24485 24488 24490 24493 24496 24498 24501 24504 24507 24509 24512 24515 24517 24520 24523 24526 24529 24531 24534 24537 24540 24543 24546 24549 24552 24554 24557 24560 24563 24566 24569 24572 24575 24578 24581 24584 24587 24590 24593 24596 24599 24602 24605 24608 24611 24614 24617 24620 24623 24626 24629 24632 24635 24638 24641 24643 24646 24649 24652 24655 24658 24661 24664 24667 24670 24673 24676 24679 24682 24685 24688 24691 24694 24697 24700 24703 24706 24709 24712 24715 24718 24721 24724 24727 24730 24733 24736 24739 24742 24745 24748 24751 24754 24756 24758 24760 24763 24766 24768 24771 24774 24777 24779 24782 24784 24787 24790 24793 24796 24799 24801 24804 24807 24810 24813 24816 24819 24822 24824 24827 24830 24833 24836 24839 24842 24845 24848 24851 24854 24857 24860 24863 24866 24868 24871 24874 24877 24879 24882 24884 24887 24890 24893 24896 24899 24902 24905 24908 24910 24913 24916 24919 24922 24925 24928 24931 24933 24936 24938 24941 24943 24946 24949 24952 24955 24958 24961 24964 24967 24969 24972 24975 24977 24979 24981 24984 24986 24989 24991 24994 24997 25000 25003 25006 25009 25012 25015 25018 25021 25024 25027 25030 25033 25036 25039 25042 25045 25048 25051 25054 25056 25059 25062 25064 25066 25069 25072 25075 25077 25080 25083 25086 25089 25092 25095 25098 25100 25103 25105 25108 25111 25114 25117 25119 25122 25125 25127 25130 25133 25136 25139 25142 25145 25148 25150 25153 25156 25158 25161 25164 25167 25169 25172 25175 25178 25181 25184 25187 25190 25193 25196 25198 25201 25204 25207 25210 25213 25216 25218 25221 25224 25226 25229 25232 25235 25238 25240 25243 25246 25249 25252 25255 25258 25260 25262 25264 25267 25270 25273 25275 25278 25280 25283 25285 25288 25291 25294 25297 25300 25303 25305 25308 25311 25314 25316 25319 25322 25325 25327 25330 25333 25336 25339 25342 25345 25348 25351 25354 25357 25360 25363 25365 25368 25371 25374 25376 25379 25382 25385 25388 25391 25393 25395 25398 25401 25403 25406 25408 25410 25412 25415 25418 25421 25423 25426 25429 25432 25435 25438 25440 25443 25446 25449 25452 25455 25458 25461 25464 25467 25470 25473 25476 25478 25481 25484 25487 25490 25493 25496 25498 25501 25504 25506 25509 25512 25514 25517 25520 25523 25526 25529 25531 25534 25537 25539 25542 25544 25547 25549 25552 25555 25558 25561 25564 25567 25569 25572 25575 25578 25581 25583 25586 25589 25592 25595 25598 25601 25604 25607 25610 25613 25615 25618 25621 25624 25627 25630 25632 25635 25638 25641 25644 25647 25650 25653 25656 25659 25662 25665 25668 25671 25674 25677 25679 25682 25685 25688 25691 25694 25696 25699 25701 25704 25707 25710 25713 25716 25718 25721 25724 25727 25730 25733 25735 25738 25741 25744 25747 25750 25752 25755 25758 25761 25764 25767 25770 25773 25776 25779 25782 25784 25787 25789 25792 25794 25797 25800 25802 25805 25808 25811 25814 25817 25820 25823 25826 25828 25831 25833 25836 25839 25842 25845 25848 25851 25854 25857 25860 25863 25865 25868 25871 25874 25877 25880 25883 25886 25889 25892 25895 25897 25900 25903 25906 25908 25911 25913 25915 25918 25921 25924 25926 25929 25932 25935 25937 25939 25942 25945 25948 25951 25954 25957 25960 25963 25966 25969 25971 25973 25976 25979 25982 25985 25988 25990 25993 25996 25999 26002 26005 26008 26011 26014 26017 26020 26022 26025 26027 26029 26031 26034 26037 26040 26043 26046 26049 26052 26055 26057 26060 26063 26066 26069 26072 26075 26078 26081 26084 26087 26090 26093 26096 26099 26102 26105 26108 26111 26114 26117 26120 26123 26126 26129 26132 26135 26138 26141 26144 26146 26149 26152 26155 26158 26160 26163 26166 26169 26172 26175 26178 26181 26184 26186 26189 26192 26195 26198 26201 26204 26207 26210 26212 26215 26218 26221 26224 26227 26230 26233 26236 26239 26242 26245 26248 26251 26254 26257 26260 26263 26266 26269 26272 26275 26278 26281 26284 26287 26290 26292 26295 26298 26301 26304 26307 26310 26312 26315 26317 26320 26323 26325 26328 26331 26334 26336 26339 26341 26344 26347 26350 26352 26355 26358 26361 26363 26366 26369 26372 26375 26378 26381 26383 26386 26389 26392 26395 26398 26401 26404 26407 26410 26413 26416 26419 26422 26425 26428 26431 26434 26437 26440 26443 26446 26449 26452 26455 26458 26461 26464 26466 26469 26471 26474 26477 26480 26483 26485 26488 26491 26494 26497 26500 26503 26506 26509 26512 26515 26518 26521 26524 26526 26529 26532 26534 26537 26540 26542 26545 26548 26551 26554 26557 26559 26562 26565 26568 26571 26574 26577 26580 26583 26585 26588 26590 26593 26596 26599 26602 26605 26607 26609 26612 26615 26617 26620 26623 26626 26628 26631 26634 26637 26640 26643 26646 26649 26651 26654 26657 26660 26663 26666 26669 26672 26675 26678 26681 26684 26687 26690 26693 26696 26699 26701 26704 26707 26710 26713 26716 26718 26721 26723 26726 26729 26732 26735 26738 26741 26744 26747 26750 26753 26756 26759 26761 26764 26766 26769 26772 26775 26778 26781 26784 26786 26788 26791 26794 26797 26800 26803 26806 26809 26812 26815 26818 26821 26824 26827 26830 26833 26836 26839 26842 26845 26848 26851 26853 26856 26859 26861 26864 26867 26870 26873 26876 26878 26881 26884 26887 26890 26893 26896 26898 26901 26904 26907 26910 26913 26916 26919 26922 26925 26928 26931 26934 26937 26940 26943 26946 26948 26951 26954 26956 26959 26962 26965 26968 26970 26973 26976 26979 26982 26985 26988 26991 26994 26997 27000 27003 27005 27008 27011 27014 27017 27020 27023 27026 27029 27032 27035 27038 27041 27044 27047 27050 27053 27056 27059 27062 27064 27067 27070 27073 27076 27079 27082 27085 27088 27091 27094 27097 27100 27102 27105 27108 27111 27114 27117 27120 27123 27126 27129 27132 27135 27138 27141 27143 27145 27148 27151 27154 27157 27160 27163 27165 27168 27171 27174 27177 27180 27183 27186 27189 27192 27195 27198 27201 27204 27207 27210 27213 27216 27219 27222 27225 27228 27231 27234 27237 27240 27243 27246 27249 27252 27255 27258 27261 27264 27267 27270 27272 27275 27278 27281 27284 27287 27290 27293 27296 27298 27301 27304 27307 27310 27313 27316 27319 27322 27325 27328 27331 27334 27336 27339 27342 27345 27348 27350 27353 27355 27358 27361 27364 27367 27370 27373 27376 27379 27381 27384 27387 27390 27393 27396 27399 27402 27405 27408 27411 27413 27416 27419 27422 27424 27427 27430 27432 27435 27438 27441 27444 27446 27449 27452 27454 27457 27460 27463 27466 27469 27472 27475 27478 27480 27483 27486 27489 27491 27494 27497 27500 27503 27506 27509 27512 27514 27517 27519 27522 27524 27527 27529 27531 27534 27537 27540 27542 27544 27546 27549 27552 27554 27557 27560 27563 27565 27568 27571 27574 27577 27579 27582 27585 27588 27591 27594 27597 27600 27603 27606 27609 27612 27615 27618 27621 27624 27627 27630 27633 27636 27639 27642 27645 27648 27651 27654 27657 27660 27663 27666 27669 27672 27675 27678 27681 27684 27687 27690 27693 27695 27698 27701 27704 27707 27710 27713 27716 27719 27721 27724 27727 27730 27733 27735 27738 27741 27743 27746 27749 27751 27754 27757 27760 27763 27765 27768 27771 27774 27777 27780 27782 27785 27788 27791 27794 27797 27800 27803 27806 27809 27812 27815 27818 27821 27823 27825 27828 27831 27834 27836 27839 27842 27845 27848 27851 27854 27857 27860 27863 27866 27869 27872 27875 27878 27880 27883 27886 27889 27892 27895 27898 27900 27903 27906 27908 27911 27914 27917 27920 27923 27926 27929 27932 27935 27938 27940 27943 27946 27949 27952 27955 27957 27960 27963 27966 27969 27972 27975 27978 27981 27984 27987 27989 27992 27995 27998 28001 28004 28007 28010 28013 28016 28019 28022 28025 28028 28031 28034 28036 28039 28042 28045 28048 28051 28054 28057 28060 28063 28066 28069 28072 28075 28078 28081 28084 28087 28090 28093 28096 28099 28102 28105 28107 28110 28112 28115 28118 28121 28123 28126 28129 28132 28135 28138 28141 28144 28147 28150 28152 28155 28158 28161 28163 28166 28169 28172 28175 28178 28181 28184 28187 28190 28193 28196 28199 28202 28205 28208 28211 28213 28216 28219 28222 28225 28228 28230 28233 28236 28239 28241 28244 28246 28249 28252 28255 28258 28261 28264 28266 28269 28272 28275 28278 28281 28284 28287 28290 28293 28296 28299 28302 28305 28308 28311 28314 28317 28320 28323 28326 28329 28332 28335 28338 28341 28344 28347 28349 28352 28355 28357 28360 28363 28366 28369 28372 28375 28378 28380 28383 28386 28389 28392 28394 28397 28400 28402 28405 28408 28411 28414 28417 28420 28422 28425 28428 28431 28433 28436 28439 28442 28444 28447 28450 28453 28456 28459 28461 28464 28467 28470 28473 28476 28478 28481 28484 28487 28490 28493 28496 28499 28502 28504 28507 28510 28512 28515 28518 28521 28524 28526 28529 28532 28535 28538 28540 28543 28546 28549 28552 28554 28557 28560 28563 28565 28568 28570 28573 28576 28579 28582 28585 28588 28591 28594 28597 28600 28602 28605 28608 28611 28614 28617 28620 28623 28625 28627 28630 28633 28636 28639 28642 28644 28647 28650 28653 28656 28659 28661 28664 28667 28670 28672 28675 28678 28680 28683 28686 28688 28691 28694 28697 28699 28702 28705 28708 28711 28714 28717 28719 28722 28725 28728 28731 28734 28736 28739 28742 28745 28748 28751 28753 28756 28759 28762 28765 28768 28771 28773 28776 28779 28782 28785 28787 28790 28793 28796 28799 28802 28804 28807 28810 28813 28816 28819 28822 28825 28828 28831 28834 28836 28839 28842 28845 28848 28851 28854 28857 28859 28862 28865 28868 28871 28873 28875 28878 28881 28883 28886 28889 28892 28895 28898 28901 28904 28906 28909 28912 28915 28918 28921 28924 28927 28929 28932 28934 28937 28940 28942 28945 28948 28951 28954 28956 28959 28961 28964 28967 28970 28973 28976 28979 28982 28985 28988 28991 28993 28996 28999 29002 29005 29008 29010 29013 29016 29019 29021 29024 29027 29030 29033 29035 29038 29041 29043 29046 29049 29052 29055 29058 29060 29063 29065 29068 29070 29072 29075 29078 29081 29084 29086 29088 29091 29094 29097 29100 29103 29106 29109 29112 29115 29118 29121 29124 29127 29129 29132 29135 29138 29141 29144 29147 29149 29151 29154 29157 29160 29163 29166 29169 29172 29175 29178 29181 29184 29187 29190 29192 29195 29198 29201 29204 29207 29210 29213 29216 29219 29222 29225 29228 29231 29234 29237 29240 29243 29246 29249 29252 29255 29258 29261 29264 29267 29270 29273 29276 29279 29282 29285 29288 29291 29293 29296 29299 29301 29304 29307 29310 29313 29316 29319 29322 29324 29327 29330 29333 29335 29338 29341 29343 29346 29349 29352 29354 29356 29359 29362 29365 29368 29370 29372 29375 29378 29381 29384 29387 29390 29393 29396 29399 29402 29405 29408 29411 29414 29416 29419 29422 29424 29427 29430 29433 29435 29438 29441 29444 29447 29449 29452 29455 29457 29460 29463 29466 29469 29472 29475 29478 29481 29484 29487 29490 29492 29495 29498 29501 29504 29507 29510 29513 29515 29518 29521 29524 29527 29530 29533 29536 29539 29542 29545 29548 29551 29554 29557 29560 29563 29566 29569 29571 29574 29577 29580 29583 29586 29589 29591 29594 29596 29599 29602 29605 29608 29611 29613 29616 29619 29621 29624 29627 29630 29632 29635 29638 29641 29643 29646 29649 29652 29655 29658 29661 29664 29667 29670 29673 29676 29679 29682 29685 29687 29690 29693 29696 29699 29701 29703 29706 29709 29712 29715 29718 29721 29724 29727 29730 29733 29736 29739 29742 29745 29748 29751 29754 29757 29760 29762 29765 29768 29771 29774 29777 29780 29783 29786 29788 29791 29793 29796 29799 29802 29805 29808 29811 29814 29816 29819 29821 29824 29827 29830 29833 29836 29838 29841 29844 29847 29850 29853 29856 29858 29861 29864 29867 29870 29873 29875 29877 29880 29883 29886 29888 29890 29892 29895 29898 29901 29904 29907 29909 29912 29915 29918 29921 29924 29926 29929 29932 29935 29938 29940 29943 29945 29947 29950 29952 29954 29957 29960 29963 29965 29968 29971 29974 29976 29979 29982 29985 29987 29990 29993 29996 29998 30001 30004 30007 30010 30013 30016 30019 30022 30024 30027 30030 30033 30035 30038 30041 30044 30047 30050 30053 30055 30058 30061 30064 30067 30070 30073 30075 30078 30081 30084 30087 30090 30093 30096 30099 30102 30105 30108 30111 30114 30117 30119 30122 30124 30127 30130 30133 30135 30138 30141 30143 30146 30148 30151 30153 30156 30159 30161 30164 30167 30170 30173 30176 30179 30181 30184 30187 30190 30193 30195 30198 30201 30204 30207 30210 30213 30215 30218 30221 30224 30227 30230 30233 30236 30239 30242 30245 30247 30250 30253 30256 30259 30262 30265 30268 30271 30274 30277 30280 30283 30286 30289 30292 30295 30298 30301 30304 30306 30308 30311 30314 30317 30319 30322 30325 30327 30330 30333 30335 30338 30341 30343 30346 30349 30351 30353 30356 30359 30362 30365 30367 30370 30373 30376 30379 30382 30385 30388 30391 30394 30397 30400 30402 30404 30407 30410 30413 30415 30418 30420 30423 30425 30428 30431 30434 30437 30440 30442 30445 30448 30450 30453 30455 30458 30461 30463 30465 30467 30470 30473 30476 30479 30481 30484 30487 30489 30492 30494 30497 30500 30502 30505 30508 30511 30514 30517 30520 30523 30526 30528 30531 30533 30535 30538 30541 30544 30547 30550 30552 30554 30557 30560 30563 30565 30567 30570 30573 30576 30579 30582 30585 30588 30591 30593 30596 30598 30601 30604 30607 30610 30613 30616 30619 30622 30625 30628 30631 30634 30637 30640 30643 30646 30649 30652 30655 30658 30661 30664 30667 30670 30673 30676 30679 30682 30685 30687 30690 30693 30696 30699 30702 30705 30708 30711 30714 30717 30720 30723 30726 30729 30732 30734 30737 30740 30742 30745 30748 30751 30754 30757 30759 30762 30765 30768 30771 30774 30777 30780 30783 30786 30789 30792 30795 30798 30800 30803 30806 30809 30812 30815 30818 30821 30824 30827 30829 30832 30835 30837 30840 30843 30846 30849 30851 30853 30855 30858 30861 30864 30867 30870 30872 30875 30878 30881 
</DataArray>
<DataArray type="UInt32" Name="types" format="ascii">
5 5 3 5 5 5 5 3 5 5 5 5 5 5 5 5 5 5 5 5 3 5 5 5 5 3 5 5 5 5 5 5 5 3 5 5 5 5 5 5 5 5 3 5 5 5 5 5 5 5 5 5 5 5 3 3 5 5 5 5 5 5 5 5 3 5 5 5 5 5 5 5 5 5 5 5 5 5 5 5 5 5 5 5 5 5 5 3 5 5 5 5 5 5 5 5 5 5 5 3 5 5 5 3 5 5 5 5 5 5 5 5 5 5 5 5 5 5 5 5 5 5 5 5 5 5 5 5 5 5 5 5 5 5 5 5 5 5 5 5 5 5 5 5 5 5 5 5 5 3 5 3 5 5 5 5 5 5 5 5 5 5 5 5 5 5 5 5 5 5 5 5 5 5 5 5 5 5 3 5 5 3 5 3 5 5 5 5 5 5 5 5 5 5 5 5 5 5 3 5 3 5 5 5 5 5 5 5 3 5 3 5 5 5 5 5 5 3 5 5 3 5 5 5 5 5 5 3 3 5 5 3 5 3 5 3 3 5 5 5 3 5 5 5 5 5 5 5 5 5 5 5 5 5 3 5 5 5 5 5 5 5 3 5 5 5 5 5 5 5 3 5 5 5 5 3 5 5 5 5 5 5 3 5 5 5 3 5 5 5 5 5 5 5 3 5 5 5 5 5 5 3 5 5 5 5 5 5 3 5 5 5 5 5 5 5 3 5 5 5 5 5 5 5 5 5 5 5 5 5 5 5 5 5 5 5 5 5 3 3 5 5 5 5 5 3 5 5 5 5 5 5 5 3 5 3 5 5 5 3 5 5 5 3 5 3 5 5 5 5 5 5 5 3 5 5 5 5 5 5 5 3 5 5 5 3 5 5 5 5 5 5 5 5 5 5 5 5 5 5 5 5 5 5 5 5 5 5 5 5 5 5 5 5 5 5 5 5 3 5 5 5 5 5 5 5 5 5 5 5 5 5 5 5 5 5 5 5 5 5 5 5 5 5 5 5 5 5 5 5 5 3 5 5 5 5 5 5 5 5 5 5 5 5 5 5 5 5 5 5 5 5 3 5 5 5 5 5 5 5 3 5 5 5 5 5 3 5 5 3 5 3 5 5 5 5 3 5 5 3 5 5 5 5 5 5 3 5 5 5 5 5 5 5 5 5 5 5 5 5 5 5 5 5 5 5 3 5 5 5 5 5 5 5 5 5 5 5 3 3 5 5 5 5 5 5 5 5 5 5 5 5 5 5 5 5 5 5 5 5 5 3 5 3 3 5 5 3 5 5 5 5 5 5 5 5 5 5 5 5 5 3 5 5 5 5 5 5 5 3 3 5 5 5 5 5 5 5 5 3 3 5 5 5 3 5 5 5 5 5 5 5 5 5 5 5 5 5 5 5 5 5 5 5 5 5 5 5 5 5 5 5 5 5 5 5 5 5 5 5 3 5 5 3 5 5 5 5 3 5 5 5 3 5 5 5 3 5 5 3 5 5 5 5 5 5 5 5 5 5 5 5 5 5 5 5 5 5 5 5 5 3 5 5 5 3 5 5 5 5 5 3 5 5 5 5 5 5 3 5 5 5 5 5 5 5 5 5 5 5 5 5 5 5 5 5 5 3 5 5 5 5 5 5 5 5 5 5 5 5 5 5 5 5 5 5 5 5 5 3 5 5 5 5 5 5 5 5 5 5 5 5 5 5 5 3 5 5 5 5 5 5 5 5 5 5 5 5 5 5 5 5 5 5 3 5 5 5 5 5 5 5 3 5 5 5 5 5 5 5 5 5 5 5 5 5 5 5 5 5 5 5 5 5 3 5 5 5 5 5 5 5 5 5 3 5 5 5 5 5 5 5 5 3 5 5 5 5 5 5 5 5 5 5 5 5 5 5 5 5 5 5 5 3 5 5 5 5 5 3 5 5 5 3 5 5 5 5 5 5 3 5 5 5 5 5 5 5 5 5 5 3 5 5 5 5 5 5 5 5 5 5 5 5 3 5 3 5 5 5 5 5 5 5 3 5 3 5 5 5 5 5 5 5 5 5 5 5 5 5 5 5 5 5 5 5 5 5 5 5 5 5 5 5 5 5 5 5 5 5 5 5 5 5 5 5 5 5 5 5 5 5 3 3 5 5 3 5 5 5 5 5 5 5 5 5 5 5 5 5 5 5 5 3 5 5 5 5 3 5 5 3 5 5 5 5 5 5 3 5 3 5 5 3 5 5 5 5 5 5 5 5 5 5 3 5 5 5 5 5 3 3 5 5 5 5 3 5 5 3 5 3 5 5 5 5 5 3 5 5 3 5 5 5 5 5 5 5 5 5 5 5 5 3 5 5 5 5 5 5 5 5 5 5 5 5 5 5 5 3 5 3 5 3 3 5 3 5 5 3 5 5 5 5 5 5 3 5 3 5 5 3 5 5 5 3 5 5 3 5 5 5 5 5 3 5 5 3 5 5 5 5 5 3 5 3 5 5 3 5 5 3 5 5 5 5 5 5 5 5 3 5 5 5 5 5 5 5 5 5 5 3 5 5 5 5 3 5 5 3 5 5 5 5 5 3 5 5 5 5 5 3 5 3 5 5 5 5 5 5 3 5 5 5 5 5 5 5 5 3 3 3 5 5 5 5 3 5 3 5 5 5 3 3 5 5 5 3 5 5 5 3 5 3 5 3 3 5 3 5 5 5 5 3 5 5 5 3 5 3 5 3 5 5 5 5 5 5 5 3 5 5 5 5 3 5 5 5 5 5 5 5 5 3 5 3 3 5 5 5 3 5 5 5 5 3 3 5 5 3 3 5 5 5 5 5 3 5 5 5 5 5 5 5 5 3 5 3 5 5 5 5 5 5 5 5 5 5 5 5 5 5 5 5 5 3 5 5 5 5 5 5 5 5 5 5 5 5 5 5 5 5 5 5 5 5 5 5 5 5 5 3 5 3 5 5 5 5 5 3 3 5 5 5 5 3 3 5 3 5 5 3 5 5 3 5 5 5 5 3 3 5 5 5 5 5 5 5 5 3 5 5 3 5 5 5 3 5 5 3 5 5 5 5 5 5 3 5 5 5 5 5 5 3 5 5 5 5 5 3 5 5 3 3 5 5 3 5 5 3 5 5 5 5 5 5 5 5 5 5 5 5 3 5 3 5 5 3 5 5 5 5 5 5 3 5 5 5 3 3 3 5 5 5 3 3 5 3 3 5 5 3 5 5 3 5 3 5 3 5 5 5 3 3 5 5 3 3 3 3 5 5 5 3 3 5 5 3 3 3 5 3 3 5 5 3 5 3 3 5 3 5 5 3 5 3 3 5 5 5 5 3 3 5 5 3 5 5 5 3 5 5 5 5 5 5 5 5 5 5 5 5 5 5 5 5 5 5 5 5 5 5 5 5 5 5 5 5 5 5 5 5 5 5 5 5 5 5 5 5 5 5 5 5 5 5 5 5 5 5 5 5 5 5 5 5 5 5 3 5 3 5 5 5 5 5 5 5 5 5 5 5 5 5 5 3 5 5 5 5 5 5 5 5 5 5 3 5 5 5 5 5 5 5 5 5 5 5 5 5 5 5 5 5 5 5 5 5 5 5 5 5 5 5 5 5 5 5 5 5 5 5 5 5 5 5 5 5 5 5 5 5 5 3 5 5 5 3 5 3 5 5 5 5 5 3 5 3 5 5 5 5 5 5 5 5 5 5 5 5 5 5 5 5 5 5 5 5 5 5 5 5 5 3 5 5 5 5 5 5 3 5 3 5 5 5 3 5 5 3 5 5 5 5 5 5 5 5 5 5 5 5 5 5 5 5 5 5 5 5 5 5 5 5 5 5 5 5 5 5 5 5 5 5 5 5 5 3 5 3 5 5 5 5 5 5 5 5 5 5 3 5 5 5 5 5 5 5 5 5 5 5 5 5 5 5 5 5 3 5 5 5 3 3 5 3 5 5 5 5 5 5 5 5 3 5 5 5 5 3 5 5 5 5 5 5 5 3 5 5 3 5 3 5 5 3 5 5 3 3 5 5 5 5 5 5 5 5 5 5 5 5 5 5 5 3 5 3 5 5 5 3 5 3 5 5 5 5 5 5 5 5 5 5 5 5 3 5 3 5 5 5 5 5 5 5 5 3 5 5 3 5 5 5 3 3 5 5 5 5 5 5 5 5 5 5 5 5 5 5 5 5 5 5 5 5 5 3 5 5 5 5 5 3 5 3 5 5 5 5 3 5 5 3 5 5 5 5 5 3 5 5 5 5 3 5 5 5 5 5 5 5 3 5 5 5 3 5 5 5 5 5 5 5 5 5 5 5 3 5 5 5 5 5 5 5 5 3 5 5 5 5 5 5 3 5 5 5 5 5 5 3 5 5 5 5 5 5 5 5 5 5 5 3 5 5 5 3 5 5 5 3 5 3 5 5 5 5 5 5 3 5 5 5 5 5 5 5 5 5 5 5 5 5 5 5 3 5 5 5 5 5 3 5 5 5 5 5 5 5 5 3 5 5 5 5 5 5 5 5 5 5 5 5 5 5 5 5 3 5 5 5 5 3 5 5 5 5 5 5 5 5 5 5 5 5 5 5 5 5 5 5 5 5 5 5 5 5 5 5 3 5 5 5 3 5 3 5 5 5 5 3 5 3 5 5 5 5 5 3 5 5 5 5 5 5 5 5 5 3 5 5 5 5 5 5 5 5 5 5 5 5 5 5 5 5 5 5 5 5 5 5 5 5 3 3 5 5 5 5 5 3 5 5 5 3 5 5 5 3 5 5 3 5 3 5 5 5 5 3 5 5 5 5 3 3 5 5 5 5 5 5 5 5 5 5 5 5 3 5 5 5 5 3 5 5 5 5 5 3 5 5 3 5 5 5 5 5 5 5 5 5 5 5 5 5 5 5 5 3 5 5 3 5 5 5 3 5 5 5 5 5 5 5 5 5 5 5 3 5 5 5 5 5 5 5 5 5 5 5 5 5 5 5 5 3 5 5 3 5 3 5 5 3 5 3 5 3 5 5 5 5 5 5 5 5 5 5 5 5 5 3 5 3 3 5 5 3 3 5 5 3 3 5 5 5 3 5 3 5 5 3 5 5 5 5 3 3 5 3 5 5 3 3 5 5 3 5 5 5 3 5 5 5 3 3 3 5 5 3 5 3 3 5 5 5 5 5 5 5 5 5 5 5 3 3 5 3 5 3 5 3 5 5 5 3 5 5 5 5 5 3 5 5 5 5 5 5 5 5 5 5 5 5 5 5 5 5 5 5 5 5 5 5 5 5 3 5 5 5 5 5 5 5 5 5 5 5 5 5 5 5 5 5 5 3 5 5 5 5 5 5 5 5 5 5 5 3 5 5 5 5 5 3 5 5 5 5 5 5 5 5 5 5 5 5 5 5 3 5 5 5 5 5 5 5 5 5 5 5 5 5 5 3 5 3 5 5 5 5 3 5 5 5 5 5 5 5 5 5 5 5 5 3 5 3 5 5 5 5 3 5 5 5 5 5 5 5 3 5 5 5 5 5 5 5 3 5 5 5 3 5 3 5 5 5 5 5 5 5 5 5 3 5 5 5 5 5 5 5 5 5 5 5 5 5 5 5 5 5 5 5 5 5 5 5 5 5 5 5 5 5 5 5 5 5 5 5 5 5 5 5 5 5 5 5 3 5 5 3 5 5 5 5 5 5 5 5 5 5 3 5 5 5 5 5 3 5 5 3 5 5 5 5 5 5 3 5 5 5 5 3 5 5 3 5 3 5 5 5 5 5 5 5 5 5 5 5 3 5 3 5 5 5 5 3 5 5 5 5 5 5 5 5 5 5 5 5 5 5 5 5 5 5 5 5 5 3 5 5 5 5 3 5 5 5 5 5 5 5 3 5 5 5 5 5 3 5 5 5 3 5 5 5 3 5 5 3 5 5 5 3 5 5 3 5 5 5 5 5 5 5 5 5 5 5 5 5 5 5 5 5 5 5 5 5 5 5 5 5 5 5 5 5 5 5 3 5 5 5 5 5 5 5 5 5 5 5 3 5 5 5 5 5 5 5 5 5 5 5 5 5 5 5 3 3 5 5 5 3 5 5 5 5 3 5 5 3 5 5 5 5 5 5 5 5 5 5 5 5 5 3 3 5 5 5 5 5 5 5 5 5 5 5 3 5 5 3 5 5 5 5 5 5 5 5 5 5 5 5 5 5 5 5 5 5 5 3 5 5 5 3 5 5 5 5 5 3 5 5 5 5 5 5 5 5 5 5 5 5 5 5 5 5 5 5 5 5 3 5 5 3 5 5 5 5 5 5 5 5 5 5 5 5 5 5 5 5 5 5 5 3 5 5 5 5 5 5 5 5 5 5 5 5 5 5 5 5 5 5 5 5 5 5 5 5 5 5 5 5 5 5 5 5 3 5 5 5 5 5 5 3 5 5 5 5 5 3 5 5 5 5 3 5 5 5 5 5 5 5 5 5 5 5 5 5 5 5 5 5 5 5 5 5 5 3 5 5 5 5 5 5 5 3 5 5 3 5 5 3 5 5 5 5 5 5 3 5 5 5 5 5 5 5 5 5 5 3 5 3 5 5 5 5 5 5 5 5 3 5 5 3 5 5 5 3 5 5 5 3 5 5 5 3 3 5 5 3 5 5 3 5 5 3 5 5 5 5 5 5 5 5 5 3 5 5 5 3 5 5 5 3 5 5 5 3 5 3 5 5 3 5 5 5 5 5 5 5 5 3 5 5 3 5 5 5 5 5 5 5 5 5 5 5 5 5 3 5 3 5 5 5 3 3 5 3 5 5 5 5 3 5 3 5 5 5 5 5 5 5 5 5 3 5 5 5 5 5 5 5 5 5 5 5 5 5 5 5 5 5 5 5 5 5 5 5 5 5 5 5 5 3 5 5 5 5 5 5 3 5 5 5 5 5 5 3 5 5 5 5 5 5 3 5 5 5 3 5 5 5 3 5 5 3 5 5 5 5 5 5 3 5 5 5 3 3 5 5 5 5 5 5 5 5 5 5 5 5 5 5 5 5 5 3 5 5 5 5 5 5 5 3 5 5 5 5 5 3 5 5 5 5 5 3 5 5 3 5 5 5 5 3 5 5 5 5 5 5 3 5 3 5 3 3 5 3 5 5 5 3 5 5 5 5 5 3 5 5 5 3 5 5 5 5 3 3 3 5 5 5 5 3 3 5 3 5 5 5 5 5 5 3 5 3 5 5 3 5 5 5 3 5 5 3 5 5 5 5 5 5 5 5 5 5 5 5 3 5 5 5 5 3 5 5 5 5 3 5 5 5 5 5 5 5 5 5 3 3 3 5 5 5 3 3 5 5 3 5 3 5 5 5 5 5 5 5 3 5 5 5 5 5 5 5 5 5 5 5 5 5 5 5 5 3 5 5 5 5 5 5 5 5 5 3 5 5 3 5 3 5 3 5 5 3 5 5 5 3 3 5 5 3 5 5 5 3 5 5 5 5 3 5 5 5 5 5 5 5 5 5 5 5 3 3 5 5 5 5 5 5 5 5 5 5 5 5 5 5 5 5 5 5 5 5 5 5 5 5 5 5 5 5 5 5 5 5 3 5 5 5 5 5 5 5 5 5 5 5 5 5 5 5 5 5 5 5 3 5 5 5 5 5 5 3 3 5 5 3 3 5 5 5 3 5 5 5 5 5 5 5 5 5 5 5 5 5 5 5 5 5 5 5 5 5 5 5 3 5 3 5 3 5 5 5 5 5 5 3 5 3 3 5 5 3 5 5 5 5 5 5 3 3 5 5 3 3 5 5 3 3 5 5 5 5 5 5 5 5 3 5 5 5 5 5 3 5 5 3 5 5 5 3 5 5 5 5 5 5 5 5 5 5 5 5 5 5 5 5 5 5 5 5 5 5 5 5 5 5 5 5 5 5 5 5 5 5 3 5 5 3 5 3 3 5 5 5 5 5 5 5 5 5 3 5 5 5 5 5 3 5 5 5 5 5 5 5 3 5 5 5 5 5 5 5 5 3 5 5 5 5 5 3 5 5 5 5 5 5 5 5 5 5 5 5 5 5 5 5 5 5 5 5 5 5 5 5 5 5 5 5 5 5 3 3 5 5 5 5 5 5 5 3 5 5 5 3 5 3 5 5 5 5 5 5 5 5 5 5 5 5 5 5 5 5 5 5 5 5 5 3 5 5 5 5 5 5 3 5 5 5 5 5 5 5 3 5 5 3 5 5 5 5 5 5 3 5 5 5 3 5 5 3 3 5 5 5 5 5 5 5 5 5 5 5 5 5 5 5 5 5 5 5 5 5 5 5 5 5 5 5 5 3 5 5 5 5 5 5 5 5 5 5 5 5 5 5 5 5 5 5 5 3 5 5 5 3 3 5 5 5 5 5 3 5 5 5 3 5 5 5 5 5 3 5 5 5 5 5 5 5 5 5 5 5 5 5 5 5 5 5 5 5 5 5 3 5 5 5 5 5 5 3 5 5 5 5 5 5 5 5 5 5 5 5 3 5 5 5 5 3 5 3 5 5 5 5 5 5 5 5 5 5 5 5 5 3 5 5 5 5 5 3 5 5 5 5 5 5 3 5 5 5 5 5 5 5 5 5 5 5 5 3 5 5 3 5 5 3 5 5 3 5 5 5 5 5 5 5 5 5 5 3 5 5 5 5 5 5 5 5 3 5 5 5 3 5 5 5 3 5 5 3 5 5 5 3 5 5 5 5 5 3 5 3 5 5 5 5 3 3 5 5 5 3 5 5 5 5 3 5 5 5 5 5 5 5 5 5 5 5 5 5 5 5 3 5 5 3 3 5 5 5 5 3 5 5 5 5 5 5 3 5 5 5 5 5 5 3 5 5 5 5 5 5 5 5 3 5 5 5 5 5 5 5 5 5 5 3 5 5 3 5 5 3 5 5 5 5 5 3 3 5 5 3 3 5 3 5 3 5 3 3 5 5 3 5 3 5 3 5 3 5 3 5 5 3 5 3 5 3 5 5 5 5 5 5 3 5 5 5 3 5 5 5 5 5 5 5 5 5 3 5 5 3 5 3 5 3 5 5 5 3 3 5 5 5 5 5 5 5 5 5 5 5 3 5 5 5 5 5 3 5 5 5 5 5 5 5 5 5 5 5 5 5 5 5 5 5 3 5 5 5 5 5 5 3 5 5 5 3 5 5 3 5 5 5 3 5 3 3 5 5 5 5 5 5 5 5 5 3 5 5 5 5 5 5 5 3 5 3 5 3 5 5 5 5 5 5 5 5 5 5 5 5 5 5 5 5 5 5 5 5 5 5 5 5 5 5 5 5 5 5 5 5 5 5 5 5 5 3 5 5 3 3 5 5 5 5 3 5 5 5 5 5 3 5 5 3 3 5 5 5 5 5 5 3 5 3 5 5 3 3 5 3 5 5 5 3 5 5 5 5 3 5 5 5 3 5 5 3 3 5 5 5 3 5 5 5 5 3 5 5 3 5 5 5 3 5 5 3 5 5 5 3 5 3 5 5 3 5 5 3 3 5 5 3 5 3 3 5 5 5 5 3 5 5 5 5 3 5 5 5 5 5 5 5 5 5 5 5 5 3 5 5 5 5 3 5 3 5 5 5 5 5 3 3 3 5 5 5 5 5 5 5 5 3 5 5 5 5 5 5 3 5 5 5 5 3 5 5 5 5 5 5 5 5 5 5 5 5 5 5 5 5 5 5 3 5 3 5 5 3 3 5 3 5 5 3 5 3 5 3 5 3 5 5 5 5 3 5 5 5 3 5 5 5 5 5 5 5 5 5 5 5 5 5 5 5 5 5 5 5 5 5 5 5 5 5 3 5 5 5 5 5 3 5 5 5 5 5 5 5 5 5 5 5 3 5 5 5 5 5 3 5 5 3 3 5 5 5 3 5 5 3 3 5 3 5 5 5 5 5 5 5 5 5 5 5 5 5 5 5 5 3 5 5 5 5 3 5 5 5 5 5 5 5 5 3 3 5 5 3 5 5 5 5 5 5 5 5 5 3 3 5 5 3 5 5 5 3 5 5 5 5 5 5 5 5 5 5 5 5 5 5 5 5 5 5 5 5 5 5 5 5 5 5 3 5 5 5 5 5 5 5 5 5 5 5 5 5 5 5 5 5 5 5 5 3 5 5 5 3 3 5 5 5 3 5 5 3 5 5 5 5 5 3 5 3 5 5 5 5 5 5 5 5 3 5 5 5 3 5 5 3 5 3 5 5 5 3 5 5 5 3 5 5 5 5 5 5 5 5 5 5 5 5 5 5 5 5 5 3 5 5 5 5 5 5 5 5 5 3 5 5 5 5 5 5 5 5 3 5 5 5 5 5 5 5 5 5 5 5 5 5 3 5 5 5 3 5 5 5 5 5 5 5 5 5 5 5 5 5 5 5 5 5 5 5 3 5 5 5 3 5 3 5 5 5 3 5 5 5 3 3 5 5 5 5 5 5 5 5 5 5 5 5 5 5 5 5 5 5 5 5 5 5 3 5 5 5 5 3 5 5 5 5 3 5 5 5 5 5 5 5 3 5 5 5 5 3 5 5 5 5 5 5 3 5 5 5 5 5 5 3 5 5 5 3 5 5 5 5 5 5 5 5 5 3 5 5 5 5 5 5 3 5 5 5 5 5 5 5 5 5 5 5 3 5 5 3 5 5 5 5 5 3 5 5 3 5 5 5 5 5 5 5 3 3 5 5 5 5 3 5 5 5 5 5 5 3 5 5 5 5 5 5 5 5 5 5 3 5 5 5 5 5 5 5 5 5 5 5 5 3 5 3 5 5 5 3 5 5 3 5 5 5 5 3 5 5 5 5 5 3 5 5 5 5 5 5 5 5 3 5 5 5 5 3 5 5 5 5 5 5 5 3 5 5 5 5 5 5 5 5 5 5 3 5 5 5 3 5 3 5 5 5 5 5 5 3 5 3 5 3 5 5 5 5 3 5 5 5 5 5 5 5 5 5 5 5 5 5 5 3 5 3 5 5 5 5 5 5 5 3 5 5 5 5 5 5 5 5 5 5 5 5 5 3 5 5 5 5 3 5 5 5 5 5 5 5 5 5 5 5 5 5 5 5 5 5 5 5 5 5 5 5 5 3 5 5 5 5 3 5 5 5 3 5 5 3 5 5 3 5 5 5 5 5 5 5 5 5 5 5 5 5 5 5 3 5 5 3 5 5 5 5 5 5 5 3 5 5 5 5 5 3 5 5 5 3 5 5 5 3 5 5 5 5 5 5 5 3 5 5 5 3 5 3 3 5 5 5 5 5 3 5 5 5 5 5 5 5 5 5 5 3 5 5 5 5 5 5 5 5 5 5 5 5 5 5 5 5 5 5 5 5 5 5 5 5 5 5 5 5 5 5 5 5 5 5 5 5 5 3 5 5 5 5 5 5 5 5 5 5 5 5 5 5 5 5 3 5 5 5 5 5 5 5 5 5 3 5 5 5 5 5 5 5 3 5 5 5 5 5 5 5 5 5 5 5 5 5 5 5 5 5 5 5 5 5 3 5 5 5 5 5 5 5 5 5 5 5 5 5 5 5 5 5 3 5 5 5 5 5 5 5 5 5 5 5 5 5 5 5 5 5 5 5 5 5 5 5 5 5 5 5 5 5 5 5 5 5 5 5 5 5 5 5 5 5 5 5 5 5 5 3 5 5 5 5 5 5 5 5 5 5 5 5 5 3 5 3 5 5 5 5 5 3 5 5 5 5 5 3 3 5 5 5 5 5 5 5 5 5 5 5 5 5 5 5 5 5 3 3 5 5 5 5 5 5 3 5 3 5 5 5 5 5 5 5 5 5 3 5 5 5 5 5 5 5 5 5 5 5 5 5 5 5 5 5 5 5 3 5 5 5 5 5 3 5 3 5 5 5 5 5 5 5 3 5 5 5 3 5 5 5 3 5 5 3 5 5 5 3 5 5 3 5 3 5 3 5 5 3 5 5 5 5 5 5 5 5 5 5 5 5 5 5 5 5 5 5 5 5 5 3 5 3 5 5 5 5 5 5 5 3 5 5 5 5 5 5 5 5 5 5 5 5 5 5 5 5 5 5 5 3 5 5 5 3 5 5 5 5 5 5 5 5 5 5 3 5 5 5 5 3 5 5 3 5 5 5 5 5 3 5 5 5 5 3 5 3 5 5 3 5 5 5 5 5 5 5 3 5 5 3 5 3 5 5 5 5 5 5 5 5 5 5 5 5 5 5 5 5 5 5 3 5 5 5 5 5 5 5 3 5 5 5 5 3 5 5 5 5 5 5 5 5 5 3 5 5 5 5 3 5 5 5 5 5 5 5 5 5 5 5 5 3 5 5 5 5 5 5 5 5 5 3 5 5 5 5 5 5 5 5 5 5 5 5 3 5 5 3 5 5 5 5 5 5 5 5 5 3 3 3 5 5 5 3 5 5 5 5 5 5 3 5 5 5 3 3 5 5 5 5 5 5 5 5 5 5 5 5 3 5 5 5 3 3 5 5 5 5 5 3 5 5 5 5 3 5 5 5 5 3 5 5 5 5 5 3 3 3 5 5 5 3 3 5 5 5 5 5 5 5 5 5 3 3 5 5 5 3 3 5 5 5 5 5 5 5 5 5 5 5 5 5 5 5 5 5 3 5 3 5 5 5 5 3 5 5 5 5 5 5 5 3 5 5 5 5 5 5 5 3 5 5 3 5 3 3 5 5 5 3 3 5 5 5 3 3 5 5 5 5 5 5 5 5 5 5 3 5 5 5 5 5 5 5 3 5 5 5 5 3 5 5 5 5 5 5 3 5 5 5 5 3 5 3 5 5 5 5 5 5 5 5 5 5 5 5 5 5 3 5 5 5 5 5 5 5 3 5 5 5 5 3 5 5 5 3 5 5 5 5 5 5 5 5 5 5 5 5 5 5 5 5 5 5 5 5 5 5 3 5 3 5 5 3 5 5 5 3 5 5 3 5 5 5 5 5 5 5 5 5 5 5 5 5 5 5 5 5 5 5 5 3 3 3 5 5 5 5 5 5 5 5 5 5 5 5 5 3 5 5 5 3 5 5 3 5 5 5 5 3 5 5 3 3 5 5 5 5 3 5 5 3 5 3 5 5 5 5 5 5 5 5 5 5 5 5 3 5 5 5 5 5 5 5 3 5 3 5 5 5 5 3 5 5 5 5 5 5 5 5 5 5 5 5 5 5 5 5 5 5 5 5 5 5 5 3 5 5 5 3 5 3 5 5 5 3 5 5 5 5 5 3 5 5 3 5 5 5 5 5 5 5 5 3 5 5 5 5 5 3 5 5 5 5 5 5 5 5 5 5 5 5 5 5 3 5 5 5 5 3 5 5 5 5 5 5 5 5 5 5 5 5 3 5 5 5 5 3 5 5 5 5 5 5 5 5 5 5 5 5 5 3 5 5 3 5 5 5 3 5 5 5 5 5 5 5 5 5 5 5 5 5 3 3 5 3 3 5 5 5 3 3 5 3 5 3 5 3 5 5 5 3 5 3 5 5 5 5 3 5 5 5 5 5 5 3 5 5 5 5 5 3 5 5 3 5 5 3 5 5 3 5 5 5 5 5 3 5 3 5 5 5 5 5 5 5 5 5 5 5 5 5 3 5 5 3 5 5 5 5 5 5 5 5 5 3 5 5 5 5 5 5 5 5 5 3 5 5 3 5 3 5 5 5 5 5 5 5 3 5 5 5 5 5 5 5 3 5 3 5 5 3 5 5 5 3 5 5 5 5 3 5 5 5 5 5 3 5 5 5 5 5 5 5 5 5 5 5 5 5 5 5 5 5 5 5 5 5 3 5 5 3 5 5 5 3 5 5 5 5 3 5 5 5 5 5 5 5 5 5 5 5 5 5 5 5 5 5 5 5 5 5 5 5 3 5 5 5 5 5 5 3 5 5 5 5 5 5 5 5 5 5 5 5 5 3 5 3 5 5 3 5 5 5 5 3 3 5 3 5 3 5 5 5 5 5 3 5 5 3 3 5 5 5 5 5 3 5 5 3 5 5 5 5 5 5 5 5 3 3 5 5 5 3 5 3 5 5 5 5 5 3 5 3 5 5 5 5 5 3 3 5 5 5 5 3 5 5 5 5 3 5 5 5 5 5 5 5 5 5 5 5 5 5 5 5 5 5 3 5 5 3 5 5 5 3 5 5 5 5 5 5 5 5 5 5 5 5 5 5 5 5 5 5 5 3 5 5 5 5 5 5 5 5 5 5 5 5 5 5 3 3 5 5 5 3 5 5 5 5 5 3 5 5 5 5 5 5 5 5 5 5 5 3 5 5 3 5 5 5 5 5 5 5 5 5 5 3 5 5 5 3 5 3 5 3 5 5 5 3 3 5 3 5 5 3 5 5 3 3 5 5 5 3 5 5 3 5 3 5 5 5 3 5 5 3 3 5 3 5 5 3 5 3 5 5 5 5 5 5 5 5 5 3 5 5 5 5 5 3 5 5 5 5 5 5 5 5 5 5 3 5 5 5 5 3 3 5 5 3 5 3 5 5 5 5 5 3 5 5 3 5 3 5 5 5 5 5 5 5 3 5 5 5 5 5 5 5 5 5 3 5 3 5 3 5 3 5 5 5 5 3 5 5 5 5 5 3 3 5 5 5 5 5 5 3 5 5 5 5 5 3 5 5 5 5 3 5 5 3 5 3 5 5 5 3 5 3 5 5 3 3 3 5 5 5 5 5 5 3 3 3 5 5 5 5 3 5 3 5 3 5 5 5 5 5 5 3 5 5 5 5 5 5 5 5 5 5 5 5 5 5 5 5 5 5 5 5 5 5 5 5 5 5 5 5 5 5 5 5 5 5 5 5 5 5 5 5 5 5 5 5 5 5 5 5 5 3 5 5 5 3 3 5 5 5 5 5 5 5 5 5 5 5 5 5 5 5 5 5 5 5 3 5 5 5 5 5 5 5 3 5 5 3 5 5 3 5 5 3 5 3 5 5 3 5 5 5 3 5 3 5 3 3 5 5 5 3 3 5 5 3 5 5 3 5 5 5 5 5 5 5 5 5 5 5 5 3 5 5 5 5 3 5 5 5 5 3 5 5 5 5 5 5 5 5 5 3 5 3 5 5 5 5 3 5 5 5 3 5 5 5 5 5 5 3 5 5 3 5 5 5 3 5 5 5 5 5 5 5 3 5 5 5 5 5 3 5 5 5 5 5 5 5 5 5 5 5 5 5 5 5 3 5 5 5 5 5 3 5 5 3 5 3 5 5 5 5 3 3 5 5 3 5 5 5 5 5 5 5 5 5 5 5 3 5 3 5 5 5 5 5 3 5 5 5 3 5 5 5 3 5 5 5 5 5 5 5 5 5 5 5 5 5 3 5 5 5 5 5 5 5 3 5 3 5 5 5 5 5 5 5 3 3 5 5 5 5 5 5 5 5 5 3 5 5 5 5 5 5 3 3 3 5 3 5 5 5 5 5 5 3 5 3 5 3 5 3 5 5 5 5 5 5 3 5 5 3 5 5 5 5 3 5 5 5 5 5 5 5 5 5 5 5 5 5 5 5 5 5 5 5 5 5 3 5 3 5 5 5 5 5 5 5 5 5 5 5 5 5 5 5 5 5 5 5 5 5 5 5 5 5 5 5 5 5 5 5 5 5 5 5 5 5 5 5 5 5 5 5 5 5 5 5 5 5 5 5 5 5 5 5 5 5 5 3 5 5 5 5 5 5 5 5 5 5 5 5 5 5 5 5 5 5 5 5 5 5 5 3 5 5 5 3 5 3 5 5 5 5 5 5 5 5 5 5 5 5 5 5 5 5 5 5 5 5 5 5 5 5 5 5 5 5 5 5 5 5 5 5 5 5 5 5 5 3 5 3 5 5 5 5 5 5 5 5 5 5 5 5 5 5 5 5 5 5 5 5 5 5 5 5 5 3 5 5 5 5 5 5 5 5 5 5 5 5 5 5 5 5 5 5 5 5 5 5 5 5 5 5 5 5 5 5 5 5 5 5 5 5 5 5 5 5 5 5 5 5 5 5 5 5 5 5 5 5 5 5 5 5 5 5 5 5 5 5 5 5 5 5 5 5 5 3 5 5 5 5 5 5 5 3 5 5 3 5 5 5 5 5 5 5 5 5 5 5 5 5 5 5 5 5 5 5 5 3 5 5 5 5 5 5 5 5 5 5 5 5 5 5 5 5 5 5 5 5 5 5 5 5 5 5 5 5 5 5 5 5 3 5 5 5 5 3 5 3 5 5 5 5 5 5 3 5 5 3 5 5 3 3 5 3 5 5 5 3 5 5 5 5 5 5 5 5 5 5 5 5 5 5 5 3 5 5 5 5 5 5 5 5 3 5 5 5 5 5 5 5 5 5 5 5 5 5 5 5 5 5 5 5 5 5 5 5 5 5 5 5 5 5 5 5 5 5 5 5 5 3 5 5 5 5 5 5 5 3 5 5 3 5 3 5 5 5 5 5 5 5 5 5 5 5 3 3 5 5 3 5 5 3 3 5 5 5 5 3 5 3 5 5 3 5 3 3 5 3 5 3 5 5 5 5 5 5 5 3 5 3 5 5 5 5 5 3 5 5 5 3 5 5 3 5 3 5 3 3 5 5 3 5 5 5 5 5 5 3 5 5 5 5 5 5 5 5 3 3 5 5 5 3 5 5 5 5 3 3 5 3 5 5 5 3 5 5 5 5 5 5 5 5 5 5 5 5 5 5 5 5 3 5 5 5 5 5 5 3 5 3 5 5 5 3 3 5 5 3 5 3 5 5 5 5 5 5 5 5 5 5 5 5 3 3 5 5 5 5 5 3 5 5 5 5 5 5 5 3 5 5 5 3 5 3 5 5 3 5 5 5 5 5 5 5 5 5 3 5 5 3 5 5 5 5 5 5 5 5 5 5 5 3 5 5 5 5 5 5 5 5 5 5 5 5 5 5 5 5 5 5 5 5 5 5 3 5 5 5 5 5 5 5 5 5 5 5 3 5 5 5 5 3 5 5 5 5 5 5 5 5 5 5 5 3 5 5 5 5 5 3 5 3 5 5 5 5 5 5 5 5 5 3 5 5 3 5 5 3 5 5 5 5 3 5 5 5 5 5 5 5 5 5 5 5 5 5 5 5 5 5 5 5 5 5 3 5 5 3 5 3 5 5 5 5 5 5 5 5 5 3 5 5 3 3 3 5 5 5 3 5 5 5 5 5 5 3 3 5 3 5 5 3 5 5 3 5 5 5 5 3 5 5 5 5 3 5 5 5 5 5 5 5 5 5 5 5 3 5 5 3 5 3 3 5 5 3 3 3 5 5 5 5 5 5 5 5 5 5 3 5 5 5 5 5 5 5 5 5 3 5 5 5 5 5 3 5 5 5 5 5 5 5 5 5 5 3 5 5 5 5 5 5 5 5 5 5 5 5 5 5 5 5 5 5 5 5 5 5 5 5 3 3 5 5 5 5 5 5 5 5 3 5 5 5 5 5 5 5 5 5 5 5 5 5 5 5 5 3 5 5 5 5 3 5 5 5 3 3 5 5 5 5 5 5 3 5 3 5 5 5 3 5 5 5 5 5 5 5 5 3 5 3 3 5 5 5 5 5 5 5 5 5 5 5 5 3 5 5 3 5 3 5 5 5 5 5 5 5 5 5 5 5 5 5 5 5 5 5 5 5 5 5 5 5 3 5 5 5 5 5 3 5 5 5 5 5 5 5 5 5 5 3 5 5 5 3 5 5 5 5 5 5 5 5 5 5 5 3 3 5 5 5 5 5 3 5 5 5 3 5 5 5 5 5 5 5 5 5 5 3 5 5 5 5 5 5 5 3 3 5 3 5 5 5 5 3 5 5 5 5 5 3 5 5 5 5 5 5 5 5 5 5 3 5 5 5 5 5 5 5 5 5 5 3 5 5 5 5 5 5 5 3 5 5 5 5 5 5 5 5 5 5 5 5 5 5 5 5 5 5 5 5 3 5 5 5 3 5 5 5 5 5 5 5 5 5 5 5 5 5 3 5 3 3 5 3 3 5 5 5 5 5 3 5 5 5 5 5 5 5 3 5 5 3 5 5 3 5 5 3 5 5 3 3 3 3 5 5 3 3 5 5 3 5 5 3 5 5 5 5 3 3 3 3 5 5 5 3 5 3 5 3 5 3 3 5 5 5 5 5 5 5 3 5 5 3 5 3 5 5 3 3 5 5 5 5 5 5 5 5 5 5 5 5 5 5 5 5 5 3 5 5 5 5 5 5 5 5 5 5 5 5 5 5 5 5 5 3 5 5 5 5 5 5 5 5 5 5 5 5 5 5 3 3 5 5 5 5 3 5 3 5 5 5 3 3 5 3 5 5 5 5 5 5 5 5 5 5 5 5 5 5 5 5 5 5 5 3 5 3 5 5 5 5 3 5 5 5 5 5 5 5 5 5 5 5 5 5 5 5 5 5 5 5 5 3 5 5 5 5 5 5 5 5 5 5 5 5 5 5 3 5 5 5 5 5 5 5 5 5 5 5 5 5 5 5 5 5 5 5 5 5 5 5 5 5 5 5 5 5 5 5 5 5 5 5 5 5 5 5 5 5 5 5 5 5 5 5 5 5 5 5 5 5 5 5 5 5 5 5 5 5 5 3 5 5 5 3 5 5 3 5 5 5 5 5 5 5 5 5 5 5 3 5 5 5 5 3 5 5 5 5 5 5 5 5 5 5 5 5 5 5 5 5 5 5 5 5 5 5 5 5 5 5 5 5 5 3 5 5 5 5 3 5 5 5 5 5 5 5 5 5 5 3 5 5 3 5 5 5 5 5 5 5 5 5 5 5 5 3 5 5 5 5 5 5 5 5 3 5 5 5 5 5 5 5 5 5 5 3 5 3 5 5 5 3 5 5 5 3 5 3 5 3 3 5 5 5 5 5 3 5 5 5 5 5 5 5 5 5 5 5 5 5 5 5 5 5 5 5 5 5 5 5 3 5 5 3 5 5 5 3 5 3 5 5 5 5 5 5 5 5 5 5 5 5 3 5 5 5 5 5 5 5 5 5 5 5 5 5 5 5 5 5 5 5 3 5 5 5 5 5 5 5 5 5 5 5 5 5 5 5 5 5 5 5 5 5 5 5 5 5 5 5 3 5 5 5 5 5 5 5 5 5 5 5 5 5 5 5 5 5 5 3 5 5 5 3 5 5 5 3 3 5 5 5 5 5 3 5 5 5 5 5 5 5 3 3 5 5 5 3 5 3 5 5 5 5 5 5 3 3 5 5 3 3 5 5 5 5 5 5 5 5 5 5 3 5 5 5 5 5 5 3 5 5 5 5 5 5 5 5 5 5 5 5 5 5 5 5 5 3 5 5 5 5 3 5 5 3 5 5 5 5 5 5 5 5 5 5 5 3 5 3 5 3 5 5 5 5 5 5 5 5 5 5 5 5 5 5 5 5 5 5 5 3 5 5 3 5 5 5 3 5 5 3 5 5 5 5 3 5 5 5 5 5 5 5 3 5 5 5 5 5 5 5 5 5 5 5 5 5 5 5 5 5 5 5 5 5 5 5 5 5 5 5 5 5 3 5 5 5 5 5 5 5 5 5 5 5 5 5 5 5 5 5 5 5 5 5 5 5 5 5 5 5 5 5 5 5 5 5 5 5 5 5 3 3 3 5 5 3 5 5 5 3 5 3 5 5 5 5 5 3 5 5 5 5 5 5 5 3 5 5 5 5 5 5 5 5 5 5 5 5 5 5 3 5 5 5 3 5 3 5 5 5 5 5 5 5 5 3 5 5 5 5 5 5 5 3 5 3 5 3 5 5 5 5 5 5 5 5 3 5 5 3 3 3 5 3 5 3 5 5 5 5 5 5 5 5 5 5 5 5 5 5 5 5 5 5 5 5 5 3 5 5 3 3 5 5 5 3 5 5 5 5 5 5 5 3 5 3 5 5 5 5 3 5 5 3 5 5 5 5 5 5 5 3 5 5 3 5 5 5 3 5 5 5 5 5 5 5 5 5 3 5 5 5 5 5 5 3 5 5 3 5 5 5 5 3 5 5 5 5 5 5 3 3 3 5 5 5 3 5 3 5 3 5 5 5 5 5 5 3 5 5 5 3 5 5 5 3 5 5 5 5 5 5 5 5 5 5 5 5 3 5 5 5 3 5 5 5 5 5 3 3 5 5 3 5 3 3 3 5 5 5 3 5 5 5 5 5 3 5 5 5 5 5 5 5 5 5 5 5 5 3 5 5 5 5 5 5 3 5 5 3 5 5 3 5 5 5 5 5 3 5 5 3 5 3 5 3 5 5 5 5 5 5 3 5 5 5 5 3 5 5 5 5 5 5 5 5 5 5 3 5 5 5 5 5 3 5 5 5 5 5 5 5 5 5 5 5 5 5 5 5 3 5 5 5 5 5 3 5 3 5 5 5 5 5 3 5 5 5 5 5 3 5 5 5 5 5 3 5 5 5 5 5 5 5 5 5 5 3 5 3 5 3 5 5 3 5 5 5 5 5 5 5 5 3 5 3 5 5 5 5 5 5 5 5 5 5 3 5 5 5 5 5 5 5 5 5 5 3 5 5 5 3 5 3 3 5 5 5 3 5 5 5 3 3 5 5 5 5 5 5 5 5 5 5 3 3 5 5 5 5 5 3 5 5 5 5 5 5 5 5 5 5 3 5 3 3 3 5 5 5 5 5 5 5 5 3 5 5 5 5 5 5 5 5 5 5 5 5 5 5 5 5 5 5 5 5 5 5 5 5 5 5 5 5 5 3 5 5 5 5 3 5 5 5 5 5 5 5 5 3 5 5 5 5 5 5 5 5 3 5 5 5 5 5 5 5 5 5 5 5 5 5 5 5 5 5 5 5 5 5 5 5 5 5 5 3 5 5 5 5 5 5 3 5 3 5 5 3 5 5 5 3 5 3 5 5 5 3 5 5 5 3 5 5 5 5 5 5 3 5 5 5 5 5 5 5 5 5 5 5 5 5 5 5 5 5 5 5 5 5 5 5 5 5 5 5 3 5 3 5 5 5 5 3 5 5 5 5 5 5 5 5 5 5 5 5 5 3 5 5 3 5 5 3 5 5 5 5 5 3 5 5 5 5 5 5 5 5 3 5 3 5 5 5 5 5 3 3 5 5 3 5 5 5 3 5 5 5 5 5 5 5 3 5 5 5 5 5 5 5 5 5 5 5 5 5 5 5 5 3 5 5 5 5 5 3 5 3 5 5 5 5 5 5 5 5 5 5 5 5 3 5 3 5 5 5 5 5 5 3 3 5 5 5 5 5 5 5 5 5 5 5 5 5 5 5 5 5 5 5 5 5 3 5 5 3 5 5 5 5 5 3 5 5 5 5 5 5 3 5 5 5 5 5 5 5 5 5 5 5 5 5 5 5 5 3 5 5 3 5 5 5 5 3 5 5 5 5 5 5 5 5 5 5 5 3 5 5 5 5 5 5 5 5 5 5 5 5 5 5 5 5 5 5 5 3 5 5 5 5 5 5 5 5 5 5 5 5 3 5 5 5 5 5 5 5 5 5 5 5 5 5 3 3 5 5 5 5 5 5 3 5 5 5 5 5 5 5 5 5 5 5 5 5 5 5 5 5 5 5 5 5 5 5 5 5 5 5 5 5 5 5 5 5 5 5 3 5 5 5 5 5 5 5 5 3 5 5 5 5 5 5 5 5 5 5 5 5 3 5 5 5 5 3 5 3 5 5 5 5 5 5 5 5 3 5 5 5 5 5 5 5 5 5 5 3 5 5 5 3 5 5 3 5 5 5 5 3 5 5 3 5 5 5 5 5 5 5 5 3 5 5 5 3 5 5 5 5 5 5 5 3 5 3 5 3 5 3 3 5 5 5 3 3 3 5 5 3 5 5 5 3 5 5 5 5 3 5 5 5 5 5 5 5 5 5 5 5 5 5 5 5 5 5 5 5 5 5 5 5 5 5 5 5 5 5 5 5 5 5 5 5 5 5 5 3 5 5 5 5 5 5 5 5 3 5 5 5 5 3 5 5 3 5 5 3 5 5 5 5 3 5 5 5 5 5 3 5 5 5 5 5 5 5 5 5 5 5 5 5 3 3 5 5 5 3 5 5 5 5 5 5 5 5 5 5 5 5 5 5 3 5 5 5 5 5 5 3 5 5 3 5 5 5 5 5 5 5 5 5 5 3 5 5 5 5 5 3 5 5 5 5 5 5 5 5 5 5 3 5 5 5 5 5 5 5 5 5 5 5 5 5 5 5 3 5 5 5 5 5 5 5 5 5 5 5 5 5 5 5 5 5 5 5 5 5 5 5 3 5 3 5 5 5 3 5 5 5 5 5 5 5 5 5 3 5 5 5 3 5 5 5 5 5 5 5 5 5 5 5 5 5 5 5 5 3 5 5 5 5 5 3 5 5 5 3 5 3 5 5 5 5 5 5 3 5 5 5 5 5 5 5 5 5 5 5 5 5 5 5 5 5 5 5 5 5 5 5 5 5 5 5 3 5 5 3 5 5 5 5 5 5 5 3 5 5 5 5 3 5 5 3 5 5 5 5 5 5 3 5 5 5 3 5 5 5 3 5 5 5 5 5 3 5 5 5 5 5 3 5 5 5 5 5 5 5 5 3 5 5 3 5 5 5 5 3 5 5 5 5 3 5 5 5 5 3 5 5 5 3 5 3 5 5 5 5 5 5 5 5 5 5 3 5 5 5 5 5 5 5 3 3 5 5 5 5 5 3 5 5 5 5 5 3 5 5 5 3 5 5 3 5 5 3 5 5 5 3 5 5 5 5 5 5 3 5 5 5 5 5 3 5 5 5 5 5 3 5 5 5 5 5 5 3 5 5 5 5 3 5 5 5 5 5 3 5 5 5 5 5 5 5 5 5 5 3 5 5 5 5 5 5 5 3 5 5 5 5 3 3 5 5 3 5 5 5 5 5 5 5 3 5 5 5 5 5 5 5 3 5 3 5 5 3 5 5 5 5 3 5 3 5 5 5 5 5 5 5 5 5 5 3 5 5 5 5 5 3 5 5 5 3 5 5 5 5 3 5 5 3 5 5 5 5 5 3 5 3 5 3 3 5 5 5 5 3 3 5 5 5 5 5 5 5 5 5 5 5 5 5 3 5 5 5 5 5 5 3 3 5 5 5 5 5 5 5 5 5 5 5 5 5 3 5 5 5 5 5 5 5 5 5 5 5 5 5 5 5 5 5 5 5 5 5 5 5 5 5 5 5 5 5 5 5 5 5 3 5 5 3 5 5 5 5 5 5 5 3 5 5 5 3 5 5 3 5 5 5 3 3 5 5 5 5 3 3 5 5 5 5 5 5 5 5 5 5 5 5 5 5 3 5 5 3 5 5 5 3 5 5 5 5 3 5 5 3 5 5 5 5 5 5 5 5 5 5 5 3 5 5 5 5 5 5 5 3 5 5 5 5 5 5 5 5 5 5 5 5 5 5 5 5 5 5 3 5 5 5 5 5 5 3 5 3 5 5 5 5 5 3 5 5 3 5 5 5 3 5 5 5 3 5 5 5 5 5 5 5 5 5 5 5 5 5 5 3 5 5 5 5 3 3 5 5 5 5 5 5 5 5 5 5 5 5 5 5 5 5 5 5 5 3 5 5 5 5 5 5 5 5 3 5 3 5 5 5 5 5 5 5 3 5 3 5 5 5 5 5 3 5 5 5 5 5 5 3 5 5 5 5 5 3 3 5 5 5 3 3 3 5 5 5 5 5 3 5 5 5 5 5 3 5 5 5 5 3 5 3 3 5 3 3 5 5 5 3 5 5 5 3 5 5 5 3 5 5 5 3 5 5 5 5 5 5 5 5 3 5 5 5 3 5 5 5 5 5 5 3 5 5 5 5 5 5 3 5 5 5 5 5 5 5 5 5 5 5 5 5 5 3 5 3 5 5 5 3 5 5 3 5 3 5 3 5 5 3 5 5 5 5 5 5 3 5 5 5 5 3 5 5 5 5 5 5 3 5 5 5 5 5 5 5 5 5 5 3 5 5 5 5 5 5 5 5 5 5 5 5 5 5 5 5 5 5 5 3 3 5 5 5 3 5 5 3 5 5 3 5 5 3 5 5 3 3 5 5 5 5 3 5 5 5 5 5 5 5 5 5 5 5 3 3 5 5 5 3 5 3 5 3 5 5 5 5 5 3 5 5 3 5 3 5 5 3 3 3 5 5 5 5 3 5 5 3 5 3 5 5 3 5 5 5 5 5 5 5 5 3 5 3 3 5 5 5 5 5 3 3 5 5 5 3 3 5 5 5 5 5 5 5 5 3 5 3 5 5 5 5 5 5 5 5 5 5 5 5 5 5 5 5 5 5 5 5 5 5 5 5 5 5 5 5 5 3 5 5 5 5 5 5 5 5 5 5 5 5 5 5 5 3 5 5 3 5 5 5 5 5 3 5 5 5 5 5 5 5 5 5 5 5 5 5 3 5 5 5 5 5 5 5 5 5 3 5 5 3 5 5 5 5 3 3 3 5 5 5 5 5 3 5 5 5 
</DataArray>
</Cells>
<PointData Scalars="" Vectors="displacement," Tensors="">
<DataArray type="Float64" Name="displacement" NumberOfComponents="3" format="ascii">
1.321299892980822e-06 -0.092495901043445017 0 -8.8114777061900181e-07 -0.094994697965722519 0 4.2929282875625546e-07 -0.094924487978549937 0 -8.8114777061900181e-07 -0.094994697965722519 0 4.2929282875625546e-07 -0.094924487978549937 0 4.3713971958135942e-07 -0.095002334739635319 0 3.0167035025189217e-07 -0.092489590656856205 0 -9.9493612554608272e-06 -0.093678902875376863 0 -3.7714575834078298e-07 -0.092481827386916238 0 -0.00051067974771196569 -0.091056417653797128 0 -0.00048317188332637077 -0.091977928191266337 0 -3.7714575834078298e-07 -0.092481827386916238 0 -0.00051067974771196569 -0.091056417653797128 0 -2.7874231686979305e-06 -0.0885400501016015 0 -0.00051067974771196569 -0.091056417653797128 0 -0.00030972398687963745 -0.092942386772384811 0 -0.00043031165142374303 -0.09228111572550321 0 -0.00051067974771196569 -0.091056417653797128 0 -0.00048317188332637077 -0.091977928191266337 0 -0.00030972398687963745 -0.092942386772384811 0 -9.9493612554608272e-06 -0.093678902875376863 0 -4.4923775476761484e-07 -0.094997762430468161 0 -0.00048317188332637077 -0.091977928191266337 0 -3.253503473685334e-06 -0.094993579928675576 0 -0.00030972398687963745 -0.092942386772384811 0 -3.253503473685334e-06 -0.094993579928675576 0 -0.00030972398687963745 -0.092942386772384811 0 -0.00030858384333053472 -0.093789515960094105 0 -0.00030972398687963745 -0.092942386772384811 0 -0.00030858384333053472 -0.093789515960094105 0 -0.00043031165142374303 -0.09228111572550321 0 -0.00048075373889710815 -0.093060735594528071 0 -0.00030858384333053472 -0.093789515960094105 0 -0.00043031165142374303 -0.09228111572550321 0 -0.00048075373889710815 -0.093060735594528071 0 -0.00030858384333053472 -0.093789515960094105 0 -0.00024020395565333254 -0.093840148540968032 0 -0.00030858384333053472 -0.093789515960094105 0 8.2907925541905754e-07 -0.094998653401405883 0 -0.00024020395565333254 -0.093840148540968032 0 -3.253503473685334e-06 -0.094993579928675576 0 -0.00030858384333053472 -0.093789515960094105 0 8.2907925541905754e-07 -0.094998653401405883 0 -0.00060168659865454557 -0.092174309281047487 0 -0.0019261089097639898 -0.090610340476977302 0 -0.0013018106962934812 -0.091834056859731117 0 -0.00048075373889710815 -0.093060735594528071 0 -0.00060168659865454557 -0.092174309281047487 0 -0.00043031165142374303 -0.09228111572550321 0 -0.00048075373889710815 -0.093060735594528071 0 -0.00060168659865454557 -0.092174309281047487 0 -0.00075790878648469417 -0.092725604971038822 0 -0.00060168659865454557 -0.092174309281047487 0 -0.00043031165142374303 -0.09228111572550321 0 0.00070746034723702758 -0.091643055372791146 0 -0.00060168659865454557 -0.092174309281047487 0 0.00070746034723702758 -0.091643055372791146 0 -0.0019261089097639898 -0.090610340476977302 0 -0.00040945120319277095 -0.086852280303234816 0 -0.00059394568845139281 -0.088326863627941538 0 -0.00043031165142374303 -0.09228111572550321 0 0.00070746034723702758 -0.091643055372791146 0 -0.00047285785879371982 -0.089679446412670435 0 -0.00051067974771196569 -0.091056417653797128 0 -0.00043031165142374303 -0.09228111572550321 0 -0.00047285785879371982 -0.089679446412670435 0 -0.00051067974771196569 -0.091056417653797128 0 -0.00047285785879371982 -0.089679446412670435 0 -2.7874231686979305e-06 -0.0885400501016015 0 -0.00047285785879371982 -0.089679446412670435 0 -2.7874231686979305e-06 -0.0885400501016015 0 5.2604205392268199e-06 -0.0845996576677574 0 -0.00040945120319277095 -0.086852280303234816 0 -1.0205610301105917e-06 -0.084592946098579216 0 -0.0022427444964719721 -0.08197151011740289 0 -6.3189531943763016e-07 -0.084581407961498309 0 -0.00091696095425545046 -0.081548257622551995 0 0.00070746034723702758 -0.091643055372791146 0 -0.00047285785879371982 -0.089679446412670435 0 5.2604205392268199e-06 -0.0845996576677574 0 -6.3189531943763016e-07 -0.084581407961498309 0 -0.00091696095425545046 -0.081548257622551995 0 -2.3710471888063808e-06 -0.079028014497587118 0 -0.00091696095425545046 -0.081548257622551995 0 -2.3710471888063808e-06 -0.079028014497587118 0 -8.9277343796713055e-05 -0.080927059220716802 0 -2.3710471888063808e-06 -0.079028014497587118 0 -8.9277343796713055e-05 -0.080927059220716802 0 0.00022189947097094875 -0.077985005703695071 0 -0.0022427444964719721 -0.08197151011740289 0 -0.00091696095425545046 -0.081548257622551995 0 -8.9277343796713055e-05 -0.080927059220716802 0 4.1599247241387932e-06 -0.073458486694890648 0 0.0017794876068878078 -0.079146602148052442 0 0.00064193603086205549 -0.070520875515940065 0 -0.00010179016579247353 -0.074731957268414473 0 -5.0896443336835588e-05 -0.07407147584553142 0 4.1599247241387932e-06 -0.073458486694890648 0 0.00022189947097094875 -0.077985005703695071 0 0.0017794876068878078 -0.079146602148052442 0 -2.3710471888063808e-06 -0.079028014497587118 0 4.1599247241387932e-06 -0.073458486694890648 0 0.00022189947097094875 -0.077985005703695071 0 -8.9277343796713055e-05 -0.080927059220716802 0 0.00022189947097094875 -0.077985005703695071 0 0.0017794876068878078 -0.079146602148052442 0 -8.9277343796713055e-05 -0.080927059220716802 0 0.0017794876068878078 -0.079146602148052442 0 0.0017281175856811691 -0.084617405089561101 0 0.0006407324175269558 -0.06467972481969271 0 0.00033399296676673277 -0.066112156632303298 0 0.00045652561837453495 -0.064910932261527096 0 0.0006407324175269558 -0.06467972481969271 0 0.00064193603086205549 -0.070520875515940065 0 0.00033399296676673277 -0.066112156632303298 0 -0.00055891291721224003 -0.06570396340204164 0 0.00045652561837453495 -0.064910932261527096 0 0.0006418130499687007 -0.065640656252309248 0 0.0006407324175269558 -0.06467972481969271 0 -0.00055891291721224003 -0.06570396340204164 0 0.00045652561837453495 -0.064910932261527096 0 -0.00010179016579247353 -0.074731957268414473 0 -0.00077166620469185337 -0.076961700590909621 0 0.0006407324175269558 -0.06467972481969271 0 -0.00055891291721224003 -0.06570396340204164 0 -0.0030709624990435062 -0.065377234915565838 0 -0.0027957107541598573 -0.067003740067844431 0 -0.0049708189451052997 -0.066545741315621396 0 -0.0030631055142419619 -0.069189535067274988 0 -0.00055891291721224003 -0.06570396340204164 0 -0.0027957107541598573 -0.067003740067844431 0 -0.0014540213255785548 -0.068106509912448765 0 -0.00055891291721224003 -0.06570396340204164 0 -0.0027957107541598573 -0.067003740067844431 0 -0.0030709624990435062 -0.065377234915565838 0 -0.00055891291721224003 -0.06570396340204164 0 0.00047278473467560862 -0.067843167076776442 0 -0.0014540213255785548 -0.068106509912448765 0 -0.00055891291721224003 -0.06570396340204164 0 0.00047278473467560862 -0.067843167076776442 0 0.0006418130499687007 -0.065640656252309248 0 -0.0022427444964719721 -0.08197151011740289 0 -0.00038870261204030705 -0.085598454288790427 0 -0.0019261089097639898 -0.090610340476977302 0 -0.0022427444964719721 -0.08197151011740289 0 -8.9277343796713055e-05 -0.080927059220716802 0 -0.00038870261204030705 -0.085598454288790427 0 -0.00038870261204030705 -0.085598454288790427 0 0.0017281175856811691 -0.084617405089561101 0 0.0010685156462932268 -0.087878433964088856 0 -8.9277343796713055e-05 -0.080927059220716802 0 -0.00038870261204030705 -0.085598454288790427 0 0.0017281175856811691 -0.084617405089561101 0 -0.0027957107541598573 -0.067003740067844431 0 -0.0030709624990435062 -0.065377234915565838 0 -0.0049708189451052997 -0.066545741315621396 0 -0.00077166620469185337 -0.076961700590909621 0 -0.001173807083328563 -0.078579885886345596 0 -0.001173807083328563 -0.078579885886345596 0 -0.0019954844469016932 -0.080196760253673741 0 -0.00038870261204030705 -0.085598454288790427 0 -0.00088939845904945102 -0.091000363648354149 0 -0.0019261089097639898 -0.090610340476977302 0 -0.00038870261204030705 -0.085598454288790427 0 0.0010685156462932268 -0.087878433964088856 0 -0.00088939845904945102 -0.091000363648354149 0 -0.00088939845904945102 -0.091000363648354149 0 -0.0019261089097639898 -0.090610340476977302 0 -0.0015611911872851205 -0.091487515395739127 0 -0.0015611911872851205 -0.091487515395739127 0 -0.0014883351053615469 -0.091444329583872455 0 -0.001579767139993729 -0.091790001942224322 0 -0.00088939845904945102 -0.091000363648354149 0 -0.0015611911872851205 -0.091487515395739127 0 -0.0014883351053615469 -0.091444329583872455 0 -0.0049708189451052997 -0.066545741315621396 0 -0.0058375822802572922 -0.071394285067597263 0 -0.0030631055142419619 -0.069189535067274988 0 -0.00064012642129071095 -0.09084466250732022 0 -0.00088939845904945102 -0.091000363648354149 0 -0.0014883351053615469 -0.091444329583872455 0 -0.00064012642129071095 -0.09084466250732022 0 -0.0014883351053615469 -0.091444329583872455 0 -0.0019771122590406458 -0.091619201392511632 0 -0.001173807083328563 -0.078579885886345596 0 -0.0028648721155282849 -0.081399572611233179 0 -0.0014883351053615469 -0.091444329583872455 0 -0.0019771122590406458 -0.091619201392511632 0 -0.0018318669383213758 -0.09152519210254037 0 -0.0019771122590406458 -0.091619201392511632 0 -0.0018318669383213758 -0.09152519210254037 0 -0.0021388819543592561 -0.091129919905434051 0 -0.0018318669383213758 -0.09152519210254037 0 -0.0021388819543592561 -0.091129919905434051 0 -0.001579767139993729 -0.091790001942224322 0 -0.0014883351053615469 -0.091444329583872455 0 -0.0018318669383213758 -0.09152519210254037 0 -0.001579767139993729 -0.091790001942224322 0 0.00047278473467560862 -0.067843167076776442 0 -0.00092746071759140401 -0.069725153957562389 0 0.00069048184573728679 -0.071057626619325492 0 0.00047278473467560862 -0.067843167076776442 0 -0.00092746071759140401 -0.069725153957562389 0 -0.0014540213255785548 -0.068106509912448765 0 -0.00092746071759140401 -0.069725153957562389 0 -0.0014540213255785548 -0.068106509912448765 0 -0.0030631055142419619 -0.069189535067274988 0 -0.0027957107541598573 -0.067003740067844431 0 -0.0014540213255785548 -0.068106509912448765 0 -0.0030631055142419619 -0.069189535067274988 0 -0.0058375822802572922 -0.071394285067597263 0 -0.0015818425280987867 -0.072849828072804143 0 -0.0028382681643487583 -0.076519508639467049 0 -0.00092746071759140401 -0.069725153957562389 0 -0.0030631055142419619 -0.069189535067274988 0 -0.0015818425280987867 -0.072849828072804143 0 -0.0058375822802572922 -0.071394285067597263 0 -0.0030631055142419619 -0.069189535067274988 0 -0.0015818425280987867 -0.072849828072804143 0 -0.00092746071759140401 -0.069725153957562389 0 -0.0015818425280987867 -0.072849828072804143 0 0.00069048184573728679 -0.071057626619325492 0 -0.0015818425280987867 -0.072849828072804143 0 0.00069048184573728679 -0.071057626619325492 0 0.00099715713249089481 -0.073937138079300607 0 0.0003571803261990926 -0.076598815363129666 0 0.00099715713249089481 -0.073937138079300607 0 0.0027781157988017819 -0.075961687173647874 0 -0.0015818425280987867 -0.072849828072804143 0 0.0003571803261990926 -0.076598815363129666 0 0.00099715713249089481 -0.073937138079300607 0 -0.0015818425280987867 -0.072849828072804143 0 0.0003571803261990926 -0.076598815363129666 0 -0.0028382681643487583 -0.076519508639467049 0 -0.0028382681643487583 -0.076519508639467049 0 -0.0062445537197906593 -0.078481131400061285 0 -0.0027391032154111109 -0.081970964709474972 0 -0.0028382681643487583 -0.076519508639467049 0 0.00061158530685462374 -0.0816585255353066 0 -0.0027391032154111109 -0.081970964709474972 0 0.0003571803261990926 -0.076598815363129666 0 -0.0028382681643487583 -0.076519508639467049 0 0.00061158530685462374 -0.0816585255353066 0 0.0003571803261990926 -0.076598815363129666 0 0.00061158530685462374 -0.0816585255353066 0 0.0027283883186247243 -0.078912775889291978 0 -0.0019771122590406458 -0.091619201392511632 0 -0.0021388819543592561 -0.091129919905434051 0 -0.0035901653771322627 -0.090454667417910958 0 -0.0058375822802572922 -0.071394285067597263 0 -0.0028382681643487583 -0.076519508639467049 0 -0.0062445537197906593 -0.078481131400061285 0 -0.0028648721155282849 -0.081399572611233179 0 -0.0037306187079915554 -0.083912922124766975 0 -0.0035901653771322627 -0.090454667417910958 0 -0.0025991975561055185 -0.089962458046413493 0 -0.0033507306214263341 -0.088229354704434604 0 -0.0025991975561055185 -0.089962458046413493 0 -0.0017193253029520968 -0.090292114626057129 0 -0.002528911221955438 -0.08892135568402737 0 -0.0021388819543592561 -0.091129919905434051 0 -0.0025991975561055185 -0.089962458046413493 0 -0.0017193253029520968 -0.090292114626057129 0 -0.0021388819543592561 -0.091129919905434051 0 -0.0035901653771322627 -0.090454667417910958 0 -0.0025991975561055185 -0.089962458046413493 0 -0.0017193253029520968 -0.090292114626057129 0 -0.0013461714660719757 -0.091652379085617144 0 -0.00081846150268400015 -0.090960200698166044 0 -0.0021388819543592561 -0.091129919905434051 0 -0.0017193253029520968 -0.090292114626057129 0 -0.0013461714660719757 -0.091652379085617144 0 -0.0013461714660719757 -0.091652379085617144 0 -0.00081846150268400015 -0.090960200698166044 0 -0.00054025703652733046 -0.092089738079079816 0 -0.0017193253029520968 -0.090292114626057129 0 -0.00081846150268400015 -0.090960200698166044 0 -0.00094446080274500788 -0.089754093436113611 0 -0.00081846150268400015 -0.090960200698166044 0 4.6573505215313293e-05 -0.090334644017147636 0 -0.00094446080274500788 -0.089754093436113611 0 4.6573505215313293e-05 -0.090334644017147636 0 0.0012346843713901181 -0.091333489000860857 0 -0.00011726698726682112 -0.091483939083078766 0 -0.00081846150268400015 -0.090960200698166044 0 4.6573505215313293e-05 -0.090334644017147636 0 -0.00011726698726682112 -0.091483939083078766 0 2.7893530084071779e-05 -0.093481675351902244 0 -0.00029610203720593226 -0.094245130269685701 0 5.4875586714257763e-05 -0.095090935408710039 0 -4.0957930612189499e-09 -0.094998337880383782 0 1.0060958070986587e-07 -0.09500110101763172 0 5.4875586714257763e-05 -0.095090935408710039 0 -2.1119235656324684e-05 -0.094991641446883157 0 1.0060958070986587e-07 -0.09500110101763172 0 4.6573505215313293e-05 -0.090334644017147636 0 0.0012346843713901181 -0.091333489000860857 0 0.0013544570682453611 -0.089608304858945956 0 2.7893530084071779e-05 -0.093481675351902244 0 9.1795861705352009e-05 -0.093550433012524747 0 0.0012346843713901181 -0.091333489000860857 0 -0.00011726698726682112 -0.091483939083078766 0 -9.8087316291168195e-07 -0.092636880071273353 0 5.4875586714257763e-05 -0.095090935408710039 0 -4.0957930612189499e-09 -0.094998337880383782 0 0.00030223192899351257 -0.094274307022046394 0 0.0012346843713901181 -0.091333489000860857 0 -9.8087316291168195e-07 -0.092636880071273353 0 0.00030223192899351257 -0.094274307022046394 0 -0.00081846150268400015 -0.090960200698166044 0 -0.00011726698726682112 -0.091483939083078766 0 -0.00054025703652733046 -0.092089738079079816 0 -0.00011726698726682112 -0.091483939083078766 0 -9.8087316291168195e-07 -0.092636880071273353 0 -0.00054025703652733046 -0.092089738079079816 0 -0.00054025703652733046 -0.092089738079079816 0 -0.00036483344410962669 -0.093268247909808824 0 -0.00089245091291964335 -0.092431306963161305 0 -9.8087316291168195e-07 -0.092636880071273353 0 -0.00036483344410962669 -0.093268247909808824 0 0.00030223192899351257 -0.094274307022046394 0 -9.8087316291168195e-07 -0.092636880071273353 0 -0.00054025703652733046 -0.092089738079079816 0 -0.00036483344410962669 -0.093268247909808824 0 -0.00036483344410962669 -0.093268247909808824 0 0.00030223192899351257 -0.094274307022046394 0 -3.8865670159251614e-05 -0.094123939195003073 0 -4.0957930612189499e-09 -0.094998337880383782 0 0.00030223192899351257 -0.094274307022046394 0 8.2907925541905754e-07 -0.094998653401405883 0 0.00030223192899351257 -0.094274307022046394 0 -3.8865670159251614e-05 -0.094123939195003073 0 8.2907925541905754e-07 -0.094998653401405883 0 -3.8865670159251614e-05 -0.094123939195003073 0 8.2907925541905754e-07 -0.094998653401405883 0 -0.00024020395565333254 -0.093840148540968032 0 -0.00048075373889710815 -0.093060735594528071 0 -0.00024020395565333254 -0.093840148540968032 0 -0.00075790878648469417 -0.092725604971038822 0 -0.00036483344410962669 -0.093268247909808824 0 -0.00024020395565333254 -0.093840148540968032 0 -0.00075790878648469417 -0.092725604971038822 0 -0.00036483344410962669 -0.093268247909808824 0 -3.8865670159251614e-05 -0.094123939195003073 0 -0.00024020395565333254 -0.093840148540968032 0 -0.00060168659865454557 -0.092174309281047487 0 -0.00075790878648469417 -0.092725604971038822 0 -0.0013018106962934812 -0.091834056859731117 0 -0.00075790878648469417 -0.092725604971038822 0 -0.0012330736673528311 -0.092131989863440955 0 -0.00089245091291964335 -0.092431306963161305 0 -0.00075790878648469417 -0.092725604971038822 0 -0.0013018106962934812 -0.091834056859731117 0 -0.0012330736673528311 -0.092131989863440955 0 -0.0019261089097639898 -0.090610340476977302 0 -0.0015611911872851205 -0.091487515395739127 0 -0.0013018106962934812 -0.091834056859731117 0 -0.0015611911872851205 -0.091487515395739127 0 -0.0013018106962934812 -0.091834056859731117 0 -0.001579767139993729 -0.091790001942224322 0 -0.0013018106962934812 -0.091834056859731117 0 -0.0012330736673528311 -0.092131989863440955 0 -0.001579767139993729 -0.091790001942224322 0 -0.0021388819543592561 -0.091129919905434051 0 -0.0013461714660719757 -0.091652379085617144 0 -0.001579767139993729 -0.091790001942224322 0 -0.0013461714660719757 -0.091652379085617144 0 -0.0012330736673528311 -0.092131989863440955 0 -0.001579767139993729 -0.091790001942224322 0 -0.0013461714660719757 -0.091652379085617144 0 -0.0012330736673528311 -0.092131989863440955 0 -0.00089245091291964335 -0.092431306963161305 0 -0.0013461714660719757 -0.091652379085617144 0 -0.00054025703652733046 -0.092089738079079816 0 -0.00089245091291964335 -0.092431306963161305 0 -0.00036483344410962669 -0.093268247909808824 0 -0.00075790878648469417 -0.092725604971038822 0 -0.00089245091291964335 -0.092431306963161305 0 -0.00031099273327934231 -0.054398728621951289 0 -0.00044138360473764212 -0.055949177410264318 0 0.0004448943689324222 -0.055573683852829743 0 -0.00031099273327934231 -0.054398728621951289 0 -0.00093533315482909117 -0.055780442664262887 0 -0.00044138360473764212 -0.055949177410264318 0 -0.00031099273327934231 -0.054398728621951289 0 0.0004448943689324222 -0.055573683852829743 0 0.00050437098866531842 -0.053937992466562987 0 -0.00031099273327934231 -0.054398728621951289 0 -0.00093533315482909117 -0.055780442664262887 0 -0.00094645934943768926 -0.05440986822713819 0 -0.00093533315482909117 -0.055780442664262887 0 -0.00094645934943768926 -0.05440986822713819 0 -0.00116413991907447 -0.05639446211451505 0 -0.00094645934943768926 -0.05440986822713819 0 -0.00029615003608300558 -0.050556470392889005 0 0.00013747647050597767 -0.052323166630520897 0 -0.00031099273327934231 -0.054398728621951289 0 -0.00094645934943768926 -0.05440986822713819 0 0.00013747647050597767 -0.052323166630520897 0 -0.00031099273327934231 -0.054398728621951289 0 0.00013747647050597767 -0.052323166630520897 0 0.00050437098866531842 -0.053937992466562987 0 -0.00029615003608300558 -0.050556470392889005 0 -1.0029571859061169e-06 -0.051196729223044454 0 -7.4117748450080691e-07 -0.045628704551372135 0 -0.00029615003608300558 -0.050556470392889005 0 -1.0029571859061169e-06 -0.051196729223044454 0 -0.00063717274000046171 -0.054195240801071444 0 -0.00094645934943768926 -0.05440986822713819 0 -0.00029615003608300558 -0.050556470392889005 0 -0.00063717274000046171 -0.054195240801071444 0 -0.00094645934943768926 -0.05440986822713819 0 -0.00063717274000046171 -0.054195240801071444 0 -0.00088957538064236613 -0.057041941843988107 0 -0.00063717274000046171 -0.054195240801071444 0 -1.5185197226318954e-06 -0.056761718208965709 0 -0.00088957538064236613 -0.057041941843988107 0 -1.0029571859061169e-06 -0.051196729223044454 0 -0.00063717274000046171 -0.054195240801071444 0 -1.5185197226318954e-06 -0.056761718208965709 0 -1.5185197226318954e-06 -0.056761718208965709 0 -0.00088957538064236613 -0.057041941843988107 0 -0.00020056044515807692 -0.060569686587914999 0 -0.00088957538064236613 -0.057041941843988107 0 -0.00116413991907447 -0.05639446211451505 0 -0.00037578604909423483 -0.058691521343576691 0 -0.00094645934943768926 -0.05440986822713819 0 -0.00088957538064236613 -0.057041941843988107 0 -0.00116413991907447 -0.05639446211451505 0 -0.00093533315482909117 -0.055780442664262887 0 -0.00116413991907447 -0.05639446211451505 0 -0.0010847932673762153 -0.05615497582024391 0 -0.00116413991907447 -0.05639446211451505 0 -0.00037578604909423483 -0.058691521343576691 0 -0.000929693238895529 -0.05628162866108008 0 0.0025206845520836397 -0.054554167296645847 0 0.0034409555083816002 -0.053621078028671477 0 -0.00037578604909423483 -0.058691521343576691 0 0.0016679269863726788 -0.06224852300970353 0 0.0016871985682080579 -0.056983497582427191 0 0.0035224242090974326 -0.062613680041411726 0 0.0039948036697314681 -0.063004957228059016 0 -0.00037578604909423483 -0.058691521343576691 0 0.0016679269863726788 -0.06224852300970353 0 -0.00020056044515807692 -0.060569686587914999 0 -0.00088957538064236613 -0.057041941843988107 0 -0.00037578604909423483 -0.058691521343576691 0 -0.00020056044515807692 -0.060569686587914999 0 -1.5185197226318954e-06 -0.056761718208965709 0 -0.00020056044515807692 -0.060569686587914999 0 -1.2405969409419593e-07 -0.062326208949664196 0 -0.00020056044515807692 -0.060569686587914999 0 -1.2405969409419593e-07 -0.062326208949664196 0 0.00019213579861723226 -0.064006883484565388 0 -1.2405969409419593e-07 -0.062326208949664196 0 3.0454332161462508e-07 -0.067890838604964615 0 0.00019213579861723226 -0.064006883484565388 0 0.0016679269863726788 -0.06224852300970353 0 -0.00020056044515807692 -0.060569686587914999 0 0.00019213579861723226 -0.064006883484565388 0 0.0016679269863726788 -0.06224852300970353 0 0.00042669596009435069 -0.064723428192031432 0 0.00019213579861723226 -0.064006883484565388 0 0.00042669596009435069 -0.064723428192031432 0 0.00019213579861723226 -0.064006883484565388 0 8.1933436183063494e-05 -0.066709008448080351 0 3.0454332161462508e-07 -0.067890838604964615 0 0.00019213579861723226 -0.064006883484565388 0 8.1933436183063494e-05 -0.066709008448080351 0 3.0454332161462508e-07 -0.067890838604964615 0 0.00064193603086205549 -0.070520875515940065 0 8.1933436183063494e-05 -0.066709008448080351 0 4.1599247241387932e-06 -0.073458486694890648 0 3.0454332161462508e-07 -0.067890838604964615 0 0.00064193603086205549 -0.070520875515940065 0 0.00064193603086205549 -0.070520875515940065 0 8.1933436183063494e-05 -0.066709008448080351 0 0.00033399296676673277 -0.066112156632303298 0 0.00042669596009435069 -0.064723428192031432 0 0.00033399296676673277 -0.066112156632303298 0 0.00045652561837453495 -0.064910932261527096 0 0.00042669596009435069 -0.064723428192031432 0 8.1933436183063494e-05 -0.066709008448080351 0 0.00033399296676673277 -0.066112156632303298 0 0.00045652561837453495 -0.064910932261527096 0 0.00094837578320559185 -0.06429909121918112 0 0.0006418130499687007 -0.065640656252309248 0 0.00042669596009435069 -0.064723428192031432 0 0.00045652561837453495 -0.064910932261527096 0 0.00094837578320559185 -0.06429909121918112 0 0.0016679269863726788 -0.06224852300970353 0 0.00042669596009435069 -0.064723428192031432 0 0.00094837578320559185 -0.06429909121918112 0 0.0016679269863726788 -0.06224852300970353 0 0.00094837578320559185 -0.06429909121918112 0 0.0018784618239684554 -0.06659909111837857 0 0.0016679269863726788 -0.06224852300970353 0 0.0018784618239684554 -0.06659909111837857 0 0.0043574415890927825 -0.067399954664503964 0 0.00047278473467560862 -0.067843167076776442 0 0.0018784618239684554 -0.06659909111837857 0 0.0006418130499687007 -0.065640656252309248 0 0.00094837578320559185 -0.06429909121918112 0 0.0018784618239684554 -0.06659909111837857 0 0.0006418130499687007 -0.065640656252309248 0 0.00047278473467560862 -0.067843167076776442 0 0.00069048184573728679 -0.071057626619325492 0 0.0023035561057569219 -0.069490404164128133 0 0.00047278473467560862 -0.067843167076776442 0 0.0018784618239684554 -0.06659909111837857 0 0.0023035561057569219 -0.069490404164128133 0 0.0018784618239684554 -0.06659909111837857 0 0.0023035561057569219 -0.069490404164128133 0 0.0033075556331482927 -0.06934802444356869 0 0.0018784618239684554 -0.06659909111837857 0 0.0033075556331482927 -0.06934802444356869 0 0.0043574415890927825 -0.067399954664503964 0 0.0023035561057569219 -0.069490404164128133 0 0.0033075556331482927 -0.06934802444356869 0 0.0025191942880281666 -0.070603381888866931 0 0.004355506450905094 -0.071663645891623148 0 0.0054931912737232929 -0.066060020066196268 0 0.0033075556331482927 -0.06934802444356869 0 0.0025191942880281666 -0.070603381888866931 0 0.0047950021454675135 -0.070594188193595378 0 0.0023035561057569219 -0.069490404164128133 0 0.0047302624842722541 -0.073196213613939215 0 0.0031163145677256718 -0.0733691262898582 0 0.004355506450905094 -0.071663645891623148 0 0.0042866992027827192 -0.07170746631233843 0 0.00069048184573728679 -0.071057626619325492 0 0.0023035561057569219 -0.069490404164128133 0 0.0031163145677256718 -0.0733691262898582 0 0.0041159628247823196 -0.071287377934741436 0 0.004355506450905094 -0.071663645891623148 0 0.00069048184573728679 -0.071057626619325492 0 0.00099715713249089481 -0.073937138079300607 0 0.0031163145677256718 -0.0733691262898582 0 0.00099715713249089481 -0.073937138079300607 0 0.0031163145677256718 -0.0733691262898582 0 0.0027781157988017819 -0.075961687173647874 0 0.0055961112850422996 -0.073257956283133183 0 0.0041032247765100715 -0.075068624088419522 0 0.0049832402496781426 -0.077527803997712544 0 0.0031163145677256718 -0.0733691262898582 0 0.0041032247765100715 -0.075068624088419522 0 0.0027781157988017819 -0.075961687173647874 0 0.0055961112850422996 -0.073257956283133183 0 0.0031163145677256718 -0.0733691262898582 0 0.0041032247765100715 -0.075068624088419522 0 0.0049832402496781426 -0.077527803997712544 0 0.0027781157988017819 -0.075961687173647874 0 0.0027283883186247243 -0.078912775889291978 0 0.0041032247765100715 -0.075068624088419522 0 0.0049832402496781426 -0.077527803997712544 0 0.0027781157988017819 -0.075961687173647874 0 0.0003571803261990926 -0.076598815363129666 0 0.0027781157988017819 -0.075961687173647874 0 0.0027283883186247243 -0.078912775889291978 0 0.0049832402496781426 -0.077527803997712544 0 0.0027283883186247243 -0.078912775889291978 0 0.0040530416230304426 -0.081523575640048737 0 0.00061158530685462374 -0.0816585255353066 0 0.0027283883186247243 -0.078912775889291978 0 0.0040530416230304426 -0.081523575640048737 0 0.0049832402496781426 -0.077527803997712544 0 0.0040530416230304426 -0.081523575640048737 0 0.0080017699428150454 -0.080478401383546269 0 0.0055961112850422996 -0.073257956283133183 0 0.0049832402496781426 -0.077527803997712544 0 0.0080017699428150454 -0.080478401383546269 0 0.0044644273873105716 -0.075554997814862593 0 0.0064306880989750967 -0.081287925743706524 0 0.0076354516075186601 -0.078046699355569668 0 0.0044644273873105716 -0.075554997814862593 0 0.0076354516075186601 -0.078046699355569668 0 0.0095031736826397505 -0.075136347547281657 0 0.004355506450905094 -0.071663645891623148 0 0.0069861335447210437 -0.080071252504423374 0 0.0076354516075186601 -0.078046699355569668 0 0.010136263994615254 -0.080196334633702154 0 0.0095031736826397505 -0.075136347547281657 0 0.0076333295461111488 -0.073939502362804305 0 0.0054931912737232929 -0.066060020066196268 0 0.0064306880989750967 -0.081287925743706524 0 0.0076354516075186601 -0.078046699355569668 0 0.010136263994615254 -0.080196334633702154 0 0.0064306880989750967 -0.081287925743706524 0 0.010136263994615254 -0.080196334633702154 0 0.0089183515596592336 -0.083384236313257823 0 0.007621423770971341 -0.068508775722805601 0 0.011750643682172855 -0.071752019646883672 0 0.013377688516728032 -0.065857714989311061 0 0.011750643682172855 -0.071752019646883672 0 0.013377688516728032 -0.065857714989311061 0 0.016156563438679186 -0.071563897985228289 0 0.007621423770971341 -0.068508775722805601 0 0.013377688516728032 -0.065857714989311061 0 0.0065778228285775812 -0.060347150257861908 0 0.013377688516728032 -0.065857714989311061 0 0.0065778228285775812 -0.060347150257861908 0 0.014667219300961 -0.059661232505615551 0 0.0012429003789510098 -0.054009123970437438 0 -0.00016876353114536659 -0.055883510351214222 0 -0.0013818969534356836 -0.054253753207368256 0 0.0054931912737232929 -0.066060020066196268 0 0.0070361894237454649 -0.059154342218003426 0 0.0033075556331482927 -0.06934802444356869 0 0.0047950021454675135 -0.070594188193595378 0 0.0043574415890927825 -0.067399954664503964 0 0.0054931912737232929 -0.066060020066196268 0 0.0039948036697314681 -0.063004957228059016 0 0.0012429003789510098 -0.054009123970437438 0 0.0016871985682080579 -0.056983497582427191 0 -0.00016876353114536659 -0.055883510351214222 0 -0.00016876353114536659 -0.055883510351214222 0 -0.0021093963736507353 -0.056539717698092143 0 -0.0013818969534356836 -0.054253753207368256 0 -0.00037578604909423483 -0.058691521343576691 0 0.0016871985682080579 -0.056983497582427191 0 -0.00016876353114536659 -0.055883510351214222 0 -0.00037578604909423483 -0.058691521343576691 0 -0.00016876353114536659 -0.055883510351214222 0 -0.0021093963736507353 -0.056539717698092143 0 -0.00116413991907447 -0.05639446211451505 0 -0.000929693238895529 -0.05628162866108008 0 -0.0010847932673762153 -0.05615497582024391 0 -0.000929693238895529 -0.05628162866108008 0 -0.0010847932673762153 -0.05615497582024391 0 -0.0011391297293080155 -0.056393093520722234 0 0.0034409555083816002 -0.053621078028671477 0 0.0091425388130344232 -0.053259014290730732 0 -0.00093533315482909117 -0.055780442664262887 0 -0.0010847932673762153 -0.05615497582024391 0 -0.0011391297293080155 -0.056393093520722234 0 -0.0021093963736507353 -0.056539717698092143 0 -0.0039117174824306175 -0.054478314556679508 0 -0.0013818969534356836 -0.054253753207368256 0 0.0091425388130344232 -0.053259014290730732 0 0.0070361894237454649 -0.059154342218003426 0 0.022748395226921667 -0.058966533633598113 0 0.014667219300961 -0.059661232505615551 0 0.020554197739194532 -0.066042604124300158 0 0.013377688516728032 -0.065857714989311061 0 0.014667219300961 -0.059661232505615551 0 0.020554197739194532 -0.066042604124300158 0 0.013377688516728032 -0.065857714989311061 0 0.016156563438679186 -0.071563897985228289 0 0.020554197739194532 -0.066042604124300158 0 0.020554197739194532 -0.066042604124300158 0 0.029001030648697607 -0.065848248222053998 0 0.024964565331919847 -0.073641436966364202 0 0.016156563438679186 -0.071563897985228289 0 0.020554197739194532 -0.066042604124300158 0 0.024964565331919847 -0.073641436966364202 0 0.022748395226921667 -0.058966533633598113 0 0.020554197739194532 -0.066042604124300158 0 0.029001030648697607 -0.065848248222053998 0 0.0091425388130344232 -0.053259014290730732 0 0.012536345883955143 -0.045477699643470169 0 0.012536345883955143 -0.045477699643470169 0 0.017114762706361277 -0.04616164012615389 0 0.016498129137864748 -0.024915909480618975 0 0.013883102525963595 -0.021945751315074546 0 0.018443523020432839 -0.021118970027828112 0 0.016693407019159102 -0.0248631335329976 0 0.013883102525963595 -0.021945751315074546 0 0.013342292151102655 -0.02590637674745367 0 0.012536345883955143 -0.045477699643470169 0 0.0092754429049468311 -0.037040369542092055 0 0.016693407019159102 -0.0248631335329976 0 0.013342292151102655 -0.02590637674745367 0 0.01425540508284622 -0.03008538137824816 0 0.012536345883955143 -0.045477699643470169 0 0.0087908368019125396 -0.046326422234891383 0 0.013342292151102655 -0.02590637674745367 0 0.01425540508284622 -0.03008538137824816 0 0.011037021575311048 -0.030495108680966342 0 0.0087908368019125396 -0.046326422234891383 0 0.0095472883766913388 -0.045456615010979778 0 0.0091425388130344232 -0.053259014290730732 0 0.0087908368019125396 -0.046326422234891383 0 -0.0011391297293080155 -0.056393093520722234 0 -0.00029311611435488613 -0.056480845045566087 0 -0.00044138360473764212 -0.055949177410264318 0 0.0098817706428199585 -0.048917230271511708 0 0.010176783266216873 -0.04923131836766461 0 0.01036563221410019 -0.048868654062971424 0 -0.00093533315482909117 -0.055780442664262887 0 -0.0011391297293080155 -0.056393093520722234 0 -0.00044138360473764212 -0.055949177410264318 0 0.0087908368019125396 -0.046326422234891383 0 0.0069881321661927143 -0.045986644805857485 0 -0.00029311611435488613 -0.056480845045566087 0 -0.00044138360473764212 -0.055949177410264318 0 0.0004448943689324222 -0.055573683852829743 0 0.013545031660572474 -0.030305134981860684 0 0.010771470414333153 -0.034837323090275103 0 0.011037021575311048 -0.030495108680966342 0 0.014823484631740354 -0.012858826370414418 0 0.014093008359190223 -0.015522553909943873 0 0.01276254885679636 -0.013228078366566443 0 0.014823484631740354 -0.012858826370414418 0 0.017092432845901399 -0.011895021492654784 0 0.015177260946416514 -0.0106588927029604 0 0.014823484631740354 -0.012858826370414418 0 0.017092432845901399 -0.011895021492654784 0 0.016882597219987562 -0.014933650273241941 0 0.017092432845901399 -0.011895021492654784 0 0.016882597219987562 -0.014933650273241941 0 0.019188378957752088 -0.013288029556247806 0 0.016882597219987562 -0.014933650273241941 0 0.014093008359190223 -0.015522553909943873 0 0.015759108569502914 -0.018287886495646978 0 0.014823484631740354 -0.012858826370414418 0 0.016882597219987562 -0.014933650273241941 0 0.014093008359190223 -0.015522553909943873 0 0.014093008359190223 -0.015522553909943873 0 0.015759108569502914 -0.018287886495646978 0 0.01262060847778968 -0.018296861568119903 0 0.013883102525963595 -0.021945751315074546 0 0.015759108569502914 -0.018287886495646978 0 0.01262060847778968 -0.018296861568119903 0 0.013883102525963595 -0.021945751315074546 0 0.015759108569502914 -0.018287886495646978 0 0.018443523020432839 -0.021118970027828112 0 0.015759108569502914 -0.018287886495646978 0 0.020214349952604935 -0.017420771386652809 0 0.018443523020432839 -0.021118970027828112 0 0.016882597219987562 -0.014933650273241941 0 0.015759108569502914 -0.018287886495646978 0 0.020214349952604935 -0.017420771386652809 0 0.017961041665851312 -0.04839246440440452 0 0.017114762706361277 -0.04616164012615389 0 0.016156563438679186 -0.071563897985228289 0 0.024964565331919847 -0.073641436966364202 0 0.018164146805852849 -0.076454763664808967 0 0.020887104287655445 -0.081493969630488022 0 0.024964565331919847 -0.073641436966364202 0 0.018164146805852849 -0.076454763664808967 0 0.016156563438679186 -0.071563897985228289 0 0.018164146805852849 -0.076454763664808967 0 0.01352953462150434 -0.075547524300615815 0 0.018164146805852849 -0.076454763664808967 0 0.014120670724237356 -0.080099224572697095 0 0.01352953462150434 -0.075547524300615815 0 0.020887104287655445 -0.081493969630488022 0 0.01425557839136803 -0.084728098226336979 0 0.014120670724237356 -0.080099224572697095 0 0.020887104287655445 -0.081493969630488022 0 0.018164146805852849 -0.076454763664808967 0 0.014120670724237356 -0.080099224572697095 0 0.020887104287655445 -0.081493969630488022 0 0.016588148970950175 -0.089290097238967775 0 0.01425557839136803 -0.084728098226336979 0 0.017961041665851312 -0.04839246440440452 0 0.017142143567859647 -0.050471458899400884 0 0.016588148970950175 -0.089290097238967775 0 0.013026606026278646 -0.087962547088817386 0 0.01425557839136803 -0.084728098226336979 0 0.016882597219987562 -0.014933650273241941 0 0.020214349952604935 -0.017420771386652809 0 0.019188378957752088 -0.013288029556247806 0 0.020214349952604935 -0.017420771386652809 0 0.019188378957752088 -0.013288029556247806 0 0.021800802407074386 -0.013886799289684393 0 0.019188378957752088 -0.013288029556247806 0 0.020835088452905905 -0.011862467873283065 0 0.01917422606007553 -0.010699512899042305 0 0.017092432845901399 -0.011895021492654784 0 0.019188378957752088 -0.013288029556247806 0 0.01917422606007553 -0.010699512899042305 0 0.021800802407074386 -0.013886799289684393 0 0.023274552617171481 -0.010578768052557783 0 0.020835088452905905 -0.011862467873283065 0 0.019188378957752088 -0.013288029556247806 0 0.021800802407074386 -0.013886799289684393 0 0.020835088452905905 -0.011862467873283065 0 0.017142143567859647 -0.050471458899400884 0 0.014950950881447629 -0.052418219522518766 0 0.011402948590447682 -0.092675795058773588 0 0.010284011012364794 -0.091295765670340562 0 0.011084506155400131 -0.089542423952705896 0 0.016588148970950175 -0.089290097238967775 0 0.011402948590447682 -0.092675795058773588 0 0.012582804534547532 -0.095116797537902795 0 0.011402948590447682 -0.092675795058773588 0 0.009854361436837546 -0.084994495987012489 0 0.013026606026278646 -0.087962547088817386 0 0.016588148970950175 -0.089290097238967775 0 0.011402948590447682 -0.092675795058773588 0 0.013026606026278646 -0.087962547088817386 0 0.010427272754296679 -0.088648355842539592 0 0.0099902255246596128 -0.085954596666898725 0 0.011402948590447682 -0.092675795058773588 0 0.0096150166430840275 -0.093166237862704573 0 0.010284011012364794 -0.091295765670340562 0 0.010284011012364794 -0.091295765670340562 0 0.007418559409706333 -0.091483793174271771 0 0.0081889375402267577 -0.092856731457513095 0 0.0096150166430840275 -0.093166237862704573 0 0.010284011012364794 -0.091295765670340562 0 0.0081889375402267577 -0.092856731457513095 0 0.0096150166430840275 -0.093166237862704573 0 0.0081889375402267577 -0.092856731457513095 0 0.0081879697414722306 -0.094059042715082725 0 0.010284011012364794 -0.091295765670340562 0 0.011084506155400131 -0.089542423952705896 0 0.0084652616565886983 -0.086800998351037661 0 0.010284011012364794 -0.091295765670340562 0 0.0095513764879590398 -0.087020227132467681 0 0.0083496520142490871 -0.089837469982398874 0 0.0095696342112245557 -0.088375951646953207 0 0.0087446556060875556 -0.085732657024023301 0 0.010284011012364794 -0.091295765670340562 0 0.0083496520142490871 -0.089837469982398874 0 0.007418559409706333 -0.091483793174271771 0 0.009854361436837546 -0.084994495987012489 0 0.013026606026278646 -0.087962547088817386 0 0.01425557839136803 -0.084728098226336979 0 0.009854361436837546 -0.084994495987012489 0 0.01425557839136803 -0.084728098226336979 0 0.014120670724237356 -0.080099224572697095 0 0.0099902255246596128 -0.085954596666898725 0 0.0090264595316386313 -0.080490358115179433 0 0.009854361436837546 -0.084994495987012489 0 0.014120670724237356 -0.080099224572697095 0 0.0086752982218469381 -0.07672564833086809 0 0.007621423770971341 -0.068508775722805601 0 0.011750643682172855 -0.071752019646883672 0 0.0086752982218469381 -0.07672564833086809 0 0.014120670724237356 -0.080099224572697095 0 0.01352953462150434 -0.075547524300615815 0 0.0086752982218469381 -0.07672564833086809 0 0.011750643682172855 -0.071752019646883672 0 0.01352953462150434 -0.075547524300615815 0 0.0086752982218469381 -0.07672564833086809 0 0.011750643682172855 -0.071752019646883672 0 0.016156563438679186 -0.071563897985228289 0 0.01352953462150434 -0.075547524300615815 0 0.010136263994615254 -0.080196334633702154 0 0.0089183515596592336 -0.083384236313257823 0 0.010677965119360804 -0.08516453481061409 0 0.0089183515596592336 -0.083384236313257823 0 0.010677965119360804 -0.08516453481061409 0 0.0084652616565886983 -0.086800998351037661 0 0.0076333295461111488 -0.073939502362804305 0 0.0090264595316386313 -0.080490358115179433 0 0.0064306880989750967 -0.081287925743706524 0 0.0089183515596592336 -0.083384236313257823 0 0.0084652616565886983 -0.086800998351037661 0 0.011084506155400131 -0.089542423952705896 0 0.010677965119360804 -0.08516453481061409 0 0.0084652616565886983 -0.086800998351037661 0 0.0095513764879590398 -0.087020227132467681 0 0.0059451743222142511 -0.084808250263812474 0 0.0060264280672594362 -0.089363397237515754 0 0.0095513764879590398 -0.087020227132467681 0 0.0060264280672594362 -0.089363397237515754 0 0.0083496520142490871 -0.089837469982398874 0 0.0040530416230304426 -0.081523575640048737 0 0.0080017699428150454 -0.080478401383546269 0 0.0059451743222142511 -0.084808250263812474 0 0.0080017699428150454 -0.080478401383546269 0 0.0095513764879590398 -0.087020227132467681 0 0.0059451743222142511 -0.084808250263812474 0 0.0069861335447210437 -0.080071252504423374 0 0.0087446556060875556 -0.085732657024023301 0 0.00061158530685462374 -0.0816585255353066 0 0.0040530416230304426 -0.081523575640048737 0 0.0022488881717989263 -0.085394593441253538 0 0.0040530416230304426 -0.081523575640048737 0 0.0059451743222142511 -0.084808250263812474 0 0.0022488881717989263 -0.085394593441253538 0 0.0059451743222142511 -0.084808250263812474 0 0.0022488881717989263 -0.085394593441253538 0 0.0060264280672594362 -0.089363397237515754 0 0.0022488881717989263 -0.085394593441253538 0 0.0060264280672594362 -0.089363397237515754 0 0.00013482025778122403 -0.089186812076349695 0 0.0060264280672594362 -0.089363397237515754 0 0.007418559409706333 -0.091483793174271771 0 0.004439737205953624 -0.092440512421440177 0 0.0060264280672594362 -0.089363397237515754 0 0.004439737205953624 -0.092440512421440177 0 0.003384538977286018 -0.090531864277480945 0 0.0037746577069065544 -0.090266771097720688 0 0.0021942056394886173 -0.090459070622229229 0 0.0060264280672594362 -0.089363397237515754 0 0.0083496520142490871 -0.089837469982398874 0 0.007418559409706333 -0.091483793174271771 0 0.007418559409706333 -0.091483793174271771 0 0.006614188933696692 -0.09303978922687077 0 0.004439737205953624 -0.092440512421440177 0 0.007418559409706333 -0.091483793174271771 0 0.0081889375402267577 -0.092856731457513095 0 0.006614188933696692 -0.09303978922687077 0 0.0081889375402267577 -0.092856731457513095 0 0.006614188933696692 -0.09303978922687077 0 0.0071230832991002737 -0.094039256059369497 0 0.006614188933696692 -0.09303978922687077 0 0.004439737205953624 -0.092440512421440177 0 0.0060657817186415049 -0.094229565020531411 0 0.004439737205953624 -0.092440512421440177 0 0.0053464321546821984 -0.095623434032282614 0 0.0060657817186415049 -0.094229565020531411 0 0.004439737205953624 -0.092440512421440177 0 0.0048746880943296659 -0.094981997706406585 0 0.0037522919664378001 -0.093736640710530922 0 0.0048258799896563733 -0.093433328313551944 0 0.0049278532292945654 -0.093675094136214387 0 0.0053464321546821984 -0.095623434032282614 0 0.0061852153356011762 -0.095338705586764785 0 0.0060657817186415049 -0.094229565020531411 0 0.0048746880943296659 -0.094981997706406585 0 0.0041152450741593445 -0.095059306990771225 0 0.0037522919664378001 -0.093736640710530922 0 0.006614188933696692 -0.09303978922687077 0 0.0060657817186415049 -0.094229565020531411 0 0.0071230832991002737 -0.094039256059369497 0 0.0060657817186415049 -0.094229565020531411 0 0.0071230832991002737 -0.094039256059369497 0 0.0067579852950848725 -0.09489528494983529 0 0.0081889375402267577 -0.092856731457513095 0 0.0071230832991002737 -0.094039256059369497 0 0.0081879697414722306 -0.094059042715082725 0 0.0071230832991002737 -0.094039256059369497 0 0.0081879697414722306 -0.094059042715082725 0 0.0078039868867786164 -0.095159616178800602 0 0.0081879697414722306 -0.094059042715082725 0 0.0078039868867786164 -0.095159616178800602 0 0.0089633958064131037 -0.094693570895337434 0 0.0071230832991002737 -0.094039256059369497 0 0.0078039868867786164 -0.095159616178800602 0 0.0067579852950848725 -0.09489528494983529 0 0.0061852153356011762 -0.095338705586764785 0 0.0060657817186415049 -0.094229565020531411 0 0.0067579852950848725 -0.09489528494983529 0 0.0078039868867786164 -0.095159616178800602 0 0.0067579852950848725 -0.09489528494983529 0 0.0070700828662885471 -0.095642759468232072 0 0.0061852153356011762 -0.095338705586764785 0 0.0067579852950848725 -0.09489528494983529 0 0.0070700828662885471 -0.095642759468232072 0 0.0061852153356011762 -0.095338705586764785 0 0.0070700828662885471 -0.095642759468232072 0 0.0066215974954139277 -0.096574369179369415 0 0.0066215974954139277 -0.096574369179369415 0 0.0074484069303564189 -0.097556975591860398 0 0.0061806844619237159 -0.099021588430586213 0 0.0070700828662885471 -0.095642759468232072 0 0.0066215974954139277 -0.096574369179369415 0 0.0076037259150260354 -0.096270904269239163 0 0.0076037259150260354 -0.096270904269239163 0 0.0085081754966729317 -0.097152231436530609 0 0.0088482954276930675 -0.095812777277125949 0 0.0078039868867786164 -0.095159616178800602 0 0.0070700828662885471 -0.095642759468232072 0 0.0076037259150260354 -0.096270904269239163 0 0.0078039868867786164 -0.095159616178800602 0 0.0076037259150260354 -0.096270904269239163 0 0.0088482954276930675 -0.095812777277125949 0 0.0076037259150260354 -0.096270904269239163 0 0.0074484069303564189 -0.097556975591860398 0 0.0085081754966729317 -0.097152231436530609 0 0.0074484069303564189 -0.097556975591860398 0 0.0080822944172886761 -0.098348541361238509 0 0.0085081754966729317 -0.097152231436530609 0 0.0066215974954139277 -0.096574369179369415 0 0.0076037259150260354 -0.096270904269239163 0 0.0074484069303564189 -0.097556975591860398 0 0.0048074410160069648 -0.095364469088306966 0 0.0052719875252930188 -0.096828787864813373 0 0.0036409541833440028 -0.096001814918409048 0 0.0049278532292945654 -0.093675094136214387 0 0.0039471395428048797 -0.088709716626887258 0 0.0027689491338535608 -0.093178833959052285 0 0.002438935806281003 -0.092889868931085362 0 0.0048074410160069648 -0.095364469088306966 0 0.0041152450741593445 -0.095059306990771225 0 0.0033586137311400512 -0.096162691589087676 0 0.0053464321546821984 -0.095623434032282614 0 0.0066215974954139277 -0.096574369179369415 0 0.0061806844619237159 -0.099021588430586213 0 0.0048746880943296659 -0.094981997706406585 0 0.0048074410160069648 -0.095364469088306966 0 0.0052719875252930188 -0.096828787864813373 0 0.0053464321546821984 -0.095623434032282614 0 0.0061852153356011762 -0.095338705586764785 0 0.0066215974954139277 -0.096574369179369415 0 0.0048746880943296659 -0.094981997706406585 0 0.0048074410160069648 -0.095364469088306966 0 0.0041152450741593445 -0.095059306990771225 0 0.0039471395428048797 -0.088709716626887258 0 0.002438935806281003 -0.092889868931085362 0 -0.00013882893405825985 -0.093842504869876872 0 -0.00017764735225814582 -0.093813924367210755 0 -0.00017459619574758373 -0.093867184466216766 0 -0.00013882893405825985 -0.093842504869876872 0 -0.00015739207946090152 -0.093869376437428251 0 -0.00017459619574758373 -0.093867184466216766 0 -0.00013882893405825985 -0.093842504869876872 0 -0.00015739207946090152 -0.093869376437428251 0 -0.00016354711062402795 -0.093877861104503843 0 -0.00015739207946090152 -0.093869376437428251 0 -0.00016200081483165081 -0.093884075544806073 0 -0.00016354711062402795 -0.093877861104503843 0 -0.00015739207946090152 -0.093869376437428251 0 -0.00017459619574758373 -0.093867184466216766 0 -0.00016200081483165081 -0.093884075544806073 0 -0.0043402188708194034 -0.073022651159207211 0 -0.00088959032294980958 -0.076412688926383851 0 -0.0033332690523981802 -0.077634232136666495 0 -0.0043402188708194034 -0.073022651159207211 0 -0.00018376742089622216 -0.075079006013087105 0 -0.00088959032294980958 -0.076412688926383851 0 0.0039471395428048797 -0.088709716626887258 0 0.0010184537538151669 -0.086680931205277673 0 0.0061806844619237159 -0.099021588430586213 0 0.0080822944172886761 -0.098348541361238509 0 0.0089352787731150594 -0.10032957172207776 0 0.0039471395428048797 -0.088709716626887258 0 0.001646208398467077 -0.076877629440324904 0 0.0074484069303564189 -0.097556975591860398 0 0.0061806844619237159 -0.099021588430586213 0 0.0080822944172886761 -0.098348541361238509 0 0.0080822944172886761 -0.098348541361238509 0 0.0091199366767510288 -0.098110310824057703 0 0.0085081754966729317 -0.097152231436530609 0 0.0080822944172886761 -0.098348541361238509 0 0.0091199366767510288 -0.098110310824057703 0 0.0089352787731150594 -0.10032957172207776 0 0.0092724200583628614 -0.05755398561767703 0 0.001646208398467077 -0.076877629440324904 0 0.0016539830798201734 -0.069477691191555155 0 -0.00081067965765190876 -0.074160595432730222 0 0.0020888210147104128 -0.072711070336842445 0 0.0091199366767510288 -0.098110310824057703 0 0.010303802609296763 -0.097795165861883096 0 0.0089352787731150594 -0.10032957172207776 0 -0.00081067965765190876 -0.074160595432730222 0 0.0030330708253642827 -0.074311505006574782 0 0.0020888210147104128 -0.072711070336842445 0 0.001646208398467077 -0.076877629440324904 0 0.0029358467733529309 -0.07714391385482923 0 -0.00014563172991017932 -0.074990990051215442 0 0.00097700821302530326 -0.076873329678443486 0 0.0033903464515644597 -0.076699557490779668 0 0.001646208398467077 -0.076877629440324904 0 0.0015863694076225824 -0.076870323630431114 0 0.00097700821302530326 -0.076873329678443486 0 -0.00088959032294980958 -0.076412688926383851 0 0.00021140202269062265 -0.078132604698557373 0 -0.00014563172991017932 -0.074990990051215442 0 0.00097700821302530326 -0.076873329678443486 0 -0.00088959032294980958 -0.076412688926383851 0 0.0031521856225276063 -0.076170569512287373 0 0.0048777522251431012 -0.074333301701320909 0 0.0070123251545223097 -0.078288725714127205 0 -0.00081067965765190876 -0.074160595432730222 0 0.0031521856225276063 -0.076170569512287373 0 0.0030330708253642827 -0.074311505006574782 0 0.0030330708253642827 -0.074311505006574782 0 0.0048777522251431012 -0.074333301701320909 0 0.0020888210147104128 -0.072711070336842445 0 0.0031521856225276063 -0.076170569512287373 0 0.0030330708253642827 -0.074311505006574782 0 0.0048777522251431012 -0.074333301701320909 0 0.024831175953738946 -0.0074444009981189654 0 0.022810028965078038 -0.0045039169417944898 0 0.0230543505497251 -0.0064844464964921716 0 0.0092724200583628614 -0.05755398561767703 0 0.0096167281049749156 -0.045726176420366603 0 0.022810028965078038 -0.0045039169417944898 0 0.0230543505497251 -0.0064844464964921716 0 0.0221339570871627 -0.0055397130086336423 0 0.0016539830798201734 -0.069477691191555155 0 0.0048777522251431012 -0.074333301701320909 0 0.0020888210147104128 -0.072711070336842445 0 0.024831175953738946 -0.0074444009981189654 0 0.0230543505497251 -0.0064844464964921716 0 0.023563838630103917 -0.0074591216020492195 0 0.0230543505497251 -0.0064844464964921716 0 0.022553503994885159 -0.0076072478013471199 0 0.023563838630103917 -0.0074591216020492195 0 0.022553503994885159 -0.0076072478013471199 0 0.023222447836355957 -0.008440561921060857 0 0.022076226320544068 -0.0091224449526130166 0 0.024831175953738946 -0.0074444009981189654 0 0.023222447836355957 -0.008440561921060857 0 0.023274552617171481 -0.010578768052557783 0 0.010389657312335744 -0.097920588780907827 0 0.010328577458668959 -0.096110643287245265 0 0.012582804534547532 -0.095116797537902795 0 0.0092724200583628614 -0.05755398561767703 0 0.014950950881447629 -0.052418219522518766 0 0.022553503994885159 -0.0076072478013471199 0 0.023563838630103917 -0.0074591216020492195 0 0.023222447836355957 -0.008440561921060857 0 0.023222447836355957 -0.008440561921060857 0 0.023274552617171481 -0.010578768052557783 0 0.022076226320544068 -0.0091224449526130166 0 0.024831175953738946 -0.0074444009981189654 0 0.023563838630103917 -0.0074591216020492195 0 0.023222447836355957 -0.008440561921060857 0 0.0092724200583628614 -0.05755398561767703 0 0.010772729999199503 -0.06086271399448813 0 0.0091199366767510288 -0.098110310824057703 0 0.010303802609296763 -0.097795165861883096 0 0.0097658745895304287 -0.096961797945678621 0 0.010389657312335744 -0.097920588780907827 0 0.0097658745895304287 -0.096961797945678621 0 0.010328577458668959 -0.096110643287245265 0 0.0091199366767510288 -0.098110310824057703 0 0.0097658745895304287 -0.096961797945678621 0 0.0085081754966729317 -0.097152231436530609 0 0.0097658745895304287 -0.096961797945678621 0 0.0085081754966729317 -0.097152231436530609 0 0.0088482954276930675 -0.095812777277125949 0 0.0097658745895304287 -0.096961797945678621 0 0.0088482954276930675 -0.095812777277125949 0 0.010328577458668959 -0.096110643287245265 0 0.0088482954276930675 -0.095812777277125949 0 0.010328577458668959 -0.096110643287245265 0 0.010147182039361219 -0.094604326506007502 0 0.0078039868867786164 -0.095159616178800602 0 0.0088482954276930675 -0.095812777277125949 0 0.0089633958064131037 -0.094693570895337434 0 0.0088482954276930675 -0.095812777277125949 0 0.010147182039361219 -0.094604326506007502 0 0.0089633958064131037 -0.094693570895337434 0 0.0096150166430840275 -0.093166237862704573 0 0.0081879697414722306 -0.094059042715082725 0 0.0089633958064131037 -0.094693570895337434 0 0.011402948590447682 -0.092675795058773588 0 0.0096150166430840275 -0.093166237862704573 0 0.010147182039361219 -0.094604326506007502 0 0.0096150166430840275 -0.093166237862704573 0 0.010147182039361219 -0.094604326506007502 0 0.0089633958064131037 -0.094693570895337434 0 0.011402948590447682 -0.092675795058773588 0 0.010147182039361219 -0.094604326506007502 0 0.012582804534547532 -0.095116797537902795 0 0.010328577458668959 -0.096110643287245265 0 0.010147182039361219 -0.094604326506007502 0 0.012582804534547532 -0.095116797537902795 0 0.023274552617171481 -0.010578768052557783 0 0.021041793811349151 -0.010159398174360382 0 0.020835088452905905 -0.011862467873283065 0 0.023274552617171481 -0.010578768052557783 0 0.021041793811349151 -0.010159398174360382 0 0.022076226320544068 -0.0091224449526130166 0 0.021041793811349151 -0.010159398174360382 0 0.01917422606007553 -0.010699512899042305 0 0.020099503786508183 -0.0084112445003254339 0 0.021041793811349151 -0.010159398174360382 0 0.020835088452905905 -0.011862467873283065 0 0.01917422606007553 -0.010699512899042305 0 0.020099503786508183 -0.0084112445003254339 0 0.018367278450086649 -0.0071676893781296878 0 0.017251194635182911 -0.0090769218144837998 0 0.01917422606007553 -0.010699512899042305 0 0.020099503786508183 -0.0084112445003254339 0 0.017251194635182911 -0.0090769218144837998 0 0.020099503786508183 -0.0084112445003254339 0 0.021333167775904112 -0.007623928297905592 0 0.020043077546654603 -0.0062907250219807684 0 0.020099503786508183 -0.0084112445003254339 0 0.021333167775904112 -0.007623928297905592 0 0.022076226320544068 -0.0091224449526130166 0 0.021041793811349151 -0.010159398174360382 0 0.020099503786508183 -0.0084112445003254339 0 0.022076226320544068 -0.0091224449526130166 0 0.022553503994885159 -0.0076072478013471199 0 0.021333167775904112 -0.007623928297905592 0 0.022076226320544068 -0.0091224449526130166 0 0.0230543505497251 -0.0064844464964921716 0 0.022553503994885159 -0.0076072478013471199 0 0.021916062595098769 -0.0065577026226656433 0 0.022553503994885159 -0.0076072478013471199 0 0.021333167775904112 -0.007623928297905592 0 0.021916062595098769 -0.0065577026226656433 0 0.021333167775904112 -0.007623928297905592 0 0.021916062595098769 -0.0065577026226656433 0 0.020043077546654603 -0.0062907250219807684 0 0.02122004094608446 -0.0055318595673903266 0 0.020340756238982304 -0.0047337771783409321 0 0.020043077546654603 -0.0062907250219807684 0 0.021916062595098769 -0.0065577026226656433 0 0.02122004094608446 -0.0055318595673903266 0 0.020043077546654603 -0.0062907250219807684 0 0.0230543505497251 -0.0064844464964921716 0 0.021916062595098769 -0.0065577026226656433 0 0.0221339570871627 -0.0055397130086336423 0 0.021916062595098769 -0.0065577026226656433 0 0.02122004094608446 -0.0055318595673903266 0 0.0221339570871627 -0.0055397130086336423 0 0.02122004094608446 -0.0055318595673903266 0 0.0221339570871627 -0.0055397130086336423 0 0.021462511630274107 -0.0048015979181260278 0 0.022810028965078038 -0.0045039169417944898 0 0.020826048939745653 -0.0037018411457999489 0 0.020708113381261044 -0.0017069997348997305 0 0.0096167281049749156 -0.045726176420366603 0 0.011496121577900307 -0.042759505854987938 0 0.022810028965078038 -0.0045039169417944898 0 0.021462511630274107 -0.0048015979181260278 0 0.020826048939745653 -0.0037018411457999489 0 0.022810028965078038 -0.0045039169417944898 0 0.0221339570871627 -0.0055397130086336423 0 0.021462511630274107 -0.0048015979181260278 0 0.021462511630274107 -0.0048015979181260278 0 0.020340756238982304 -0.0047337771783409321 0 0.020826048939745653 -0.0037018411457999489 0 0.020340756238982304 -0.0047337771783409321 0 0.020826048939745653 -0.0037018411457999489 0 0.019553170478789551 -0.0039199256701317681 0 0.02122004094608446 -0.0055318595673903266 0 0.021462511630274107 -0.0048015979181260278 0 0.020340756238982304 -0.0047337771783409321 0 0.018245848428215732 -0.0037917002138630443 0 0.019553170478789551 -0.0039199256701317681 0 0.019243890020958412 -0.0026564607329549283 0 0.020826048939745653 -0.0037018411457999489 0 0.019553170478789551 -0.0039199256701317681 0 0.019243890020958412 -0.0026564607329549283 0 0.020340756238982304 -0.0047337771783409321 0 0.019553170478789551 -0.0039199256701317681 0 0.019140270723775468 -0.0048246955628537891 0 0.018245848428215732 -0.0037917002138630443 0 0.019140270723775468 -0.0048246955628537891 0 0.017950300170078405 -0.0055261043788994236 0 0.018245848428215732 -0.0037917002138630443 0 0.019553170478789551 -0.0039199256701317681 0 0.019140270723775468 -0.0048246955628537891 0 0.019140270723775468 -0.0048246955628537891 0 0.020043077546654603 -0.0062907250219807684 0 0.017950300170078405 -0.0055261043788994236 0 0.020340756238982304 -0.0047337771783409321 0 0.019140270723775468 -0.0048246955628537891 0 0.020043077546654603 -0.0062907250219807684 0 0.020099503786508183 -0.0084112445003254339 0 0.020043077546654603 -0.0062907250219807684 0 0.018367278450086649 -0.0071676893781296878 0 0.020043077546654603 -0.0062907250219807684 0 0.018367278450086649 -0.0071676893781296878 0 0.017950300170078405 -0.0055261043788994236 0 0.016196848048308659 -0.0065775081862785023 0 0.017950300170078405 -0.0055261043788994236 0 0.016587827321411626 -0.004184690154698488 0 0.018367278450086649 -0.0071676893781296878 0 0.016196848048308659 -0.0065775081862785023 0 0.017950300170078405 -0.0055261043788994236 0 0.018245848428215732 -0.0037917002138630443 0 0.017950300170078405 -0.0055261043788994236 0 0.016587827321411626 -0.004184690154698488 0 0.018245848428215732 -0.0037917002138630443 0 0.016587827321411626 -0.004184690154698488 0 0.017160536893360934 -0.0022565408278366838 0 0.014612841491508984 -0.0046173098026749126 0 0.014195112610823169 -0.0022810456996259893 0 0.012524310877959223 -0.0039180891452688816 0 0.016587827321411626 -0.004184690154698488 0 0.014612841491508984 -0.0046173098026749126 0 0.014195112610823169 -0.0022810456996259893 0 0.016196848048308659 -0.0065775081862785023 0 0.014612841491508984 -0.0046173098026749126 0 0.013649891051945117 -0.0062177184627924733 0 0.016196848048308659 -0.0065775081862785023 0 0.016587827321411626 -0.004184690154698488 0 0.014612841491508984 -0.0046173098026749126 0 0.016196848048308659 -0.0065775081862785023 0 0.014707755295969684 -0.008417976492175688 0 0.013649891051945117 -0.0062177184627924733 0 0.018367278450086649 -0.0071676893781296878 0 0.016196848048308659 -0.0065775081862785023 0 0.017251194635182911 -0.0090769218144837998 0 0.016196848048308659 -0.0065775081862785023 0 0.014707755295969684 -0.008417976492175688 0 0.017251194635182911 -0.0090769218144837998 0 0.017092432845901399 -0.011895021492654784 0 0.017251194635182911 -0.0090769218144837998 0 0.015177260946416514 -0.0106588927029604 0 0.017092432845901399 -0.011895021492654784 0 0.01917422606007553 -0.010699512899042305 0 0.017251194635182911 -0.0090769218144837998 0 0.014707755295969684 -0.008417976492175688 0 0.017251194635182911 -0.0090769218144837998 0 0.015177260946416514 -0.0106588927029604 0 0.014707755295969684 -0.008417976492175688 0 0.015177260946416514 -0.0106588927029604 0 0.013096353281569962 -0.010884338035024569 0 0.014823484631740354 -0.012858826370414418 0 0.015177260946416514 -0.0106588927029604 0 0.013096353281569962 -0.010884338035024569 0 1.2923126140590443e-05 -0.094149897226668777 0 9.3646778390364918e-05 -0.09405878628062922 0 2.7100514401696594e-05 -0.094300580404810819 0 1.2923126140590443e-05 -0.094149897226668777 0 2.7100514401696594e-05 -0.094300580404810819 0 -8.9643460443018906e-06 -0.094508771600270741 0 0.0001576740492247344 -0.093411985664805269 0 -0.00047689751203229823 -0.092226416173511669 0 1.2923126140590443e-05 -0.094149897226668777 0 0.00020575613022563532 -0.093790389135046559 0 9.3646778390364918e-05 -0.09405878628062922 0 1.2923126140590443e-05 -0.094149897226668777 0 0.00020575613022563532 -0.093790389135046559 0 0.00037043954116340388 -0.093306464371721645 0 0.00020575613022563532 -0.093790389135046559 0 9.3646778390364918e-05 -0.09405878628062922 0 0.00013580754216599916 -0.09409120499317751 0 0.00020575613022563532 -0.093790389135046559 0 0.00013580754216599916 -0.09409120499317751 0 0.00029280935108486766 -0.093820638334916606 0 0.00013580754216599916 -0.09409120499317751 0 0.0001951692877974324 -0.094187433421464628 0 0.00029280935108486766 -0.093820638334916606 0 0.00013580754216599916 -0.09409120499317751 0 0.0001951692877974324 -0.094187433421464628 0 8.6381340462614073e-05 -0.094386142228336439 0 2.7100514401696594e-05 -0.094300580404810819 0 5.871296878942806e-06 -0.094540682943966212 0 8.6381340462614073e-05 -0.094386142228336439 0 2.7100514401696594e-05 -0.094300580404810819 0 5.871296878942806e-06 -0.094540682943966212 0 -1.9053962829875075e-05 -0.094618370222580864 0 0.00013580754216599916 -0.09409120499317751 0 2.7100514401696594e-05 -0.094300580404810819 0 8.6381340462614073e-05 -0.094386142228336439 0 9.3646778390364918e-05 -0.09405878628062922 0 0.00013580754216599916 -0.09409120499317751 0 2.7100514401696594e-05 -0.094300580404810819 0 5.871296878942806e-06 -0.094540682943966212 0 -1.9053962829875075e-05 -0.094618370222580864 0 -2.5240442448989968e-05 -0.094788396458446736 0 -1.9053962829875075e-05 -0.094618370222580864 0 -2.0205565970984817e-05 -0.094801973849420268 0 -2.5240442448989968e-05 -0.094788396458446736 0 2.7100514401696594e-05 -0.094300580404810819 0 -1.9053962829875075e-05 -0.094618370222580864 0 -8.9643460443018906e-06 -0.094508771600270741 0 -1.9053962829875075e-05 -0.094618370222580864 0 -2.0205565970984817e-05 -0.094801973849420268 0 -1.8386368820867395e-05 -0.094718849836101376 0 -7.7402419417198447e-08 -0.094999458874450174 0 -2.0205565970984817e-05 -0.094801973849420268 0 -2.5240442448989968e-05 -0.094788396458446736 0 -7.7402419417198447e-08 -0.094999458874450174 0 -2.0205565970984817e-05 -0.094801973849420268 0 -2.2372447037791837e-05 -0.094929334331467843 0 -7.7402419417198447e-08 -0.094999458874450174 0 -2.2372447037791837e-05 -0.094929334331467843 0 -8.2947317307535773e-09 -0.094999874111751911 0 -2.2372447037791837e-05 -0.094929334331467843 0 -1.0569274655420508e-05 -0.094788623555106186 0 -7.5777697636804692e-05 -0.094668538020690182 0 -2.0205565970984817e-05 -0.094801973849420268 0 -2.2372447037791837e-05 -0.094929334331467843 0 -1.8386368820867395e-05 -0.094718849836101376 0 -2.2372447037791837e-05 -0.094929334331467843 0 -1.8386368820867395e-05 -0.094718849836101376 0 -1.0569274655420508e-05 -0.094788623555106186 0 0.0001576740492247344 -0.093411985664805269 0 0.00015066689056911331 -0.093775964945394585 0 1.2923126140590443e-05 -0.094149897226668777 0 -1.0569274655420508e-05 -0.094788623555106186 0 -8.9643460443018906e-06 -0.094508771600270741 0 -1.8386368820867395e-05 -0.094718849836101376 0 -1.0569274655420508e-05 -0.094788623555106186 0 -8.9643460443018906e-06 -0.094508771600270741 0 -1.9053962829875075e-05 -0.094618370222580864 0 -1.8386368820867395e-05 -0.094718849836101376 0 -8.9643460443018906e-06 -0.094508771600270741 0 -1.0569274655420508e-05 -0.094788623555106186 0 0.00012607085711954352 -0.094693232755838852 0 3.4961052989210262e-05 -0.094672690030123408 0 0.00020649123462985962 -0.094737525185355498 0 -1.0569274655420508e-05 -0.094788623555106186 0 0.00012607085711954352 -0.094693232755838852 0 3.4961052989210262e-05 -0.094672690030123408 0 4.9944879660198019e-06 -0.094616755457007068 0 0.00011687967269088213 -0.094609377197242966 0 0.00012607085711954352 -0.094693232755838852 0 3.4961052989210262e-05 -0.094672690030123408 0 0.00011687967269088213 -0.094609377197242966 0 -0.00021511263126320081 -0.09469462375046539 0 -0.00023525024446543794 -0.094597930171491845 0 -2.2372447037791837e-05 -0.094929334331467843 0 -8.2947317307535773e-09 -0.094999874111751911 0 -5.5215955058498602e-06 -0.095008187073561318 0 -8.2947317307535773e-09 -0.094999874111751911 0 -5.5215955058498602e-06 -0.095008187073561318 0 -4.2355437168598301e-09 -0.095000081540714237 0 -1.0569274655420508e-05 -0.094788623555106186 0 3.4961052989210262e-05 -0.094672690030123408 0 -7.5777697636804692e-05 -0.094668538020690182 0 3.4961052989210262e-05 -0.094672690030123408 0 -7.5777697636804692e-05 -0.094668538020690182 0 4.9944879660198019e-06 -0.094616755457007068 0 -7.5777697636804692e-05 -0.094668538020690182 0 4.9944879660198019e-06 -0.094616755457007068 0 -6.1686928018489236e-05 -0.094520306677786339 0 -0.00023525024446543794 -0.094597930171491845 0 -0.00029610203720593226 -0.094245130269685701 0 4.9944879660198019e-06 -0.094616755457007068 0 -6.1686928018489236e-05 -0.094520306677786339 0 0.00011687967269088213 -0.094609377197242966 0 -5.5215955058498602e-06 -0.095008187073561318 0 4.1817243719666934e-07 -0.095000819792402796 0 -4.2355437168598301e-09 -0.095000081540714237 0 -0.00029610203720593226 -0.094245130269685701 0 -2.3454160291972102e-07 -0.094994984134793667 0 4.6573505215313293e-05 -0.090334644017147636 0 0.0013544570682453611 -0.089608304858945956 0 -0.00012284891294073202 -0.08888418716938061 0 -0.00029610203720593226 -0.094245130269685701 0 -0.00048216293589956424 -0.092921005279547733 0 4.6573505215313293e-05 -0.090334644017147636 0 -0.00012284891294073202 -0.08888418716938061 0 -0.00094446080274500788 -0.089754093436113611 0 -0.00094446080274500788 -0.089754093436113611 0 -0.0010500060666047784 -0.088880963250033015 0 -0.0017587513047761557 -0.088829800838681361 0 -0.00012284891294073202 -0.08888418716938061 0 -0.00094446080274500788 -0.089754093436113611 0 -0.0010500060666047784 -0.088880963250033015 0 -0.00012284891294073202 -0.08888418716938061 0 -0.0010500060666047784 -0.088880963250033015 0 -0.0013672074582467759 -0.087994071321985987 0 -0.00048216293589956424 -0.092921005279547733 0 -0.0007339172270237358 -0.092234000548676739 0 0.00012607085711954352 -0.094693232755838852 0 0.00011687967269088213 -0.094609377197242966 0 0.00025418957520422213 -0.094678078838245625 0 0.00020649123462985962 -0.094737525185355498 0 0.00012607085711954352 -0.094693232755838852 0 0.00025418957520422213 -0.094678078838245625 0 -0.0007339172270237358 -0.092234000548676739 0 -0.00047689751203229823 -0.092226416173511669 0 -0.0013672074582467759 -0.087994071321985987 0 -0.0017587513047761557 -0.088829800838681361 0 -0.0030529375422594361 -0.087088060386166871 0 0.00020649123462985962 -0.094737525185355498 0 0.00025418957520422213 -0.094678078838245625 0 0.00036563671511964473 -0.094717870067710916 0 -0.0017193253029520968 -0.090292114626057129 0 -0.0017587513047761557 -0.088829800838681361 0 -0.002528911221955438 -0.08892135568402737 0 -0.0017193253029520968 -0.090292114626057129 0 -0.00094446080274500788 -0.089754093436113611 0 -0.0017587513047761557 -0.088829800838681361 0 -0.0010500060666047784 -0.088880963250033015 0 -0.0013672074582467759 -0.087994071321985987 0 -0.0017587513047761557 -0.088829800838681361 0 -0.0025991975561055185 -0.089962458046413493 0 -0.002528911221955438 -0.08892135568402737 0 -0.0033507306214263341 -0.088229354704434604 0 -0.0037306187079915554 -0.083912922124766975 0 -0.0039157466405011741 -0.085282728154612811 0 -0.0035901653771322627 -0.090454667417910958 0 -0.0033507306214263341 -0.088229354704434604 0 -0.0045081712484043822 -0.087009294914835791 0 -0.0038294986857659308 -0.087457056902216557 0 -0.0040837822924738179 -0.087977194447687868 0 -0.0030529375422594361 -0.087088060386166871 0 -0.0033507306214263341 -0.088229354704434604 0 -0.0045081712484043822 -0.087009294914835791 0 -0.0038294986857659308 -0.087457056902216557 0 -0.0045081712484043822 -0.087009294914835791 0 -0.0038294986857659308 -0.087457056902216557 0 -0.0040837822924738179 -0.087977194447687868 0 -0.0017587513047761557 -0.088829800838681361 0 -0.002528911221955438 -0.08892135568402737 0 -0.0030529375422594361 -0.087088060386166871 0 -0.002528911221955438 -0.08892135568402737 0 -0.0033507306214263341 -0.088229354704434604 0 -0.0030529375422594361 -0.087088060386166871 0 -0.0033507306214263341 -0.088229354704434604 0 -0.0038294986857659308 -0.087457056902216557 0 -0.0030529375422594361 -0.087088060386166871 0 0.00061158530685462374 -0.0816585255353066 0 -0.0027391032154111109 -0.081970964709474972 0 -0.0012084347392597571 -0.085764448282126815 0 0.00061158530685462374 -0.0816585255353066 0 0.0022488881717989263 -0.085394593441253538 0 -0.0012084347392597571 -0.085764448282126815 0 -0.0062445537197906593 -0.078481131400061285 0 -0.0045081712484043822 -0.087009294914835791 0 -0.0027391032154111109 -0.081970964709474972 0 -0.0045081712484043822 -0.087009294914835791 0 -0.0027391032154111109 -0.081970964709474972 0 -0.0012084347392597571 -0.085764448282126815 0 -0.0045081712484043822 -0.087009294914835791 0 -0.0025571911321353733 -0.08743944786795993 0 -0.0012084347392597571 -0.085764448282126815 0 -0.0025571911321353733 -0.08743944786795993 0 0.00013482025778122403 -0.089186812076349695 0 -0.0040837822924738179 -0.087977194447687868 0 -0.0045081712484043822 -0.087009294914835791 0 -0.0025571911321353733 -0.08743944786795993 0 -0.0040837822924738179 -0.087977194447687868 0 0.0022488881717989263 -0.085394593441253538 0 -0.0012084347392597571 -0.085764448282126815 0 0.00013482025778122403 -0.089186812076349695 0 -0.0025571911321353733 -0.08743944786795993 0 -0.0012084347392597571 -0.085764448282126815 0 0.00013482025778122403 -0.089186812076349695 0 0.004439737205953624 -0.092440512421440177 0 0.003384538977286018 -0.090531864277480945 0 0.0032039682053554563 -0.092503528890574976 0 0.003384538977286018 -0.090531864277480945 0 0.002302041028748327 -0.092023021280070283 0 0.0032039682053554563 -0.092503528890574976 0 0.003384538977286018 -0.090531864277480945 0 0.002302041028748327 -0.092023021280070283 0 0.0013862508796357908 -0.091427570385875276 0 0.0021942056394886173 -0.090459070622229229 0 4.0684885459739973e-05 -0.091009078870690013 0 0.002302041028748327 -0.092023021280070283 0 0.0016225210892075923 -0.092778224992842218 0 0.0010449235979773574 -0.092545591555797391 0 0.002302041028748327 -0.092023021280070283 0 0.0013862508796357908 -0.091427570385875276 0 0.0010449235979773574 -0.092545591555797391 0 0.0016225210892075923 -0.092778224992842218 0 0.0023137722094833274 -0.093267032940163183 0 0.0013948006095143046 -0.093407280995877279 0 0.0023137722094833274 -0.093267032940163183 0 0.0013948006095143046 -0.093407280995877279 0 0.0016235245089453387 -0.094053148275912477 0 0.002302041028748327 -0.092023021280070283 0 0.0016225210892075923 -0.092778224992842218 0 0.0023137722094833274 -0.093267032940163183 0 0.002302041028748327 -0.092023021280070283 0 0.0023137722094833274 -0.093267032940163183 0 0.0032039682053554563 -0.092503528890574976 0 0.0023137722094833274 -0.093267032940163183 0 0.0032039682053554563 -0.092503528890574976 0 0.0037522919664378001 -0.093736640710530922 0 0.004439737205953624 -0.092440512421440177 0 0.0032039682053554563 -0.092503528890574976 0 0.0037522919664378001 -0.093736640710530922 0 0.00037043954116340388 -0.093306464371721645 0 0.00052175240438842357 -0.093615834373577678 0 0.00029280935108486766 -0.093820638334916606 0 0.00020575613022563532 -0.093790389135046559 0 0.00037043954116340388 -0.093306464371721645 0 0.00029280935108486766 -0.093820638334916606 0 0.00037043954116340388 -0.093306464371721645 0 0.0008270962352744651 -0.093162631279877006 0 0.00052175240438842357 -0.093615834373577678 0 -0.00047689751203229823 -0.092226416173511669 0 0.00015313847615290138 -0.092473073006519427 0 4.0684885459739973e-05 -0.091009078870690013 0 -0.00047689751203229823 -0.092226416173511669 0 0.00037043954116340388 -0.093306464371721645 0 0.0010449235979773574 -0.092545591555797391 0 0.0008270962352744651 -0.093162631279877006 0 0.0013862508796357908 -0.091427570385875276 0 -0.0013868729877098823 -0.091475985729255124 0 0.0010449235979773574 -0.092545591555797391 0 0.0016225210892075923 -0.092778224992842218 0 0.0010449235979773574 -0.092545591555797391 0 0.0008270962352744651 -0.093162631279877006 0 0.0008270962352744651 -0.093162631279877006 0 0.00091591175688914212 -0.093728356190501821 0 0.00052175240438842357 -0.093615834373577678 0 0.0016225210892075923 -0.092778224992842218 0 0.0008270962352744651 -0.093162631279877006 0 0.0013948006095143046 -0.093407280995877279 0 0.0008270962352744651 -0.093162631279877006 0 0.0013948006095143046 -0.093407280995877279 0 0.00091591175688914212 -0.093728356190501821 0 0.0013948006095143046 -0.093407280995877279 0 0.00091591175688914212 -0.093728356190501821 0 0.0016235245089453387 -0.094053148275912477 0 0.00091591175688914212 -0.093728356190501821 0 0.00052175240438842357 -0.093615834373577678 0 0.0006175529695108639 -0.094030212892244627 0 0.00052175240438842357 -0.093615834373577678 0 0.00034395546403607899 -0.094135968061556496 0 0.0006175529695108639 -0.094030212892244627 0 0.00052175240438842357 -0.093615834373577678 0 0.00029280935108486766 -0.093820638334916606 0 0.00034395546403607899 -0.094135968061556496 0 0.0001951692877974324 -0.094187433421464628 0 0.00029280935108486766 -0.093820638334916606 0 0.00034395546403607899 -0.094135968061556496 0 0.00034395546403607899 -0.094135968061556496 0 0.00034228483373564448 -0.09445969355079703 0 0.0001964814719731143 -0.094417428379980683 0 0.00034395546403607899 -0.094135968061556496 0 0.00034228483373564448 -0.09445969355079703 0 0.00054175472003797573 -0.094350867893046544 0 0.00034228483373564448 -0.09445969355079703 0 0.00054175472003797573 -0.094350867893046544 0 0.00045762656526348992 -0.094568269537255584 0 0.00034395546403607899 -0.094135968061556496 0 0.00054175472003797573 -0.094350867893046544 0 0.0006175529695108639 -0.094030212892244627 0 0.00091591175688914212 -0.093728356190501821 0 0.0006175529695108639 -0.094030212892244627 0 0.00089724295215278904 -0.094268514993895339 0 0.00054175472003797573 -0.094350867893046544 0 0.0006175529695108639 -0.094030212892244627 0 0.00089724295215278904 -0.094268514993895339 0 0.00091591175688914212 -0.093728356190501821 0 0.00089724295215278904 -0.094268514993895339 0 0.0016235245089453387 -0.094053148275912477 0 0.00089724295215278904 -0.094268514993895339 0 0.0016235245089453387 -0.094053148275912477 0 0.0014725825163378965 -0.094625041350949651 0 0.00089724295215278904 -0.094268514993895339 0 0.00086915268784210921 -0.09476007036324649 0 0.0014725825163378965 -0.094625041350949651 0 0.00054175472003797573 -0.094350867893046544 0 0.00062076354579501778 -0.094432335882048704 0 0.00045762656526348992 -0.094568269537255584 0 0.0012881937264369672 -0.093800934173087533 0 0.0013467288273121116 -0.093797596860614355 0 0.00054175472003797573 -0.094350867893046544 0 0.00089724295215278904 -0.094268514993895339 0 0.00090229265123906123 -0.094547205170443849 0 0.0013394490134262472 -0.093840399269039323 0 0.0013467288273121116 -0.093797596860614355 0 0.0013467288273121116 -0.093797596860614355 0 0.0019566623237241695 -0.093513697026067169 0 0.0012777913705692668 -0.093448526894032408 0 0.0012790507988141022 -0.093534882309824541 0 0.0013614519539999214 -0.093488963836580397 0 0.00062076354579501778 -0.094432335882048704 0 0.0005562468811157209 -0.094665353304059535 0 0.00045762656526348992 -0.094568269537255584 0 0.0013467288273121116 -0.093797596860614355 0 0.00096812247964722816 -0.094012386414739316 0 0.0005562468811157209 -0.094665353304059535 0 0.00045762656526348992 -0.094568269537255584 0 0.00035172372845413791 -0.094754118941387827 0 0.00045762656526348992 -0.094568269537255584 0 0.00035172372845413791 -0.094754118941387827 0 0.00021186061410587823 -0.094662785176412537 0 0.00034228483373564448 -0.09445969355079703 0 0.00045762656526348992 -0.094568269537255584 0 0.00021186061410587823 -0.094662785176412537 0 0.0023137722094833274 -0.093267032940163183 0 0.0037522919664378001 -0.093736640710530922 0 0.0026488179719895517 -0.094341257914834969 0 0.0041152450741593445 -0.095059306990771225 0 0.0034401092273713438 -0.094939593205292688 0 0.0037522919664378001 -0.093736640710530922 0 0.0034401092273713438 -0.094939593205292688 0 0.0026488179719895517 -0.094341257914834969 0 0.0027992446343501681 -0.095195053408941743 0 0.0034401092273713438 -0.094939593205292688 0 0.0037522919664378001 -0.093736640710530922 0 0.0026488179719895517 -0.094341257914834969 0 0.0020517079892463231 -0.094697785174751262 0 0.0026488179719895517 -0.094341257914834969 0 0.0016235245089453387 -0.094053148275912477 0 0.0020517079892463231 -0.094697785174751262 0 0.0026488179719895517 -0.094341257914834969 0 0.0027992446343501681 -0.095195053408941743 0 0.0023137722094833274 -0.093267032940163183 0 0.0026488179719895517 -0.094341257914834969 0 0.0016235245089453387 -0.094053148275912477 0 0.0020517079892463231 -0.094697785174751262 0 0.0014725825163378965 -0.094625041350949651 0 0.0020154789318959174 -0.095433053969460932 0 0.0020517079892463231 -0.094697785174751262 0 0.0016235245089453387 -0.094053148275912477 0 0.0014725825163378965 -0.094625041350949651 0 0.00086915268784210921 -0.09476007036324649 0 0.0014725825163378965 -0.094625041350949651 0 0.0020154789318959174 -0.095433053969460932 0 0.0019566623237241695 -0.093513697026067169 0 0.002438935806281003 -0.092889868931085362 0 0.0013614519539999214 -0.093488963836580397 0 0.0014468537002002247 -0.093529145196033392 0 0.0013629587149930249 -0.093576144356875224 0 0.0012790507988141022 -0.093534882309824541 0 0.0013614519539999214 -0.093488963836580397 0 0.0013629587149930249 -0.093576144356875224 0 0.0020517079892463231 -0.094697785174751262 0 0.0020154789318959174 -0.095433053969460932 0 0.0027992446343501681 -0.095195053408941743 0 0.0020154789318959174 -0.095433053969460932 0 0.0027992446343501681 -0.095195053408941743 0 0.0033586137311400512 -0.096162691589087676 0 0.0034401092273713438 -0.094939593205292688 0 0.0027992446343501681 -0.095195053408941743 0 0.0033586137311400512 -0.096162691589087676 0 0.0041152450741593445 -0.095059306990771225 0 0.0034401092273713438 -0.094939593205292688 0 0.0033586137311400512 -0.096162691589087676 0 -0.00017764735225814582 -0.093813924367210755 0 -0.00021750110003180751 -0.093830073878018352 0 -0.00017459619574758373 -0.093867184466216766 0 0.002438935806281003 -0.092889868931085362 0 0.0012066416060279249 -0.093662321021795031 0 0.0012066416060279249 -0.093662321021795031 0 0.0005994051445328745 -0.094167318512977272 0 -0.00021750110003180751 -0.093830073878018352 0 -0.0002273875422318953 -0.093866828770579863 0 -0.00027346191661468966 -0.093849155662678124 0 -0.0002273875422318953 -0.093866828770579863 0 -0.00017459619574758373 -0.093867184466216766 0 -0.00020573107171302705 -0.093907113109943915 0 -0.00021750110003180751 -0.093830073878018352 0 -0.0002273875422318953 -0.093866828770579863 0 -0.00017459619574758373 -0.093867184466216766 0 -0.0002273875422318953 -0.093866828770579863 0 -0.00028792676240456259 -0.093919760509280262 0 -0.00020573107171302705 -0.093907113109943915 0 0.00035172372845413791 -0.094754118941387827 0 0.0001779313337078407 -0.094893872338891253 0 0.00020940949558290878 -0.094797102218355411 0 0.00035172372845413791 -0.094754118941387827 0 0.00020940949558290878 -0.094797102218355411 0 0.00021186061410587823 -0.094662785176412537 0 0.0005562468811157209 -0.094665353304059535 0 0.00035172372845413791 -0.094754118941387827 0 0.00051118618544804305 -0.094843889367392228 0 0.0012790507988141022 -0.093534882309824541 0 0.0013629587149930249 -0.093576144356875224 0 0.001279693902197603 -0.093622945363953686 0 0.00096812247964722816 -0.094012386414739316 0 0.0005994051445328745 -0.094167318512977272 0 0.0005994051445328745 -0.094167318512977272 0 0.00032338469939765185 -0.094172980925854771 0 -0.00032499476833888747 -0.094640719495054385 0 -9.9876843218659207e-05 -0.094528355910598438 0 -0.00033037919235320249 -0.094451849317363057 0 -0.0002273875422318953 -0.093866828770579863 0 -0.00027346191661468966 -0.093849155662678124 0 -0.00028792676240456259 -0.093919760509280262 0 0.00035172372845413791 -0.094754118941387827 0 0.00051118618544804305 -0.094843889367392228 0 0.0001779313337078407 -0.094893872338891253 0 0.0005994051445328745 -0.094167318512977272 0 0.00016961637757134421 -0.094514323362774794 0 0.0001779313337078407 -0.094893872338891253 0 8.079529545868897e-05 -0.0948508571111428 0 0.00011339649500897214 -0.094810971915889788 0 0.0001779313337078407 -0.094893872338891253 0 0.00011339649500897214 -0.094810971915889788 0 0.00020940949558290878 -0.094797102218355411 0 0.0001779313337078407 -0.094893872338891253 0 8.079529545868897e-05 -0.0948508571111428 0 6.473755189440927e-05 -0.094663302002242489 0 0.00011339649500897214 -0.094810971915889788 0 7.213802601857276e-05 -0.094721813413220945 0 4.401549275823348e-05 -0.094840431501382369 0 8.079529545868897e-05 -0.0948508571111428 0 0.00011339649500897214 -0.094810971915889788 0 4.401549275823348e-05 -0.094840431501382369 0 0.00011339649500897214 -0.094810971915889788 0 0.00020940949558290878 -0.094797102218355411 0 0.00021186061410587823 -0.094662785176412537 0 0.00021186061410587823 -0.094662785176412537 0 0.00010892965909427068 -0.094577140649136027 0 7.213802601857276e-05 -0.094721813413220945 0 0.00021186061410587823 -0.094662785176412537 0 0.00010892965909427068 -0.094577140649136027 0 0.0001964814719731143 -0.094417428379980683 0 0.00011339649500897214 -0.094810971915889788 0 0.00021186061410587823 -0.094662785176412537 0 7.213802601857276e-05 -0.094721813413220945 0 0.00034228483373564448 -0.09445969355079703 0 0.00021186061410587823 -0.094662785176412537 0 0.0001964814719731143 -0.094417428379980683 0 7.213802601857276e-05 -0.094721813413220945 0 1.3674331145925878e-05 -0.094779849255807014 0 4.401549275823348e-05 -0.094840431501382369 0 7.213802601857276e-05 -0.094721813413220945 0 2.7306639480211062e-05 -0.094633201227448935 0 1.3674331145925878e-05 -0.094779849255807014 0 0.00010892965909427068 -0.094577140649136027 0 7.213802601857276e-05 -0.094721813413220945 0 2.7306639480211062e-05 -0.094633201227448935 0 0.00010892965909427068 -0.094577140649136027 0 2.7306639480211062e-05 -0.094633201227448935 0 8.6381340462614073e-05 -0.094386142228336439 0 5.871296878942806e-06 -0.094540682943966212 0 2.7306639480211062e-05 -0.094633201227448935 0 8.6381340462614073e-05 -0.094386142228336439 0 0.0001951692877974324 -0.094187433421464628 0 8.6381340462614073e-05 -0.094386142228336439 0 0.0001964814719731143 -0.094417428379980683 0 0.0001951692877974324 -0.094187433421464628 0 0.00034395546403607899 -0.094135968061556496 0 0.0001964814719731143 -0.094417428379980683 0 0.00010892965909427068 -0.094577140649136027 0 8.6381340462614073e-05 -0.094386142228336439 0 0.0001964814719731143 -0.094417428379980683 0 -7.7402419417198447e-08 -0.094999458874450174 0 -2.5240442448989968e-05 -0.094788396458446736 0 -2.5600201041268314e-08 -0.094999790685440524 0 2.7306639480211062e-05 -0.094633201227448935 0 -2.5240442448989968e-05 -0.094788396458446736 0 1.3674331145925878e-05 -0.094779849255807014 0 5.871296878942806e-06 -0.094540682943966212 0 2.7306639480211062e-05 -0.094633201227448935 0 -2.5240442448989968e-05 -0.094788396458446736 0 -2.5240442448989968e-05 -0.094788396458446736 0 1.3674331145925878e-05 -0.094779849255807014 0 2.8517887909428711e-06 -0.094917298940473085 0 -2.5240442448989968e-05 -0.094788396458446736 0 -2.5600201041268314e-08 -0.094999790685440524 0 2.8517887909428711e-06 -0.094917298940473085 0 1.9454618334886088e-08 -0.094999852388103961 0 2.8517887909428711e-06 -0.094917298940473085 0 4.0787777842583286e-05 -0.094910234464112855 0 -2.5600201041268314e-08 -0.094999790685440524 0 1.9454618334886088e-08 -0.094999852388103961 0 2.8517887909428711e-06 -0.094917298940473085 0 2.8517887909428711e-06 -0.094917298940473085 0 4.401549275823348e-05 -0.094840431501382369 0 4.0787777842583286e-05 -0.094910234464112855 0 1.3674331145925878e-05 -0.094779849255807014 0 2.8517887909428711e-06 -0.094917298940473085 0 4.401549275823348e-05 -0.094840431501382369 0 8.079529545868897e-05 -0.0948508571111428 0 4.401549275823348e-05 -0.094840431501382369 0 4.0787777842583286e-05 -0.094910234464112855 0 8.079529545868897e-05 -0.0948508571111428 0 4.0787777842583286e-05 -0.094910234464112855 0 8.7480277362148381e-05 -0.094898894644501769 0 1.9454618334886088e-08 -0.094999852388103961 0 4.0787777842583286e-05 -0.094910234464112855 0 1.5626173173340438e-08 -0.094999891915305779 0 4.0787777842583286e-05 -0.094910234464112855 0 1.5626173173340438e-08 -0.094999891915305779 0 8.7480277362148381e-05 -0.094898894644501769 0 1.5626173173340438e-08 -0.094999891915305779 0 8.7480277362148381e-05 -0.094898894644501769 0 5.7994750182615925e-05 -0.094963297868233001 0 8.7480277362148381e-05 -0.094898894644501769 0 5.7994750182615925e-05 -0.094963297868233001 0 4.691704330355738e-05 -0.094962618828367082 0 1.5626173173340438e-08 -0.094999891915305779 0 5.7994750182615925e-05 -0.094963297868233001 0 8.0669311600675819e-08 -0.094999999850901129 0 -9.9876843218659207e-05 -0.094528355910598438 0 -6.2830790180186386e-05 -0.094458390934869685 0 6.473755189440927e-05 -0.094663302002242489 0 0.00016961637757134421 -0.094514323362774794 0 0.0001375845845502413 -0.094557044514638047 0 8.079529545868897e-05 -0.0948508571111428 0 8.7480277362148381e-05 -0.094898894644501769 0 6.473755189440927e-05 -0.094663302002242489 0 8.7480277362148381e-05 -0.094898894644501769 0 6.473755189440927e-05 -0.094663302002242489 0 8.813455946869329e-05 -0.094380045569611812 0 4.202253002868976e-05 -0.094698269625160258 0 3.4069816973560502e-07 -0.09461842841770926 0 5.7994750182615925e-05 -0.094963297868233001 0 4.691704330355738e-05 -0.094962618828367082 0 5.1163873686252364e-05 -0.094899838877965714 0 -6.2830790180186386e-05 -0.094458390934869685 0 6.473755189440927e-05 -0.094663302002242489 0 8.813455946869329e-05 -0.094380045569611812 0 -6.2830790180186386e-05 -0.094458390934869685 0 8.813455946869329e-05 -0.094380045569611812 0 -0.00014358883669046804 -0.094273571216452051 0 4.691704330355738e-05 -0.094962618828367082 0 5.1163873686252364e-05 -0.094899838877965714 0 -0.00010175805680878307 -0.094818518664943854 0 3.4069816973560502e-07 -0.09461842841770926 0 -8.5538806832497345e-05 -0.09448211740323971 0 5.1163873686252364e-05 -0.094899838877965714 0 2.5062224567498455e-05 -0.094794516678607901 0 -0.00010175805680878307 -0.094818518664943854 0 8.813455946869329e-05 -0.094380045569611812 0 -0.00016204743305912349 -0.094039020138733651 0 -0.00014358883669046804 -0.094273571216452051 0 5.1163873686252364e-05 -0.094899838877965714 0 2.5062224567498455e-05 -0.094794516678607901 0 6.8698197588938184e-05 -0.094934060407356829 0 -5.5550245516272875e-05 -0.094804249967523638 0 -3.364897024551541e-07 -0.094909947650863469 0 -2.4624704925691096e-05 -0.094805599421036543 0 -7.0488202095511976e-05 -0.094747063523398484 0 -6.9503679688974156e-06 -0.094910625120446818 0 -2.4624704925691096e-05 -0.094805599421036543 0 -7.0488202095511976e-05 -0.094747063523398484 0 -5.3534291105686627e-05 -0.094690198400938078 0 2.5062224567498455e-05 -0.094794516678607901 0 -0.00010175805680878307 -0.094818518664943854 0 -0.00015752177706159463 -0.094463101150888892 0 -5.5550245516272875e-05 -0.094804249967523638 0 -0.00011930405707025101 -0.09473338570240647 0 -7.0488202095511976e-05 -0.094747063523398484 0 -9.6292882714023125e-05 -0.094602059687305534 0 -0.00015752177706159463 -0.094463101150888892 0 -7.0488202095511976e-05 -0.094747063523398484 0 -5.3534291105686627e-05 -0.094690198400938078 0 -9.6292882714023125e-05 -0.094602059687305534 0 3.7084196915452092e-08 -0.094999837480435764 0 -3.364897024551541e-07 -0.094909947650863469 0 1.6169392799176287e-08 -0.094999979028445855 0 -6.9503679688974156e-06 -0.094910625120446818 0 2.319730700382739e-06 -0.094904210813867976 0 5.7994750182615925e-05 -0.094963297868233001 0 8.0669311600675819e-08 -0.094999999850901129 0 6.8698197588938184e-05 -0.094934060407356829 0 5.7994750182615925e-05 -0.094963297868233001 0 5.1163873686252364e-05 -0.094899838877965714 0 6.8698197588938184e-05 -0.094934060407356829 0 -2.4624704925691096e-05 -0.094805599421036543 0 -6.9503679688974156e-06 -0.094910625120446818 0 2.319730700382739e-06 -0.094904210813867976 0 -2.4624704925691096e-05 -0.094805599421036543 0 2.319730700382739e-06 -0.094904210813867976 0 -2.0434304804833508e-05 -0.09477879304764078 0 1.6169392799176287e-08 -0.094999979028445855 0 2.319730700382739e-06 -0.094904210813867976 0 9.7453528866809087e-09 -0.094999772847313688 0 2.319730700382739e-06 -0.094904210813867976 0 9.7453528866809087e-09 -0.094999772847313688 0 -2.351395795016497e-06 -0.094878602022476666 0 9.7453528866809087e-09 -0.094999772847313688 0 -2.351395795016497e-06 -0.094878602022476666 0 -4.5412940149012701e-09 -0.094999790016500441 0 -9.6253849155340439e-06 -0.094818999414500213 0 -2.351395795016497e-06 -0.094878602022476666 0 -4.5412940149012701e-09 -0.094999790016500441 0 -9.6253849155340439e-06 -0.094818999414500213 0 -2.351395795016497e-06 -0.094878602022476666 0 -2.4636232339423551e-05 -0.094745565223051012 0 -2.351395795016497e-06 -0.094878602022476666 0 -2.0434304804833508e-05 -0.09477879304764078 0 -2.4636232339423551e-05 -0.094745565223051012 0 2.319730700382739e-06 -0.094904210813867976 0 -2.351395795016497e-06 -0.094878602022476666 0 -2.0434304804833508e-05 -0.09477879304764078 0 -2.4624704925691096e-05 -0.094805599421036543 0 -2.0434304804833508e-05 -0.09477879304764078 0 -5.3534291105686627e-05 -0.094690198400938078 0 -2.0434304804833508e-05 -0.09477879304764078 0 -5.3534291105686627e-05 -0.094690198400938078 0 -5.1838772354437907e-05 -0.094649391708679712 0 -2.0434304804833508e-05 -0.09477879304764078 0 -5.1838772354437907e-05 -0.094649391708679712 0 -2.4636232339423551e-05 -0.094745565223051012 0 -9.6292882714023125e-05 -0.094602059687305534 0 -8.9254740114831519e-05 -0.094563832222849448 0 -0.00012313872575218267 -0.094497860475343129 0 -5.3534291105686627e-05 -0.094690198400938078 0 -9.6292882714023125e-05 -0.094602059687305534 0 -8.9254740114831519e-05 -0.094563832222849448 0 -5.1838772354437907e-05 -0.094649391708679712 0 -8.9254740114831519e-05 -0.094563832222849448 0 -9.9891756876531741e-05 -0.09450671885897545 0 -5.3534291105686627e-05 -0.094690198400938078 0 -5.1838772354437907e-05 -0.094649391708679712 0 -8.9254740114831519e-05 -0.094563832222849448 0 -8.9254740114831519e-05 -0.094563832222849448 0 -9.9891756876531741e-05 -0.09450671885897545 0 -0.00015740358112534603 -0.094360482548630845 0 0.00020332496716349134 -0.094406499944961031 0 0.0001463794250762349 -0.094238688026854089 0 5.361879562299306e-05 -0.094215928263317997 0 2.5348915085205797e-05 -0.094603889915770512 0 -4.9785076420087345e-05 -0.094467207633186001 0 -9.9891756876531741e-05 -0.09450671885897545 0 -5.8776728455812572e-05 -0.094600889298836172 0 -0.00014687421715647709 -0.094358380179856358 0 -5.1838772354437907e-05 -0.094649391708679712 0 -9.9891756876531741e-05 -0.09450671885897545 0 -5.8776728455812572e-05 -0.094600889298836172 0 -9.6253849155340439e-06 -0.094818999414500213 0 -2.4636232339423551e-05 -0.094745565223051012 0 -5.8776728455812572e-05 -0.094600889298836172 0 3.9008531390571157e-05 -0.094789391535048118 0 2.5348915085205797e-05 -0.094603889915770512 0 -5.1838772354437907e-05 -0.094649391708679712 0 -2.4636232339423551e-05 -0.094745565223051012 0 -5.8776728455812572e-05 -0.094600889298836172 0 7.9784202130326793e-05 -0.094670798124993447 0 0.00020332496716349134 -0.094406499944961031 0 0.00019188143148953827 -0.094533531249141031 0 0.00020332496716349134 -0.094406499944961031 0 0.00019188143148953827 -0.094533531249141031 0 0.0001463794250762349 -0.094238688026854089 0 0.00019188143148953827 -0.094533531249141031 0 0.0001463794250762349 -0.094238688026854089 0 0.00015081536980807942 -0.093928506615164789 0 0.00028786372602216287 -0.094744728600827569 0 0.00016331032505324268 -0.094766432274795698 0 0.00019780927547511 -0.094825119687975246 0 0.0011647061518506824 -0.092740909511604686 0 0.0013785874739879389 -0.092166935233359545 0 0.00019188143148953827 -0.094533531249141031 0 0.00016331032505324268 -0.094766432274795698 0 4.1649758314697935e-05 -0.094827280746765247 0 0.00019188143148953827 -0.094533531249141031 0 0.00028786372602216287 -0.094744728600827569 0 0.00016331032505324268 -0.094766432274795698 0 4.1649758314697935e-05 -0.094827280746765247 0 8.9477430867476677e-05 -0.09486991384386001 0 3.2263225184434026e-05 -0.094930836346931433 0 0.00016331032505324268 -0.094766432274795698 0 4.1649758314697935e-05 -0.094827280746765247 0 8.9477430867476677e-05 -0.09486991384386001 0 4.1649758314697935e-05 -0.094827280746765247 0 -2.9278911832082752e-09 -0.094999918322298552 0 3.2263225184434026e-05 -0.094930836346931433 0 7.9784202130326793e-05 -0.094670798124993447 0 4.1649758314697935e-05 -0.094827280746765247 0 -3.4437316264031433e-08 -0.094999535762202936 0 3.9008531390571157e-05 -0.094789391535048118 0 5.3783017356406882e-08 -0.09499953845591301 0 4.1649758314697935e-05 -0.094827280746765247 0 -2.9278911832082752e-09 -0.094999918322298552 0 -3.4437316264031433e-08 -0.094999535762202936 0 7.9784202130326793e-05 -0.094670798124993447 0 0.00019188143148953827 -0.094533531249141031 0 4.1649758314697935e-05 -0.094827280746765247 0 -0.00023875899496379939 -0.093740759092593398 0 -0.00015418749640891589 -0.093943037054145376 0 -0.0002774993077377152 -0.093834672918955239 0 -0.000330392541865032 -0.093649111728524873 0 -0.00023875899496379939 -0.093740759092593398 0 -0.0002774993077377152 -0.093834672918955239 0 -0.000330392541865032 -0.093649111728524873 0 -0.0002774993077377152 -0.093834672918955239 0 -0.00037135149506705817 -0.093596637277265707 0 -0.000330392541865032 -0.093649111728524873 0 -0.00028035795231903121 -0.093603872606065772 0 -0.00023875899496379939 -0.093740759092593398 0 -0.000330392541865032 -0.093649111728524873 0 -0.00040654587006225116 -0.093548807901757666 0 -0.00034980520413874759 -0.093531342657757449 0 -0.000330392541865032 -0.093649111728524873 0 -0.00028035795231903121 -0.093603872606065772 0 -0.00034980520413874759 -0.093531342657757449 0 -0.00028035795231903121 -0.093603872606065772 0 -0.00023875899496379939 -0.093740759092593398 0 -0.00018793098288991529 -0.093663330744410772 0 -0.00023875899496379939 -0.093740759092593398 0 -0.00018793098288991529 -0.093663330744410772 0 -0.0001011197765185753 -0.093820619791029722 0 -0.00023875899496379939 -0.093740759092593398 0 -0.0001011197765185753 -0.093820619791029722 0 -0.00015418749640891589 -0.093943037054145376 0 -0.00018793098288991529 -0.093663330744410772 0 -0.0001011197765185753 -0.093820619791029722 0 -5.2457204582506381e-05 -0.093589242274560877 0 0.00015081536980807942 -0.093928506615164789 0 -0.0001011197765185753 -0.093820619791029722 0 2.121531288628298e-05 -0.094041463908280373 0 0.00015081536980807942 -0.093928506615164789 0 -0.0001011197765185753 -0.093820619791029722 0 -5.2457204582506381e-05 -0.093589242274560877 0 0.0001463794250762349 -0.094238688026854089 0 2.121531288628298e-05 -0.094041463908280373 0 5.361879562299306e-05 -0.094215928263317997 0 0.0001463794250762349 -0.094238688026854089 0 0.00015081536980807942 -0.093928506615164789 0 2.121531288628298e-05 -0.094041463908280373 0 2.121531288628298e-05 -0.094041463908280373 0 -0.00015418749640891589 -0.093943037054145376 0 5.361879562299306e-05 -0.094215928263317997 0 -0.0001011197765185753 -0.093820619791029722 0 2.121531288628298e-05 -0.094041463908280373 0 -0.00015418749640891589 -0.093943037054145376 0 -0.00010479812381554558 -0.094410500584275941 0 -4.9785076420087345e-05 -0.094467207633186001 0 -0.00015418749640891589 -0.093943037054145376 0 -0.00018839197935435371 -0.09406526764752153 0 5.361879562299306e-05 -0.094215928263317997 0 -0.00018839197935435371 -0.09406526764752153 0 -0.00014687421715647709 -0.094358380179856358 0 -0.00015740358112534603 -0.094360482548630845 0 -9.9891756876531741e-05 -0.09450671885897545 0 -0.00014687421715647709 -0.094358380179856358 0 -0.00015740358112534603 -0.094360482548630845 0 -9.6292882714023125e-05 -0.094602059687305534 0 -0.00012313872575218267 -0.094497860475343129 0 -0.00015752177706159463 -0.094463101150888892 0 -8.9254740114831519e-05 -0.094563832222849448 0 -0.00015740358112534603 -0.094360482548630845 0 -0.00012313872575218267 -0.094497860475343129 0 -0.00015740358112534603 -0.094360482548630845 0 -0.00022036419237508379 -0.094204352381731499 0 -0.00015752177706159463 -0.094463101150888892 0 -0.00015740358112534603 -0.094360482548630845 0 -0.00012313872575218267 -0.094497860475343129 0 -0.00015752177706159463 -0.094463101150888892 0 -0.00022036419237508379 -0.094204352381731499 0 -0.00020915752622576982 -0.093970840112523643 0 -0.00020151555837091684 -0.09404848502766798 0 -0.00018839197935435371 -0.09406526764752153 0 -0.00015740358112534603 -0.094360482548630845 0 -0.00022036419237508379 -0.094204352381731499 0 -0.00018839197935435371 -0.09406526764752153 0 -0.00022036419237508379 -0.094204352381731499 0 -0.00020915752622576982 -0.093970840112523643 0 -0.00018839197935435371 -0.09406526764752153 0 -0.00020915752622576982 -0.093970840112523643 0 -0.0002774993077377152 -0.093834672918955239 0 -0.00015418749640891589 -0.093943037054145376 0 -0.00018839197935435371 -0.09406526764752153 0 -0.0002774993077377152 -0.093834672918955239 0 -0.0002774993077377152 -0.093834672918955239 0 -0.00024398254331853416 -0.093788717535795318 0 -0.00035938543517091351 -0.093717598535059107 0 -0.00020915752622576982 -0.093970840112523643 0 -0.0002774993077377152 -0.093834672918955239 0 -0.00024398254331853416 -0.093788717535795318 0 -0.00020915752622576982 -0.093970840112523643 0 -0.00024398254331853416 -0.093788717535795318 0 -0.00019591408025825143 -0.093880818424481038 0 -0.00020915752622576982 -0.093970840112523643 0 -0.00020880625730599183 -0.093987471736834194 0 -0.00020151555837091684 -0.09404848502766798 0 -0.00020915752622576982 -0.093970840112523643 0 -0.00019591408025825143 -0.093880818424481038 0 -0.00020880625730599183 -0.093987471736834194 0 -0.00020880625730599183 -0.093987471736834194 0 -0.00023799079048148698 -0.094047274262388528 0 -0.00020195873420079 -0.093975089105422585 0 -0.00019591408025825143 -0.093880818424481038 0 -0.00020880625730599183 -0.093987471736834194 0 -0.00020195873420079 -0.093975089105422585 0 -0.00019591408025825143 -0.093880818424481038 0 -0.00020195873420079 -0.093975089105422585 0 -0.00016217994253332348 -0.093855905504541953 0 -0.00022036419237508379 -0.094204352381731499 0 -0.00010175805680878307 -0.094818518664943854 0 -0.00015752177706159463 -0.094463101150888892 0 -0.00013326411481174211 -0.094404088960831328 0 -8.5538806832497345e-05 -0.09448211740323971 0 -0.00016204743305912349 -0.094039020138733651 0 -0.00020596884901143622 -0.094093832445872161 0 -0.00020490468435625274 -0.094066843661321481 0 -0.00022036419237508379 -0.094204352381731499 0 -0.00016204743305912349 -0.094039020138733651 0 -0.00020596884901143622 -0.094093832445872161 0 -0.00020596884901143622 -0.094093832445872161 0 -0.00021651979199713593 -0.094048235807206379 0 -0.00020490468435625274 -0.094066843661321481 0 -0.00022036419237508379 -0.094204352381731499 0 -0.00020596884901143622 -0.094093832445872161 0 -0.00020151555837091684 -0.09404848502766798 0 -0.00020596884901143622 -0.094093832445872161 0 -0.00020151555837091684 -0.09404848502766798 0 -0.00021651979199713593 -0.094048235807206379 0 -0.00020880625730599183 -0.093987471736834194 0 -0.00020151555837091684 -0.09404848502766798 0 -0.00021651979199713593 -0.094048235807206379 0 -0.00020880625730599183 -0.093987471736834194 0 -0.00021651979199713593 -0.094048235807206379 0 -0.00023799079048148698 -0.094047274262388528 0 -0.00023799079048148698 -0.094047274262388528 0 -0.00021877739019620534 -0.09410225865531012 0 -0.00028495252136268462 -0.094116234360715395 0 -0.00021651979199713593 -0.094048235807206379 0 -0.00020490468435625274 -0.094066843661321481 0 -0.00021877739019620534 -0.09410225865531012 0 -0.00021651979199713593 -0.094048235807206379 0 -0.00023799079048148698 -0.094047274262388528 0 -0.00021877739019620534 -0.09410225865531012 0 -0.00016204743305912349 -0.094039020138733651 0 -0.00021877739019620534 -0.09410225865531012 0 -0.00014358883669046804 -0.094273571216452051 0 -0.00016204743305912349 -0.094039020138733651 0 -0.00020490468435625274 -0.094066843661321481 0 -0.00021877739019620534 -0.09410225865531012 0 -6.2830790180186386e-05 -0.094458390934869685 0 -0.00014358883669046804 -0.094273571216452051 0 -0.00018721164183376038 -0.094348933222084944 0 -0.00014358883669046804 -0.094273571216452051 0 -0.00028495252136268462 -0.094116234360715395 0 -0.00018721164183376038 -0.094348933222084944 0 -0.00021877739019620534 -0.09410225865531012 0 -0.00014358883669046804 -0.094273571216452051 0 -0.00028495252136268462 -0.094116234360715395 0 0.00024075768165448429 -0.094162287241744816 0 0.00032338469939765185 -0.094172980925854771 0 -0.00028495252136268462 -0.094116234360715395 0 -0.00033037919235320249 -0.094451849317363057 0 -0.00018721164183376038 -0.094348933222084944 0 -0.00028495252136268462 -0.094116234360715395 0 -0.00028792676240456259 -0.093919760509280262 0 -0.00021212523381698576 -0.093977942472611001 0 -9.9876843218659207e-05 -0.094528355910598438 0 -0.00033037919235320249 -0.094451849317363057 0 -0.00018721164183376038 -0.094348933222084944 0 -9.9876843218659207e-05 -0.094528355910598438 0 -6.2830790180186386e-05 -0.094458390934869685 0 -0.00018721164183376038 -0.094348933222084944 0 -0.00020195873420079 -0.093975089105422585 0 -0.00017450560787948986 -0.093919422759267013 0 -0.00016217994253332348 -0.093855905504541953 0 -0.00020195873420079 -0.093975089105422585 0 -0.00021212523381698576 -0.093977942472611001 0 -0.00017450560787948986 -0.093919422759267013 0 -0.00023799079048148698 -0.094047274262388528 0 -0.00028495252136268462 -0.094116234360715395 0 -0.00020195873420079 -0.093975089105422585 0 -0.00028495252136268462 -0.094116234360715395 0 -0.00020195873420079 -0.093975089105422585 0 -0.00021212523381698576 -0.093977942472611001 0 -0.00021212523381698576 -0.093977942472611001 0 -0.00020573107171302705 -0.093907113109943915 0 -0.00017450560787948986 -0.093919422759267013 0 -0.00028792676240456259 -0.093919760509280262 0 -0.00021212523381698576 -0.093977942472611001 0 -0.00020573107171302705 -0.093907113109943915 0 -0.00017459619574758373 -0.093867184466216766 0 -0.00020573107171302705 -0.093907113109943915 0 -0.00017450560787948986 -0.093919422759267013 0 -0.00017459619574758373 -0.093867184466216766 0 -0.00017450560787948986 -0.093919422759267013 0 -0.00016200081483165081 -0.093884075544806073 0 -0.00017450560787948986 -0.093919422759267013 0 -0.00016200081483165081 -0.093884075544806073 0 -0.00016662515276294021 -0.093876931947912787 0 -0.00016200081483165081 -0.093884075544806073 0 -0.00016662515276294021 -0.093876931947912787 0 -0.00016354711062402795 -0.093877861104503843 0 -0.00016662515276294021 -0.093876931947912787 0 -0.00016217994253332348 -0.093855905504541953 0 -0.00019997396765198246 -0.093827156374508378 0 -0.00017450560787948986 -0.093919422759267013 0 -0.00016662515276294021 -0.093876931947912787 0 -0.00016217994253332348 -0.093855905504541953 0 -0.0023389591741646378 -0.082503527985251818 0 -0.0033332690523981802 -0.077634232136666495 0 -0.0012326299627168664 -0.078942551945093947 0 -0.00016662515276294021 -0.093876931947912787 0 -0.00019997396765198246 -0.093827156374508378 0 -0.00016354711062402795 -0.093877861104503843 0 0.00014932885758560849 -0.088153218989235504 0 0.0010184537538151669 -0.086680931205277673 0 -0.00088959032294980958 -0.076412688926383851 0 -0.0033332690523981802 -0.077634232136666495 0 -0.0012326299627168664 -0.078942551945093947 0 -0.00088959032294980958 -0.076412688926383851 0 -0.0012326299627168664 -0.078942551945093947 0 0.00021140202269062265 -0.078132604698557373 0 0.00097700821302530326 -0.076873329678443486 0 0.00021140202269062265 -0.078132604698557373 0 0.0022167082351552659 -0.078726861987833338 0 0.00032722848558284834 -0.080479940931335869 0 0.0022167082351552659 -0.078726861987833338 0 0.0023935115585745044 -0.081150985584706806 0 0.00021140202269062265 -0.078132604698557373 0 0.00032722848558284834 -0.080479940931335869 0 0.0022167082351552659 -0.078726861987833338 0 -0.0012326299627168664 -0.078942551945093947 0 0.00021140202269062265 -0.078132604698557373 0 0.00032722848558284834 -0.080479940931335869 0 0.0033903464515644597 -0.076699557490779668 0 0.0051630270103286552 -0.078608304738187765 0 0.0070123251545223097 -0.078288725714127205 0 0.0029358467733529309 -0.07714391385482923 0 0.0040514670970882459 -0.077586524966788889 0 0.0033903464515644597 -0.076699557490779668 0 0.0051630270103286552 -0.078608304738187765 0 0.0037527595529240278 -0.078496443606660138 0 0.0033903464515644597 -0.076699557490779668 0 0.0022167082351552659 -0.078726861987833338 0 0.0037527595529240278 -0.078496443606660138 0 0.00097700821302530326 -0.076873329678443486 0 0.0033903464515644597 -0.076699557490779668 0 0.0022167082351552659 -0.078726861987833338 0 0.0022167082351552659 -0.078726861987833338 0 0.0037527595529240278 -0.078496443606660138 0 0.0042475251363537671 -0.079980930181227358 0 0.0022167082351552659 -0.078726861987833338 0 0.0042475251363537671 -0.079980930181227358 0 0.0023935115585745044 -0.081150985584706806 0 0.0051630270103286552 -0.078608304738187765 0 0.0042475251363537671 -0.079980930181227358 0 0.0061664077941704946 -0.079639327252770509 0 0.0051630270103286552 -0.078608304738187765 0 0.0037527595529240278 -0.078496443606660138 0 0.0042475251363537671 -0.079980930181227358 0 0.0037601312757018631 -0.083121898837686406 0 0.0062696221714795327 -0.081905060365426621 0 0.0060486294891128212 -0.085541220291275158 0 0.0042475251363537671 -0.079980930181227358 0 0.0037601312757018631 -0.083121898837686406 0 0.0062696221714795327 -0.081905060365426621 0 0.0042475251363537671 -0.079980930181227358 0 0.0023935115585745044 -0.081150985584706806 0 0.0037601312757018631 -0.083121898837686406 0 0.0023935115585745044 -0.081150985584706806 0 0.0037601312757018631 -0.083121898837686406 0 0.0010339924201698799 -0.083480539267135528 0 -0.0023389591741646378 -0.082503527985251818 0 0.00032722848558284834 -0.080479940931335869 0 0.0010339924201698799 -0.083480539267135528 0 -0.0023389591741646378 -0.082503527985251818 0 -0.0012326299627168664 -0.078942551945093947 0 0.00032722848558284834 -0.080479940931335869 0 0.00032722848558284834 -0.080479940931335869 0 0.0023935115585745044 -0.081150985584706806 0 0.0010339924201698799 -0.083480539267135528 0 0.0010339924201698799 -0.083480539267135528 0 0.0030882763620707276 -0.086172667161977148 0 -0.0012397618226191677 -0.08754871158393554 0 -0.0023389591741646378 -0.082503527985251818 0 0.0010339924201698799 -0.083480539267135528 0 -0.0012397618226191677 -0.08754871158393554 0 0.0037601312757018631 -0.083121898837686406 0 0.0030882763620707276 -0.086172667161977148 0 0.0060486294891128212 -0.085541220291275158 0 0.0037601312757018631 -0.083121898837686406 0 0.0010339924201698799 -0.083480539267135528 0 0.0030882763620707276 -0.086172667161977148 0 0.0030882763620707276 -0.086172667161977148 0 0.0045410546316656565 -0.088891159534275371 0 0.0060486294891128212 -0.085541220291275158 0 0.0030882763620707276 -0.086172667161977148 0 0.0045410546316656565 -0.088891159534275371 0 0.0018427530759945697 -0.089016242922513769 0 0.0045410546316656565 -0.088891159534275371 0 0.0018427530759945697 -0.089016242922513769 0 0.0029504170468937058 -0.091321165789323117 0 9.1719432991201128e-05 -0.090157425697400553 0 0.0002361646356834736 -0.091297242865504086 0 0.0018427530759945697 -0.089016242922513769 0 -0.0012397618226191677 -0.08754871158393554 0 0.00028786245480669659 -0.092984312694924284 0 0.0030882763620707276 -0.086172667161977148 0 0.0018427530759945697 -0.089016242922513769 0 -0.0012397618226191677 -0.08754871158393554 0 -0.000159939586602744 -0.093608540858540479 0 -0.00016282135033713721 -0.0937246400211207 0 -0.00017478875393879144 -0.093584557976900809 0 -0.000159939586602744 -0.093608540858540479 0 -0.00017478875393879144 -0.093584557976900809 0 0.00028786245480669659 -0.092984312694924284 0 -0.00024398254331853416 -0.093788717535795318 0 -0.00019591408025825143 -0.093880818424481038 0 -0.00016282135033713721 -0.0937246400211207 0 -0.00024398254331853416 -0.093788717535795318 0 -0.00016282135033713721 -0.0937246400211207 0 -0.00017478875393879144 -0.093584557976900809 0 -0.00016217994253332348 -0.093855905504541953 0 -0.00019997396765198246 -0.093827156374508378 0 -0.00016282135033713721 -0.0937246400211207 0 -0.00019591408025825143 -0.093880818424481038 0 -0.00016217994253332348 -0.093855905504541953 0 -0.00016282135033713721 -0.0937246400211207 0 -0.00019997396765198246 -0.093827156374508378 0 -0.000159939586602744 -0.093608540858540479 0 -0.00016282135033713721 -0.0937246400211207 0 0.00014932885758560849 -0.088153218989235504 0 9.1719432991201128e-05 -0.090157425697400553 0 0.014195112610823169 -0.0022810456996259893 0 0.015997421681458693 -0.00063665274773153926 0 0.014052157179749723 0.0010972039392596463 0 0.015997421681458693 -0.00063665274773153926 0 0.016605597360704875 0.0010732000540429726 0 0.014052157179749723 0.0010972039392596463 0 0.014195112610823169 -0.0022810456996259893 0 0.017160536893360934 -0.0022565408278366838 0 0.015997421681458693 -0.00063665274773153926 0 0.016587827321411626 -0.004184690154698488 0 0.014195112610823169 -0.0022810456996259893 0 0.017160536893360934 -0.0022565408278366838 0 0.017160536893360934 -0.0022565408278366838 0 0.015997421681458693 -0.00063665274773153926 0 0.01798691922505068 -0.00086011715358512962 0 0.018707006828831616 0.00092607506110291933 0 0.01798691922505068 -0.00086011715358512962 0 0.016605597360704875 0.0010732000540429726 0 0.015997421681458693 -0.00063665274773153926 0 0.01798691922505068 -0.00086011715358512962 0 0.016605597360704875 0.0010732000540429726 0 0.018707006828831616 0.00092607506110291933 0 0.01798691922505068 -0.00086011715358512962 0 0.020708113381261044 -0.0017069997348997305 0 0.012282725094499104 -0.041604363466575194 0 0.011496121577900307 -0.042759505854987938 0 0.010802380850264316 -0.08362341709609554 0 0.0079724954024011849 -0.07929333570655718 0 0.0080336106215439691 -0.083583258964133808 0 0.017160536893360934 -0.0022565408278366838 0 0.01798691922505068 -0.00086011715358512962 0 0.019243890020958412 -0.0026564607329549283 0 0.01798691922505068 -0.00086011715358512962 0 0.019243890020958412 -0.0026564607329549283 0 0.020708113381261044 -0.0017069997348997305 0 0.018245848428215732 -0.0037917002138630443 0 0.017160536893360934 -0.0022565408278366838 0 0.019243890020958412 -0.0026564607329549283 0 0.0048777522251431012 -0.074333301701320909 0 0.0079724954024011849 -0.07929333570655718 0 0.0070123251545223097 -0.078288725714127205 0 0.020826048939745653 -0.0037018411457999489 0 0.019243890020958412 -0.0026564607329549283 0 0.020708113381261044 -0.0017069997348997305 0 0.0079724954024011849 -0.07929333570655718 0 0.0061664077941704946 -0.079639327252770509 0 0.0062696221714795327 -0.081905060365426621 0 0.0051630270103286552 -0.078608304738187765 0 0.0070123251545223097 -0.078288725714127205 0 0.0061664077941704946 -0.079639327252770509 0 0.0079724954024011849 -0.07929333570655718 0 0.0070123251545223097 -0.078288725714127205 0 0.0061664077941704946 -0.079639327252770509 0 0.0042475251363537671 -0.079980930181227358 0 0.0061664077941704946 -0.079639327252770509 0 0.0062696221714795327 -0.081905060365426621 0 0.0062696221714795327 -0.081905060365426621 0 0.0080336106215439691 -0.083583258964133808 0 0.0060486294891128212 -0.085541220291275158 0 0.0079724954024011849 -0.07929333570655718 0 0.0062696221714795327 -0.081905060365426621 0 0.0080336106215439691 -0.083583258964133808 0 0.0080336106215439691 -0.083583258964133808 0 0.0060486294891128212 -0.085541220291275158 0 0.0090742081092391562 -0.087512197265390834 0 0.0060486294891128212 -0.085541220291275158 0 0.0066385678753559853 -0.087893992509625901 0 0.0090742081092391562 -0.087512197265390834 0 0.0045410546316656565 -0.088891159534275371 0 0.0060486294891128212 -0.085541220291275158 0 0.0066385678753559853 -0.087893992509625901 0 0.007012830245737906 -0.090079598977606146 0 0.0090742081092391562 -0.087512197265390834 0 0.0091250067903813452 -0.092089314054582538 0 0.0045410546316656565 -0.088891159534275371 0 0.0066385678753559853 -0.087893992509625901 0 0.007012830245737906 -0.090079598977606146 0 0.0045410546316656565 -0.088891159534275371 0 0.007012830245737906 -0.090079598977606146 0 0.0048203447230953655 -0.092062075475019142 0 0.0066385678753559853 -0.087893992509625901 0 0.007012830245737906 -0.090079598977606146 0 0.0090742081092391562 -0.087512197265390834 0 0.010152508868336144 -0.038232534333371038 0 0.0055671335492635237 -0.046520202327321708 0 0.0090742081092391562 -0.087512197265390834 0 0.013707972489230457 -0.087889709727165491 0 0.0091250067903813452 -0.092089314054582538 0 0.010802380850264316 -0.08362341709609554 0 0.0090742081092391562 -0.087512197265390834 0 0.013707972489230457 -0.087889709727165491 0 0.010802380850264316 -0.08362341709609554 0 0.0080336106215439691 -0.083583258964133808 0 0.0090742081092391562 -0.087512197265390834 0 0.016605597360704875 0.0010732000540429726 0 0.016833393172871636 0.0035311963627855337 0 0.014052157179749723 0.0010972039392596463 0 0.018707006828831616 0.00092607506110291933 0 0.016605597360704875 0.0010732000540429726 0 0.016833393172871636 0.0035311963627855337 0 0.012282725094499104 -0.041604363466575194 0 0.010152508868336144 -0.038232534333371038 0 0.010010995231755564 -0.0015391978834583201 0 0.011002747031756206 -0.0014474555006604832 0 0.0080007908055061191 -0.0054313967034510082 0 0.010010995231755564 -0.0015391978834583201 0 0.0096875332956300447 -0.0010344917947516425 0 0.0080007908055061191 -0.0054313967034510082 0 0.010010995231755564 -0.0015391978834583201 0 0.01006197319184365 -0.0012484555775737303 0 0.011002747031756206 -0.0014474555006604832 0 0.0099517191001670183 -0.03779140532768583 0 0.010152508868336144 -0.038232534333371038 0 0.01006197319184365 -0.0012484555775737303 0 0.011002747031756206 -0.0014474555006604832 0 0.011026380436730784 -0.0012677770833333607 0 0.011002747031756206 -0.0014474555006604832 0 0.010966603100062991 -0.0011645757907978015 0 0.011004004236994607 -0.0010402632717828155 0 0.011002747031756206 -0.0014474555006604832 0 0.010966603100062991 -0.0011645757907978015 0 0.011026380436730784 -0.0012677770833333607 0 0.010966603100062991 -0.0011645757907978015 0 0.011026380436730784 -0.0012677770833333607 0 0.010931542578623749 -0.001102407293011797 0 0.01006197319184365 -0.0012484555775737303 0 0.011026380436730784 -0.0012677770833333607 0 0.011198878248147285 -0.0011386708676223748 0 0.011026380436730784 -0.0012677770833333607 0 0.011198878248147285 -0.0011386708676223748 0 0.010931542578623749 -0.001102407293011797 0 0.010152508868336144 -0.038232534333371038 0 0.018104028345259465 -0.013068526383676416 0 0.011166737355409913 -0.00070800603049051263 0 0.01099868866959724 -0.00078407270282470232 0 0.010801374639741807 -0.00041428874067884905 0 0.011166737355409913 -0.00070800603049051263 0 0.011329720163802031 -0.00063148640849535647 0 0.010801374639741807 -0.00041428874067884905 0 0.011166737355409913 -0.00070800603049051263 0 0.01099868866959724 -0.00078407270282470232 0 0.011152169765222058 -0.00089566525988780423 0 0.01099868866959724 -0.00078407270282470232 0 0.011004004236994607 -0.0010402632717828155 0 0.010852578805203241 -0.00084386436576942066 0 0.010966603100062991 -0.0011645757907978015 0 0.011004004236994607 -0.0010402632717828155 0 0.010852578805203241 -0.00084386436576942066 0 0.011002747031756206 -0.0014474555006604832 0 0.011004004236994607 -0.0010402632717828155 0 0.01118094432184865 -0.0011159848589559309 0 0.01099868866959724 -0.00078407270282470232 0 0.011004004236994607 -0.0010402632717828155 0 0.011152169765222058 -0.00089566525988780423 0 0.011004004236994607 -0.0010402632717828155 0 0.011152169765222058 -0.00089566525988780423 0 0.01118094432184865 -0.0011159848589559309 0 0.011002747031756206 -0.0014474555006604832 0 0.01118094432184865 -0.0011159848589559309 0 0.011515842465691878 -0.0010088048515076817 0 0.011152169765222058 -0.00089566525988780423 0 0.0113006090838769 -0.00096101787469932165 0 0.011360798861875064 -0.00083994850116553418 0 0.015621847527438216 -0.010853844812120771 0 0.014944006251608093 -0.015872472291777524 0 0.011152169765222058 -0.00089566525988780423 0 0.0113006090838769 -0.00096101787469932165 0 0.01118094432184865 -0.0011159848589559309 0 0.0113006090838769 -0.00096101787469932165 0 0.01118094432184865 -0.0011159848589559309 0 0.011515842465691878 -0.0010088048515076817 0 0.0113006090838769 -0.00096101787469932165 0 0.011360798861875064 -0.00083994850116553418 0 0.011515842465691878 -0.0010088048515076817 0 0.011360798861875064 -0.00083994850116553418 0 0.01148822512214758 -0.00086862713490808824 0 0.011515842465691878 -0.0010088048515076817 0 0.011360798861875064 -0.00083994850116553418 0 0.01148343577775489 -0.00077442454200182624 0 0.01148822512214758 -0.00086862713490808824 0 0.011166737355409913 -0.00070800603049051263 0 0.011152169765222058 -0.00089566525988780423 0 0.011360798861875064 -0.00083994850116553418 0 0.011166737355409913 -0.00070800603049051263 0 0.011360798861875064 -0.00083994850116553418 0 0.01135401703264108 -0.00073534566134090228 0 0.011166737355409913 -0.00070800603049051263 0 0.01135401703264108 -0.00073534566134090228 0 0.011329720163802031 -0.00063148640849535647 0 0.01135401703264108 -0.00073534566134090228 0 0.01148343577775489 -0.00077442454200182624 0 0.011329720163802031 -0.00063148640849535647 0 0.011360798861875064 -0.00083994850116553418 0 0.01135401703264108 -0.00073534566134090228 0 0.01148343577775489 -0.00077442454200182624 0 0.01148343577775489 -0.00077442454200182624 0 0.011586631394389478 -0.00084921273343907045 0 0.011798274576280396 -0.00082254918174314094 0 0.01148343577775489 -0.00077442454200182624 0 0.011798274576280396 -0.00082254918174314094 0 0.011329720163802031 -0.00063148640849535647 0 0.0072487257365693464 -0.038713426166978822 0 0.010772629044181446 -0.016979903006746042 0 0.011586631394389478 -0.00084921273343907045 0 0.011515842465691878 -0.0010088048515076817 0 0.011798274576280396 -0.00082254918174314094 0 0.014944006251608093 -0.015872472291777524 0 0.0072487257365693464 -0.038713426166978822 0 0.011586631394389478 -0.00084921273343907045 0 0.01148822512214758 -0.00086862713490808824 0 0.011515842465691878 -0.0010088048515076817 0 0.01148343577775489 -0.00077442454200182624 0 0.011586631394389478 -0.00084921273343907045 0 0.01148822512214758 -0.00086862713490808824 0 0.0080007908055061191 -0.0054313967034510082 0 0.0055171522833601149 -0.004964777336674938 0 0.0035416295278183334 -0.0098605358267708759 0 0.0096875332956300447 -0.0010344917947516425 0 0.0080007908055061191 -0.0054313967034510082 0 0.0055171522833601149 -0.004964777336674938 0 0.0091250067903813452 -0.092089314054582538 0 0.006351374851757836 -0.092543446773601518 0 0.0044543644709374103 -0.095780479666151982 0 0.007012830245737906 -0.090079598977606146 0 0.0091250067903813452 -0.092089314054582538 0 0.006351374851757836 -0.092543446773601518 0 0.007012830245737906 -0.090079598977606146 0 0.006351374851757836 -0.092543446773601518 0 0.0048203447230953655 -0.092062075475019142 0 0.0055671335492635237 -0.046520202327321708 0 -0.00013553765170409295 -0.05317066635182572 0 0.0055171522833601149 -0.004964777336674938 0 0.0035416295278183334 -0.0098605358267708759 0 0.00058154168857998186 -0.0095967079845779672 0 0.0072487257365693464 -0.038713426166978822 0 -0.00013553765170409295 -0.05317066635182572 0 0.0033703415327109511 -0.004644406442678199 0 0.0024461049812222026 -0.007495165108569791 0 -0.0039301113610422473 -0.0071651913006792172 0 0.0042397203020377331 0.00040025743838832195 0 0.0033703415327109511 -0.004644406442678199 0 -0.0039301113610422473 -0.0071651913006792172 0 0.0042397203020377331 0.00040025743838832195 0 0.0033703415327109511 -0.004644406442678199 0 0.0074483711727999155 -0.0030018504031723101 0 0.00666929679579763 -0.0059653362234190193 0 0.0033703415327109511 -0.004644406442678199 0 0.0074483711727999155 -0.0030018504031723101 0 0.00666929679579763 -0.0059653362234190193 0 0.0033703415327109511 -0.004644406442678199 0 0.0024461049812222026 -0.007495165108569791 0 0.0024461049812222026 -0.007495165108569791 0 0.005587918463339934 -0.0099154265836924604 0 0.00022829145655951718 -0.011659276954830359 0 0.005587918463339934 -0.0099154265836924604 0 0.00022829145655951718 -0.011659276954830359 0 0.0058108827397266765 -0.014613797480878817 0 0.00666929679579763 -0.0059653362234190193 0 0.0024461049812222026 -0.007495165108569791 0 0.005587918463339934 -0.0099154265836924604 0 0.00666929679579763 -0.0059653362234190193 0 0.005587918463339934 -0.0099154265836924604 0 0.0099196659209607706 -0.0074785877174834208 0 0.005587918463339934 -0.0099154265836924604 0 0.0099196659209607706 -0.0074785877174834208 0 0.0096693269356743841 -0.011699464148221612 0 0.005587918463339934 -0.0099154265836924604 0 0.0096693269356743841 -0.011699464148221612 0 0.0058108827397266765 -0.014613797480878817 0 0.0096693269356743841 -0.011699464148221612 0 0.013749347740339994 -0.0087173449736674576 0 0.013561148884192542 -0.013401960081813394 0 0.0096693269356743841 -0.011699464148221612 0 0.013561148884192542 -0.013401960081813394 0 0.010675110315326206 -0.016056838264811545 0 0.0099196659209607706 -0.0074785877174834208 0 0.0096693269356743841 -0.011699464148221612 0 0.013749347740339994 -0.0087173449736674576 0 0.0042397203020377331 0.00040025743838832195 0 0.011199025411167287 -0.0028199121716139864 0 0.016863672662490139 -0.0014218991617698995 0 0.0099196659209607706 -0.0074785877174834208 0 0.012902822598176095 -0.0050159693611606044 0 0.013749347740339994 -0.0087173449736674576 0 0.0042397203020377331 0.00040025743838832195 0 0.0074483711727999155 -0.0030018504031723101 0 0.011199025411167287 -0.0028199121716139864 0 0.012902822598176095 -0.0050159693611606044 0 0.010134424079884519 -0.0047090752675426062 0 0.011199025411167287 -0.0028199121716139864 0 0.0099196659209607706 -0.0074785877174834208 0 0.012902822598176095 -0.0050159693611606044 0 0.010134424079884519 -0.0047090752675426062 0 0.00666929679579763 -0.0059653362234190193 0 0.010134424079884519 -0.0047090752675426062 0 0.0074483711727999155 -0.0030018504031723101 0 0.00666929679579763 -0.0059653362234190193 0 0.0099196659209607706 -0.0074785877174834208 0 0.010134424079884519 -0.0047090752675426062 0 0.010134424079884519 -0.0047090752675426062 0 0.0074483711727999155 -0.0030018504031723101 0 0.011199025411167287 -0.0028199121716139864 0 0.012902822598176095 -0.0050159693611606044 0 0.011199025411167287 -0.0028199121716139864 0 0.015265698167765445 -0.002863778308216298 0 0.011199025411167287 -0.0028199121716139864 0 0.015265698167765445 -0.002863778308216298 0 0.016863672662490139 -0.0014218991617698995 0 0.015265698167765445 -0.002863778308216298 0 0.016288540468619682 -0.0021684033722892343 0 0.016251512175331027 -0.0034249226693580308 0 0.015265698167765445 -0.002863778308216298 0 0.016288540468619682 -0.0021684033722892343 0 0.016863672662490139 -0.0014218991617698995 0 0.016251512175331027 -0.0034249226693580308 0 0.016810581300707603 -0.0014161697951005467 0 0.017837463292248411 -0.0056259984726822546 0 0.016288540468619682 -0.0021684033722892343 0 0.016863672662490139 -0.0014218991617698995 0 0.016810581300707603 -0.0014161697951005467 0 0.016288540468619682 -0.0021684033722892343 0 0.016251512175331027 -0.0034249226693580308 0 0.016810581300707603 -0.0014161697951005467 0 0.016251512175331027 -0.0034249226693580308 0 0.017837463292248411 -0.0056259984726822546 0 0.015468373194567939 -0.0055178221740146581 0 0.017837463292248411 -0.0056259984726822546 0 0.015468373194567939 -0.0055178221740146581 0 0.016774331954613492 -0.0080368985307039814 0 0.012902822598176095 -0.0050159693611606044 0 0.015468373194567939 -0.0055178221740146581 0 0.013749347740339994 -0.0087173449736674576 0 0.015265698167765445 -0.002863778308216298 0 0.016251512175331027 -0.0034249226693580308 0 0.015468373194567939 -0.0055178221740146581 0 0.012902822598176095 -0.0050159693611606044 0 0.015265698167765445 -0.002863778308216298 0 0.015468373194567939 -0.0055178221740146581 0 0.013749347740339994 -0.0087173449736674576 0 0.017112534141049948 -0.011755694397939626 0 0.016774331954613492 -0.0080368985307039814 0 0.015468373194567939 -0.0055178221740146581 0 0.013749347740339994 -0.0087173449736674576 0 0.016774331954613492 -0.0080368985307039814 0 0.013749347740339994 -0.0087173449736674576 0 0.013561148884192542 -0.013401960081813394 0 0.017112534141049948 -0.011755694397939626 0 0.017112534141049948 -0.011755694397939626 0 0.019809630837498031 -0.0092015031650989933 0 0.021605233129339742 -0.012296118923070448 0 0.017837463292248411 -0.0056259984726822546 0 0.016774331954613492 -0.0080368985307039814 0 0.019809630837498031 -0.0092015031650989933 0 0.017112534141049948 -0.011755694397939626 0 0.016774331954613492 -0.0080368985307039814 0 0.019809630837498031 -0.0092015031650989933 0 0.019809630837498031 -0.0092015031650989933 0 0.021605233129339742 -0.012296118923070448 0 0.023984199530316948 -0.0083134985126264334 0 0.017837463292248411 -0.0056259984726822546 0 0.019809630837498031 -0.0092015031650989933 0 0.023984199530316948 -0.0083134985126264334 0 0.021605233129339742 -0.012296118923070448 0 0.023984199530316948 -0.0083134985126264334 0 0.030615523431943337 -0.015006688240986249 0 0.016810581300707603 -0.0014161697951005467 0 0.015554516150703161 0.00075300456185331934 0 0.014269456884506896 -0.00090448365464178748 0 0.016863672662490139 -0.0014218991617698995 0 0.016810581300707603 -0.0014161697951005467 0 0.014269456884506896 -0.00090448365464178748 0 0.010772629044181446 -0.016979903006746042 0 0.011499096953359178 -0.0083385494142870983 0 0.016051798805155421 -0.0060941892637367545 0 0.016659960780018541 -0.0078408747042234394 0 0.016810581300707603 -0.0014161697951005467 0 0.017837463292248411 -0.0056259984726822546 0 0.023984199530316948 -0.0083134985126264334 0 -0.00035938543517091351 -0.093717598535059107 0 -0.00026479153368945678 -0.09328982626229522 0 -0.0003393982714890916 -0.093480646519505273 0 0.0015990858132874928 -0.077461064668665452 0 0.0018373589256206236 -0.072295905181492578 0 -0.00035938543517091351 -0.093717598535059107 0 -0.00013847007347913071 -0.09367326450255474 0 0.00011270159857170145 -0.094498311225931636 0 -0.00035938543517091351 -0.093717598535059107 0 -0.0003393982714890916 -0.093480646519505273 0 -0.00037135149506705817 -0.093596637277265707 0 -0.0002774993077377152 -0.093834672918955239 0 -0.00035938543517091351 -0.093717598535059107 0 -0.00037135149506705817 -0.093596637277265707 0 -0.00024398254331853416 -0.093788717535795318 0 -0.00035938543517091351 -0.093717598535059107 0 -0.00017478875393879144 -0.093584557976900809 0 -0.00035938543517091351 -0.093717598535059107 0 -0.00017478875393879144 -0.093584557976900809 0 -0.00013847007347913071 -0.09367326450255474 0 -0.00017478875393879144 -0.093584557976900809 0 -0.00013847007347913071 -0.09367326450255474 0 0.00028786245480669659 -0.092984312694924284 0 -0.00013847007347913071 -0.09367326450255474 0 0.00028786245480669659 -0.092984312694924284 0 0.00011270159857170145 -0.094498311225931636 0 0.0018427530759945697 -0.089016242922513769 0 0.00028786245480669659 -0.092984312694924284 0 0.0029504170468937058 -0.091321165789323117 0 0.00028786245480669659 -0.092984312694924284 0 0.0029504170468937058 -0.091321165789323117 0 0.002386718415472576 -0.093465976507334417 0 0.00028786245480669659 -0.092984312694924284 0 0.002386718415472576 -0.093465976507334417 0 0.00011270159857170145 -0.094498311225931636 0 0.006351374851757836 -0.092543446773601518 0 0.0048203447230953655 -0.092062075475019142 0 0.0044543644709374103 -0.095780479666151982 0 0.0045410546316656565 -0.088891159534275371 0 0.0048203447230953655 -0.092062075475019142 0 0.0029504170468937058 -0.091321165789323117 0 0.0048203447230953655 -0.092062075475019142 0 0.0029504170468937058 -0.091321165789323117 0 0.002386718415472576 -0.093465976507334417 0 0.0048203447230953655 -0.092062075475019142 0 0.002386718415472576 -0.093465976507334417 0 0.0044543644709374103 -0.095780479666151982 0 0.002386718415472576 -0.093465976507334417 0 0.0044543644709374103 -0.095780479666151982 0 0.00011270159857170145 -0.094498311225931636 0 -0.00012953618591118174 -0.093071309224602605 0 -0.00026479153368945678 -0.09328982626229522 0 -0.00014840246080841037 -0.093165660478421827 0 -0.00013553765170409295 -0.05317066635182572 0 0.0018373589256206236 -0.072295905181492578 0 -0.00026479153368945678 -0.09328982626229522 0 -0.00027493956905371727 -0.093348177219390926 0 -0.00014840246080841037 -0.093165660478421827 0 -0.00014840246080841037 -0.093165660478421827 0 0.00024163935305261073 -0.093464805430508835 0 -0.0001209819699004121 -0.093417767457689399 0 -0.00014840246080841037 -0.093165660478421827 0 -0.00025295189709685894 -0.093418855736004086 0 -0.0001209819699004121 -0.093417767457689399 0 -0.00027493956905371727 -0.093348177219390926 0 -0.00014840246080841037 -0.093165660478421827 0 -0.00025295189709685894 -0.093418855736004086 0 0.0072487257365693464 -0.038713426166978822 0 0.00049287995750196053 -0.050204388624412476 0 0.0008222310203615295 -0.091954704588576811 0 -0.00014840246080841037 -0.093165660478421827 0 0.00024163935305261073 -0.093464805430508835 0 0.0018368095610864902 -0.091996797561216967 0 0.0008222310203615295 -0.091954704588576811 0 0.00024163935305261073 -0.093464805430508835 0 -0.00013553765170409295 -0.05317066635182572 0 -0.0057008803369679017 -0.063485540357915357 0 -0.0039301113610422473 -0.0071651913006792172 0 -0.0047065894071027558 -0.012816145923396832 0 0.00022829145655951718 -0.011659276954830359 0 0.0024461049812222026 -0.007495165108569791 0 -0.0039301113610422473 -0.0071651913006792172 0 0.00022829145655951718 -0.011659276954830359 0 -0.0039301113610422473 -0.0071651913006792172 0 -0.0047065894071027558 -0.012816145923396832 0 -0.0095002434417907587 -0.012305003302192653 0 -0.0047065894071027558 -0.012816145923396832 0 -0.0095002434417907587 -0.012305003302192653 0 -0.012225625042037424 -0.014813214956618932 0 -0.00025295189709685894 -0.093418855736004086 0 -0.00024709685931023943 -0.093560150630698558 0 -0.00032308353901664468 -0.093515417954818686 0 -0.00025295189709685894 -0.093418855736004086 0 -0.0001209819699004121 -0.093417767457689399 0 -0.00024709685931023943 -0.093560150630698558 0 0.00049287995750196053 -0.050204388624412476 0 -0.0012033696559190954 -0.055964309172824182 0 0.00024163935305261073 -0.093464805430508835 0 -0.0001209819699004121 -0.093417767457689399 0 -0.00024709685931023943 -0.093560150630698558 0 -0.0012033696559190954 -0.055964309172824182 0 -0.0015225504476953154 -0.058868544227948946 0 -0.00024709685931023943 -0.093560150630698558 0 -0.00032308353901664468 -0.093515417954818686 0 -0.00029709635348640671 -0.093554174222564845 0 -0.00032308353901664468 -0.093515417954818686 0 -0.00040654587006225116 -0.093548807901757666 0 -0.00029709635348640671 -0.093554174222564845 0 0.0028232448065905881 -0.067358059963489383 0 -0.0015225504476953154 -0.058868544227948946 0 -0.00032308353901664468 -0.093515417954818686 0 -0.00034641257770052505 -0.093482739717579685 0 -0.00040654587006225116 -0.093548807901757666 0 -0.00025295189709685894 -0.093418855736004086 0 -0.00032308353901664468 -0.093515417954818686 0 -0.00034641257770052505 -0.093482739717579685 0 -0.00027493956905371727 -0.093348177219390926 0 -0.00025295189709685894 -0.093418855736004086 0 -0.00034641257770052505 -0.093482739717579685 0 -0.00034641257770052505 -0.093482739717579685 0 -0.0003393982714890916 -0.093480646519505273 0 -0.00037135149506705817 -0.093596637277265707 0 -0.00026479153368945678 -0.09328982626229522 0 -0.00027493956905371727 -0.093348177219390926 0 -0.0003393982714890916 -0.093480646519505273 0 -0.00027493956905371727 -0.093348177219390926 0 -0.00034641257770052505 -0.093482739717579685 0 -0.0003393982714890916 -0.093480646519505273 0 -0.00034641257770052505 -0.093482739717579685 0 -0.00037135149506705817 -0.093596637277265707 0 -0.00040654587006225116 -0.093548807901757666 0 -0.000330392541865032 -0.093649111728524873 0 -0.00037135149506705817 -0.093596637277265707 0 -0.00040654587006225116 -0.093548807901757666 0 -0.00040654587006225116 -0.093548807901757666 0 -0.00042304287453237376 -0.093443003477419462 0 -0.00056142690433488428 -0.093396274083339531 0 -0.00040654587006225116 -0.093548807901757666 0 -0.00042304287453237376 -0.093443003477419462 0 -0.00034980520413874759 -0.093531342657757449 0 -0.0028217061022939231 -0.072728986309787719 0 -0.00021594982247493839 -0.079781000175152453 0 -0.00042304287453237376 -0.093443003477419462 0 -0.00045831861768227657 -0.093336834180830205 0 -0.00035520327500325412 -0.093427115992597745 0 -0.00085876384633042536 -0.075551420172200137 0 -0.0027947221370950722 -0.075623520992507007 0 -0.0021874166607676361 -0.076147482421267843 0 -0.00085876384633042536 -0.075551420172200137 0 -0.0018097507769248677 -0.076593415996955197 0 -0.0021874166607676361 -0.076147482421267843 0 -0.0031548985397704503 -0.063989070330672179 0 -0.0034290934590236123 -0.065134615228836332 0 -0.0046730611291020087 -0.065661804238932461 0 -0.0031548985397704503 -0.063989070330672179 0 -0.0034290934590236123 -0.065134615228836332 0 -0.0023576017987862585 -0.064892904125959106 0 -0.0028217061022939231 -0.072728986309787719 0 -0.0015694474648742759 -0.07462755954144179 0 -0.0028217061022939231 -0.072728986309787719 0 -0.0014369954053358445 -0.070516224853811135 0 -0.0032560665625620791 -0.06393737472364204 0 -0.00098384845824389579 -0.063844965194428727 0 -0.0011526950986805306 -0.061630865802237186 0 -0.0031548985397704503 -0.063989070330672179 0 -0.0023576017987862585 -0.064892904125959106 0 -0.00094488804499755371 -0.06388545773006428 0 -0.0023576017987862585 -0.064892904125959106 0 -0.00094488804499755371 -0.06388545773006428 0 -0.00036651270594713537 -0.065193278922398026 0 -0.00042304287453237376 -0.093443003477419462 0 -0.00045831861768227657 -0.093336834180830205 0 -0.00056142690433488428 -0.093396274083339531 0 -0.0028217061022939231 -0.072728986309787719 0 -0.0025328373129576811 -0.063122264590220536 0 -0.00040654587006225116 -0.093548807901757666 0 -0.00056142690433488428 -0.093396274083339531 0 -0.00059073514003377884 -0.093409565863023097 0 -0.00098384845824389579 -0.063844965194428727 0 -0.0011526950986805306 -0.061630865802237186 0 -0.00063452197487784152 -0.061063901077910994 0 -0.0025328373129576811 -0.063122264590220536 0 -0.0015225504476953154 -0.058868544227948946 0 -0.00098384845824389579 -0.063844965194428727 0 0.00044986445982793497 -0.062331684168882989 0 -0.00063452197487784152 -0.061063901077910994 0 -0.0015225504476953154 -0.058868544227948946 0 0.00060340666209982821 -0.048665662119370172 0 0.00044986445982793497 -0.062331684168882989 0 -0.00063452197487784152 -0.061063901077910994 0 0.0031325449206558494 -0.062006670041969032 0 -0.0047065894071027558 -0.012816145923396832 0 -0.012225625042037424 -0.014813214956618932 0 -0.00093339322911525793 -0.017600537746207786 0 0.00044986445982793497 -0.062331684168882989 0 0.0031325449206558494 -0.062006670041969032 0 0.0012905460547303431 -0.063752681236126596 0 -0.0047065894071027558 -0.012816145923396832 0 0.00022829145655951718 -0.011659276954830359 0 -0.00093339322911525793 -0.017600537746207786 0 0.0031325449206558494 -0.062006670041969032 0 0.0032186672074679375 -0.064087286780340133 0 0.0012905460547303431 -0.063752681236126596 0 0.0043572190262971813 -0.056952640211029665 0 0.0014992455032761536 -0.063939127741463875 0 0.0070360477297813232 -0.058308844455031185 0 0.0027049005632319937 -0.059655756610617457 0 0.0047084434945042046 -0.060578170074792437 0 0.0032186672074679375 -0.064087286780340133 0 0.0012905460547303431 -0.063752681236126596 0 -0.00036651270594713537 -0.065193278922398026 0 -0.0014369954053358445 -0.070516224853811135 0 -0.00071560910844368673 -0.069818917931215654 0 -0.00094488804499755371 -0.06388545773006428 0 0.0012905460547303431 -0.063752681236126596 0 -0.00036651270594713537 -0.065193278922398026 0 -0.00098384845824389579 -0.063844965194428727 0 0.00044986445982793497 -0.062331684168882989 0 0.0012905460547303431 -0.063752681236126596 0 0.0027049005632319937 -0.059655756610617457 0 0.0047084434945042046 -0.060578170074792437 0 0.0030861407762251864 -0.06168523625763931 0 0.0047084434945042046 -0.060578170074792437 0 0.0030861407762251864 -0.06168523625763931 0 0.0045675709343855567 -0.062219691053428137 0 0.0027049005632319937 -0.059655756610617457 0 0.0030861407762251864 -0.06168523625763931 0 0.0012874628381013284 -0.061812864037417391 0 0.0070360477297813232 -0.058308844455031185 0 0.0062739924856189486 -0.060877944724866948 0 0.007596170861354886 -0.059750912946193287 0 0.0070360477297813232 -0.058308844455031185 0 0.0047084434945042046 -0.060578170074792437 0 0.0062739924856189486 -0.060877944724866948 0 0.0062739924856189486 -0.060877944724866948 0 0.0060689944083455061 -0.062303832729656471 0 0.0045675709343855567 -0.062219691053428137 0 0.0047084434945042046 -0.060578170074792437 0 0.0062739924856189486 -0.060877944724866948 0 0.0045675709343855567 -0.062219691053428137 0 0.0062739924856189486 -0.060877944724866948 0 0.0060689944083455061 -0.062303832729656471 0 0.0078608372582619195 -0.061986963291628921 0 0.0062739924856189486 -0.060877944724866948 0 0.007596170861354886 -0.059750912946193287 0 0.0078608372582619195 -0.061986963291628921 0 0.0053846249786764977 -0.063966222842423426 0 0.0078608372582619195 -0.061986963291628921 0 0.0062071994472113765 -0.066052851674076984 0 0.0049485307917127045 -0.058374083843113336 0 0.0037165806671958699 -0.052786578100815766 0 0.0060689944083455061 -0.062303832729656471 0 0.0053846249786764977 -0.063966222842423426 0 0.0078608372582619195 -0.061986963291628921 0 0.0060689944083455061 -0.062303832729656471 0 0.0053846249786764977 -0.063966222842423426 0 0.0045675709343855567 -0.062219691053428137 0 0.0053846249786764977 -0.063966222842423426 0 0.002758122535755208 -0.063462547224010096 0 0.0028438050713247131 -0.066034541888706361 0 0.0053846249786764977 -0.063966222842423426 0 0.0045675709343855567 -0.062219691053428137 0 0.002758122535755208 -0.063462547224010096 0 0.0030861407762251864 -0.06168523625763931 0 0.0045675709343855567 -0.062219691053428137 0 0.002758122535755208 -0.063462547224010096 0 0.0030861407762251864 -0.06168523625763931 0 0.002758122535755208 -0.063462547224010096 0 0.0012874628381013284 -0.061812864037417391 0 0.002758122535755208 -0.063462547224010096 0 0.00022336085416225314 -0.064085545290820764 0 0.0028438050713247131 -0.066034541888706361 0 0.002758122535755208 -0.063462547224010096 0 0.00022336085416225314 -0.064085545290820764 0 0.0012874628381013284 -0.061812864037417391 0 0.00022336085416225314 -0.064085545290820764 0 -0.0003692353428461996 -0.062455955713229379 0 0.0012874628381013284 -0.061812864037417391 0 0.00022336085416225314 -0.064085545290820764 0 -0.001464479881844435 -0.062918662870305758 0 -0.001868195344570518 -0.065417625371768873 0 -0.001464479881844435 -0.062918662870305758 0 -0.001868195344570518 -0.065417625371768873 0 -0.0036980652593868045 -0.061660476066722529 0 0.00022336085416225314 -0.064085545290820764 0 -0.001464479881844435 -0.062918662870305758 0 -0.0003692353428461996 -0.062455955713229379 0 -0.001464479881844435 -0.062918662870305758 0 -0.0003692353428461996 -0.062455955713229379 0 -0.0015164130109593108 -0.061024565398798088 0 -0.00096020203795118349 -0.072952270970974786 0 -0.001531594491771488 -0.072782967148278213 0 -0.0019533687764726796 -0.073242984200680941 0 -0.001464479881844435 -0.062918662870305758 0 -0.0015164130109593108 -0.061024565398798088 0 -0.0036980652593868045 -0.061660476066722529 0 -0.0015200592531629824 -0.07204205310656818 0 -0.0011069676430715723 -0.07488860207304153 0 -0.0034290934590236123 -0.065134615228836332 0 -0.0038913127702771611 -0.066259843903086243 0 -0.0046656799616584246 -0.065658776485946896 0 -0.0015167421986080438 -0.074207446767344129 0 -0.0015694474648742759 -0.07462755954144179 0 -0.0038913127702771611 -0.066259843903086243 0 -0.0046656799616584246 -0.065658776485946896 0 -0.0049339800746107049 -0.065953755715180168 0 -0.0015200592531629824 -0.07204205310656818 0 -0.0014595891760187192 -0.074640704857053083 0 -0.0015694474648742759 -0.07462755954144179 0 -0.0014595891760187192 -0.074640704857053083 0 -0.0034290934590236123 -0.065134615228836332 0 -0.0023576017987862585 -0.064892904125959106 0 -0.0038913127702771611 -0.066259843903086243 0 0.0014992455032761536 -0.063939127741463875 0 -0.0015200592531629824 -0.07204205310656818 0 -0.0003692353428461996 -0.062455955713229379 0 -0.0015164130109593108 -0.061024565398798088 0 0.0012874628381013284 -0.061812864037417391 0 0.0027049005632319937 -0.059655756610617457 0 -0.0016108549577874014 -0.060981902954006927 0 0.0012874628381013284 -0.061812864037417391 0 -0.0015200592531629824 -0.07204205310656818 0 -0.001609980318471518 -0.07065436121884891 0 -0.0023576017987862585 -0.064892904125959106 0 -0.00036651270594713537 -0.065193278922398026 0 -0.0038913127702771611 -0.066259843903086243 0 0.010777833271800649 -0.022475310800111638 0 0.0099556896233091146 -0.025390027596560526 0 0.014313137453826227 -0.023290756208799602 0 0.010777833271800649 -0.022475310800111638 0 0.01155178135904953 -0.019913823395677762 0 0.014313137453826227 -0.023290756208799602 0 0.021605233129339742 -0.012296118923070448 0 0.023401881305121861 -0.017114466664756377 0 0.016102039695405808 -0.019264742268956005 0 0.021605233129339742 -0.012296118923070448 0 0.023401881305121861 -0.017114466664756377 0 0.030615523431943337 -0.015006688240986249 0 0.010777833271800649 -0.022475310800111638 0 0.01155178135904953 -0.019913823395677762 0 0.0082435327047361475 -0.020884329895978469 0 0.016873582055983872 -0.022259153676414817 0 0.0151480672746158 -0.033555046040917851 0 0.013561148884192542 -0.013401960081813394 0 0.017112534141049948 -0.011755694397939626 0 0.016380791680858438 -0.018821972932947961 0 0.019202038589689378 -0.026510300150426252 0 0.0151480672746158 -0.033555046040917851 0 0.017112534141049948 -0.011755694397939626 0 0.021605233129339742 -0.012296118923070448 0 0.016380791680858438 -0.018821972932947961 0 0.013561148884192542 -0.013401960081813394 0 0.016380791680858438 -0.018821972932947961 0 0.010675110315326206 -0.016056838264811545 0 0.0151480672746158 -0.033555046040917851 0 0.0081943083128678696 -0.046728338770225787 0 0.0082435327047361475 -0.020884329895978469 0 0.0051443977484211456 -0.024801424612895528 0 0.0099556896233091146 -0.025390027596560526 0 0.010777833271800649 -0.022475310800111638 0 0.0082435327047361475 -0.020884329895978469 0 0.0099556896233091146 -0.025390027596560526 0 0.012812974211857158 -0.056333149947185537 0 0.011493373034695257 -0.057161543498895802 0 0.010558201045883399 -0.058951107513457696 0 0.0151480672746158 -0.033555046040917851 0 0.0094543615104943288 -0.041303342942205133 0 0.010756919288300361 -0.056980225351960338 0 0.009166614870296956 -0.057877347646431695 0 0.010558201045883399 -0.058951107513457696 0 0.012812974211857158 -0.056333149947185537 0 0.010647237360353012 -0.056912614588025295 0 0.011493373034695257 -0.057161543498895802 0 0.0081943083128678696 -0.046728338770225787 0 0.0084853892788902385 -0.046955536377893445 0 0.010756919288300361 -0.056980225351960338 0 0.011493373034695257 -0.057161543498895802 0 0.010558201045883399 -0.058951107513457696 0 0.016380791680858438 -0.018821972932947961 0 0.010122547526390715 -0.020635297738337208 0 0.010675110315326206 -0.016056838264811545 0 0.0096693269356743841 -0.011699464148221612 0 0.010675110315326206 -0.016056838264811545 0 0.0058108827397266765 -0.014613797480878817 0 0.010122547526390715 -0.020635297738337208 0 0.010675110315326206 -0.016056838264811545 0 0.0058108827397266765 -0.014613797480878817 0 -0.00093339322911525793 -0.017600537746207786 0 0.010122547526390715 -0.020635297738337208 0 0.0058108827397266765 -0.014613797480878817 0 0.00060340666209982821 -0.048665662119370172 0 0.0081943083128678696 -0.046728338770225787 0 0.00022829145655951718 -0.011659276954830359 0 -0.00093339322911525793 -0.017600537746207786 0 0.0058108827397266765 -0.014613797480878817 0 0.0031325449206558494 -0.062006670041969032 0 0.0032186672074679375 -0.064087286780340133 0 0.0068160533963595379 -0.06298723389204415 0 0.0043572190262971813 -0.056952640211029665 0 0.0081943083128678696 -0.046728338770225787 0 0.0070360477297813232 -0.058308844455031185 0 0.010756919288300361 -0.056980225351960338 0 0.009166614870296956 -0.057877347646431695 0 0.0070360477297813232 -0.058308844455031185 0 0.009166614870296956 -0.057877347646431695 0 0.007596170861354886 -0.059750912946193287 0 0.0081981957751901431 -0.060462452297324956 0 0.0087705579441602309 -0.060929694038898606 0 0.010558201045883399 -0.058951107513457696 0 0.009166614870296956 -0.057877347646431695 0 0.0081981957751901431 -0.060462452297324956 0 0.010558201045883399 -0.058951107513457696 0 0.009166614870296956 -0.057877347646431695 0 0.007596170861354886 -0.059750912946193287 0 0.0078608372582619195 -0.061986963291628921 0 0.0059514560340980334 -0.058235044584620872 0 0.0049485307917127045 -0.058374083843113336 0 0.0081981957751901431 -0.060462452297324956 0 0.0087705579441602309 -0.060929694038898606 0 0.0072488904085438906 -0.062699719466916423 0 0.0065919815971434608 -0.046250518084465134 0 0.0037165806671958699 -0.052786578100815766 0 0.0020209448155304008 -0.028743272626893537 0 0.0059068789213720455 -0.02923388505167392 0 0.0025346961295656589 -0.032386033113339936 0 0.0020209448155304008 -0.028743272626893537 0 0.0059068789213720455 -0.02923388505167392 0 0.0051443977484211456 -0.024801424612895528 0 0.0065919815971434608 -0.046250518084465134 0 0.0094543615104943288 -0.041303342942205133 0 0.0059068789213720455 -0.02923388505167392 0 0.0051443977484211456 -0.024801424612895528 0 0.0099556896233091146 -0.025390027596560526 0 0.0059068789213720455 -0.02923388505167392 0 0.010124800181379307 -0.030741601471031048 0 0.0099556896233091146 -0.025390027596560526 0 0.0076211454723391229 -0.018875928298488213 0 0.011295088088550844 -0.013343079456204094 0 0.010124800181379307 -0.030741601471031048 0 0.0099556896233091146 -0.025390027596560526 0 0.014598558404463396 -0.028123260521021258 0 0.0021639591686879902 -0.013913738024508486 0 -0.0019662595454848363 -0.0098615501833485501 0 -0.00096456579930744035 -0.019430557885254461 0 0.0085745909564157209 -0.01331526645403784 0 0.0057656525451494859 -0.013460048977635588 0 0.0077819851938444404 -0.015795059540102813 0 0.0057656525451494859 -0.013460048977635588 0 0.0043578038029276909 -0.016144008699733658 0 0.0077819851938444404 -0.015795059540102813 0 0.0057656525451494859 -0.013460048977635588 0 0.0075748180349816709 -0.010921416902654796 0 0.0031139724801563218 -0.010476501998660915 0 0.0085745909564157209 -0.01331526645403784 0 0.0057656525451494859 -0.013460048977635588 0 0.0075748180349816709 -0.010921416902654796 0 0.00478735427024628 -0.0058169493860025451 0 0.0075748180349816709 -0.010921416902654796 0 0.011009924887850891 -0.0077454102776478373 0 0.00478735427024628 -0.0058169493860025451 0 0.0075748180349816709 -0.010921416902654796 0 0.0031139724801563218 -0.010476501998660915 0 0.0076211454723391229 -0.018875928298488213 0 0.0037113963668843021 -0.02493346762184958 0 0.0059068789213720455 -0.02923388505167392 0 0.010124800181379307 -0.030741601471031048 0 0.0056169258166635103 -0.033383598773394758 0 0.00478735427024628 -0.0058169493860025451 0 0.0031139724801563218 -0.010476501998660915 0 -0.0019662595454848363 -0.0098615501833485501 0 0.0031139724801563218 -0.010476501998660915 0 0.0021639591686879902 -0.013913738024508486 0 -0.0019662595454848363 -0.0098615501833485501 0 0.0057656525451494859 -0.013460048977635588 0 0.0031139724801563218 -0.010476501998660915 0 0.0021639591686879902 -0.013913738024508486 0 0.0057656525451494859 -0.013460048977635588 0 0.0021639591686879902 -0.013913738024508486 0 0.0043578038029276909 -0.016144008699733658 0 -0.0019662595454848363 -0.0098615501833485501 0 -0.0085370257096582716 -0.013785485796241132 0 -0.00096456579930744035 -0.019430557885254461 0 0.0059068789213720455 -0.02923388505167392 0 0.0056169258166635103 -0.033383598773394758 0 0.0025346961295656589 -0.032386033113339936 0 0.0020209448155304008 -0.028743272626893537 0 0.0025346961295656589 -0.032386033113339936 0 -0.0011242540046875326 -0.032716752384305749 0 0.0025346961295656589 -0.032386033113339936 0 0.0010665944211208714 -0.036036885031656044 0 -0.0011242540046875326 -0.032716752384305749 0 0.0056169258166635103 -0.033383598773394758 0 0.0025346961295656589 -0.032386033113339936 0 0.0010665944211208714 -0.036036885031656044 0 0.0037113963668843021 -0.02493346762184958 0 0.00078760888959794498 -0.033000270672729926 0 -0.0085370257096582716 -0.013785485796241132 0 -0.0089113280109852106 -0.02075199253556274 0 -0.00096456579930744035 -0.019430557885254461 0 -0.0052670908126600541 -0.040417949881168078 0 -0.0063807311977267913 -0.041997779871271276 0 -0.004318411317641286 -0.041970694545513845 0 -0.0052670908126600541 -0.040417949881168078 0 -0.0026853508060189347 -0.039949744284900265 0 -0.004318411317641286 -0.041970694545513845 0 -0.0026853508060189347 -0.039949744284900265 0 -0.0024319568438273724 -0.041540050981708751 0 -0.004318411317641286 -0.041970694545513845 0 -0.0047294165287241905 -0.037504443475178353 0 -0.00085859375295629947 -0.032601407318372036 0 0.0021639591686879902 -0.013913738024508486 0 -0.00096456579930744035 -0.019430557885254461 0 0.0043578038029276909 -0.016144008699733658 0 -0.00096456579930744035 -0.019430557885254461 0 0.0069659427799472068 -0.018122782709164984 0 0.0043578038029276909 -0.016144008699733658 0 -0.00085859375295629947 -0.032601407318372036 0 0.0053730580789233531 -0.029372226190359927 0 -0.0026853508060189347 -0.039949744284900265 0 -0.0014863412521330345 -0.040823286123132865 0 -2.1433769517273334e-05 -0.039495930271297899 0 -0.0026853508060189347 -0.039949744284900265 0 -0.0024319568438273724 -0.041540050981708751 0 -0.0014863412521330345 -0.040823286123132865 0 -0.0024319568438273724 -0.041540050981708751 0 -0.0014863412521330345 -0.040823286123132865 0 -0.0010463741668588894 -0.042281394744269063 0 0.007158063015132745 -0.021704282271618691 0 0.0064352687489185626 -0.018644465395525573 0 0.0028554009665558021 -0.028746408760703529 0 -0.0014863412521330345 -0.040823286123132865 0 -2.1433769517273334e-05 -0.039495930271297899 0 -0.0010463741668588894 -0.042281394744269063 0 0.0053730580789233531 -0.029372226190359927 0 0.0018715205538398635 -0.035655349970208326 0 0.007158063015132745 -0.021704282271618691 0 0.0092373064560972596 -0.023826813655803705 0 0.0028554009665558021 -0.028746408760703529 0 0.007158063015132745 -0.021704282271618691 0 0.0092614734634098774 -0.019957228729667462 0 0.0092373064560972596 -0.023826813655803705 0 0.007158063015132745 -0.021704282271618691 0 0.0064352687489185626 -0.018644465395525573 0 0.0069958557418668974 -0.018552495090343468 0 0.007158063015132745 -0.021704282271618691 0 0.0069958557418668974 -0.018552495090343468 0 0.0092614734634098774 -0.019957228729667462 0 0.0069958557418668974 -0.018552495090343468 0 0.0092235868738954636 -0.017383088185633756 0 0.0092614734634098774 -0.019957228729667462 0 0.0053730580789233531 -0.029372226190359927 0 0.0053825118298995419 -0.029361378326479087 0 0.0069659427799472068 -0.018122782709164984 0 0.0043578038029276909 -0.016144008699733658 0 0.0077819851938444404 -0.015795059540102813 0 0.0053730580789233531 -0.029372226190359927 0 0.0057721374106941845 -0.028086671333431432 0 0.0064487405504946305 -0.018631970684712694 0 0.0069958557418668974 -0.018552495090343468 0 0.0077819851938444404 -0.015795059540102813 0 0.0069958557418668974 -0.018552495090343468 0 0.0077819851938444404 -0.015795059540102813 0 0.0092235868738954636 -0.017383088185633756 0 0.0016423583545746127 -0.068253786076211298 0 0.00017256756488514755 -0.069201816430860111 0 0.00065220167561160793 -0.066567829859880648 0 0.0016423583545746127 -0.068253786076211298 0 0.0034516744023687517 -0.069337563280577441 0 0.0011557610455819854 -0.069937785037979067 0 0.0016423583545746127 -0.068253786076211298 0 0.00017256756488514755 -0.069201816430860111 0 0.0011557610455819854 -0.069937785037979067 0 0.00017256756488514755 -0.069201816430860111 0 -0.0012832780343435815 -0.068717546414084993 0 -0.00030048810464607204 -0.070980904448170332 0 -0.001820559545458685 -0.068757400867426557 0 -0.0023261882445856264 -0.068759256882069214 0 0.00017256756488514755 -0.069201816430860111 0 -0.0012832780343435815 -0.068717546414084993 0 -0.0010678087685480715 -0.067009417247419045 0 -0.0012832780343435815 -0.068717546414084993 0 -0.0010678087685480715 -0.067009417247419045 0 -0.0020052893005147654 -0.067010328973256816 0 0.00017256756488514755 -0.069201816430860111 0 -0.001868195344570518 -0.065417625371768873 0 0.00065220167561160793 -0.066567829859880648 0 0.00022336085416225314 -0.064085545290820764 0 -0.001868195344570518 -0.065417625371768873 0 0.00065220167561160793 -0.066567829859880648 0 0.00022336085416225314 -0.064085545290820764 0 0.00065220167561160793 -0.066567829859880648 0 0.0028438050713247131 -0.066034541888706361 0 0.0016423583545746127 -0.068253786076211298 0 0.00065220167561160793 -0.066567829859880648 0 0.0028438050713247131 -0.066034541888706361 0 0.0053846249786764977 -0.063966222842423426 0 0.0028438050713247131 -0.066034541888706361 0 0.0062071994472113765 -0.066052851674076984 0 0.0028438050713247131 -0.066034541888706361 0 0.0062071994472113765 -0.066052851674076984 0 0.0034516744023687517 -0.069337563280577441 0 0.0037165806671958699 -0.052786578100815766 0 0.0021739141017687413 -0.048121419023489813 0 0.0037165806671958699 -0.052786578100815766 0 0.0010873051673000152 -0.058649914373814664 0 0.00078760888959794498 -0.033000270672729926 0 0.00025468992968255555 -0.045956324831548358 0 0.0040905704010734843 -0.051742533315987681 0 0.0033984037988596658 -0.05341237625137641 0 0.0021998375238961761 -0.054085174754241329 0 0.0010665944211208714 -0.036036885031656044 0 -0.0011242540046875326 -0.032716752384305749 0 -0.0023243035578660583 -0.035693849408367506 0 0.0010665944211208714 -0.036036885031656044 0 -0.0023243035578660583 -0.035693849408367506 0 -0.0035190503744846626 -0.038688102581269278 0 0.0016423583545746127 -0.068253786076211298 0 0.0028438050713247131 -0.066034541888706361 0 0.0034516744023687517 -0.069337563280577441 0 0.0021739141017687413 -0.048121419023489813 0 0.00025468992968255555 -0.045956324831548358 0 0.0033984037988596658 -0.05341237625137641 0 0.0021998375238961761 -0.054085174754241329 0 0.0027121440044215409 -0.055091332533712553 0 0.00025468992968255555 -0.045956324831548358 0 -0.00053233772644538564 -0.060120762123818033 0 0.0021998375238961761 -0.054085174754241329 0 0.0027121440044215409 -0.055091332533712553 0 0.00030323862081302317 -0.056457925136118262 0 0.0035938033904622806 -0.052681246911358483 0 0.0025883391910161827 -0.055198885692304273 0 -0.0016887824045450483 -0.055722632367824668 0 -0.015090142577113818 -0.017681535743612427 0 -0.013865745028206589 -0.018363942606679517 0 -0.016247287342194987 -0.020653459699156072 0 0.00025468992968255555 -0.045956324831548358 0 -0.001871672563641479 -0.045561720901777153 0 -0.0016971979183551655 -0.043624232403796669 0 -0.001871672563641479 -0.045561720901777153 0 -0.0085370257096582716 -0.013785485796241132 0 -0.0089113280109852106 -0.02075199253556274 0 -0.013865745028206589 -0.018363942606679517 0 -0.0085370257096582716 -0.013785485796241132 0 -0.015090142577113818 -0.017681535743612427 0 -0.013865745028206589 -0.018363942606679517 0 -0.0089113280109852106 -0.02075199253556274 0 -0.013865745028206589 -0.018363942606679517 0 -0.016211563465667433 -0.020563745292832832 0 -0.0047294165287241905 -0.037504443475178353 0 -0.0027741488352093567 -0.046366756098181271 0 -0.0089113280109852106 -0.02075199253556274 0 -0.016797834681316189 -0.022056440420354019 0 -0.016211563465667433 -0.020563745292832832 0 -0.0052670908126600541 -0.040417949881168078 0 -0.0078246328213733285 -0.040850839464194752 0 -0.0063807311977267913 -0.041997779871271276 0 -0.00022276987347148283 -0.053661031984926749 0 -0.0012016523957573315 -0.053813825528857322 0 -0.0019025509979261996 -0.057865903722889148 0 -0.0027741488352093567 -0.046366756098181271 0 -0.0025511460631642484 -0.05271843419973208 0 0.00099661364574876515 -0.056666392670352707 0 0.0025883391910161827 -0.055198885692304273 0 -0.0016887824045450483 -0.055722632367824668 0 -0.0027741488352093567 -0.046366756098181271 0 -0.0021057094032606596 -0.04819642185760524 0 -0.0014952362462091757 -0.048123552584003304 0 -0.0015924419820824993 -0.048140075214610792 0 -0.0014478003005561403 -0.048003319681419826 0 -0.0021057094032606596 -0.04819642185760524 0 -0.001871672563641479 -0.045561720901777153 0 -0.0027741488352093567 -0.046366756098181271 0 -0.001871672563641479 -0.045561720901777153 0 -0.0078246328213733285 -0.040850839464194752 0 -0.0074692511693737768 -0.04216437593429577 0 -0.0063807311977267913 -0.041997779871271276 0 -0.0021057094032606596 -0.04819642185760524 0 -0.0023873743910431361 -0.049242860367169544 0 0.00099661364574876515 -0.056666392670352707 0 -0.0034211778511028354 -0.057367366097040857 0 -0.0016887824045450483 -0.055722632367824668 0 0.00099740224429130798 -0.056669126261826006 0 -0.0034211778511028354 -0.057367366097040857 0 -0.0044807575598938224 -0.061745615506109935 0 0.0034516744023687517 -0.069337563280577441 0 0.00089793703521416288 -0.071804869471404298 0 0.0011557610455819854 -0.069937785037979067 0 0.00089793703521416288 -0.071804869471404298 0 0.0011557610455819854 -0.069937785037979067 0 -0.00030048810464607204 -0.070980904448170332 0 0.0010873051673000152 -0.058649914373814664 0 -0.00053233772644538564 -0.060120762123818033 0 0.00017256756488514755 -0.069201816430860111 0 0.0011557610455819854 -0.069937785037979067 0 -0.00030048810464607204 -0.070980904448170332 0 -0.00083162499806137941 -0.070071924530970775 0 -0.00030048810464607204 -0.070980904448170332 0 -0.0011217295575514333 -0.070821125310116487 0 -0.00030048810464607204 -0.070980904448170332 0 -0.00088344802343393437 -0.07236040036997643 0 -0.0011217295575514333 -0.070821125310116487 0 -0.0016677975232899458 -0.070757702286454935 0 -0.001466358638151757 -0.070785310436692492 0 0.00089793703521416288 -0.071804869471404298 0 -0.00030048810464607204 -0.070980904448170332 0 -0.00088344802343393437 -0.07236040036997643 0 -0.00053233772644538564 -0.060120762123818033 0 -0.00040727571747737408 -0.072967941227619487 0 -0.0034211778511028354 -0.057367366097040857 0 -0.0016887824045450483 -0.055722632367824668 0 -0.0067279159110564509 -0.058633621289451349 0 -0.00040727571747737408 -0.072967941227619487 0 0.00051013916182922879 -0.080847263925029361 0 0.0003133580465779422 -0.094674064195029148 0 0.00029702910632333645 -0.094707585382231646 0 0.00031064997079511875 -0.09468528226519847 0 0.00029702910632333645 -0.094707585382231646 0 0.00028007002083132727 -0.094729611646399467 0 0.00028463961968682453 -0.094721944849954651 0 0.00029702910632333645 -0.094707585382231646 0 0.00028463961968682453 -0.094721944849954651 0 0.00031064997079511875 -0.09468528226519847 0 0.00028463961968682453 -0.094721944849954651 0 0.00031064997079511875 -0.09468528226519847 0 0.00026303708342732644 -0.094663378174170976 0 -0.00088344802343393437 -0.07236040036997643 0 -0.0015762351909571601 -0.07081063451006106 0 -0.0011217295575514333 -0.070821125310116487 0 -0.0015762351909571601 -0.07081063451006106 0 -0.0011217295575514333 -0.070821125310116487 0 -0.0014014456197537352 -0.07073276218139099 0 -0.0011217295575514333 -0.070821125310116487 0 -0.0014158619830644946 -0.070678343408647593 0 -0.0014014456197537352 -0.07073276218139099 0 -0.0015363489633761431 -0.071126063889305022 0 -0.0015640428928358065 -0.071289073930211222 0 -0.00083162499806137941 -0.070071924530970775 0 -0.0011217295575514333 -0.070821125310116487 0 -0.0011936157511379646 -0.069951950195031531 0 -0.0014158619830644946 -0.070678343408647593 0 -0.0014683426339142233 -0.070726522959164026 0 -0.0014436937421281949 -0.070715077290940453 0 -0.0014158619830644946 -0.070678343408647593 0 -0.0014683426339142233 -0.070726522959164026 0 -0.0014014456197537352 -0.07073276218139099 0 -0.0015762351909571601 -0.07081063451006106 0 -0.0014683426339142233 -0.070726522959164026 0 -0.0014014456197537352 -0.07073276218139099 0 0.00051013916182922879 -0.080847263925029361 0 -0.00056640135798527132 -0.083145460664269116 0 -0.0014683426339142233 -0.070726522959164026 0 -0.0014341107129344425 -0.07072179768529023 0 -0.001407832539631997 -0.070702606733696619 0 -0.0015762351909571601 -0.07081063451006106 0 -0.0014683426339142233 -0.070726522959164026 0 -0.001407832539631997 -0.070702606733696619 0 0.00031064997079511875 -0.09468528226519847 0 0.00026303708342732644 -0.094663378174170976 0 0.00025999842267762679 -0.094564539909605838 0 -0.0014683426339142233 -0.070726522959164026 0 -0.0014341107129344425 -0.07072179768529023 0 -0.0014436937421281949 -0.070715077290940453 0 -0.0014341107129344425 -0.07072179768529023 0 -0.0014285405638686738 -0.070752691973483647 0 -0.0014436937421281949 -0.070715077290940453 0 -0.0014285405638686738 -0.070752691973483647 0 -0.0013773235680379244 -0.070752368332983498 0 -0.0014455159364118409 -0.070835742508383773 0 -0.0014341107129344425 -0.07072179768529023 0 -0.0014285405638686738 -0.070752691973483647 0 -0.0013834280120034127 -0.070743994856521164 0 -0.0014285405638686738 -0.070752691973483647 0 -0.0013773235680379244 -0.070752368332983498 0 -0.0013834280120034127 -0.070743994856521164 0 -0.00098327081594041729 -0.082570518575099852 0 -0.00056640135798527132 -0.083145460664269116 0 -0.00083162499806137941 -0.070071924530970775 0 -0.0011936157511379646 -0.069951950195031531 0 -0.0012819883597282686 -0.069134747983139885 0 -0.0015640428928358065 -0.071289073930211222 0 -0.0015890747598012226 -0.072296221360794652 0 -0.0016677975232899458 -0.070757702286454935 0 -0.0015890747598012226 -0.072296221360794652 0 -0.0014158619830644946 -0.070678343408647593 0 -0.0014703337026594598 -0.070757124787559647 0 -0.0014436937421281949 -0.070715077290940453 0 -0.0014285405638686738 -0.070752691973483647 0 -0.0014703337026594598 -0.070757124787559647 0 -0.0014436937421281949 -0.070715077290940453 0 -0.00026748546921122286 -0.086916428784174507 0 -3.4808691972439373e-05 -0.086979101922582069 0 -0.00031979749382457203 -0.087088771022250017 0 -0.00018784443520706356 -0.087554868226356428 0 -0.00046776237022776163 -0.089881136360513758 0 0.00011059557387733555 -0.094760322973991604 0 0.0001035623859222665 -0.094792910657443122 0 8.8425217349823369e-05 -0.094788524770250723 0 -0.00026748546921122286 -0.086916428784174507 0 -0.00039279935725369136 -0.086965690132409318 0 -0.00031979749382457203 -0.087088771022250017 0 -0.00026748546921122286 -0.086916428784174507 0 -0.00039279935725369136 -0.086965690132409318 0 -0.00051808691740385055 -0.086870431351170452 0 0.00011059557387733555 -0.094760322973991604 0 0.000137042780564235 -0.094741672361164556 0 0.00011755525723359493 -0.094783022148218057 0 -0.00018784443520706356 -0.087554868226356428 0 -0.00041684349212845281 -0.083793527595794753 0 -0.00041684349212845281 -0.083793527595794753 0 -0.00025940213747206205 -0.085278281935517591 0 -0.00039279935725369136 -0.086965690132409318 0 -0.00051808691740385055 -0.086870431351170452 0 -0.00035653531683303236 -0.087098961028423863 0 0.00025145532718487239 -0.094550002259762386 0 0.00025999842267762679 -0.094564539909605838 0 0.00023643300785667072 -0.094620596614851643 0 -0.00041684349212845281 -0.083793527595794753 0 -0.00056640135798527132 -0.083145460664269116 0 -0.00041684349212845281 -0.083793527595794753 0 -0.0020572472437774252 -0.088902121599695072 0 0.00026303708342732644 -0.094663378174170976 0 0.00025999842267762679 -0.094564539909605838 0 0.00023643300785667072 -0.094620596614851643 0 0.00025145532718487239 -0.094550002259762386 0 0.00023643300785667072 -0.094620596614851643 0 0.00017294885703011942 -0.094645200520687423 0 0.00026303708342732644 -0.094663378174170976 0 0.00023643300785667072 -0.094620596614851643 0 0.00020758667332890823 -0.09472040563578589 0 0.00023643300785667072 -0.094620596614851643 0 0.00017294885703011942 -0.094645200520687423 0 0.00020758667332890823 -0.09472040563578589 0 0.00011059557387733555 -0.094760322973991604 0 0.00011755525723359493 -0.094783022148218057 0 0.0001035623859222665 -0.094792910657443122 0 -0.0020572472437774252 -0.088902121599695072 0 -0.0022925352334660009 -0.090042681918706041 0 0.00011755525723359493 -0.094783022148218057 0 0.0001035623859222665 -0.094792910657443122 0 0.00011035814233300007 -0.094796998559675563 0 0.0001035623859222665 -0.094792910657443122 0 0.00011035814233300007 -0.094796998559675563 0 8.5325638804214197e-05 -0.094820058659959558 0 0.00011035814233300007 -0.094796998559675563 0 0.00020758667332890823 -0.09472040563578589 0 0.00014942589173477889 -0.094865274066895711 0 0.00011035814233300007 -0.094796998559675563 0 0.00014942589173477889 -0.094865274066895711 0 7.4683107552731196e-05 -0.094863034502673138 0 0.00017294885703011942 -0.094645200520687423 0 0.00011035814233300007 -0.094796998559675563 0 0.00020758667332890823 -0.09472040563578589 0 0.00028463961968682453 -0.094721944849954651 0 0.00020758667332890823 -0.09472040563578589 0 0.00014942589173477889 -0.094865274066895711 0 0.00028463961968682453 -0.094721944849954651 0 0.00026303708342732644 -0.094663378174170976 0 0.00020758667332890823 -0.09472040563578589 0 0.00028007002083132727 -0.094729611646399467 0 0.00028463961968682453 -0.094721944849954651 0 0.00024731248419941068 -0.094722835145259573 0 0.00021673591770336503 -0.094794750750171783 0 0.00017736666972218774 -0.094818322604683494 0 0.00028007002083132727 -0.094729611646399467 0 0.00024731248419941068 -0.094722835145259573 0 0.00026592085129394793 -0.094758563627178355 0 0.00017736666972218774 -0.094818322604683494 0 0.00010958373537106567 -0.09486239018920066 0 0.00024731248419941068 -0.094722835145259573 0 0.00013843449439918139 -0.094778611541541338 0 0.00023629356605406711 -0.094791696077746401 0 0.00014942589173477889 -0.094865274066895711 0 6.2068631596163989e-05 -0.094941907152295946 0 7.4683107552731196e-05 -0.094863034502673138 0 6.2068631596163989e-05 -0.094941907152295946 0 3.2170180457664157e-05 -0.094920946203889342 0 7.4683107552731196e-05 -0.094863034502673138 0 6.2068631596163989e-05 -0.094941907152295946 0 3.2170180457664157e-05 -0.094920946203889342 0 8.4989962807269782e-06 -0.094984154495537154 0 3.2170180457664157e-05 -0.094920946203889342 0 1.9767810382043794e-05 -0.094904604657725211 0 5.3913143612157001e-05 -0.094863120992741745 0 3.2170180457664157e-05 -0.094920946203889342 0 5.3913143612157001e-05 -0.094863120992741745 0 7.4683107552731196e-05 -0.094863034502673138 0 5.3913143612157001e-05 -0.094863120992741745 0 7.4683107552731196e-05 -0.094863034502673138 0 8.5325638804214197e-05 -0.094820058659959558 0 0.00011035814233300007 -0.094796998559675563 0 7.4683107552731196e-05 -0.094863034502673138 0 8.5325638804214197e-05 -0.094820058659959558 0 -1.6107799038313179e-08 -0.094999949553613294 0 3.1129167617375379e-06 -0.094954048070737457 0 -6.9601684973819177e-07 -0.094988485205740991 0 3.1129167617375379e-06 -0.094954048070737457 0 8.4989962807269782e-06 -0.094984154495537154 0 -6.9601684973819177e-07 -0.094988485205740991 0 3.2170180457664157e-05 -0.094920946203889342 0 3.1129167617375379e-06 -0.094954048070737457 0 8.4989962807269782e-06 -0.094984154495537154 0 3.2170180457664157e-05 -0.094920946203889342 0 1.9767810382043794e-05 -0.094904604657725211 0 3.1129167617375379e-06 -0.094954048070737457 0 1.9767810382043794e-05 -0.094904604657725211 0 3.1129167617375379e-06 -0.094954048070737457 0 -1.2501638107524081e-06 -0.094935448675926098 0 -1.6107799038313179e-08 -0.094999949553613294 0 -1.2501638107524081e-06 -0.094935448675926098 0 -1.1900340064795604e-05 -0.094944210922294964 0 -1.6107799038313179e-08 -0.094999949553613294 0 3.1129167617375379e-06 -0.094954048070737457 0 -1.2501638107524081e-06 -0.094935448675926098 0 -1.6107799038313179e-08 -0.094999949553613294 0 7.744140098544458e-09 -0.094999912010733628 0 -1.1900340064795604e-05 -0.094944210922294964 0 7.744140098544458e-09 -0.094999912010733628 0 -1.1900340064795604e-05 -0.094944210922294964 0 -1.3543084866558946e-05 -0.094976426647092854 0 -0.00078363539620646735 -0.093162715859166342 0 -0.00071580565112478042 -0.092847817109463077 0 -1.1900340064795604e-05 -0.094944210922294964 0 -3.2632197530806221e-05 -0.094970154644384949 0 -1.3543084866558946e-05 -0.094976426647092854 0 -1.2501638107524081e-06 -0.094935448675926098 0 -1.1900340064795604e-05 -0.094944210922294964 0 1.0265648821624851e-05 -0.094885576961393991 0 1.9767810382043794e-05 -0.094904604657725211 0 -1.2501638107524081e-06 -0.094935448675926098 0 1.0265648821624851e-05 -0.094885576961393991 0 1.0265648821624851e-05 -0.094885576961393991 0 -1.9163674702695089e-06 -0.094825464365693404 0 2.7742907531964247e-05 -0.094835305326669048 0 -1.1900340064795604e-05 -0.094944210922294964 0 1.0265648821624851e-05 -0.094885576961393991 0 -1.9163674702695089e-06 -0.094825464365693404 0 -3.2632197530806221e-05 -0.094970154644384949 0 -3.0299565663161689e-05 -0.094977599028474427 0 -1.3543084866558946e-05 -0.094976426647092854 0 -3.2632197530806221e-05 -0.094970154644384949 0 -3.0299565663161689e-05 -0.094977599028474427 0 -3.776430221428255e-05 -0.094976553760742266 0 -3.0299565663161689e-05 -0.094977599028474427 0 -1.9956701500180417e-05 -0.094985966278347253 0 -3.7179300299531685e-05 -0.094985464719189894 0 -1.9956701500180417e-05 -0.094985966278347253 0 -1.3543084866558946e-05 -0.094976426647092854 0 -6.3823583723842525e-06 -0.094991903748308723 0 -3.0299565663161689e-05 -0.094977599028474427 0 -1.9956701500180417e-05 -0.094985966278347253 0 -1.3543084866558946e-05 -0.094976426647092854 0 -1.9956701500180417e-05 -0.094985966278347253 0 -6.3823583723842525e-06 -0.094991903748308723 0 -1.268316910838619e-05 -0.094998044874918072 0 7.744140098544458e-09 -0.094999912010733628 0 -6.3823583723842525e-06 -0.094991903748308723 0 -9.4681873881227561e-09 -0.095000033881683141 0 7.744140098544458e-09 -0.094999912010733628 0 -1.3543084866558946e-05 -0.094976426647092854 0 -6.3823583723842525e-06 -0.094991903748308723 0 6.8344546914037314e-05 -0.094810898440808422 0 8.5325638804214197e-05 -0.094820058659959558 0 8.8425217349823369e-05 -0.094788524770250723 0 0.0001035623859222665 -0.094792910657443122 0 8.5325638804214197e-05 -0.094820058659959558 0 8.8425217349823369e-05 -0.094788524770250723 0 5.3913143612157001e-05 -0.094863120992741745 0 6.8344546914037314e-05 -0.094810898440808422 0 8.5325638804214197e-05 -0.094820058659959558 0 5.3913143612157001e-05 -0.094863120992741745 0 6.8344546914037314e-05 -0.094810898440808422 0 4.0043031929157983e-05 -0.094850906476558347 0 1.9767810382043794e-05 -0.094904604657725211 0 5.3913143612157001e-05 -0.094863120992741745 0 4.0043031929157983e-05 -0.094850906476558347 0 1.9767810382043794e-05 -0.094904604657725211 0 1.0265648821624851e-05 -0.094885576961393991 0 4.0043031929157983e-05 -0.094850906476558347 0 1.0265648821624851e-05 -0.094885576961393991 0 4.0043031929157983e-05 -0.094850906476558347 0 2.7742907531964247e-05 -0.094835305326669048 0 4.0043031929157983e-05 -0.094850906476558347 0 2.7742907531964247e-05 -0.094835305326669048 0 5.0305365824726537e-05 -0.09481324838790417 0 6.8344546914037314e-05 -0.094810898440808422 0 4.0043031929157983e-05 -0.094850906476558347 0 5.0305365824726537e-05 -0.09481324838790417 0 6.8344546914037314e-05 -0.094810898440808422 0 6.5686693247234325e-05 -0.094794549890534027 0 5.0305365824726537e-05 -0.09481324838790417 0 6.5686693247234325e-05 -0.094794549890534027 0 5.0305365824726537e-05 -0.09481324838790417 0 3.0675760116231046e-05 -0.094792204150077677 0 3.0675760116231046e-05 -0.094792204150077677 0 7.9925755710595831e-05 -0.094720039098655021 0 0.00017409679412955635 -0.094696682143302333 0 -0.00079973901347279964 -0.090841155536996551 0 -0.00046776237022776163 -0.089881136360513758 0 6.5686693247234325e-05 -0.094794549890534027 0 3.0675760116231046e-05 -0.094792204150077677 0 8.1690705279101531e-05 -0.094763668664824829 0 -0.00071580565112478042 -0.092847817109463077 0 -0.00036180721838701113 -0.091723077106140652 0 -1.9163674702695089e-06 -0.094825464365693404 0 3.0675760116231046e-05 -0.094792204150077677 0 7.9925755710595831e-05 -0.094720039098655021 0 -1.9163674702695089e-06 -0.094825464365693404 0 2.7742907531964247e-05 -0.094835305326669048 0 3.0675760116231046e-05 -0.094792204150077677 0 2.7742907531964247e-05 -0.094835305326669048 0 5.0305365824726537e-05 -0.09481324838790417 0 3.0675760116231046e-05 -0.094792204150077677 0 -3.0299565663161689e-05 -0.094977599028474427 0 -3.776430221428255e-05 -0.094976553760742266 0 -3.7179300299531685e-05 -0.094985464719189894 0 -3.2632197530806221e-05 -0.094970154644384949 0 -3.776430221428255e-05 -0.094976553760742266 0 -4.3790999260064599e-05 -0.094975584659391918 0 -0.00038350456646963488 -0.091784589104259878 0 -0.00036180721838701113 -0.091723077106140652 0 0.00010083541032639434 -0.093319177118441926 0 6.1800134462768906e-05 -0.09323805571258198 0 -3.776430221428255e-05 -0.094976553760742266 0 -3.8107964510496738e-05 -0.094973736607495071 0 -3.7179300299531685e-05 -0.094985464719189894 0 -3.776430221428255e-05 -0.094976553760742266 0 -3.8107964510496738e-05 -0.094973736607495071 0 -3.6234808493664804e-05 -0.094972760150623767 0 -3.8107964510496738e-05 -0.094973736607495071 0 -2.7269619018619931e-05 -0.094964854887808439 0 -4.8676155005799245e-05 -0.094957885476428333 0 -3.8107964510496738e-05 -0.094973736607495071 0 -3.6234808493664804e-05 -0.094972760150623767 0 -2.7269619018619931e-05 -0.094964854887808439 0 -0.00036180721838701113 -0.091723077106140652 0 -0.00021263469264781918 -0.091800663073492911 0 -0.00036180721838701113 -0.091723077106140652 0 -0.00030763697270283827 -0.0908709170999661 0 -0.00068576227508304621 -0.090858772455799292 0 -0.00038911226489446395 -0.09059639808385013 0 -5.4957767911046182e-05 -0.090675355382838316 0 -0.00021263469264781918 -0.091800663073492911 0 -0.00030763697270283827 -0.0908709170999661 0 0.00011059557387733555 -0.094760322973991604 0 8.1690705279101531e-05 -0.094763668664824829 0 8.8425217349823369e-05 -0.094788524770250723 0 7.9925755710595831e-05 -0.094720039098655021 0 0.00013409914160183713 -0.094693619445877619 0 0.00017409679412955635 -0.094696682143302333 0 -0.00030763697270283827 -0.0908709170999661 0 -0.00046776237022776163 -0.089881136360513758 0 6.5686693247234325e-05 -0.094794549890534027 0 8.1690705279101531e-05 -0.094763668664824829 0 8.8425217349823369e-05 -0.094788524770250723 0 6.8344546914037314e-05 -0.094810898440808422 0 6.5686693247234325e-05 -0.094794549890534027 0 8.8425217349823369e-05 -0.094788524770250723 0 -0.00030763697270283827 -0.0908709170999661 0 -0.00028067924401341618 -0.086321591193057379 0 0.0014155718419155694 -0.093331797828286711 0 0.0012386473951735415 -0.093290581316993637 0 0.00063724827574143357 -0.09403416575381876 0 6.7565696828568705e-05 -0.094768741274818338 0 1.8970268021160993e-05 -0.094763501665094368 0 7.7793547375584534e-05 -0.094800972186673868 0 0.0012386473951735415 -0.093290581316993637 0 0.00063724827574143357 -0.09403416575381876 0 -5.8892692702819663e-05 -0.09367485985680761 0 -0.00096746758183209949 -0.088799095991913671 0 -0.00073239899738267991 -0.088851236366607869 0 0.00027449383230082782 -0.088414109978597583 0 -0.00021263469264781918 -0.091800663073492911 0 -0.00041656634688219527 -0.093139432260842106 0 -0.00021263469264781918 -0.091800663073492911 0 6.1800134462768906e-05 -0.09323805571258198 0 6.7565696828568705e-05 -0.094768741274818338 0 9.0530936472305411e-05 -0.094777566594404603 0 7.7793547375584534e-05 -0.094800972186673868 0 7.9045698539359399e-05 -0.094828332087110098 0 9.822086681662109e-05 -0.094887507452960096 0 0.00010697122449558322 -0.094893055860184261 0 7.7793547375584534e-05 -0.094800972186673868 0 7.9045698539359399e-05 -0.094828332087110098 0 9.822086681662109e-05 -0.094887507452960096 0 7.9045698539359399e-05 -0.094828332087110098 0 4.7393164535289553e-05 -0.094816777590093423 0 0.00010697122449558322 -0.094893055860184261 0 1.8970268021160993e-05 -0.094763501665094368 0 7.9045698539359399e-05 -0.094828332087110098 0 4.7393164535289553e-05 -0.094816777590093423 0 1.8970268021160993e-05 -0.094763501665094368 0 7.7793547375584534e-05 -0.094800972186673868 0 7.9045698539359399e-05 -0.094828332087110098 0 4.7393164535289553e-05 -0.094816777590093423 0 2.9665689169170636e-05 -0.094852752042708238 0 -6.1514923569936722e-06 -0.094779445459666559 0 1.8970268021160993e-05 -0.094763501665094368 0 4.7393164535289553e-05 -0.094816777590093423 0 -6.1514923569936722e-06 -0.094779445459666559 0 3.4136097413882369e-07 -0.094997997122884856 0 6.8565517993358552e-05 -0.094232182925219843 0 -6.3823583723842525e-06 -0.094991903748308723 0 -9.4681873881227561e-09 -0.095000033881683141 0 -1.268316910838619e-05 -0.094998044874918072 0 3.2305514736085476e-09 -0.094999991196087055 0 -1.5929542201384331e-06 -0.094993908648025038 0 -9.2711055118598973e-07 -0.094998729601445953 0 6.1800134462768906e-05 -0.09323805571258198 0 6.8565517993358552e-05 -0.094232182925219843 0 -1.9956701500180417e-05 -0.094985966278347253 0 -3.7179300299531685e-05 -0.094985464719189894 0 -1.268316910838619e-05 -0.094998044874918072 0 9.0530936472305411e-05 -0.094777566594404603 0 7.7793547375584534e-05 -0.094800972186673868 0 9.822086681662109e-05 -0.094887507452960096 0 -6.3170194991261659e-06 -0.094988963330016107 0 -1.5929542201384331e-06 -0.094993908648025038 0 -9.2711055118598973e-07 -0.094998729601445953 0 6.1800134462768906e-05 -0.09323805571258198 0 0.00019464196066295146 -0.094531497734006056 0 3.2305514736085476e-09 -0.094999991196087055 0 -9.2711055118598973e-07 -0.094998729601445953 0 -1.8446100929679866e-09 -0.095000000165415446 0 -9.2711055118598973e-07 -0.094998729601445953 0 -1.8446100929679866e-09 -0.095000000165415446 0 1.3913474079444661e-09 -0.095000000468970822 0 0.00019464196066295146 -0.094531497734006056 0 4.6130605092502823e-07 -0.094999411676636142 0 9.822086681662109e-05 -0.094887507452960096 0 1.2161736145795679e-07 -0.094999797356925403 0 6.7847774691957301e-05 -0.094925928124112158 0 9.822086681662109e-05 -0.094887507452960096 0 6.7847774691957301e-05 -0.094925928124112158 0 0.00010697122449558322 -0.094893055860184261 0 6.7847774691957301e-05 -0.094925928124112158 0 8.9477430867476677e-05 -0.09486991384386001 0 0.00010697122449558322 -0.094893055860184261 0 6.7847774691957301e-05 -0.094925928124112158 0 8.9477430867476677e-05 -0.09486991384386001 0 3.2263225184434026e-05 -0.094930836346931433 0 -2.9278911832082752e-09 -0.094999918322298552 0 1.2161736145795679e-07 -0.094999797356925403 0 3.2263225184434026e-05 -0.094930836346931433 0 1.2161736145795679e-07 -0.094999797356925403 0 6.7847774691957301e-05 -0.094925928124112158 0 3.2263225184434026e-05 -0.094930836346931433 0 0.00023749632310886227 -0.089072677518560198 0 0.00011734811371381899 -0.090057549676653081 0 0.00025572831970040383 -0.094869533327794991 0 0.00010697122449558322 -0.094893055860184261 0 0.00019780927547511 -0.094825119687975246 0 4.7393164535289553e-05 -0.094816777590093423 0 2.9665689169170636e-05 -0.094852752042708238 0 0.00010697122449558322 -0.094893055860184261 0 8.9477430867476677e-05 -0.09486991384386001 0 0.00010697122449558322 -0.094893055860184261 0 0.00019780927547511 -0.094825119687975246 0 0.00016331032505324268 -0.094766432274795698 0 8.9477430867476677e-05 -0.09486991384386001 0 0.00019780927547511 -0.094825119687975246 0 0.00028786372602216287 -0.094744728600827569 0 0.00019780927547511 -0.094825119687975246 0 0.0002916508042717582 -0.094809791677218716 0 0.00025572831970040383 -0.094869533327794991 0 0.00019780927547511 -0.094825119687975246 0 0.0002916508042717582 -0.094809791677218716 0 0.0013785874739879389 -0.092166935233359545 0 0.0018006439014016369 -0.089921379251316061 0 0.00028786372602216287 -0.094744728600827569 0 0.0002916508042717582 -0.094809791677218716 0 0.00032874369875646165 -0.094790747280515703 0 0.0002916508042717582 -0.094809791677218716 0 0.00032679006660350616 -0.094800233161862368 0 0.00032874369875646165 -0.094790747280515703 0 2.9665689169170636e-05 -0.094852752042708238 0 -0.00024695756301404263 -0.094886207114772594 0 -0.00014577128839580485 -0.094705127821693422 0 2.9665689169170636e-05 -0.094852752042708238 0 -6.1514923569936722e-06 -0.094779445459666559 0 -0.00014577128839580485 -0.094705127821693422 0 0.00025572831970040383 -0.094869533327794991 0 0.0002916508042717582 -0.094809791677218716 0 0.00031372467055096228 -0.094820860498575299 0 0.00023749632310886227 -0.089072677518560198 0 0.00092118233519460817 -0.085716003210399114 0 0.00025572831970040383 -0.094869533327794991 0 0.00031372467055096228 -0.094820860498575299 0 0.00034416652993524605 -0.09480904530509579 0 0.0002916508042717582 -0.094809791677218716 0 0.00031372467055096228 -0.094820860498575299 0 0.00032679006660350616 -0.094800233161862368 0 0.00092118233519460817 -0.085716003210399114 0 0.00062271299657928002 -0.083221431759999867 0 0.0018006439014016369 -0.089921379251316061 0 0.00062271299657928002 -0.083221431759999867 0 -0.00024695756301404263 -0.094886207114772594 0 -0.00099099650395025485 -0.094689477811587527 0 -0.00053598098209569679 -0.094504069623602277 0 0.00032780575648856111 -0.094801968510607709 0 0.00032679006660350616 -0.094800233161862368 0 0.00034402407295343443 -0.094771056559056613 0 0.00092118233519460817 -0.085716003210399114 0 0.00088615687489320089 -0.08152942937849661 0 0.00032679006660350616 -0.094800233161862368 0 0.00032874369875646165 -0.094790747280515703 0 0.00034402407295343443 -0.094771056559056613 0 0.00031372467055096228 -0.094820860498575299 0 0.00032780575648856111 -0.094801968510607709 0 0.00032679006660350616 -0.094800233161862368 0 0.001039146268164548 -0.085975756902519948 0 0.00092118233519460817 -0.085716003210399114 0 -0.00018793098288991529 -0.093663330744410772 0 -5.2457204582506381e-05 -0.093589242274560877 0 -0.0002257563510992218 -0.093529674813235125 0 -5.2457204582506381e-05 -0.093589242274560877 0 -0.0002257563510992218 -0.093529674813235125 0 -0.00023336007895436651 -0.093369575447502254 0 -0.00028035795231903121 -0.093603872606065772 0 -0.00018793098288991529 -0.093663330744410772 0 -0.0002257563510992218 -0.093529674813235125 0 -0.00028035795231903121 -0.093603872606065772 0 -0.0002257563510992218 -0.093529674813235125 0 -0.00030093448736798867 -0.093495010583495547 0 -0.0002257563510992218 -0.093529674813235125 0 -0.00030093448736798867 -0.093495010583495547 0 -0.00026617442309495197 -0.093437941794837373 0 -0.00028035795231903121 -0.093603872606065772 0 -0.00034980520413874759 -0.093531342657757449 0 -0.00030093448736798867 -0.093495010583495547 0 -0.00030093448736798867 -0.093495010583495547 0 -0.00035520327500325412 -0.093427115992597745 0 -0.00030577538714845321 -0.093426172380320305 0 -0.00030093448736798867 -0.093495010583495547 0 -0.00030577538714845321 -0.093426172380320305 0 -0.00026617442309495197 -0.093437941794837373 0 -0.00034980520413874759 -0.093531342657757449 0 -0.00030093448736798867 -0.093495010583495547 0 -0.00035520327500325412 -0.093427115992597745 0 -0.00042304287453237376 -0.093443003477419462 0 -0.00034980520413874759 -0.093531342657757449 0 -0.00035520327500325412 -0.093427115992597745 0 -0.00045831861768227657 -0.093336834180830205 0 -0.00035520327500325412 -0.093427115992597745 0 -0.00032126989718127632 -0.09337878804979606 0 -0.00035520327500325412 -0.093427115992597745 0 -0.00032126989718127632 -0.09337878804979606 0 -0.00030577538714845321 -0.093426172380320305 0 -0.00021594982247493839 -0.079781000175152453 0 0.00034884609754671901 -0.081443780688023965 0 -0.00032126989718127632 -0.09337878804979606 0 -0.00030577538714845321 -0.093426172380320305 0 -0.00028296590649297057 -0.093378401751982643 0 -0.00021594982247493839 -0.079781000175152453 0 -0.00046675577039268987 -0.078352086971494997 0 -0.0003998399166148374 -0.079277294727100572 0 -0.0017245775225899842 -0.079321505688030258 0 -0.00085228286506164612 -0.081115052116036354 0 -0.0003998399166148374 -0.079277294727100572 0 -0.00016691414478730166 -0.081611535273728844 0 -0.00085228286506164612 -0.081115052116036354 0 0.00034884609754671901 -0.081443780688023965 0 -0.00016118362191059195 -0.079472679243623917 0 -0.0027947221370950722 -0.075623520992507007 0 -0.0021874166607676361 -0.076147482421267843 0 -0.0027105966859640339 -0.076474378672910057 0 0.0013014640873885914 -0.08242604346256896 0 0.0006736324632322997 -0.082435205102415116 0 0.00074225128328538157 -0.082380914125233837 0 0.0013014640873885914 -0.08242604346256896 0 0.00067113721463460429 -0.082225599396879595 0 0.00074225128328538157 -0.082380914125233837 0 -0.0002257563510992218 -0.093529674813235125 0 -0.00026617442309495197 -0.093437941794837373 0 -0.00023336007895436651 -0.093369575447502254 0 -0.00030577538714845321 -0.093426172380320305 0 -0.00026617442309495197 -0.093437941794837373 0 -0.00028296590649297057 -0.093378401751982643 0 -0.00026617442309495197 -0.093437941794837373 0 -0.00023336007895436651 -0.093369575447502254 0 -0.00030202469786964268 -0.093364181769564902 0 0.0005896861327981263 -0.082195387058457761 0 0.00034884609754671901 -0.081443780688023965 0 0.0006736324632322997 -0.082435205102415116 0 0.00066999645285757128 -0.082215544656216819 0 0.00074225128328538157 -0.082380914125233837 0 0.0006736324632322997 -0.082435205102415116 0 0.00066999645285757128 -0.082215544656216819 0 0.00033688409840213087 -0.082184962615816218 0 -0.00010089988259711248 -0.08178557688544677 0 0.00020057588694866513 -0.081773391406540358 0 0.00037159428494429054 -0.08212378753739745 0 0.00062271299657928002 -0.083221431759999867 0 -0.00016118362191059195 -0.079472679243623917 0 0.00062271299657928002 -0.083221431759999867 0 0.00034884609754671901 -0.081443780688023965 0 0.00088615687489320089 -0.08152942937849661 0 0.00089359869111861731 -0.081559501082104066 0 -0.00099099650395025485 -0.094689477811587527 0 -0.00085170635296106644 -0.094375458285171326 0 -0.00053598098209569679 -0.094504069623602277 0 -0.00099099650395025485 -0.094689477811587527 0 -0.0011927932344857118 -0.094255842719430216 0 -0.00085170635296106644 -0.094375458285171326 0 -0.00066798074474081143 -0.077995143323957628 0 -0.00011855808364268321 -0.079190064838657689 0 0.00049407919209601598 -0.078338854944505446 0 0.00088615687489320089 -0.08152942937849661 0 -0.00052911680328095526 -0.079728719311165944 0 0.00088615687489320089 -0.08152942937849661 0 -0.00039901395247085423 -0.078671469485662268 0 0.00090074013951933394 -0.081347116870521319 0 0.0010462146164941558 -0.081662629606042272 0 -0.00034994393867146913 -0.082076330604555103 0 -0.00052911680328095526 -0.079728719311165944 0 -0.00077686435005778565 -0.078211612789165746 0 -0.00052911680328095526 -0.079728719311165944 0 -0.00083199015844053728 -0.08321294778237999 0 -0.0011927932344857118 -0.094255842719430216 0 -0.00085170635296106644 -0.094375458285171326 0 -0.00068153693142052171 -0.09404870716984326 0 -0.00085170635296106644 -0.094375458285171326 0 -0.00068153693142052171 -0.09404870716984326 0 -0.00053598098209569679 -0.094504069623602277 0 -0.0015694474648742759 -0.07462755954144179 0 -0.0012926206996810641 -0.075470713480353585 0 -0.0010397334819976874 -0.074158157469992686 0 4.0519113104079389e-05 -0.074481032113798848 0 -0.0032150907609221368 -0.07801780766898081 0 -0.00043775538198057137 -0.075517619485028761 0 -0.0022669458003011112 -0.076272035037590419 0 -0.0013759264368484363 -0.076538319871009133 0 -0.0012926206996810641 -0.075470713480353585 0 -0.0014595891760187192 -0.074640704857053083 0 -0.0018097507769248677 -0.076593415996955197 0 -0.0021874166607676361 -0.076147482421267843 0 -0.0021407791315365917 -0.07673141839223338 0 -0.0012926206996810641 -0.075470713480353585 0 -0.00046675577039268987 -0.078352086971494997 0 -0.0021874166607676361 -0.076147482421267843 0 -0.0021407791315365917 -0.07673141839223338 0 -0.0027105966859640339 -0.076474378672910057 0 -0.0012926206996810641 -0.075470713480353585 0 -0.00066731953560199471 -0.077064202558932399 0 0.0010437582047330711 -0.075884830586663662 0 -0.0023769655531624256 -0.076922162678779507 0 -0.0026482769728389238 -0.074210689434722643 0 -0.00011855808364268321 -0.079190064838657689 0 0.00070857700139409887 -0.078779531367603808 0 0.00049407919209601598 -0.078338854944505446 0 0.00066999645285757128 -0.082215544656216819 0 0.00029419998492537534 -0.082096428502082347 0 0.00033688409840213087 -0.082184962615816218 0 -0.00066731953560199471 -0.077064202558932399 0 -0.00046675577039268987 -0.078352086971494997 0 -0.00066731953560199471 -0.077064202558932399 0 -0.00039901395247085423 -0.078671469485662268 0 -0.00058771904492592529 -0.07943962093698341 0 -0.0007518138653880577 -0.077795861666543994 0 -0.0012983084940868608 -0.077979482414161708 0 0.000588872862133744 -0.078750363315073929 0 -0.00061442063798508638 -0.079155086419867599 0 -0.0015741140916487179 -0.077182021561791242 0 -0.00039901395247085423 -0.078671469485662268 0 -0.00016118362191059195 -0.079472679243623917 0 -0.00046675577039268987 -0.078352086971494997 0 -0.00016118362191059195 -0.079472679243623917 0 -0.00046675577039268987 -0.078352086971494997 0 -0.00039901395247085423 -0.078671469485662268 0 -0.00052911680328095526 -0.079728719311165944 0 -0.00066731953560199471 -0.077064202558932399 0 -0.0024942515311418426 -0.078215403485424856 0 0.0010221258825136362 -0.076475068700669516 0 0.0012553156590268276 -0.078804952549857213 0 -0.0024942515311418426 -0.078215403485424856 0 -0.0018138699746369734 -0.079693060352763551 0 0.0012553156590268276 -0.078804952549857213 0 -0.0025138630180447136 -0.076942548330446434 0 -0.0017024801173743335 -0.076706758399413752 0 -0.0022643092918948611 -0.077485380161487608 0 -0.00077686435005778565 -0.078211612789165746 0 -0.00080936053477206763 -0.075651737505858935 0 -0.00066731953560199471 -0.077064202558932399 0 -0.00080936053477206763 -0.075651737505858935 0 -0.0010397334819976874 -0.074158157469992686 0 -0.0045754178800079121 -0.075229689397430369 0 -0.0032150907609221368 -0.07801780766898081 0 -0.00018214546236377144 -0.074054584309499585 0 3.8210248195858141e-05 -0.076263054640144143 0 0.00079017865575490491 -0.076047113762424276 0 -0.00066731953560199471 -0.077064202558932399 0 -0.0011069676430715723 -0.07488860207304153 0 -0.00080936053477206763 -0.075651737505858935 0 -0.0011069676430715723 -0.07488860207304153 0 -0.0014595891760187192 -0.074640704857053083 0 -0.0011069676430715723 -0.07488860207304153 0 -0.0014285405638686738 -0.070752691973483647 0 -0.0014703337026594598 -0.070757124787559647 0 -0.0014455159364118409 -0.070835742508383773 0 -0.0015890747598012226 -0.072296221360794652 0 -0.00092823133850813218 -0.077133535322787147 0 -0.0023261882445856264 -0.068759256882069214 0 -0.0011069676430715723 -0.07488860207304153 0 -0.0010678087685480715 -0.067009417247419045 0 -0.0021808579476095963 -0.065183484647271098 0 -0.0020286738869102023 -0.065140541711216027 0 -0.0014856897086420904 -0.073899120513322689 0 -0.0012087272883535408 -0.076577739494255961 0 -0.00062398912470958221 -0.075762024447021695 0 -0.0015890747598012226 -0.072296221360794652 0 -0.00080936053477206763 -0.075651737505858935 0 -0.0010678087685480715 -0.067009417247419045 0 -0.0020052893005147654 -0.067010328973256816 0 -0.0021808579476095963 -0.065183484647271098 0 -0.00080936053477206763 -0.075651737505858935 0 -0.00092823133850813218 -0.077133535322787147 0 -0.00077686435005778565 -0.078211612789165746 0 -0.00092823133850813218 -0.077133535322787147 0 -0.00021348044942038309 -0.08100978891836759 0 -0.00011520533568215076 -0.081223901752541433 0 -0.00089345232769519561 -0.081213447070718967 0 -0.00041684349212845281 -0.083793527595794753 0 -0.00092823133850813218 -0.077133535322787147 0 -0.0010055203499023907 -0.082200717939363885 0 -0.00011520533568215076 -0.081223901752541433 0 -0.00089345232769519561 -0.081213447070718967 0 0.00090074013951933394 -0.081347116870521319 0 -0.00034994393867146913 -0.082076330604555103 0 -0.00043128335211320515 -0.081906907511475849 0 -0.00077686435005778565 -0.078211612789165746 0 -0.00054379637634715974 -0.081740067198312852 0 -0.0010055203499023907 -0.082200717939363885 0 -0.00089345232769519561 -0.081213447070718967 0 -0.0015716253527193827 -0.081416114006609877 0 -0.00083199015844053728 -0.08321294778237999 0 -0.00025940213747206205 -0.085278281935517591 0 -0.00054379637634715974 -0.081740067198312852 0 -0.00025940213747206205 -0.085278281935517591 0 -0.00034994393867146913 -0.082076330604555103 0 -0.00043128335211320515 -0.081906907511475849 0 -0.0017273815862983352 -0.082492970007630964 0 -0.00015723774877396214 -0.093794360992356537 0 4.3094719833748189e-05 -0.09404806544877195 0 -0.00023611910809257503 -0.094104196590501107 0 -0.00068153693142052171 -0.09404870716984326 0 -0.00015723774877396214 -0.093794360992356537 0 -0.00023611910809257503 -0.094104196590501107 0 -0.00039279935725369136 -0.086965690132409318 0 -0.00035653531683303236 -0.087098961028423863 0 -0.00031979749382457203 -0.087088771022250017 0 -0.00046776237022776163 -0.089881136360513758 0 -0.00028067924401341618 -0.086321591193057379 0 -0.00025940213747206205 -0.085278281935517591 0 -0.00028067924401341618 -0.086321591193057379 0 0.00063724827574143357 -0.09403416575381876 0 -5.8892692702819663e-05 -0.09367485985680761 0 4.3094719833748189e-05 -0.09404806544877195 0 -0.00019706854459638725 -0.093712302654571047 0 -5.8892692702819663e-05 -0.09367485985680761 0 4.3094719833748189e-05 -0.09404806544877195 0 -0.00025940213747206205 -0.085278281935517591 0 8.844598358487541e-05 -0.086004255668648832 0 4.3094719833748189e-05 -0.09404806544877195 0 -3.5395024175943713e-05 -0.094299821852869489 0 -0.00023611910809257503 -0.094104196590501107 0 0.00063724827574143357 -0.09403416575381876 0 -3.5395024175943713e-05 -0.094299821852869489 0 -0.00014577128839580485 -0.094705127821693422 0 1.8970268021160993e-05 -0.094763501665094368 0 -6.1514923569936722e-06 -0.094779445459666559 0 -0.00014577128839580485 -0.094705127821693422 0 -0.00041656634688219527 -0.093139432260842106 0 -0.00052385516430539973 -0.093563906302279315 0 0.00063724827574143357 -0.09403416575381876 0 4.3094719833748189e-05 -0.09404806544877195 0 -3.5395024175943713e-05 -0.094299821852869489 0 -0.00024695756301404263 -0.094886207114772594 0 -0.00014577128839580485 -0.094705127821693422 0 -0.00053598098209569679 -0.094504069623602277 0 -3.5395024175943713e-05 -0.094299821852869489 0 -0.00014577128839580485 -0.094705127821693422 0 -0.00033060666959467474 -0.094330071336904436 0 -0.00014577128839580485 -0.094705127821693422 0 -0.00053598098209569679 -0.094504069623602277 0 -0.00033060666959467474 -0.094330071336904436 0 -0.00068153693142052171 -0.09404870716984326 0 -0.00053598098209569679 -0.094504069623602277 0 -0.00033060666959467474 -0.094330071336904436 0 -0.00068153693142052171 -0.09404870716984326 0 -0.00023611910809257503 -0.094104196590501107 0 -0.00033060666959467474 -0.094330071336904436 0 -3.5395024175943713e-05 -0.094299821852869489 0 -0.00023611910809257503 -0.094104196590501107 0 -0.00033060666959467474 -0.094330071336904436 0 0.0062940144541867755 0.014594832986215662 0 0.0057100893244186289 0.014232483079980067 0 0.0058009974822437384 0.014632343953209876 0 0.0062940144541867755 0.014594832986215662 0 0.0058009974822437384 0.014632343953209876 0 0.0060831085157216505 0.014916557165147273 0 0.0062940144541867755 0.014594832986215662 0 0.0060831085157216505 0.014916557165147273 0 0.006467026794788059 0.015017612719161504 0 0.0062940144541867755 0.014594832986215662 0 0.0067220367866691359 0.014862732188340739 0 0.0067500653534312153 0.014560613868295576 0 0.0062940144541867755 0.014594832986215662 0 0.0067220367866691359 0.014862732188340739 0 0.006467026794788059 0.015017612719161504 0 0.0067220367866691359 0.014862732188340739 0 0.006467026794788059 0.015017612719161504 0 0.0067643593893294916 0.015103716313223398 0 0.0067220367866691359 0.014862732188340739 0 0.0067500653534312153 0.014560613868295576 0 0.0069279752950914732 0.014741434705168492 0 0.0062940144541867755 0.014594832986215662 0 0.0067500653534312153 0.014560613868295576 0 0.0066550840200776968 0.014266591037571417 0 0.0066550840200776968 0.014266591037571417 0 0.0070218494975804683 0.014374710980210724 0 0.0068176446116626089 0.013982459299990669 0 0.0067500653534312153 0.014560613868295576 0 0.0066550840200776968 0.014266591037571417 0 0.0070218494975804683 0.014374710980210724 0 0.0066550840200776968 0.014266591037571417 0 0.0063178057622105951 0.014106202209204458 0 0.0068176446116626089 0.013982459299990669 0 0.0062940144541867755 0.014594832986215662 0 0.0063178057622105951 0.014106202209204458 0 0.0057100893244186289 0.014232483079980067 0 0.0062940144541867755 0.014594832986215662 0 0.0066550840200776968 0.014266591037571417 0 0.0063178057622105951 0.014106202209204458 0 0.0063178057622105951 0.014106202209204458 0 0.0057100893244186289 0.014232483079980067 0 0.0056954404353529746 0.01367186477018781 0 0.0057100893244186289 0.014232483079980067 0 0.0050488034741512809 0.013812952539867371 0 0.0056954404353529746 0.01367186477018781 0 0.0057100893244186289 0.014232483079980067 0 0.0050488034741512809 0.013812952539867371 0 0.0050605674205368009 0.014265883010915473 0 0.0050488034741512809 0.013812952539867371 0 0.0041729250585139403 0.013489034355905 0 0.0044892776393025118 0.014021999210103678 0 0.0050605674205368009 0.014265883010915473 0 0.004570732415264689 0.014424868765247413 0 0.0044892776393025118 0.014021999210103678 0 0.0050488034741512809 0.013812952539867371 0 0.0050605674205368009 0.014265883010915473 0 0.0044892776393025118 0.014021999210103678 0 0.0050605674205368009 0.014265883010915473 0 0.004570732415264689 0.014424868765247413 0 0.0052884265648955068 0.014593776050427484 0 0.004570732415264689 0.014424868765247413 0 0.0052884265648955068 0.014593776050427484 0 0.0048371999595935864 0.014769853185532604 0 0.004570732415264689 0.014424868765247413 0 0.0048371999595935864 0.014769853185532604 0 0.004240715024490322 0.014664630442936952 0 0.0058009974822437384 0.014632343953209876 0 0.0052884265648955068 0.014593776050427484 0 0.0055324339518233795 0.015075161762446077 0 0.0057100893244186289 0.014232483079980067 0 0.0058009974822437384 0.014632343953209876 0 0.0052884265648955068 0.014593776050427484 0 0.0057100893244186289 0.014232483079980067 0 0.0050605674205368009 0.014265883010915473 0 0.0052884265648955068 0.014593776050427484 0 0.0058009974822437384 0.014632343953209876 0 0.0055324339518233795 0.015075161762446077 0 0.0060831085157216505 0.014916557165147273 0 0.0052884265648955068 0.014593776050427484 0 0.0055324339518233795 0.015075161762446077 0 0.0048371999595935864 0.014769853185532604 0 0.0055324339518233795 0.015075161762446077 0 0.0048371999595935864 0.014769853185532604 0 0.0048123034368800057 0.015155697468750874 0 0.0048371999595935864 0.014769853185532604 0 0.0048123034368800057 0.015155697468750874 0 0.004240715024490322 0.014664630442936952 0 0.0048123034368800057 0.015155697468750874 0 0.0054141409565622222 0.015606361938673723 0 0.0047680748757582634 0.015902237055293183 0 0.0055324339518233795 0.015075161762446077 0 0.0054141409565622222 0.015606361938673723 0 0.0060496947440536472 0.015626027006320344 0 0.0055324339518233795 0.015075161762446077 0 0.0048123034368800057 0.015155697468750874 0 0.0054141409565622222 0.015606361938673723 0 0.0060496947440536472 0.015626027006320344 0 0.0062557573513449876 0.015250266191317837 0 0.0065546414301317279 0.01547886719968556 0 0.0055324339518233795 0.015075161762446077 0 0.0060496947440536472 0.015626027006320344 0 0.0062557573513449876 0.015250266191317837 0 0.0055324339518233795 0.015075161762446077 0 0.0062557573513449876 0.015250266191317837 0 0.0060831085157216505 0.014916557165147273 0 0.0062557573513449876 0.015250266191317837 0 0.0060831085157216505 0.014916557165147273 0 0.006467026794788059 0.015017612719161504 0 0.006467026794788059 0.015017612719161504 0 0.0065838739067957388 0.015235535148329019 0 0.0067643593893294916 0.015103716313223398 0 0.0062557573513449876 0.015250266191317837 0 0.0065838739067957388 0.015235535148329019 0 0.0065546414301317279 0.01547886719968556 0 0.0062557573513449876 0.015250266191317837 0 0.006467026794788059 0.015017612719161504 0 0.0065838739067957388 0.015235535148329019 0 0.0065838739067957388 0.015235535148329019 0 0.0067643593893294916 0.015103716313223398 0 0.0068126076890408201 0.015328634082458678 0 0.0065838739067957388 0.015235535148329019 0 0.0065546414301317279 0.01547886719968556 0 0.0068126076890408201 0.015328634082458678 0 0.0060496947440536472 0.015626027006320344 0 0.0065546414301317279 0.01547886719968556 0 0.0065620426441472006 0.01589844933282639 0 0.0065546414301317279 0.01547886719968556 0 0.0068349700865755298 0.015507714100796892 0 0.0065620426441472006 0.01589844933282639 0 0.0068349700865755298 0.015507714100796892 0 0.007029245940275354 0.015535472917669879 0 0.0065620426441472006 0.01589844933282639 0 -0.0019819717980817729 0.023806415563385894 0 -0.0019084335550357641 0.02328300699452137 0 -0.0011394151281420358 0.024454676812229154 0 0.0068349700865755298 0.015507714100796892 0 0.0069644735771731258 0.015394503634650114 0 0.0068126076890408201 0.015328634082458678 0 0.0065546414301317279 0.01547886719968556 0 0.0068349700865755298 0.015507714100796892 0 0.0068126076890408201 0.015328634082458678 0 0.0068349700865755298 0.015507714100796892 0 0.0069644735771731258 0.015394503634650114 0 0.0069806400892620966 0.01546786725818209 0 0.0068349700865755298 0.015507714100796892 0 0.0069806400892620966 0.01546786725818209 0 0.007029245940275354 0.015535472917669879 0 -0.0019819717980817729 0.023806415563385894 0 -0.0019084335550357641 0.02328300699452137 0 0.0010107177681986685 0.021898859568058097 0 0.0070357539632593113 0.015450237175303817 0 0.0070503300766651383 0.015413324340065445 0 0.0070384016681420553 0.015417849196847978 0 0.0034636199578079287 0.01832353084685568 0 0.0048404309493452272 0.017583778208637442 0 0.007029245940275354 0.015535472917669879 0 0.0070357539632593113 0.015450237175303817 0 0.0070384016681420553 0.015417849196847978 0 -0.0021389891307281223 0.024730201784549943 0 -0.0015452451575114776 0.024985523430259664 0 0.0069806400892620966 0.01546786725818209 0 0.007029245940275354 0.015535472917669879 0 0.0070357539632593113 0.015450237175303817 0 0.0069644735771731258 0.015394503634650114 0 0.0069806400892620966 0.01546786725818209 0 0.0070357539632593113 0.015450237175303817 0 0.0069644735771731258 0.015394503634650114 0 0.0070357539632593113 0.015450237175303817 0 0.0070371211397210658 0.015355990557145352 0 0.0069644735771731258 0.015394503634650114 0 0.0070371211397210658 0.015355990557145352 0 0.006959157910326536 0.015234349778573549 0 0.0070371211397210658 0.015355990557145352 0 0.0070503300766651383 0.015413324340065445 0 0.0070637664141484672 0.015410252298995293 0 0.0070357539632593113 0.015450237175303817 0 0.0070371211397210658 0.015355990557145352 0 0.0070503300766651383 0.015413324340065445 0 0.0070422756891457801 0.015257950633745408 0 0.0070637664141484672 0.015410252298995293 0 0.0070674748281906929 0.015244545925143412 0 0.0070371211397210658 0.015355990557145352 0 0.0070422756891457801 0.015257950633745408 0 0.0070637664141484672 0.015410252298995293 0 0.0070371211397210658 0.015355990557145352 0 0.0070422756891457801 0.015257950633745408 0 0.006959157910326536 0.015234349778573549 0 0.0070422756891457801 0.015257950633745408 0 0.006959157910326536 0.015234349778573549 0 0.0070390609159438318 0.015031224465964457 0 0.006959157910326536 0.015234349778573549 0 0.0067643593893294916 0.015103716313223398 0 0.0068126076890408201 0.015328634082458678 0 0.006959157910326536 0.015234349778573549 0 0.0067643593893294916 0.015103716313223398 0 0.0069050380955329614 0.014995445867861607 0 0.0069644735771731258 0.015394503634650114 0 0.006959157910326536 0.015234349778573549 0 0.0068126076890408201 0.015328634082458678 0 0.0060260087473702206 0.020683935307656096 0 0.0015622047302540306 0.019212026869006235 0 0.0066951674524087911 0.016335397843522503 0 -0.00099677193412136232 0.025994135656292355 0 -0.0015452451575114776 0.024985523430259664 0 0.0060260087473702206 0.020683935307656096 0 0.0015622047302540306 0.019212026869006235 0 0.0010107177681986685 0.021898859568058097 0 -0.0019084335550357641 0.02328300699452137 0 0.0015622047302540306 0.019212026869006235 0 0.0010107177681986685 0.021898859568058097 0 0.0070503300766651383 0.015413324340065445 0 0.0070384016681420553 0.015417849196847978 0 0.0070637664141484672 0.015410252298995293 0 0.0070637664141484672 0.015410252298995293 0 0.007032410827741504 0.015369238961707093 0 0.0070674748281906929 0.015244545925143412 0 0.0070637664141484672 0.015410252298995293 0 0.0069574074386027562 0.015635519414386508 0 0.007032410827741504 0.015369238961707093 0 0.0069574074386027562 0.015635519414386508 0 0.0069490349231277684 0.015606336866369771 0 0.007032410827741504 0.015369238961707093 0 0.0070384016681420553 0.015417849196847978 0 0.0070637664141484672 0.015410252298995293 0 0.0069574074386027562 0.015635519414386508 0 0.0069574074386027562 0.015635519414386508 0 0.0069490349231277684 0.015606336866369771 0 0.0066951674524087911 0.016335397843522503 0 0.0070384016681420553 0.015417849196847978 0 0.0069574074386027562 0.015635519414386508 0 0.0066951674524087911 0.016335397843522503 0 0.0069490349231277684 0.015606336866369771 0 0.0066951674524087911 0.016335397843522503 0 0.0071354545665330386 0.015475492999546016 0 0.0048404309493452272 0.017583778208637442 0 0.0058022419854879019 0.017123332354495466 0 0.0069490349231277684 0.015606336866369771 0 0.0070950499629888206 0.015173287613693002 0 0.0071354545665330386 0.015475492999546016 0 0.0069490349231277684 0.015606336866369771 0 0.007032410827741504 0.015369238961707093 0 0.0070950499629888206 0.015173287613693002 0 0.007032410827741504 0.015369238961707093 0 0.0071373851468592604 0.014955602281932958 0 0.0070950499629888206 0.015173287613693002 0 0.007032410827741504 0.015369238961707093 0 0.0071373851468592604 0.014955602281932958 0 0.0070962446678471472 0.015034934447586244 0 0.007032410827741504 0.015369238961707093 0 0.0070674748281906929 0.015244545925143412 0 0.0070962446678471472 0.015034934447586244 0 0.0071373851468592604 0.014955602281932958 0 0.0070950499629888206 0.015173287613693002 0 0.0072059891545574861 0.014807995663005823 0 0.0071373851468592604 0.014955602281932958 0 0.0072059891545574861 0.014807995663005823 0 0.0072276889446122629 0.014636036037288446 0 0.0070950499629888206 0.015173287613693002 0 0.0071354545665330386 0.015475492999546016 0 0.0072492816362126865 0.014996210770024561 0 0.0070950499629888206 0.015173287613693002 0 0.0072059891545574861 0.014807995663005823 0 0.0072492816362126865 0.014996210770024561 0 0.0069279752950914732 0.014741434705168492 0 0.0070390609159438318 0.015031224465964457 0 0.0070768436816954121 0.014730471139360334 0 0.0069279752950914732 0.014741434705168492 0 0.0069050380955329614 0.014995445867861607 0 0.0070390609159438318 0.015031224465964457 0 0.0067220367866691359 0.014862732188340739 0 0.0069279752950914732 0.014741434705168492 0 0.0069050380955329614 0.014995445867861607 0 0.0067220367866691359 0.014862732188340739 0 0.0067643593893294916 0.015103716313223398 0 0.0069050380955329614 0.014995445867861607 0 0.006959157910326536 0.015234349778573549 0 0.0069050380955329614 0.014995445867861607 0 0.0070390609159438318 0.015031224465964457 0 0.0070422756891457801 0.015257950633745408 0 0.0070390609159438318 0.015031224465964457 0 0.0070674748281906929 0.015244545925143412 0 0.0070390609159438318 0.015031224465964457 0 0.0070674748281906929 0.015244545925143412 0 0.0070962446678471472 0.015034934447586244 0 0.0070390609159438318 0.015031224465964457 0 0.0070962446678471472 0.015034934447586244 0 0.0070768436816954121 0.014730471139360334 0 0.0070962446678471472 0.015034934447586244 0 0.0071561183188280546 0.014765230481214885 0 0.0070768436816954121 0.014730471139360334 0 0.0071373851468592604 0.014955602281932958 0 0.0070962446678471472 0.015034934447586244 0 0.0071561183188280546 0.014765230481214885 0 0.0071373851468592604 0.014955602281932958 0 0.0071561183188280546 0.014765230481214885 0 0.0072276889446122629 0.014636036037288446 0 0.0071561183188280546 0.014765230481214885 0 0.0072157343695504446 0.014487524031306358 0 0.0072276889446122629 0.014636036037288446 0 0.0071561183188280546 0.014765230481214885 0 0.0070768436816954121 0.014730471139360334 0 0.0072157343695504446 0.014487524031306358 0 0.0070768436816954121 0.014730471139360334 0 0.0070218494975804683 0.014374710980210724 0 0.0072157343695504446 0.014487524031306358 0 0.0069279752950914732 0.014741434705168492 0 0.0070768436816954121 0.014730471139360334 0 0.0070218494975804683 0.014374710980210724 0 0.0067500653534312153 0.014560613868295576 0 0.0069279752950914732 0.014741434705168492 0 0.0070218494975804683 0.014374710980210724 0 0.0070218494975804683 0.014374710980210724 0 0.0072992881360667422 0.014183675049154734 0 0.0071023735699852113 0.01407189363159656 0 0.0070218494975804683 0.014374710980210724 0 0.0072992881360667422 0.014183675049154734 0 0.0072157343695504446 0.014487524031306358 0 0.0072992881360667422 0.014183675049154734 0 0.0072560596214187806 0.013796528843407074 0 0.0071023735699852113 0.01407189363159656 0 0.0072157343695504446 0.014487524031306358 0 0.0073268368360668787 0.014334496728614072 0 0.0072276889446122629 0.014636036037288446 0 0.0072992881360667422 0.014183675049154734 0 0.0072157343695504446 0.014487524031306358 0 0.0073268368360668787 0.014334496728614072 0 0.0073268368360668787 0.014334496728614072 0 0.0075064629605891917 0.013965591886968056 0 0.0073784511965122972 0.014415040208413745 0 0.0075064629605891917 0.013965591886968056 0 0.0076749254064160874 0.014317090847799682 0 0.0073784511965122972 0.014415040208413745 0 0.0073268368360668787 0.014334496728614072 0 0.0072747920904520803 0.014604719519114023 0 0.0073784511965122972 0.014415040208413745 0 0.0075064629605891917 0.013965591886968056 0 0.0077461071162360584 0.013640928328161826 0 0.0076749254064160874 0.014317090847799682 0 0.0075064629605891917 0.013965591886968056 0 0.0077461071162360584 0.013640928328161826 0 0.0072560596214187806 0.013796528843407074 0 0.0072992881360667422 0.014183675049154734 0 0.0075064629605891917 0.013965591886968056 0 0.0072560596214187806 0.013796528843407074 0 0.0072992881360667422 0.014183675049154734 0 0.0073268368360668787 0.014334496728614072 0 0.0075064629605891917 0.013965591886968056 0 0.0072059891545574861 0.014807995663005823 0 0.0072747920904520803 0.014604719519114023 0 0.0072489685941486475 0.01477668373658819 0 0.0072059891545574861 0.014807995663005823 0 0.0072489685941486475 0.01477668373658819 0 0.0072492816362126865 0.014996210770024561 0 0.0073268368360668787 0.014334496728614072 0 0.0072276889446122629 0.014636036037288446 0 0.0072747920904520803 0.014604719519114023 0 0.0072059891545574861 0.014807995663005823 0 0.0072276889446122629 0.014636036037288446 0 0.0072747920904520803 0.014604719519114023 0 0.0072747920904520803 0.014604719519114023 0 0.0072702852176369541 0.014792386031418808 0 0.0073784511965122972 0.014415040208413745 0 0.0072747920904520803 0.014604719519114023 0 0.0072489685941486475 0.01477668373658819 0 0.0072702852176369541 0.014792386031418808 0 0.0072702852176369541 0.014792386031418808 0 0.0074017837467256313 0.014949868098118093 0 0.0072493085732245966 0.015078856157512652 0 0.0072702852176369541 0.014792386031418808 0 0.0072493085732245966 0.015078856157512652 0 0.0071522363377477128 0.015058371807844967 0 0.0072702852176369541 0.014792386031418808 0 0.0074017837467256313 0.014949868098118093 0 0.0073784511965122972 0.014415040208413745 0 0.0071060292090189062 0.015362981834507405 0 0.0072926427004783162 0.015036126966993846 0 0.0069638471191078247 0.015194330863219056 0 0.0062141189845312901 0.016333734135416219 0 0.0074100894298708888 0.015977696855480096 0 0.0069638471191078247 0.015194330863219056 0 0.0076510538629896655 0.015163787350642053 0 0.0074100894298708888 0.015977696855480096 0 0.0074017837467256313 0.014949868098118093 0 0.0072493085732245966 0.015078856157512652 0 0.0072885557264655504 0.015339940979486448 0 0.0071060292090189062 0.015362981834507405 0 0.0066254450205522853 0.016169491449822763 0 0.0076749254064160874 0.014317090847799682 0 0.0076510538629896655 0.015163787350642053 0 0.008318510287275557 0.014837254386923907 0 0.0088335843406140788 0.013355865022747233 0 0.0089247173519213571 0.013172053188042536 0 0.0077461071162360584 0.013640928328161826 0 0.0076749254064160874 0.014317090847799682 0 0.008318510287275557 0.014837254386923907 0 0.0076749254064160874 0.014317090847799682 0 0.0073784511965122972 0.014415040208413745 0 0.0076510538629896655 0.015163787350642053 0 0.0069638471191078247 0.015194330863219056 0 0.0073784511965122972 0.014415040208413745 0 0.0076510538629896655 0.015163787350642053 0 0.0076510538629896655 0.015163787350642053 0 0.00793656492078465 0.016192149777401719 0 0.0085014295852862236 0.015614225046987507 0 0.0076510538629896655 0.015163787350642053 0 0.008318510287275557 0.014837254386923907 0 0.0085014295852862236 0.015614225046987507 0 0.0089247173519213571 0.013172053188042536 0 0.0091843374018911808 0.012557535989652027 0 0.0091325133585250882 0.0096289535101486551 0 0.0092905000693567791 0.0073931161529442908 0 0.011837001725290756 0.0081673165159032602 0 0.0082426864155974739 0.011908950047505069 0 0.0091843374018911808 0.012557535989652027 0 0.0077421291712319327 0.012265128911238163 0 0.006600504209975276 0.011990016347922128 0 0.0077191661730326286 0.011494880252286704 0 0.0091325133585250882 0.0096289535101486551 0 0.0073380555149704929 0.0078723224064582362 0 0.0092905000693567791 0.0073931161529442908 0 0.006600504209975276 0.011990016347922128 0 0.006460041023695828 0.01240813941742201 0 0.006031354553726471 0.011353487479831685 0 0.006600504209975276 0.011990016347922128 0 0.006460041023695828 0.01240813941742201 0 0.0069286131088585673 0.012749251757645986 0 0.0077421291712319327 0.012265128911238163 0 0.006600504209975276 0.011990016347922128 0 0.0069286131088585673 0.012749251757645986 0 0.0077461071162360584 0.013640928328161826 0 0.0077421291712319327 0.012265128911238163 0 0.0069286131088585673 0.012749251757645986 0 0.0077461071162360584 0.013640928328161826 0 0.0069286131088585673 0.012749251757645986 0 0.0068051207424158515 0.013316227755651423 0 0.0077461071162360584 0.013640928328161826 0 0.0072560596214187806 0.013796528843407074 0 0.0068051207424158515 0.013316227755651423 0 0.006460041023695828 0.01240813941742201 0 0.0069286131088585673 0.012749251757645986 0 0.0068051207424158515 0.013316227755651423 0 0.006460041023695828 0.01240813941742201 0 0.0068051207424158515 0.013316227755651423 0 0.0060584073744963498 0.013159756618063631 0 0.0068051207424158515 0.013316227755651423 0 0.006428143333447379 0.013635006092513563 0 0.0068176446116626089 0.013982459299990669 0 0.0068051207424158515 0.013316227755651423 0 0.006428143333447379 0.013635006092513563 0 0.0060584073744963498 0.013159756618063631 0 0.0063178057622105951 0.014106202209204458 0 0.006428143333447379 0.013635006092513563 0 0.0056954404353529746 0.01367186477018781 0 0.0063178057622105951 0.014106202209204458 0 0.006428143333447379 0.013635006092513563 0 0.0068176446116626089 0.013982459299990669 0 0.0072560596214187806 0.013796528843407074 0 0.0068051207424158515 0.013316227755651423 0 0.0068176446116626089 0.013982459299990669 0 0.0070218494975804683 0.014374710980210724 0 0.0068176446116626089 0.013982459299990669 0 0.0071023735699852113 0.01407189363159656 0 0.0072560596214187806 0.013796528843407074 0 0.0068176446116626089 0.013982459299990669 0 0.0071023735699852113 0.01407189363159656 0 0.0050488034741512809 0.013812952539867371 0 0.0050237936179768341 0.012965644967507938 0 0.0056954404353529746 0.01367186477018781 0 0.0050488034741512809 0.013812952539867371 0 0.0050237936179768341 0.012965644967507938 0 0.0041729250585139403 0.013489034355905 0 0.0050237936179768341 0.012965644967507938 0 0.0056954404353529746 0.01367186477018781 0 0.0060584073744963498 0.013159756618063631 0 0.006428143333447379 0.013635006092513563 0 0.0056954404353529746 0.01367186477018781 0 0.0060584073744963498 0.013159756618063631 0 0.0050237936179768341 0.012965644967507938 0 0.0060584073744963498 0.013159756618063631 0 0.006031354553726471 0.011353487479831685 0 0.006460041023695828 0.01240813941742201 0 0.0060584073744963498 0.013159756618063631 0 0.006031354553726471 0.011353487479831685 0 0.0050237936179768341 0.012965644967507938 0 0.006031354553726471 0.011353487479831685 0 0.0038455165498658037 0.011444688109529573 0 0.006031354553726471 0.011353487479831685 0 0.004167636180892372 0.0095228985682395458 0 0.0038455165498658037 0.011444688109529573 0 0.0082426864155974739 0.011908950047505069 0 0.007378629570061023 0.012004866880200353 0 0.006031354553726471 0.011353487479831685 0 0.0052458285286245956 0.0077136418236838384 0 0.0073380555149704929 0.0078723224064582362 0 0.0091325133585250882 0.0096289535101486551 0 0.006031354553726471 0.011353487479831685 0 0.0073380555149704929 0.0078723224064582362 0 0.006031354553726471 0.011353487479831685 0 0.004167636180892372 0.0095228985682395458 0 0.0052458285286245956 0.0077136418236838384 0 0.004167636180892372 0.0095228985682395458 0 0.0020792576956664378 0.0096125151508096428 0 0.0029995943457671146 0.0057975274668369322 0 0.004167636180892372 0.0095228985682395458 0 0.0029995943457671146 0.0057975274668369322 0 0.0052458285286245956 0.0077136418236838384 0 0.004167636180892372 0.0095228985682395458 0 0.0038455165498658037 0.011444688109529573 0 0.0020792576956664378 0.0096125151508096428 0 0.0043301361270880606 0.0039920390535883397 0 0.0055443026689789487 0.0028801676050945811 0 0.0038455165498658037 0.011444688109529573 0 0.0020792576956664378 0.0096125151508096428 0 0.0021143104257949439 0.011841756013349622 0 0.0043301361270880606 0.0039920390535883397 0 0.0039496203147719299 0.0045208642385774073 0 0.0033928199146272026 -0.00072438810573054527 0 0.0052602961050107495 0.0034569326650772361 0 0.0029995943457671146 0.0057975274668369322 0 0.0033928199146272026 -0.00072438810573054527 0 0.010563344693327153 0.0021387575583171779 0 0.0052602961050107495 0.0034569326650772361 0 0.0033928199146272026 -0.00072438810573054527 0 0.010563344693327153 0.0021387575583171779 0 0.010846932518923576 -0.005842471206545778 0 0.021062658232842767 -0.013297147936917377 0 0.020270760312955882 -0.011787098281912892 0 0.010563344693327153 0.0021387575583171779 0 0.010846932518923576 -0.005842471206545778 0 0.016007845126761289 -0.0041375058676453606 0 0.0033928199146272026 -0.00072438810573054527 0 0.010846932518923576 -0.005842471206545778 0 0.0055046089159053024 -0.0070703691374824785 0 0.0055443026689789487 0.0028801676050945811 0 0.0075241047503243948 0.0022127538519313033 0 0.010846932518923576 -0.005842471206545778 0 0.0055046089159053024 -0.0070703691374824785 0 0.0078181737414762739 -0.012668694348284987 0 0.010846932518923576 -0.005842471206545778 0 0.01319996690259501 -0.010585843140970079 0 0.014199435315807897 -0.0072949888159762975 0 0.010846932518923576 -0.005842471206545778 0 0.01319996690259501 -0.010585843140970079 0 0.0078181737414762739 -0.012668694348284987 0 0.01319996690259501 -0.010585843140970079 0 0.0078181737414762739 -0.012668694348284987 0 0.01160250741710744 -0.014058687314213811 0 0.0021143104257949439 0.011841756013349622 0 0.0021422198288042478 0.013170145435807456 0 0.0031660368586495136 0.01341474917851181 0 0.0021143104257949439 0.011841756013349622 0 0.0031660368586495136 0.01341474917851181 0 0.0036701505891637196 0.012665650163416822 0 0.0050237936179768341 0.012965644967507938 0 0.0036701505891637196 0.012665650163416822 0 0.0041729250585139403 0.013489034355905 0 0.0031660368586495136 0.01341474917851181 0 0.0036701505891637196 0.012665650163416822 0 0.0041729250585139403 0.013489034355905 0 0.0050237936179768341 0.012965644967507938 0 0.0038455165498658037 0.011444688109529573 0 0.0036701505891637196 0.012665650163416822 0 0.0038455165498658037 0.011444688109529573 0 0.0021143104257949439 0.011841756013349622 0 0.0036701505891637196 0.012665650163416822 0 0.0077819851938444404 -0.015795059540102813 0 0.0092235868738954636 -0.017383088185633756 0 0.01066387576130802 -0.014875598247672577 0 0.0092235868738954636 -0.017383088185633756 0 0.011305979921401319 -0.017901016590752879 0 0.01066387576130802 -0.014875598247672577 0 0.013354980149587857 -0.016047396041863699 0 0.011305979921401319 -0.017901016590752879 0 0.014633203934299992 -0.019302945668994122 0 0.013354980149587857 -0.016047396041863699 0 0.011305979921401319 -0.017901016590752879 0 0.01066387576130802 -0.014875598247672577 0 0.011305979921401319 -0.017901016590752879 0 0.011884720935893349 -0.020754579049439469 0 0.014633203934299992 -0.019302945668994122 0 0.011305979921401319 -0.017901016590752879 0 0.011884720935893349 -0.020754579049439469 0 0.0092614734634098774 -0.019957228729667462 0 0.0092235868738954636 -0.017383088185633756 0 0.011305979921401319 -0.017901016590752879 0 0.0092614734634098774 -0.019957228729667462 0 0.011884720935893349 -0.020754579049439469 0 0.0092614734634098774 -0.019957228729667462 0 0.0092373064560972596 -0.023826813655803705 0 0.0092373064560972596 -0.023826813655803705 0 0.013098906499503307 -0.023674846129770524 0 0.010888419694802462 -0.02867128371527411 0 0.011884720935893349 -0.020754579049439469 0 0.013098906499503307 -0.023674846129770524 0 0.014633203934299992 -0.019302945668994122 0 0.011884720935893349 -0.020754579049439469 0 0.0092373064560972596 -0.023826813655803705 0 0.013098906499503307 -0.023674846129770524 0 0.013098906499503307 -0.023674846129770524 0 0.019143434969389739 -0.024081368109574494 0 0.015374873172816496 -0.027859224356434932 0 0.013098906499503307 -0.023674846129770524 0 0.019143434969389739 -0.024081368109574494 0 0.014633203934299992 -0.019302945668994122 0 0.019143434969389739 -0.024081368109574494 0 0.014633203934299992 -0.019302945668994122 0 0.019102318047790771 -0.017799209171677446 0 0.013354980149587857 -0.016047396041863699 0 0.014633203934299992 -0.019302945668994122 0 0.016419831118559599 -0.015135727915582747 0 0.014633203934299992 -0.019302945668994122 0 0.019102318047790771 -0.017799209171677446 0 0.016419831118559599 -0.015135727915582747 0 0.019143434969389739 -0.024081368109574494 0 0.019102318047790771 -0.017799209171677446 0 0.026566315442093234 -0.019123462972131421 0 0.019102318047790771 -0.017799209171677446 0 0.026566315442093234 -0.019123462972131421 0 0.018972467721190305 -0.010907785871365686 0 0.019143434969389739 -0.024081368109574494 0 0.026566315442093234 -0.019123462972131421 0 0.025828687409613305 -0.028062406163015256 0 0.033376501332758657 -0.026469630394692797 0 0.026566315442093234 -0.019123462972131421 0 0.025828687409613305 -0.028062406163015256 0 0.010846932518923576 -0.005842471206545778 0 0.016007845126761289 -0.0041375058676453606 0 0.014199435315807897 -0.0072949888159762975 0 0.016007845126761289 -0.0041375058676453606 0 0.014199435315807897 -0.0072949888159762975 0 0.016508335655550006 -0.0094024420715509392 0 0.01319996690259501 -0.010585843140970079 0 0.014199435315807897 -0.0072949888159762975 0 0.016508335655550006 -0.0094024420715509392 0 0.01319996690259501 -0.010585843140970079 0 0.016296129781865877 -0.012776380812586492 0 0.01160250741710744 -0.014058687314213811 0 0.01319996690259501 -0.010585843140970079 0 0.016508335655550006 -0.0094024420715509392 0 0.016296129781865877 -0.012776380812586492 0 0.016296129781865877 -0.012776380812586492 0 0.018752109107894793 -0.010506888101152499 0 0.019448878284780591 -0.014425616553413123 0 0.016508335655550006 -0.0094024420715509392 0 0.016296129781865877 -0.012776380812586492 0 0.018752109107894793 -0.010506888101152499 0 0.013402392978343015 -0.0068506685526610192 0 0.012345698653860293 -0.004388682802702451 0 0.018752109107894793 -0.010506888101152499 0 0.017617670996638926 -0.0096895938525044471 0 0.019026790251099299 -0.005613559661527912 0 0.020270760312955882 -0.011787098281912892 0 0.019484653706399416 -0.010991312482938968 0 0.016007845126761289 -0.0041375058676453606 0 0.016508335655550006 -0.0094024420715509392 0 0.018972467721190305 -0.010907785871365686 0 0.016508335655550006 -0.0094024420715509392 0 0.018752109107894793 -0.010506888101152499 0 0.018972467721190305 -0.010907785871365686 0 0.018752109107894793 -0.010506888101152499 0 0.018972467721190305 -0.010907785871365686 0 0.017617670996638926 -0.0096895938525044471 0 0.019102318047790771 -0.017799209171677446 0 0.016419831118559599 -0.015135727915582747 0 0.018972467721190305 -0.010907785871365686 0 0.016419831118559599 -0.015135727915582747 0 0.018972467721190305 -0.010907785871365686 0 0.016407210134373986 -0.011811019516968465 0 0.016419831118559599 -0.015135727915582747 0 0.016407210134373986 -0.011811019516968465 0 0.013817447145962515 -0.013128902328942788 0 0.013354980149587857 -0.016047396041863699 0 0.016419831118559599 -0.015135727915582747 0 0.013817447145962515 -0.013128902328942788 0 0.016407210134373986 -0.011811019516968465 0 0.015172442384709071 -0.0090923770585783961 0 0.013817447145962515 -0.013128902328942788 0 0.018972467721190305 -0.010907785871365686 0 0.016407210134373986 -0.011811019516968465 0 0.017617670996638926 -0.0096895938525044471 0 0.016407210134373986 -0.011811019516968465 0 0.017617670996638926 -0.0096895938525044471 0 0.015172442384709071 -0.0090923770585783961 0 0.012850391352753867 -0.005063725141268253 0 0.012345698653860293 -0.004388682802702451 0 0.017617670996638926 -0.0096895938525044471 0 0.015172442384709071 -0.0090923770585783961 0 0.019026790251099299 -0.005613559661527912 0 0.015172442384709071 -0.0090923770585783961 0 0.011009924887850891 -0.0077454102776478373 0 0.019026790251099299 -0.005613559661527912 0 0.015172442384709071 -0.0090923770585783961 0 0.011009924887850891 -0.0077454102776478373 0 0.011286194040789831 -0.011177637533302304 0 0.0075748180349816709 -0.010921416902654796 0 0.011009924887850891 -0.0077454102776478373 0 0.011286194040789831 -0.011177637533302304 0 0.0085745909564157209 -0.01331526645403784 0 0.0075748180349816709 -0.010921416902654796 0 0.011286194040789831 -0.011177637533302304 0 0.015172442384709071 -0.0090923770585783961 0 0.011286194040789831 -0.011177637533302304 0 0.013817447145962515 -0.013128902328942788 0 0.013354980149587857 -0.016047396041863699 0 0.013817447145962515 -0.013128902328942788 0 0.01066387576130802 -0.014875598247672577 0 0.011286194040789831 -0.011177637533302304 0 0.013817447145962515 -0.013128902328942788 0 0.01066387576130802 -0.014875598247672577 0 0.0085745909564157209 -0.01331526645403784 0 0.0077819851938444404 -0.015795059540102813 0 0.01066387576130802 -0.014875598247672577 0 0.0085745909564157209 -0.01331526645403784 0 0.011286194040789831 -0.011177637533302304 0 0.01066387576130802 -0.014875598247672577 0 0.014598558404463396 -0.028123260521021258 0 0.016653965284693692 -0.024465720446428519 0 0.014313137453826227 -0.023290756208799602 0 0.0099556896233091146 -0.025390027596560526 0 0.014598558404463396 -0.028123260521021258 0 0.014313137453826227 -0.023290756208799602 0 0.00478735427024628 -0.0058169493860025451 0 0.011009924887850891 -0.0077454102776478373 0 0.011628967253152891 -0.0020160732041721897 0 0.011009924887850891 -0.0077454102776478373 0 0.011628967253152891 -0.0020160732041721897 0 0.015964411440318269 -0.002060652560062983 0 0.011009924887850891 -0.0077454102776478373 0 0.015964411440318269 -0.002060652560062983 0 0.01910656022529765 -0.0050310074975397781 0 0.015964411440318269 -0.002060652560062983 0 0.018143770055761645 0.0016478866057093064 0 0.01910656022529765 -0.0050310074975397781 0 0.011628967253152891 -0.0020160732041721897 0 0.015964411440318269 -0.002060652560062983 0 0.018143770055761645 0.0016478866057093064 0 0.011295088088550844 -0.013343079456204094 0 0.012365904586925144 -0.0076776333724591838 0 0.014598558404463396 -0.028123260521021258 0 0.01904070312959914 -0.025529946692373018 0 0.016653965284693692 -0.024465720446428519 0 0.011167464843874221 0.0049421464849585288 0 0.01149978912520932 0.0049461226265325531 0 0.011226587302609066 0.0042997297116438918 0 0.011167464843874221 0.0049421464849585288 0 0.011293626509592128 0.0050013088280765382 0 0.01149978912520932 0.0049461226265325531 0 0.012365904586925144 -0.0076776333724591838 0 0.012500114781018387 -0.0074556181322559595 0 0.012365904586925144 -0.0076776333724591838 0 0.012345698653860293 -0.004388682802702451 0 0.016296129781865877 -0.012776380812586492 0 0.019448878284780591 -0.014425616553413123 0 0.014829176171216476 -0.016092656076921546 0 0.012345698653860293 -0.004388682802702451 0 0.011625594664622086 -0.0010417737473588182 0 0.01149978912520932 0.0049461226265325531 0 0.011226587302609066 0.0042997297116438918 0 0.011825116883622613 0.0045027551193882378 0 0.016296129781865877 -0.012776380812586492 0 0.014829176171216476 -0.016092656076921546 0 0.01160250741710744 -0.014058687314213811 0 0.01149978912520932 0.0049461226265325531 0 0.011825116883622613 0.0045027551193882378 0 0.011974325760308947 0.0049420354595883483 0 0.01149978912520932 0.0049461226265325531 0 0.011974325760308947 0.0049420354595883483 0 0.011761735790182554 0.0052239592334636939 0 0.011974325760308947 0.0049420354595883483 0 0.011761735790182554 0.0052239592334636939 0 0.012182917845397793 0.0053569606590190008 0 0.01149978912520932 0.0049461226265325531 0 0.011761735790182554 0.0052239592334636939 0 0.011504632641775297 0.0053370522314598254 0 0.011761735790182554 0.0052239592334636939 0 0.011695311470108409 0.0055388572123963205 0 0.011504632641775297 0.0053370522314598254 0 0.011761735790182554 0.0052239592334636939 0 0.011695311470108409 0.0055388572123963205 0 0.012182917845397793 0.0053569606590190008 0 0.010126702411881601 0.0073073427748742625 0 0.010491598838253114 0.0071330433383512597 0 0.011695311470108409 0.0055388572123963205 0 0.011646587365633291 0.0056624911857450239 0 0.011613186974200424 0.0063974508347213977 0 0.011695311470108409 0.0055388572123963205 0 0.012182917845397793 0.0053569606590190008 0 0.011613186974200424 0.0063974508347213977 0 0.011695311470108409 0.0055388572123963205 0 0.011431407938087793 0.0053022336427298632 0 0.011646587365633291 0.0056624911857450239 0 0.011646587365633291 0.0056624911857450239 0 0.011311456548622803 0.0049466722795991746 0 0.011990906581334221 0.0059858782495498921 0 0.011239250130428306 0.0039230843695563962 0 0.011005313941544855 0.0032423896382584691 0 0.011311456548622803 0.0049466722795991746 0 0.01195808973779605 0.0030004249859790638 0 0.0098947155457119688 0.0016572832758459499 0 0.011431407938087793 0.0053022336427298632 0 0.011646587365633291 0.0056624911857450239 0 0.011311456548622803 0.0049466722795991746 0 0.011431407938087793 0.0053022336427298632 0 0.011443923591016847 0.0056634236094398631 0 0.011311456548622803 0.0049466722795991746 0 0.011431407938087793 0.0053022336427298632 0 0.011504632641775297 0.0053370522314598254 0 0.011443923591016847 0.0056634236094398631 0 0.011695311470108409 0.0055388572123963205 0 0.011431407938087793 0.0053022336427298632 0 0.011504632641775297 0.0053370522314598254 0 0.011293626509592128 0.0050013088280765382 0 0.01149978912520932 0.0049461226265325531 0 0.011146064126279193 0.0052112952739551219 0 0.0112052732328695 0.0049437585677372421 0 0.011293626509592128 0.0050013088280765382 0 0.011146064126279193 0.0052112952739551219 0 0.010903796932312087 -0.0014552694683674233 0 0.013052878272157335 -0.0050002662430094161 0 0.01149978912520932 0.0049461226265325531 0 0.011504632641775297 0.0053370522314598254 0 0.011443923591016847 0.0056634236094398631 0 0.016653965284693692 -0.024465720446428519 0 0.018641121404087753 -0.022737209097055261 0 0.014313137453826227 -0.023290756208799602 0 0.012365904586925144 -0.0076776333724591838 0 0.013052878272157335 -0.0050002662430094161 0 0.01904070312959914 -0.025529946692373018 0 0.016653965284693692 -0.024465720446428519 0 0.018641121404087753 -0.022737209097055261 0 0.013052878272157335 -0.0050002662430094161 0 0.017090806237605848 -0.012283656866398806 0 0.011631293405989729 0.0052034119354128789 0 0.01195808973779605 0.0030004249859790638 0 0.013202083627303542 0.0029103569151731697 0 0.011631293405989729 0.0052034119354128789 0 0.013760376544141913 0.0030640551813256697 0 0.013202083627303542 0.0029103569151731697 0 0.013052878272157335 -0.0050002662430094161 0 0.0124495667746224 -0.00075751209540610555 0 0.011443923591016847 0.0056634236094398631 0 0.011311456548622803 0.0049466722795991746 0 0.01195808973779605 0.0030004249859790638 0 0.01155178135904953 -0.019913823395677762 0 0.014845173044053958 -0.018944270182942223 0 0.014313137453826227 -0.023290756208799602 0 0.016873582055983872 -0.022259153676414817 0 0.017090806237605848 -0.012283656866398806 0 0.017090806237605848 -0.012283656866398806 0 0.017069156066830744 -0.012112106605305107 0 0.018641121404087753 -0.022737209097055261 0 0.014845173044053958 -0.018944270182942223 0 0.014313137453826227 -0.023290756208799602 0 0.0035490960973757544 0.014837619484889396 0 0.0039525512466894218 0.014506864870991789 0 0.0034698078309410903 0.0142485861715411 0 0.0035490960973757544 0.014837619484889396 0 0.0034698078309410903 0.0142485861715411 0 0.0028381523155785256 0.014022189697173205 0 0.0035490960973757544 0.014837619484889396 0 0.0055979144954741121 0.014275060821263163 0 0.0036770995720228224 0.013896089587732072 0 0.0035490960973757544 0.014837619484889396 0 0.0039525512466894218 0.014506864870991789 0 0.0037759778616610409 0.014473979531286643 0 0.0039525512466894218 0.014506864870991789 0 0.004240715024490322 0.014664630442936952 0 0.0037759778616610409 0.014473979531286643 0 0.004570732415264689 0.014424868765247413 0 0.0039525512466894218 0.014506864870991789 0 0.004240715024490322 0.014664630442936952 0 0.004570732415264689 0.014424868765247413 0 0.0039525512466894218 0.014506864870991789 0 0.0039132723524769614 0.014086685533729378 0 0.0039525512466894218 0.014506864870991789 0 0.0039132723524769614 0.014086685533729378 0 0.0034698078309410903 0.0142485861715411 0 0.0031660368586495136 0.01341474917851181 0 0.0041729250585139403 0.013489034355905 0 0.0039132723524769614 0.014086685533729378 0 0.004570732415264689 0.014424868765247413 0 0.0039132723524769614 0.014086685533729378 0 0.0044892776393025118 0.014021999210103678 0 0.0041729250585139403 0.013489034355905 0 0.0039132723524769614 0.014086685533729378 0 0.0044892776393025118 0.014021999210103678 0 0.0031660368586495136 0.01341474917851181 0 0.0039132723524769614 0.014086685533729378 0 0.0034698078309410903 0.0142485861715411 0 0.0021422198288042478 0.013170145435807456 0 0.0031660368586495136 0.01341474917851181 0 0.0028381523155785256 0.014022189697173205 0 0.0031660368586495136 0.01341474917851181 0 0.0034698078309410903 0.0142485861715411 0 0.0028381523155785256 0.014022189697173205 0 0.0075241047503243948 0.0022127538519313033 0 0.010081393720661091 0.0042763339878926828 0 0.0021422198288042478 0.013170145435807456 0 0.0028381523155785256 0.014022189697173205 0 0.0017613929481580714 0.014430343645970458 0 0.011625594664622086 -0.0010417737473588182 0 0.010081393720661091 0.0042763339878926828 0 0.0078181737414762739 -0.012668694348284987 0 0.01160250741710744 -0.014058687314213811 0 0.0099604916147948298 -0.017768948292528931 0 0.014829176171216476 -0.016092656076921546 0 0.01160250741710744 -0.014058687314213811 0 0.0099604916147948298 -0.017768948292528931 0 0.011825116883622613 0.0045027551193882378 0 0.011974325760308947 0.0049420354595883483 0 0.012404513915726757 0.0046980536348131645 0 0.010081393720661091 0.0042763339878926828 0 0.010126702411881601 0.0073073427748742625 0 0.011974325760308947 0.0049420354595883483 0 0.012404513915726757 0.0046980536348131645 0 0.012182917845397793 0.0053569606590190008 0 0.0076892611532204079 0.0066987346781093035 0 0.010081393720661091 0.0042763339878926828 0 0.0083627131230127535 0.016911033811732066 0 0.0055979144954741121 0.014275060821263163 0 0.0071525570302839406 0.013333255747773682 0 0.0035490960973757544 0.014837619484889396 0 0.0083627131230127535 0.016911033811732066 0 0.0055979144954741121 0.014275060821263163 0 0.0035490960973757544 0.014837619484889396 0 0.0028381523155785256 0.014022189697173205 0 0.0017613929481580714 0.014430343645970458 0 0.0055979144954741121 0.014275060821263163 0 0.0071525570302839406 0.013333255747773682 0 0.0056217468841992056 0.012672598765833258 0 0.0071525570302839406 0.013333255747773682 0 0.010373518261612022 0.011964941539890167 0 0.0063582159701823151 0.010355732748067554 0 0.0071525570302839406 0.013333255747773682 0 0.0056217468841992056 0.012672598765833258 0 0.0063582159701823151 0.010355732748067554 0 0.0083627131230127535 0.016911033811732066 0 0.0071525570302839406 0.013333255747773682 0 0.010373518261612022 0.011964941539890167 0 0.010373518261612022 0.011964941539890167 0 0.0088293523438160559 0.0088456256517115018 0 0.0063582159701823151 0.010355732748067554 0 0.010373518261612022 0.011964941539890167 0 0.0088293523438160559 0.0088456256517115018 0 0.011613186974200424 0.0063974508347213977 0 0.0056217468841992056 0.012672598765833258 0 0.0063582159701823151 0.010355732748067554 0 0.0033489011856784475 0.0093272023240915693 0 0.0088293523438160559 0.0088456256517115018 0 0.0063582159701823151 0.010355732748067554 0 0.0065558600095900017 0.0076560635101666297 0 0.0063582159701823151 0.010355732748067554 0 0.0041752731219976639 0.0092929274574932268 0 0.0065558600095900017 0.0076560635101666297 0 0.0049269887094505575 0.012543068011739796 0 0.0049262380671531662 0.012768866192850658 0 0.0056217468841992056 0.012672598765833258 0 0.0033489011856784475 0.0093272023240915693 0 0.0036770995720228224 0.013896089587732072 0 0.0049262380671531662 0.012768866192850658 0 0.0047692792374969028 0.012996103932728395 0 0.0034748223648494244 0.015312344270304082 0 0.0036770995720228224 0.013896089587732072 0 0.0040208898132517894 0.014836995254421793 0 0.0035490960973757544 0.014837619484889396 0 0.0036770995720228224 0.013896089587732072 0 0.0037759778616610409 0.014473979531286643 0 0.0036770995720228224 0.013896089587732072 0 0.0037759778616610409 0.014473979531286643 0 0.0040208898132517894 0.014836995254421793 0 0.0055979144954741121 0.014275060821263163 0 0.0056217468841992056 0.012672598765833258 0 0.0036770995720228224 0.013896089587732072 0 0.0048123034368800057 0.015155697468750874 0 0.004240715024490322 0.014664630442936952 0 0.0040208898132517894 0.014836995254421793 0 0.004240715024490322 0.014664630442936952 0 0.0037759778616610409 0.014473979531286643 0 0.0040208898132517894 0.014836995254421793 0 0.0048123034368800057 0.015155697468750874 0 0.0040208898132517894 0.014836995254421793 0 0.0047680748757582634 0.015902237055293183 0 0.0034748223648494244 0.015312344270304082 0 0.0040208898132517894 0.014836995254421793 0 0.0047680748757582634 0.015902237055293183 0 0.0049262380671531662 0.012768866192850658 0 0.0047670271192744558 0.014961387978264738 0 0.0050596596388118743 0.014154563955036283 0 0.0049322291768148291 0.014253879138192616 0 0.0049272487252597485 0.014063095335097541 0 0.0051942848494702445 0.014344369009802078 0 0.0050596596388118743 0.014154563955036283 0 0.0049322291768148291 0.014253879138192616 0 0.0065381425621831189 0.011432307070518668 0 0.004907011565507222 0.015566436911627443 0 0.0050596596388118743 0.014154563955036283 0 0.005191169995000894 0.013962966833980054 0 0.0049272487252597485 0.014063095335097541 0 0.0043759756165313995 0.0058449420726354234 0 0.0059534960641061891 0.0033945703125387743 0 0.0044687727922265441 0.0027066785052114895 0 0.0050596596388118743 0.014154563955036283 0 0.0051919987273888416 0.014155849934451792 0 0.005191169995000894 0.013962966833980054 0 0.005578724575992915 0.011193750391128281 0 0.0065381425621831189 0.011432307070518668 0 0.0049262380671531662 0.012768866192850658 0 0.005578724575992915 0.011193750391128281 0 0.0041752731219976639 0.0092929274574932268 0 0.0043759756165313995 0.0058449420726354234 0 0.0065558600095900017 0.0076560635101666297 0 0.0051942848494702445 0.014344369009802078 0 0.0050596596388118743 0.014154563955036283 0 0.0051919987273888416 0.014155849934451792 0 0.0088293523438160559 0.0088456256517115018 0 0.0065558600095900017 0.0076560635101666297 0 0.0087907823158170743 0.0065117638060941214 0 0.0065558600095900017 0.0076560635101666297 0 0.0087907823158170743 0.0065117638060941214 0 0.0068971055712145008 0.0051552728163858702 0 0.0087907823158170743 0.0065117638060941214 0 0.0084464746053233355 0.004502491964476359 0 0.0068971055712145008 0.0051552728163858702 0 0.0043759756165313995 0.0058449420726354234 0 0.0065558600095900017 0.0076560635101666297 0 0.0068971055712145008 0.0051552728163858702 0 0.0088293523438160559 0.0088456256517115018 0 0.0087907823158170743 0.0065117638060941214 0 0.011613186974200424 0.0063974508347213977 0 0.0087907823158170743 0.0065117638060941214 0 0.01010052411135798 0.005188459141200725 0 0.011613186974200424 0.0063974508347213977 0 0.0087907823158170743 0.0065117638060941214 0 0.01010052411135798 0.005188459141200725 0 0.0084464746053233355 0.004502491964476359 0 0.01010052411135798 0.005188459141200725 0 0.009569332369093457 0.0040862496830247896 0 0.010530560385954298 0.003918492338709439 0 0.01010052411135798 0.005188459141200725 0 0.009569332369093457 0.0040862496830247896 0 0.0084464746053233355 0.004502491964476359 0 0.009569332369093457 0.0040862496830247896 0 0.0084464746053233355 0.004502491964476359 0 0.0088869256037852461 0.0028664717414200371 0 0.009569332369093457 0.0040862496830247896 0 0.0097730166587459855 0.0030213634542170745 0 0.0088869256037852461 0.0028664717414200371 0 0.0084464746053233355 0.004502491964476359 0 0.0076299163047630798 0.0034292639534361756 0 0.0088869256037852461 0.0028664717414200371 0 0.009569332369093457 0.0040862496830247896 0 0.0097730166587459855 0.0030213634542170745 0 0.010530560385954298 0.003918492338709439 0 0.0097730166587459855 0.0030213634542170745 0 0.010423691108113694 0.0024792455047078026 0 0.010530560385954298 0.003918492338709439 0 0.0043759756165313995 0.0058449420726354234 0 0.0068971055712145008 0.0051552728163858702 0 0.0059534960641061891 0.0033945703125387743 0 0.0084464746053233355 0.004502491964476359 0 0.0068971055712145008 0.0051552728163858702 0 0.0076299163047630798 0.0034292639534361756 0 0.0076299163047630798 0.0034292639534361756 0 0.0059534960641061891 0.0033945703125387743 0 0.0074958583201927814 0.0021060858341025094 0 0.0068971055712145008 0.0051552728163858702 0 0.0076299163047630798 0.0034292639534361756 0 0.0059534960641061891 0.0033945703125387743 0 0.0059534960641061891 0.0033945703125387743 0 0.0074958583201927814 0.0021060858341025094 0 0.0073792286881035549 0.001807176112038258 0 0.0075269709302720348 0.0080292990438267826 0 0.0065381425621831189 0.011432307070518668 0 0.0059534960641061891 0.0033945703125387743 0 0.0073792286881035549 0.001807176112038258 0 0.0044687727922265441 0.0027066785052114895 0 0.0082848453225966463 0.0024652595376145445 0 0.0074958583201927814 0.0021060858341025094 0 0.0091480576328049241 0.0014700145326574236 0 0.0076299163047630798 0.0034292639534361756 0 0.0082848453225966463 0.0024652595376145445 0 0.0074958583201927814 0.0021060858341025094 0 0.0074958583201927814 0.0021060858341025094 0 0.0073900737934176246 0.0018143888667308213 0 0.0091480576328049241 0.0014700145326574236 0 0.0076299163047630798 0.0034292639534361756 0 0.0082848453225966463 0.0024652595376145445 0 0.0088869256037852461 0.0028664717414200371 0 0.0075179960730478307 0.0079959292500917829 0 0.0075269709302720348 0.0080292990438267826 0 0.0085799107769759572 0.0015892475566941446 0 0.0091480576328049241 0.0014700145326574236 0 0.0091235773525248556 0.00053761960997398574 0 0.0075269709302720348 0.0080292990438267826 0 0.0079254513264049708 0.0076282887278308403 0 0.0097730166587459855 0.0030213634542170745 0 0.010423691108113694 0.0024792455047078026 0 0.0091480576328049241 0.0014700145326574236 0 0.0097730166587459855 0.0030213634542170745 0 0.0088869256037852461 0.0028664717414200371 0 0.0091480576328049241 0.0014700145326574236 0 0.0082848453225966463 0.0024652595376145445 0 0.0088869256037852461 0.0028664717414200371 0 0.0091480576328049241 0.0014700145326574236 0 0.010423691108113694 0.0024792455047078026 0 0.0091480576328049241 0.0014700145326574236 0 0.010406331915171868 0.0006847886003303323 0 0.010040309444199223 0.00056106052118365759 0 0.009797582880120663 2.2394843400732275e-05 0 0.0091235773525248556 0.00053761960997398574 0 0.010406331915171868 0.0006847886003303323 0 0.009428012688226137 -0.00066674441197678487 0 0.0091480576328049241 0.0014700145326574236 0 0.0091235773525248556 0.00053761960997398574 0 0.010406331915171868 0.0006847886003303323 0 0.0075269709302720348 0.0080292990438267826 0 0.0075969027209180987 0.0050077614859051567 0 0.0084364092693159608 0.0090041206802704919 0 0.0075474048868635433 0.007886811059804882 0 0.0079798085349625739 0.007732047013513911 0 0.0085799107769759572 0.0015892475566941446 0 0.0091235773525248556 0.00053761960997398574 0 0.0083943387184676477 -0.00021385181376228361 0 0.011020093468156904 0.01707996914473588 0 0.0075370498310856826 0.020409580686437986 0 0.0060947695294035608 0.01736002914148891 0 0.0075370498310856826 0.020409580686437986 0 0.010723328203342122 0.021975250287263666 0 0.0059866139364158555 0.023315979930887316 0 0.011020093468156904 0.01707996914473588 0 0.0075370498310856826 0.020409580686437986 0 0.010723328203342122 0.021975250287263666 0 0.0079506016604864466 0.01108688382367619 0 0.0065381425621831189 0.011432307070518668 0 0.0084364092693159608 0.0090041206802704919 0 0.0075474048868635433 0.007886811059804882 0 0.0075746001520149136 0.0093116246064077618 0 0.015554516150703161 0.00075300456185331934 0 0.014269456884506896 -0.00090448365464178748 0 0.013667381436969101 0.0013992801754459884 0 0.014269456884506896 -0.00090448365464178748 0 0.013667381436969101 0.0013992801754459884 0 0.012490303168579285 0.00077389428624871821 0 0.015554516150703161 0.00075300456185331934 0 0.013855366272224105 0.0030375350908955641 0 0.013667381436969101 0.0013992801754459884 0 0.016659960780018541 -0.0078408747042234394 0 0.017090806237605848 -0.012283656866398806 0 0.013202083627303542 0.0029103569151731697 0 0.013667381436969101 0.0013992801754459884 0 0.012520870596865718 0.0019468593676139653 0 0.013855366272224105 0.0030375350908955641 0 0.013202083627303542 0.0029103569151731697 0 0.013667381436969101 0.0013992801754459884 0 0.013667381436969101 0.0013992801754459884 0 0.012490303168579285 0.00077389428624871821 0 0.012520870596865718 0.0019468593676139653 0 0.01195808973779605 0.0030004249859790638 0 0.013202083627303542 0.0029103569151731697 0 0.012520870596865718 0.0019468593676139653 0 0.01195808973779605 0.0030004249859790638 0 0.012520870596865718 0.0019468593676139653 0 0.011301940492689838 0.0015370705040034511 0 0.012490303168579285 0.00077389428624871821 0 0.012520870596865718 0.0019468593676139653 0 0.011301940492689838 0.0015370705040034511 0 0.012490303168579285 0.00077389428624871821 0 0.011301940492689838 0.0015370705040034511 0 0.010400163689057334 -9.2777893737768698e-05 0 0.011499096953359178 -0.0083385494142870983 0 0.010851148589956486 -0.0059415849557881073 0 0.010801374639741807 -0.00041428874067884905 0 0.010400163689057334 -9.2777893737768698e-05 0 0.010515561667212119 -0.00056418437243927302 0 0.014269456884506896 -0.00090448365464178748 0 0.012490303168579285 0.00077389428624871821 0 0.010400163689057334 -9.2777893737768698e-05 0 0.010400163689057334 -9.2777893737768698e-05 0 0.0098947155457119688 0.0016572832758459499 0 0.0096438059276503698 -0.00027999645053657958 0 0.011005313941544855 0.0032423896382584691 0 0.010532403359067808 0.0018265375525473569 0 0.011301940492689838 0.0015370705040034511 0 0.010400163689057334 -9.2777893737768698e-05 0 0.0098947155457119688 0.0016572832758459499 0 0.01195808973779605 0.0030004249859790638 0 0.011301940492689838 0.0015370705040034511 0 0.0098947155457119688 0.0016572832758459499 0 0.011646587365633291 0.0056624911857450239 0 0.011990906581334221 0.0059858782495498921 0 0.011613186974200424 0.0063974508347213977 0 0.011990906581334221 0.0059858782495498921 0 0.011613186974200424 0.0063974508347213977 0 0.011359574976554612 0.005135311095963933 0 0.01010052411135798 0.005188459141200725 0 0.011613186974200424 0.0063974508347213977 0 0.011359574976554612 0.005135311095963933 0 0.011990906581334221 0.0059858782495498921 0 0.011359574976554612 0.005135311095963933 0 0.011869404282986443 0.0035159380358962904 0 0.011359574976554612 0.005135311095963933 0 0.011869404282986443 0.0035159380358962904 0 0.010530560385954298 0.003918492338709439 0 0.01010052411135798 0.005188459141200725 0 0.011359574976554612 0.005135311095963933 0 0.010530560385954298 0.003918492338709439 0 0.010423691108113694 0.0024792455047078026 0 0.011869404282986443 0.0035159380358962904 0 0.010530560385954298 0.003918492338709439 0 0.010423691108113694 0.0024792455047078026 0 0.011869404282986443 0.0035159380358962904 0 0.010406331915171868 0.0006847886003303323 0 0.0096438059276503698 -0.00027999645053657958 0 0.0096482530104689389 -0.00063836494177217727 0 0.010045135098717482 -0.0005802351405552556 0 0.010532403359067808 0.0018265375525473569 0 0.010040309444199223 0.00056106052118365759 0 0.0096482530104689389 -0.00063836494177217727 0 0.0098952349022221296 -0.00074020194629111763 0 0.010045135098717482 -0.0005802351405552556 0 0.0096482530104689389 -0.00063836494177217727 0 0.0098952349022221296 -0.00074020194629111763 0 0.0096786843677018758 -0.00073772753776312177 0 0.0098952349022221296 -0.00074020194629111763 0 0.010045135098717482 -0.0005802351405552556 0 0.010389657372936343 -0.00090928283011077512 0 0.010400163689057334 -9.2777893737768698e-05 0 0.0096438059276503698 -0.00027999645053657958 0 0.010045135098717482 -0.0005802351405552556 0 0.010400163689057334 -9.2777893737768698e-05 0 0.010045135098717482 -0.0005802351405552556 0 0.010515561667212119 -0.00056418437243927302 0 0.010045135098717482 -0.0005802351405552556 0 0.010515561667212119 -0.00056418437243927302 0 0.010389657372936343 -0.00090928283011077512 0 0.010515561667212119 -0.00056418437243927302 0 0.010389657372936343 -0.00090928283011077512 0 0.010852578805203241 -0.00084386436576942066 0 0.010665207307179549 -0.00080876762295486494 0 0.010852578805203241 -0.00084386436576942066 0 0.010931542578623749 -0.001102407293011797 0 0.010360719728802486 -0.00078950506641495939 0 0.010537219480579386 -0.00074229098399828633 0 0.010801374639741807 -0.00041428874067884905 0 0.010515561667212119 -0.00056418437243927302 0 0.010852578805203241 -0.00084386436576942066 0 0.01099868866959724 -0.00078407270282470232 0 0.010801374639741807 -0.00041428874067884905 0 0.010852578805203241 -0.00084386436576942066 0 0.011198878248147285 -0.0011386708676223748 0 0.010931542578623749 -0.001102407293011797 0 0.010677564171435 -0.0011372767013263386 0 0.010966603100062991 -0.0011645757907978015 0 0.010852578805203241 -0.00084386436576942066 0 0.010931542578623749 -0.001102407293011797 0 0.010665207307179549 -0.00080876762295486494 0 0.010931542578623749 -0.001102407293011797 0 0.010677564171435 -0.0011372767013263386 0 0.010677564171435 -0.0011372767013263386 0 0.010125790014281497 -0.00075705433118905519 0 0.0099042089839622063 -0.0011476581923077118 0 0.010360719728802486 -0.00078950506641495939 0 0.009979905284728299 -0.00088535734774387626 0 0.0098952349022221296 -0.00074020194629111763 0 0.010389657372936343 -0.00090928283011077512 0 0.0099146149853012022 -0.00093376859863685587 0 0.010665207307179549 -0.00080876762295486494 0 0.010677564171435 -0.0011372767013263386 0 0.010125790014281497 -0.00075705433118905519 0 0.0099146149853012022 -0.00093376859863685587 0 0.0096786843677018758 -0.00073772753776312177 0 0.0095064098497538128 -0.00095302477635206967 0 0.0098952349022221296 -0.00074020194629111763 0 0.0099146149853012022 -0.00093376859863685587 0 0.0096786843677018758 -0.00073772753776312177 0 0.0099042089839622063 -0.0011476581923077118 0 0.0093778047920734676 -0.00093410550013056084 0 0.0092563389450335889 -0.0014464706678271951 0 0.010125790014281497 -0.00075705433118905519 0 0.0099042089839622063 -0.0011476581923077118 0 0.0093778047920734676 -0.00093410550013056084 0 0.009979905284728299 -0.00088535734774387626 0 0.0095606089822733494 -0.0010056931092184589 0 0.0099042089839622063 -0.0011476581923077118 0 0.0098543122883645029 -0.0016917269344747714 0 0.0092563389450335889 -0.0014464706678271951 0 0.0094066926443451479 -0.0020343641105936773 0 0.0094907276345838829 -0.0028809031731984415 0 0.0091784706050125758 -0.0021104496856897545 0 0.0094066926443451479 -0.0020343641105936773 0 0.0098543122883645029 -0.0016917269344747714 0 0.0094907276345838829 -0.0028809031731984415 0 0.0094066926443451479 -0.0020343641105936773 0 0.0098543122883645029 -0.0016917269344747714 0 0.0092563389450335889 -0.0014464706678271951 0 0.0098543122883645029 -0.0016917269344747714 0 0.011146698063786474 -0.0016380845816650765 0 0.010361454169827367 -0.0031898428055349248 0 0.0098543122883645029 -0.0016917269344747714 0 0.010361454169827367 -0.0031898428055349248 0 0.0094907276345838829 -0.0028809031731984415 0 0.010677564171435 -0.0011372767013263386 0 0.0099042089839622063 -0.0011476581923077118 0 0.0098543122883645029 -0.0016917269344747714 0 0.010677564171435 -0.0011372767013263386 0 0.0098543122883645029 -0.0016917269344747714 0 0.011146698063786474 -0.0016380845816650765 0 0.014195112610823169 -0.0022810456996259893 0 0.011146698063786474 -0.0016380845816650765 0 0.012524310877959223 -0.0039180891452688816 0 0.014195112610823169 -0.0022810456996259893 0 0.014052157179749723 0.0010972039392596463 0 0.011146698063786474 -0.0016380845816650765 0 0.011198878248147285 -0.0011386708676223748 0 0.010677564171435 -0.0011372767013263386 0 0.011146698063786474 -0.0016380845816650765 0 0.018104028345259465 -0.013068526383676416 0 0.01739778607021147 -0.0089517747805357203 0 0.008636204631275549 -0.00096367662576265503 0 0.0083943387184676477 -0.00021385181376228361 0 0.0087116952857022971 -0.00086769229068756613 0 0.0087116952857022971 -0.00086769229068756613 0 0.0088314016691319573 -0.0010482736171480446 0 0.0086891375084475631 -0.00098511814094156235 0 0.008636204631275549 -0.00096367662576265503 0 0.0087116952857022971 -0.00086769229068756613 0 0.0086891375084475631 -0.00098511814094156235 0 0.0081603093018826258 0.005328629765555609 0 0.0081611983500447637 0.0051091762797866392 0 0.0078257539851096999 0.013717566280109516 0 0.0076486959821549837 0.0068429484997677226 0 0.0047128048955939941 0.011468303502635507 0 0.012127494316594696 0.0099455295119715535 0 0.0078257539851096999 0.013717566280109516 0 0.0076486959821549837 0.0068429484997677226 0 0.011020093468156904 0.01707996914473588 0 0.0078257539851096999 0.013717566280109516 0 0.0060947695294035608 0.01736002914148891 0 0.0081603093018826258 0.005328629765555609 0 0.0075969027209180987 0.0050077614859051567 0 0.0075474048868635433 0.007886811059804882 0 0.0075307339485434811 0.0064460111743884392 0 0.0079798085349625739 0.007732047013513911 0 0.0079506016604864466 0.01108688382367619 0 0.0081603093018826258 0.005328629765555609 0 0.011020093468156904 0.01707996914473588 0 0.012127494316594696 0.0099455295119715535 0 0.0078257539851096999 0.013717566280109516 0 0.0091235773525248556 0.00053761960997398574 0 0.0083943387184676477 -0.00021385181376228361 0 0.009428012688226137 -0.00066674441197678487 0 0.0083943387184676477 -0.00021385181376228361 0 0.009428012688226137 -0.00066674441197678487 0 0.0090158711526290049 -0.00081509758072602692 0 0.0083943387184676477 -0.00021385181376228361 0 0.0090158711526290049 -0.00081509758072602692 0 0.0087116952857022971 -0.00086769229068756613 0 0.0096786843677018758 -0.00073772753776312177 0 0.009428012688226137 -0.00066674441197678487 0 0.0095064098497538128 -0.00095302477635206967 0 0.0096482530104689389 -0.00063836494177217727 0 0.0096786843677018758 -0.00073772753776312177 0 0.009428012688226137 -0.00066674441197678487 0 0.0095606089822733494 -0.0010056931092184589 0 0.0093237773236734024 -0.0010847396115387634 0 0.0095064098497538128 -0.00095302477635206967 0 0.0090158711526290049 -0.00081509758072602692 0 0.0088314016691319573 -0.0010482736171480446 0 0.009428012688226137 -0.00066674441197678487 0 0.0095064098497538128 -0.00095302477635206967 0 0.0090158711526290049 -0.00081509758072602692 0 0.0090158711526290049 -0.00081509758072602692 0 0.0087116952857022971 -0.00086769229068756613 0 0.0088314016691319573 -0.0010482736171480446 0 0.0088314016691319573 -0.0010482736171480446 0 0.0089563986614229589 -0.0014317321054008207 0 0.0087003181291780227 -0.00083021962339189462 0 0.0088314016691319573 -0.0010482736171480446 0 0.0092563389450335889 -0.0014464706678271951 0 0.0089563986614229589 -0.0014317321054008207 0 0.0093778047920734676 -0.00093410550013056084 0 0.0088314016691319573 -0.0010482736171480446 0 0.0092563389450335889 -0.0014464706678271951 0 0.0092563389450335889 -0.0014464706678271951 0 0.0089563986614229589 -0.0014317321054008207 0 0.0091784706050125758 -0.0021104496856897545 0 0.0094066926443451479 -0.0020343641105936773 0 0.0092563389450335889 -0.0014464706678271951 0 0.0091784706050125758 -0.0021104496856897545 0 0.0089563986614229589 -0.0014317321054008207 0 0.0091784706050125758 -0.0021104496856897545 0 0.0090092080203721132 -0.0021788545205557487 0 0.0089563986614229589 -0.0014317321054008207 0 0.0088617696811932635 -0.0014021337308729475 0 0.0090092080203721132 -0.0021788545205557487 0 0.0089563986614229589 -0.0014317321054008207 0 0.0088617696811932635 -0.0014021337308729475 0 0.0087003181291780227 -0.00083021962339189462 0 0.0088617696811932635 -0.0014021337308729475 0 0.008695321763903939 0.00038566623958636301 0 0.0086907149118046773 -0.0018852227131080342 0 0.0088617696811932635 -0.0014021337308729475 0 0.0087003181291780227 -0.00083021962339189462 0 0.008695321763903939 0.00038566623958636301 0 0.008783841877567318 -0.0013013207225345798 0 0.0086891375084475631 -0.00098511814094156235 0 0.008695321763903939 0.00038566623958636301 0 0.0088314016691319573 -0.0010482736171480446 0 0.0087003181291780227 -0.00083021962339189462 0 0.0086891375084475631 -0.00098511814094156235 0 0.0081603093018826258 0.005328629765555609 0 0.0079648846360733227 0.0032128292396810345 0 0.0087003181291780227 -0.00083021962339189462 0 0.0086891375084475631 -0.00098511814094156235 0 0.008695321763903939 0.00038566623958636301 0 0.012127494316594696 0.0099455295119715535 0 0.0076486959821549837 0.0068429484997677226 0 0.008695321763903939 0.00038566623958636301 0 0.0076486959821549837 0.0068429484997677226 0 0.008695321763903939 0.00038566623958636301 0 0.003819851255912189 0.002323967872766888 0 0.008695321763903939 0.00038566623958636301 0 0.003819851255912189 0.002323967872766888 0 0.006507195787877262 -0.0011034271944717819 0 0.004273917422008419 0.0099098157344155256 0 0.0031590979719286869 0.0088358034545175154 0 0.0042496030887674546 0.0079320228859086645 0 0.0036073601575529481 0.0058069161547212329 0 0.0031696119984671936 0.0021158311977714011 0 0.003819851255912189 0.002323967872766888 0 0.004722239366186016 -0.0029442839228049512 0 0.006507195787877262 -0.0011034271944717819 0 0.004273917422008419 0.0099098157344155256 0 0.0031590979719286869 0.0088358034545175154 0 0.0031347689614869417 0.0098490799624222341 0 0.0020454870120462346 0.0095918791826811994 0 0.0031347689614869417 0.0098490799624222341 0 0.0030347087633445361 0.010865504533176201 0 0.0031590979719286869 0.0088358034545175154 0 0.0020454870120462346 0.0095918791826811994 0 0.0019950217956077407 0.0082376413813489719 0 0.0031590979719286869 0.0088358034545175154 0 0.0020454870120462346 0.0095918791826811994 0 0.0031347689614869417 0.0098490799624222341 0 0.0030347087633445361 0.010865504533176201 0 0.0012836398296098401 0.010827706196980329 0 0.001759814272481294 0.01317554086764605 0 0.0020454870120462346 0.0095918791826811994 0 0.0030347087633445361 0.010865504533176201 0 0.0012836398296098401 0.010827706196980329 0 0.0076486959821549837 0.0068429484997677226 0 0.003819851255912189 0.002323967872766888 0 0.0047128048955939941 0.011468303502635507 0 0.0036073601575529481 0.0058069161547212329 0 0.0037618797076590851 0.0078875702599676186 0 0.004273917422008419 0.0099098157344155256 0 0.0031347689614869417 0.0098490799624222341 0 0.0030347087633445361 0.010865504533176201 0 0.004273917422008419 0.0099098157344155256 0 0.0030347087633445361 0.010865504533176201 0 0.0047128048955939941 0.011468303502635507 0 -0.00037398293496386915 0.0093097745389644875 0 -0.00025844788898856248 0.0105250103540501 0 -0.0010311696809434325 0.0098704219362423899 0 -0.00037398293496386915 0.0093097745389644875 0 0.00073571741907970029 0.0098732321459652911 0 0.00089369442035621934 0.0087914043206879598 0 -0.00037398293496386915 0.0093097745389644875 0 0.00073571741907970029 0.0098732321459652911 0 -0.00025844788898856248 0.0105250103540501 0 0.0020454870120462346 0.0095918791826811994 0 0.00089369442035621934 0.0087914043206879598 0 0.0019950217956077407 0.0082376413813489719 0 0.0020454870120462346 0.0095918791826811994 0 0.00073571741907970029 0.0098732321459652911 0 0.00089369442035621934 0.0087914043206879598 0 0.0020454870120462346 0.0095918791826811994 0 0.00073571741907970029 0.0098732321459652911 0 0.0012836398296098401 0.010827706196980329 0 0.00055251842881588959 0.011690761556399171 0 0.0012836398296098401 0.010827706196980329 0 -0.00025844788898856248 0.0105250103540501 0 0.00073571741907970029 0.0098732321459652911 0 0.0012836398296098401 0.010827706196980329 0 -0.00025844788898856248 0.0105250103540501 0 0.00055251842881588959 0.011690761556399171 0 0.0012836398296098401 0.010827706196980329 0 0.001759814272481294 0.01317554086764605 0 -0.00025844788898856248 0.0105250103540501 0 -0.00046751497659764291 0.012359891506680102 0 -0.0028481501062927747 0.011865811886768135 0 0.00055251842881588959 0.011690761556399171 0 -0.00025844788898856248 0.0105250103540501 0 -0.00046751497659764291 0.012359891506680102 0 -0.00025844788898856248 0.0105250103540501 0 -0.0012189341697480072 0.010522210113351827 0 -0.0010311696809434325 0.0098704219362423899 0 -0.0037539635028234759 0.014519373154881578 0 -0.0023027541798268524 0.012547473421513239 0 -0.0011057210535173967 0.014720782438383503 0 -0.0023027541798268524 0.012547473421513239 0 0.001759814272481294 0.01317554086764605 0 -0.0011057210535173967 0.014720782438383503 0 -0.0014200613583216137 0.013006489881562309 0 -0.00019192729087518594 0.013163269837078852 0 0.00055251842881588959 0.011690761556399171 0 -0.00046751497659764291 0.012359891506680102 0 0.001759814272481294 0.01317554086764605 0 0.001759814272481294 0.01317554086764605 0 -0.0002493035947827474 0.017597042352871187 0 -0.0011057210535173967 0.014720782438383503 0 0.001759814272481294 0.01317554086764605 0 -0.0002493035947827474 0.017597042352871187 0 0.0023516446926512792 0.017585341094011421 0 -0.0037539635028234759 0.014519373154881578 0 -0.0002493035947827474 0.017597042352871187 0 -0.0011057210535173967 0.014720782438383503 0 -0.001801350572267144 0.014846390070797947 0 -0.0010652433675058229 0.015763151245494867 0 -0.0013232770167366269 0.017507097254745647 0 -0.0002493035947827474 0.017597042352871187 0 -0.0015503682975709808 0.018834743894512132 0 0.0030347087633445361 0.010865504533176201 0 0.0047128048955939941 0.011468303502635507 0 0.0035680252341033858 0.014424124458055408 0 0.0078257539851096999 0.013717566280109516 0 0.0047128048955939941 0.011468303502635507 0 0.0035680252341033858 0.014424124458055408 0 0.0030347087633445361 0.010865504533176201 0 0.001759814272481294 0.01317554086764605 0 0.0035680252341033858 0.014424124458055408 0 0.001759814272481294 0.01317554086764605 0 0.0035680252341033858 0.014424124458055408 0 0.0023516446926512792 0.017585341094011421 0 0.0078257539851096999 0.013717566280109516 0 0.0035680252341033858 0.014424124458055408 0 0.0060947695294035608 0.01736002914148891 0 0.0035680252341033858 0.014424124458055408 0 0.0060947695294035608 0.01736002914148891 0 0.0023516446926512792 0.017585341094011421 0 0.0075370498310856826 0.020409580686437986 0 0.0060947695294035608 0.01736002914148891 0 0.0042996811462809262 0.020328059130438295 0 0.0060947695294035608 0.01736002914148891 0 0.0042996811462809262 0.020328059130438295 0 0.0023516446926512792 0.017585341094011421 0 0.0075370498310856826 0.020409580686437986 0 0.0042996811462809262 0.020328059130438295 0 0.0059866139364158555 0.023315979930887316 0 0.0042996811462809262 0.020328059130438295 0 0.0019389428530802715 0.020558740447648157 0 0.002331132207342157 0.022400535090904179 0 0.0042996811462809262 0.020328059130438295 0 0.0019389428530802715 0.020558740447648157 0 0.0023516446926512792 0.017585341094011421 0 0.0019389428530802715 0.020558740447648157 0 0.0023516446926512792 0.017585341094011421 0 -0.00019426136515209605 0.019889219753044616 0 -0.0002493035947827474 0.017597042352871187 0 0.0023516446926512792 0.017585341094011421 0 -0.00019426136515209605 0.019889219753044616 0 -0.0002493035947827474 0.017597042352871187 0 -0.00019426136515209605 0.019889219753044616 0 -0.0015503682975709808 0.018834743894512132 0 -0.00019426136515209605 0.019889219753044616 0 -0.0018870922768409639 0.020841766126763216 0 -0.0015503682975709808 0.018834743894512132 0 -0.00019426136515209605 0.019889219753044616 0 -0.0009733971513628568 0.021996417266566246 0 -0.0018870922768409639 0.020841766126763216 0 -0.00019426136515209605 0.019889219753044616 0 0.00063030677448324226 0.022017877076964201 0 -0.0009733971513628568 0.021996417266566246 0 0.0019389428530802715 0.020558740447648157 0 -0.00019426136515209605 0.019889219753044616 0 0.00063030677448324226 0.022017877076964201 0 0.0019389428530802715 0.020558740447648157 0 0.00063030677448324226 0.022017877076964201 0 0.002331132207342157 0.022400535090904179 0 0.00063030677448324226 0.022017877076964201 0 -0.00039001568397975848 0.023256351785261371 0 0.0013785617848257787 0.023933415501603418 0 0.00063030677448324226 0.022017877076964201 0 0.0013785617848257787 0.023933415501603418 0 0.002331132207342157 0.022400535090904179 0 0.0018439423526715329 0.024188301876122021 0 0.0013785617848257787 0.023933415501603418 0 0.002331132207342157 0.022400535090904179 0 0.00063030677448324226 0.022017877076964201 0 -0.0009733971513628568 0.021996417266566246 0 -0.00039001568397975848 0.023256351785261371 0 -0.0009733971513628568 0.021996417266566246 0 -0.00039001568397975848 0.023256351785261371 0 -0.0016294150403999006 0.023651561017011935 0 -0.00039001568397975848 0.023256351785261371 0 -0.0011394151281420358 0.024454676812229154 0 -0.0016294150403999006 0.023651561017011935 0 0.0030995534340510049 0.018335026070230527 0 0.0041523914933625028 0.016924127145762472 0 -0.0011394151281420358 0.024454676812229154 0 0.0017777502373805896 0.02413073474199267 0 0.0013785617848257787 0.023933415501603418 0 0.0060496947440536472 0.015626027006320344 0 0.0065620426441472006 0.01589844933282639 0 0.0058075106254277618 0.016257452546936141 0 -0.00039001568397975848 0.023256351785261371 0 -0.0011394151281420358 0.024454676812229154 0 0.0013785617848257787 0.023933415501603418 0 0.0041523914933625028 0.016924127145762472 0 0.0041402506029401716 0.016961261808779583 0 0.0054141409565622222 0.015606361938673723 0 0.0058075106254277618 0.016257452546936141 0 0.0047680748757582634 0.015902237055293183 0 0.0041523914933625028 0.016924127145762472 0 0.0047670271192744558 0.014961387978264738 0 0.0054141409565622222 0.015606361938673723 0 0.0060496947440536472 0.015626027006320344 0 0.0058075106254277618 0.016257452546936141 0 0.0046641552239533608 0.014164249099018414 0 0.0049322291768148291 0.014253879138192616 0 0.0049272487252597485 0.014063095335097541 0 0.0042996811462809262 0.020328059130438295 0 0.0059866139364158555 0.023315979930887316 0 0.002331132207342157 0.022400535090904179 0 0.0018439423526715329 0.024188301876122021 0 0.0059866139364158555 0.023315979930887316 0 0.002331132207342157 0.022400535090904179 0 0.0041523914933625028 0.016924127145762472 0 0.004907011565507222 0.015566436911627443 0 -0.0036210472260035801 0.023787205890445022 0 -0.006247650091531747 0.022598137176270114 0 -0.0047641103064967067 0.021907251743702186 0 -0.0040502803680173899 0.024349390425067764 0 -0.0048572274551403399 0.024283437198008021 0 -0.0036210472260035801 0.023787205890445022 0 -0.0034009703474031892 0.024755229365914913 0 -0.0028558880927432194 0.024168930532828127 0 -0.003627219137151525 0.025937373020827267 0 -0.0034898060626242316 0.025655930701074827 0 -0.0037204808848789925 0.026704887997756586 0 -0.0036210472260035801 0.023787205890445022 0 -0.003627219137151525 0.025937373020827267 0 -0.0034898060626242316 0.025655930701074827 0 -0.0033025864939813573 0.025565321831373163 0 -0.00346632462405371 0.025212177968593166 0 -0.0034898060626242316 0.025655930701074827 0 -0.0036153605535878424 0.027653347971395008 0 -0.0034898060626242316 0.025655930701074827 0 -0.0037204808848789925 0.026704887997756586 0 -0.00099677193412136232 0.025994135656292355 0 -0.0017903271114177702 0.026371417995102033 0 -0.00346632462405371 0.025212177968593166 0 -0.0034898060626242316 0.025655930701074827 0 -0.0034009703474031892 0.024755229365914913 0 -0.0036210472260035801 0.023787205890445022 0 -0.0034898060626242316 0.025655930701074827 0 -0.0034009703474031892 0.024755229365914913 0 -0.00346632462405371 0.025212177968593166 0 -0.0034009703474031892 0.024755229365914913 0 -0.0028558880927432194 0.024168930532828127 0 -0.0019819717980817729 0.023806415563385894 0 -0.00346632462405371 0.025212177968593166 0 -0.002587182687909978 0.024232379163199036 0 -0.00346632462405371 0.025212177968593166 0 -0.002587182687909978 0.024232379163199036 0 -0.0028558880927432194 0.024168930532828127 0 -0.0019819717980817729 0.023806415563385894 0 -0.002587182687909978 0.024232379163199036 0 -0.0021406966024840046 0.023828684393179644 0 -0.002587182687909978 0.024232379163199036 0 -0.0028558880927432194 0.024168930532828127 0 -0.0021406966024840046 0.023828684393179644 0 -0.0028558880927432194 0.024168930532828127 0 -0.0021406966024840046 0.023828684393179644 0 -0.0021801586884660842 0.023094677113810788 0 -0.0019819717980817729 0.023806415563385894 0 -0.0011394151281420358 0.024454676812229154 0 -0.0016294150403999006 0.023651561017011935 0 0.0034636199578079287 0.01832353084685568 0 0.0030995534340510049 0.018335026070230527 0 -0.0019819717980817729 0.023806415563385894 0 -0.0021406966024840046 0.023828684393179644 0 -0.0016294150403999006 0.023651561017011935 0 -0.0009733971513628568 0.021996417266566246 0 -0.0016294150403999006 0.023651561017011935 0 -0.0021801586884660842 0.023094677113810788 0 -0.0021406966024840046 0.023828684393179644 0 -0.0016294150403999006 0.023651561017011935 0 -0.0021801586884660842 0.023094677113810788 0 -0.0036210472260035801 0.023787205890445022 0 -0.0021801586884660842 0.023094677113810788 0 -0.0032264246999155069 0.02164938349666801 0 -0.0036210472260035801 0.023787205890445022 0 -0.0028558880927432194 0.024168930532828127 0 -0.0021801586884660842 0.023094677113810788 0 -0.0021801586884660842 0.023094677113810788 0 -0.0032264246999155069 0.02164938349666801 0 -0.0018870922768409639 0.020841766126763216 0 -0.0032264246999155069 0.02164938349666801 0 -0.0018870922768409639 0.020841766126763216 0 -0.0028875214454083874 0.019803495418394535 0 -0.0009733971513628568 0.021996417266566246 0 -0.0021801586884660842 0.023094677113810788 0 -0.0018870922768409639 0.020841766126763216 0 -0.0018870922768409639 0.020841766126763216 0 -0.0015503682975709808 0.018834743894512132 0 -0.0028875214454083874 0.019803495418394535 0 -0.0015503682975709808 0.018834743894512132 0 -0.0028875214454083874 0.019803495418394535 0 -0.0027349555894013722 0.018216640333473838 0 -0.0032264246999155069 0.02164938349666801 0 -0.0028875214454083874 0.019803495418394535 0 -0.0046133690186324367 0.020432622359881723 0 -0.0028875214454083874 0.019803495418394535 0 -0.0046133690186324367 0.020432622359881723 0 -0.0039843540484736841 0.018999189972094793 0 -0.0046133690186324367 0.020432622359881723 0 -0.0052412634696041059 0.019131662014451833 0 -0.0039843540484736841 0.018999189972094793 0 -0.0036210472260035801 0.023787205890445022 0 -0.0032264246999155069 0.02164938349666801 0 -0.0047641103064967067 0.021907251743702186 0 -0.0032264246999155069 0.02164938349666801 0 -0.0046133690186324367 0.020432622359881723 0 -0.0047641103064967067 0.021907251743702186 0 -0.0046133690186324367 0.020432622359881723 0 -0.0047641103064967067 0.021907251743702186 0 -0.0059279888173438527 0.021249179311268681 0 -0.006247650091531747 0.022598137176270114 0 -0.0059279888173438527 0.021249179311268681 0 -0.0071355749094305634 0.021040269244141301 0 -0.006247650091531747 0.022598137176270114 0 -0.0047641103064967067 0.021907251743702186 0 -0.0059279888173438527 0.021249179311268681 0 -0.0059279888173438527 0.021249179311268681 0 -0.0060082667289922979 0.020101446276303402 0 -0.0071355749094305634 0.021040269244141301 0 -0.0046133690186324367 0.020432622359881723 0 -0.0059279888173438527 0.021249179311268681 0 -0.0060082667289922979 0.020101446276303402 0 -0.0046133690186324367 0.020432622359881723 0 -0.0060082667289922979 0.020101446276303402 0 -0.0052412634696041059 0.019131662014451833 0 -0.0060082667289922979 0.020101446276303402 0 -0.0052412634696041059 0.019131662014451833 0 -0.0067020842495588741 0.018707645464388255 0 -0.004248004362375251 0.014711301486577661 0 -0.0050313814438027798 0.01453620849976023 0 -0.0052024271796685352 0.01522405018881115 0 -0.0052412634696041059 0.019131662014451833 0 -0.0045013161190207412 0.017482067318442252 0 -0.0067020842495588741 0.018707645464388255 0 -0.0045614290916890458 0.015468829733538501 0 -0.0061226512960173476 0.017063338563481748 0 -0.0054543675886460346 0.014913607748620331 0 -0.0061226512960173476 0.017063338563481748 0 -0.0052412634696041059 0.019131662014451833 0 -0.0039843540484736841 0.018999189972094793 0 -0.0045013161190207412 0.017482067318442252 0 -0.004248004362375251 0.014711301486577661 0 -0.0045597780702101905 0.014277092696987043 0 -0.0040991841739277564 0.014009628597712504 0 -0.0046523465280372276 0.015523719910681374 0 -0.0040743556250419678 0.013124238137652785 0 -0.0063491361854436552 0.014694623863937524 0 -0.0050313814438027798 0.01453620849976023 0 -0.0045597780702101905 0.014277092696987043 0 -0.0048610730601993096 0.013851351858502137 0 -0.004248004362375251 0.014711301486577661 0 -0.0050313814438027798 0.01453620849976023 0 -0.0045597780702101905 0.014277092696987043 0 -0.0054543675886460346 0.014913607748620331 0 -0.0049442673757318879 0.012749231927965628 0 -0.0013232770167366269 0.017507097254745647 0 -0.0015503682975709808 0.018834743894512132 0 -0.0027349555894013722 0.018216640333473838 0 -0.0028875214454083874 0.019803495418394535 0 -0.0039843540484736841 0.018999189972094793 0 -0.0027349555894013722 0.018216640333473838 0 -0.0039843540484736841 0.018999189972094793 0 -0.0045013161190207412 0.017482067318442252 0 -0.0027349555894013722 0.018216640333473838 0 -0.0045614290916890458 0.015468829733538501 0 -0.0025845466023632097 0.013124791156403427 0 -0.004248004362375251 0.014711301486577661 0 -0.0032579021569340014 0.014181490363896548 0 -0.003336577292866863 0.014165489628276759 0 -0.0045013161190207412 0.017482067318442252 0 -0.0027349555894013722 0.018216640333473838 0 -0.0024748519211654071 0.016392525545937661 0 -0.004248004362375251 0.014711301486577661 0 -0.003336577292866863 0.014165489628276759 0 -0.0040991841739277564 0.014009628597712504 0 -0.0014200613583216137 0.013006489881562309 0 -0.0025845466023632097 0.013124791156403427 0 -0.0037539635028234759 0.014519373154881578 0 -0.0023027541798268524 0.012547473421513239 0 -0.0067305202420338125 0.011618876203252011 0 -0.0013232770167366269 0.017507097254745647 0 -0.0027349555894013722 0.018216640333473838 0 -0.0024748519211654071 0.016392525545937661 0 -0.001801350572267144 0.014846390070797947 0 -0.0025845466023632097 0.013124791156403427 0 -0.00025844788898856248 0.0105250103540501 0 -0.0018616815071062116 0.01131911238541889 0 -0.0012189341697480072 0.010522210113351827 0 -0.0012551726848033619 0.012072404305911172 0 -0.0025845466023632097 0.013124791156403427 0 -0.0018616815071062116 0.01131911238541889 0 -0.0012189341697480072 0.010522210113351827 0 -0.001889137034266678 0.01093064373108726 0 -0.0012189341697480072 0.010522210113351827 0 -0.0016998988347461151 0.010446976411836662 0 -0.0016329668547999511 0.0099835019447548808 0 -0.0012189341697480072 0.010522210113351827 0 -0.001889137034266678 0.01093064373108726 0 -0.0016998988347461151 0.010446976411836662 0 -0.0020258045378214358 0.011286103122188687 0 -0.0028416213562751755 0.010558181048410338 0 -0.0031946216037212864 0.011036843665228354 0 -0.0027309829208348995 0.01298727888731439 0 -0.0037780250966123114 0.012828611948712224 0 -0.001889137034266678 0.01093064373108726 0 -0.0016998988347461151 0.010446976411836662 0 -0.0022611205152860518 0.010240574494349678 0 -0.001889137034266678 0.01093064373108726 0 -0.0028322518727719641 0.010543396206082165 0 -0.0022611205152860518 0.010240574494349678 0 -0.001889137034266678 0.01093064373108726 0 -0.0019848086317078607 0.011292717784642662 0 -0.0028322518727719641 0.010543396206082165 0 -0.0018616815071062116 0.01131911238541889 0 -0.001889137034266678 0.01093064373108726 0 -0.0019848086317078607 0.011292717784642662 0 -0.0025845466023632097 0.013124791156403427 0 -0.0027309829208348995 0.01298727888731439 0 -0.0027309829208348995 0.01298727888731439 0 -0.0032693789454894939 0.01187500147524009 0 -0.0028322518727719641 0.010543396206082165 0 -0.0022611205152860518 0.010240574494349678 0 -0.0029690985429580664 0.0098645364703893196 0 -0.0025995807390370353 0.009450820450063185 0 -0.0022611205152860518 0.010240574494349678 0 -0.0029690985429580664 0.0098645364703893196 0 -0.0025995807390370353 0.009450820450063185 0 -0.0020451844001746662 0.0097039191606589238 0 -0.0022611205152860518 0.010240574494349678 0 -0.0025995807390370353 0.009450820450063185 0 -0.0020451844001746662 0.0097039191606589238 0 -0.0015887359365145222 0.0091058537472693043 0 -0.0020451844001746662 0.0097039191606589238 0 -0.0022611205152860518 0.010240574494349678 0 -0.0016329668547999511 0.0099835019447548808 0 -0.00037398293496386915 0.0093097745389644875 0 -0.0010311696809434325 0.0098704219362423899 0 -0.0015887359365145222 0.0091058537472693043 0 -0.0016998988347461151 0.010446976411836662 0 -0.0022611205152860518 0.010240574494349678 0 -0.0016329668547999511 0.0099835019447548808 0 -0.0016329668547999511 0.0099835019447548808 0 -0.0010311696809434325 0.0098704219362423899 0 -0.0015887359365145222 0.0091058537472693043 0 -0.0020451844001746662 0.0097039191606589238 0 -0.0016329668547999511 0.0099835019447548808 0 -0.0015887359365145222 0.0091058537472693043 0 -0.0012189341697480072 0.010522210113351827 0 -0.0016329668547999511 0.0099835019447548808 0 -0.0010311696809434325 0.0098704219362423899 0 -0.0045597780702101905 0.014277092696987043 0 -0.0048610730601993096 0.013851351858502137 0 -0.0040991841739277564 0.014009628597712504 0 -0.0043668899853676873 0.010789654462716949 0 -0.0031946216037212864 0.011036843665228354 0 -0.0034814912610881873 0.010453462159252485 0 -0.0049442673757318879 0.012749231927965628 0 -0.0037780250966123114 0.012828611948712224 0 -0.0028416213562751755 0.010558181048410338 0 -0.0031946216037212864 0.011036843665228354 0 -0.0034814912610881873 0.010453462159252485 0 -0.0043668899853676873 0.010789654462716949 0 -0.0034814912610881873 0.010453462159252485 0 -0.0036607234978666883 0.009826285124959977 0 -0.0028322518727719641 0.010543396206082165 0 -0.0029690985429580664 0.0098645364703893196 0 -0.0036607234978666883 0.009826285124959977 0 -0.0028416213562751755 0.010558181048410338 0 -0.0034814912610881873 0.010453462159252485 0 -0.0036607234978666883 0.009826285124959977 0 -0.0032693789454894939 0.01187500147524009 0 -0.0035329553286979985 0.011446829912054285 0 -0.0025995807390370353 0.009450820450063185 0 -0.0029690985429580664 0.0098645364703893196 0 -0.0033498907742334689 0.0091262289663572548 0 -0.0029690985429580664 0.0098645364703893196 0 -0.0036607234978666883 0.009826285124959977 0 -0.0033498907742334689 0.0091262289663572548 0 -0.0036607234978666883 0.009826285124959977 0 -0.0040289918273905259 0.0094604035966809226 0 -0.0033498907742334689 0.0091262289663572548 0 -0.0046735170983273787 0.012953574373020832 0 -0.0041628741407228912 0.010607122188415311 0 -0.0059069716021815117 0.010867150632920033 0 -0.0043668899853676873 0.010789654462716949 0 -0.0036607234978666883 0.009826285124959977 0 -0.0040289918273905259 0.0094604035966809226 0 -0.0049442673757318879 0.012749231927965628 0 -0.0043711914899385316 0.010631287836877439 0 -0.0041628741407228912 0.010607122188415311 0 -0.0051649036332346663 0.009353293759075355 0 -0.0059069716021815117 0.010867150632920033 0 -0.0041628741407228912 0.010607122188415311 0 -0.0051649036332346663 0.009353293759075355 0 -0.0038074739136354893 0.0082450367581141434 0 -0.0043711914899385316 0.010631287836877439 0 -0.0041442940664091991 0.0097318770322407568 0 -0.0033498907742334689 0.0091262289663572548 0 -0.0038074739136354893 0.0082450367581141434 0 -0.0024558544973426475 0.0086005050776126104 0 -0.0040289918273905259 0.0094604035966809226 0 -0.0033498907742334689 0.0091262289663572548 0 -0.0038074739136354893 0.0082450367581141434 0 -0.0038074739136354893 0.0082450367581141434 0 -0.002699022013229592 0.006608934615478174 0 -0.002390247897903344 0.0076879687781747459 0 -0.0051649036332346663 0.009353293759075355 0 -0.0038074739136354893 0.0082450367581141434 0 -0.0054611413396610945 0.0079765126711008986 0 -0.0038074739136354893 0.0082450367581141434 0 -0.0054611413396610945 0.0079765126711008986 0 -0.0048987200256968687 0.0069019376413358658 0 -0.0048987200256968687 0.0069019376413358658 0 -0.0037624445833476308 0.006029609747429456 0 -0.0052921896179421507 0.0055365630153471034 0 -0.0048987200256968687 0.0069019376413358658 0 -0.0052921896179421507 0.0055365630153471034 0 -0.0062065143353248657 0.0067712595451998488 0 -0.0054611413396610945 0.0079765126711008986 0 -0.0048987200256968687 0.0069019376413358658 0 -0.0062065143353248657 0.0067712595451998488 0 -0.0038074739136354893 0.0082450367581141434 0 -0.0048987200256968687 0.0069019376413358658 0 -0.0037624445833476308 0.006029609747429456 0 -0.0038074739136354893 0.0082450367581141434 0 -0.0037624445833476308 0.006029609747429456 0 -0.002699022013229592 0.006608934615478174 0 -0.0037624445833476308 0.006029609747429456 0 -0.002699022013229592 0.006608934615478174 0 -0.00239851459678001 0.0042209127724614744 0 -0.0037624445833476308 0.006029609747429456 0 -0.0042454972477887426 0.004503245884318682 0 -0.00239851459678001 0.0042209127724614744 0 -0.0037624445833476308 0.006029609747429456 0 -0.0052921896179421507 0.0055365630153471034 0 -0.0042454972477887426 0.004503245884318682 0 -0.0012996376973514001 0.0048770829503045968 0 -0.0013332033411203349 0.0050576756225681552 0 -0.00037301223369241556 0.0045494129605309196 0 -0.0012996376973514001 0.0048770829503045968 0 -0.001754227579701451 0.0053550334468002725 0 -0.0015917430783144797 0.004323867777582863 0 -0.0012996376973514001 0.0048770829503045968 0 -0.0013332033411203349 0.0050576756225681552 0 -0.001754227579701451 0.0053550334468002725 0 -0.00187349349616906 0.0011476659877644186 0 -0.0016703139371392923 -4.7360298948156256e-05 0 -0.0012996376973514001 0.0048770829503045968 0 -0.00087840541797991106 0.0043871026197048286 0 -0.0011016526827265427 0.004153739820550559 0 -0.0012996376973514001 0.0048770829503045968 0 -0.0015917430783144797 0.004323867777582863 0 -0.0010249594766771658 0.004155683616160942 0 -0.0016669933995836484 0.0060126746651000271 0 -0.0020057819571439764 0.0052102864116447094 0 -0.001754227579701451 0.0053550334468002725 0 -0.00239851459678001 0.0042209127724614744 0 -0.0015917430783144797 0.004323867777582863 0 -0.002699022013229592 0.006608934615478174 0 -0.0015951508473567018 0.0062850437385053486 0 -0.00239851459678001 0.0042209127724614744 0 -0.002699022013229592 0.006608934615478174 0 -0.0015951508473567018 0.0062850437385053486 0 -0.002390247897903344 0.0076879687781747459 0 -0.0016669933995836484 0.0060126746651000271 0 -0.0010915794348829236 0.0074128951302174497 0 -0.001754227579701451 0.0053550334468002725 0 -0.00082742130257512647 0.0058801941790695249 0 -0.0011140706086184013 0.0071413721867834932 0 -0.0013332033411203349 0.0050576756225681552 0 -0.00082742130257512647 0.0058801941790695249 0 -0.00022478049576164243 0.0051874185274135435 0 -0.0013332033411203349 0.0050576756225681552 0 -0.001754227579701451 0.0053550334468002725 0 -0.00082742130257512647 0.0058801941790695249 0 -0.0015951508473567018 0.0062850437385053486 0 -0.0010302643839258001 0.0080021274018635003 0 -0.002390247897903344 0.0076879687781747459 0 -0.0038074739136354893 0.0082450367581141434 0 -0.002390247897903344 0.0076879687781747459 0 -0.0024558544973426475 0.0086005050776126104 0 -0.0010302643839258001 0.0080021274018635003 0 -0.002390247897903344 0.0076879687781747459 0 -0.0024558544973426475 0.0086005050776126104 0 -0.0025995807390370353 0.009450820450063185 0 -0.0024558544973426475 0.0086005050776126104 0 -0.0015887359365145222 0.0091058537472693043 0 -0.0025995807390370353 0.009450820450063185 0 -0.0033498907742334689 0.0091262289663572548 0 -0.0024558544973426475 0.0086005050776126104 0 -0.0010302643839258001 0.0080021274018635003 0 -0.0024558544973426475 0.0086005050776126104 0 -0.0015887359365145222 0.0091058537472693043 0 -0.00037398293496386915 0.0093097745389644875 0 -0.0010302643839258001 0.0080021274018635003 0 -0.0015887359365145222 0.0091058537472693043 0 -0.00037398293496386915 0.0093097745389644875 0 -0.0011140706086184013 0.0071413721867834932 0 8.4334236794662311e-05 0.0079524594709214236 0 -0.00074328332526911532 0.0082528380830988977 0 -0.0010915794348829236 0.0074128951302174497 0 -0.00037398293496386915 0.0093097745389644875 0 8.4334236794662311e-05 0.0079524594709214236 0 0.00089369442035621934 0.0087914043206879598 0 0.00089369442035621934 0.0087914043206879598 0 0.00098757987879009878 0.007641403285854209 0 0.0019950217956077407 0.0082376413813489719 0 0.00098757987879009878 0.007641403285854209 0 0.0019950217956077407 0.0082376413813489719 0 0.001897726179489213 0.0072008568717801796 0 8.4334236794662311e-05 0.0079524594709214236 0 0.00089369442035621934 0.0087914043206879598 0 0.00098757987879009878 0.007641403285854209 0 0.00098757987879009878 0.007641403285854209 0 0.0011304620965390656 0.0066564824586312528 0 8.1582790570784475e-05 0.0068414757344704875 0 0.00098757987879009878 0.007641403285854209 0 0.0011304620965390656 0.0066564824586312528 0 0.001897726179489213 0.0072008568717801796 0 0.0011304620965390656 0.0066564824586312528 0 0.001897726179489213 0.0072008568717801796 0 0.0022646188074853454 0.0061723655838664864 0 0.0011304620965390656 0.0066564824586312528 0 8.1582790570784475e-05 0.0068414757344704875 0 0.00029760540507185035 0.005878432698514284 0 -0.00082742130257512647 0.0058801941790695249 0 -0.0011140706086184013 0.0071413721867834932 0 8.1582790570784475e-05 0.0068414757344704875 0 -0.0011140706086184013 0.0071413721867834932 0 8.4334236794662311e-05 0.0079524594709214236 0 8.1582790570784475e-05 0.0068414757344704875 0 8.4334236794662311e-05 0.0079524594709214236 0 0.00098757987879009878 0.007641403285854209 0 8.1582790570784475e-05 0.0068414757344704875 0 0.0031590979719286869 0.0088358034545175154 0 0.0042496030887674546 0.0079320228859086645 0 0.002987321074952233 0.0074859225458230056 0 0.0031590979719286869 0.0088358034545175154 0 0.002987321074952233 0.0074859225458230056 0 0.0019950217956077407 0.0082376413813489719 0 0.002987321074952233 0.0074859225458230056 0 0.0019950217956077407 0.0082376413813489719 0 0.001897726179489213 0.0072008568717801796 0 0.002987321074952233 0.0074859225458230056 0 0.0033295204876712631 0.0063035902396891344 0 0.0022047027706977957 0.0057564107285506304 0 0.002987321074952233 0.0074859225458230056 0 0.001897726179489213 0.0072008568717801796 0 0.0022646188074853454 0.0061723655838664864 0 0.0024872563864433957 0.005066531245879427 0 0.0020531544426044789 0.0038735013662489731 0 0.004722239366186016 -0.0029442839228049512 0 0.0048032915835121859 -0.0068741945659620629 0 0.0065249187964380728 -0.0039785646625656859 0 0.0042496030887674546 0.0079320228859086645 0 0.0033295204876712631 0.0063035902396891344 0 0.0043263163905931839 0.0056045811357190471 0 0.0031696119984671936 0.0021158311977714011 0 0.0021430038746664149 -0.0029999863247274533 0 0.0042496030887674546 0.0079320228859086645 0 0.002987321074952233 0.0074859225458230056 0 0.0033295204876712631 0.0063035902396891344 0 0.0021430038746664149 -0.0029999863247274533 0 0.00049526540623396373 -0.0078333834288554435 0 0.0010629583823889442 -0.003801100587065447 0 0.00060854953190532372 -0.0040485109147820227 0 0.0010726868807326856 -0.0045906316432154318 0 0.0033295204876712631 0.0063035902396891344 0 0.0043263163905931839 0.0056045811357190471 0 0.0029046879411406901 0.0048014141354243258 0 0.0021430038746664149 -0.0029999863247274533 0 0.0016895404065924967 -0.001138319487343093 0 0.0029046879411406901 0.0048014141354243258 0 0.0022047027706977957 0.0057564107285506304 0 0.0014407026736916876 0.0039934894196833439 0 0.0020531544426044789 0.0038735013662489731 0 0.00071459535957680025 0.00012116587536286143 0 0.0033295204876712631 0.0063035902396891344 0 0.0029046879411406901 0.0048014141354243258 0 0.0022047027706977957 0.0057564107285506304 0 0.0016895404065924967 -0.001138319487343093 0 0.00071459535957680025 0.00012116587536286143 0 0.00053632563007782014 -0.0045493301272895789 0 0.00015572684362372721 -0.0042943827889532311 0 -5.3984139542274827e-05 -0.004776394486086106 0 0.00060854953190532372 -0.0040485109147820227 0 0.00053632563007782014 -0.0045493301272895789 0 0.00015572684362372721 -0.0042943827889532311 0 -0.0047811112531435983 -0.0092266664400547649 0 -0.0047345500120498912 -0.013070190677322287 0 -0.0034256598313914879 -0.012021199860287239 0 0.00060854953190532372 -0.0040485109147820227 0 0.00053632563007782014 -0.0045493301272895789 0 0.0010726868807326856 -0.0045906316432154318 0 -0.00022478049576164243 0.0051874185274135435 0 0.00029760540507185035 0.005878432698514284 0 0.00063200681738726189 0.0051732805103906496 0 -0.00082742130257512647 0.0058801941790695249 0 -0.00022478049576164243 0.0051874185274135435 0 0.00029760540507185035 0.005878432698514284 0 -0.00082742130257512647 0.0058801941790695249 0 8.1582790570784475e-05 0.0068414757344704875 0 0.00029760540507185035 0.005878432698514284 0 0.0011304620965390656 0.0066564824586312528 0 0.00029760540507185035 0.005878432698514284 0 0.0012578328287106701 0.0058108243845823877 0 0.0022646188074853454 0.0061723655838664864 0 0.0012578328287106701 0.0058108243845823877 0 0.0016220864753618124 0.0048512040079837808 0 0.0011304620965390656 0.0066564824586312528 0 0.0022646188074853454 0.0061723655838664864 0 0.0012578328287106701 0.0058108243845823877 0 0.0012578328287106701 0.0058108243845823877 0 0.00063200681738726189 0.0051732805103906496 0 0.0016220864753618124 0.0048512040079837808 0 0.00029760540507185035 0.005878432698514284 0 0.0012578328287106701 0.0058108243845823877 0 0.00063200681738726189 0.0051732805103906496 0 0.00063200681738726189 0.0051732805103906496 0 0.0016220864753618124 0.0048512040079837808 0 0.00020484858067235651 0.004123896484001582 0 0.00071459535957680025 0.00012116587536286143 0 -0.00082544885963866299 -0.00035602799713215297 0 -0.0010420799838820709 -0.00086937395679605439 0 0.00011871875820163921 -0.00024156348167304236 0 -0.00060760249118957637 0.00013355702743851904 0 0.00071459535957680025 0.00012116587536286143 0 -0.00045261557982980208 -0.0023445834092000674 0 -0.00082544885963866299 -0.00035602799713215297 0 -0.00045261557982980208 -0.0023445834092000674 0 -0.0012996376973514001 0.0048770829503045968 0 -0.00037301223369241556 0.0045494129605309196 0 -0.00087840541797991106 0.0043871026197048286 0 -0.0013332033411203349 0.0050576756225681552 0 -0.00022478049576164243 0.0051874185274135435 0 0.00020484858067235651 0.004123896484001582 0 -0.00082544885963866299 -0.00035602799713215297 0 -0.0013568533566249486 -0.00052164435620924909 0 -0.0015578072548367774 0.00088467315742274952 0 -0.00082544885963866299 -0.00035602799713215297 0 -0.00022478049576164243 0.0051874185274135435 0 0.00063200681738726189 0.0051732805103906496 0 0.00020484858067235651 0.004123896484001582 0 -0.00037301223369241556 0.0045494129605309196 0 -0.00087840541797991106 0.0043871026197048286 0 -0.00077413641674390732 0.0043327730706805029 0 -0.0013661652260372678 -0.00050543212966013386 0 -0.0013568533566249486 -0.00052164435620924909 0 -0.0013568533566249486 -0.00052164435620924909 0 -0.00066407336594850115 -0.0025260976748941151 0 -0.0011122463451429651 -0.0014856757959885701 0 -0.0013550658083324753 -0.00136255438136309 0 -0.0010455813427115415 -0.0013222442503214571 0 -0.00087840541797991106 0.0043871026197048286 0 -0.00077065817581317881 0.0043308421304382987 0 -0.0011016526827265427 0.004153739820550559 0 -0.00071807144157503893 -0.0018753988692319021 0 -0.00027687113041762775 -0.0016351672844943587 0 -0.0011492385185065349 -0.0011892337757831853 0 -0.0013568533566249486 -0.00052164435620924909 0 -0.0016703139371392923 -4.7360298948156256e-05 0 -0.0011122463451429651 -0.0014856757959885701 0 -0.0010137233416212821 -0.0014323980688318346 0 -0.0010455813427115415 -0.0013222442503214571 0 -0.00066407336594850115 -0.0025260976748941151 0 -0.00028617665369923306 -0.0055443964601595494 0 -0.00071807144157503893 -0.0018753988692319021 0 -0.0013138328607062264 -0.0015686791983671106 0 -0.0011492385185065349 -0.0011892337757831853 0 -0.0013832126322869983 -0.0050148920366747084 0 -0.0016087286365571757 -0.0055347590132122908 0 -4.8968715244434829e-05 -0.0057135726418786953 0 -0.00045261557982980208 -0.0023445834092000674 0 -0.00066407336594850115 -0.0025260976748941151 0 -0.00088579588309407918 3.9964156529383563e-05 0 -0.00017226757123329966 -0.0015812315640315563 0 0.0010941672275897984 -0.00096457169250532685 0 -0.00088579588309407918 3.9964156529383563e-05 0 -0.00017226757123329966 -0.0015812315640315563 0 -0.0019636106164851114 -0.0024402396438528901 0 -0.0013550658083324753 -0.00136255438136309 0 -0.0011935555125430959 -0.00098847529422210821 0 -0.0010455813427115415 -0.0013222442503214571 0 -0.0011398270823814447 -0.00099736180365241739 0 -0.0011935555125430959 -0.00098847529422210821 0 -0.0010455813427115415 -0.0013222442503214571 0 -0.0017248145465224847 -0.00086011522797578305 0 -0.0016872693320066664 1.9535172400343095e-05 0 -0.00066407336594850115 -0.0025260976748941151 0 -0.0014199638153191496 -0.0012060357002463269 0 0.0010726868807326856 -0.0045906316432154318 0 0.00051214633908266288 -0.0050783543304206364 0 0.0010832994332196297 -0.0053838078196821338 0 0.00049526540623396373 -0.0078333834288554435 0 2.2226656902224487e-05 -0.0099747197580161411 0 -0.0047345500120498912 -0.013070190677322287 0 -0.0041022783782105315 -0.014929740118792202 0 -0.0046702953722514871 -0.016835499855457702 0 0.00053632563007782014 -0.0045493301272895789 0 0.0010726868807326856 -0.0045906316432154318 0 0.00051214633908266288 -0.0050783543304206364 0 -0.00013763758189721948 -0.0060560322967506642 0 2.2226656902224487e-05 -0.0099747197580161411 0 -0.0007079298451779561 -0.012343119357663537 0 -0.00042111302016938296 -0.011108597608240223 0 0.00053632563007782014 -0.0045493301272895789 0 -5.3984139542274827e-05 -0.004776394486086106 0 0.00051214633908266288 -0.0050783543304206364 0 -0.0016087286365571757 -0.0055347590132122908 0 -4.8968715244434829e-05 -0.0057135726418786953 0 -0.00015797340866009383 -0.0062898517561928696 0 -0.00045261557982980208 -0.0023445834092000674 0 -0.00013763758189721948 -0.0060560322967506642 0 -4.8968715244434829e-05 -0.0057135726418786953 0 -0.00015797340866009383 -0.0062898517561928696 0 0.0012899769629764149 -0.0064138244413251642 0 -0.00017226757123329966 -0.0015812315640315563 0 0.0010941672275897984 -0.00096457169250532685 0 0.0010710524749591656 -0.0029621500084823249 0 0.0010941672275897984 -0.00096457169250532685 0 0.0021662658608518548 -0.0026967059647906638 0 0.0010710524749591656 -0.0029621500084823249 0 -0.00028617665369923306 -0.0055443964601595494 0 6.0909872825408543e-05 -0.0094738859335692267 0 -0.00015797340866009383 -0.0062898517561928696 0 0.0012979250129130301 -0.007046758403138142 0 0.0012899769629764149 -0.0064138244413251642 0 0.0010941672275897984 -0.00096457169250532685 0 0.0031182696931419179 -0.001983469906726586 0 0.0021662658608518548 -0.0026967059647906638 0 -0.00023695738302330029 -0.010040876991050295 0 -0.00012294054236117524 -0.010099360015113856 0 -0.0002374436875052932 -0.010300619075175127 0 6.0909872825408543e-05 -0.0094738859335692267 0 2.2226656902224487e-05 -0.0099747197580161411 0 -0.00015709481025962164 -0.010832727088047738 0 -0.00042111302016938296 -0.011108597608240223 0 -0.00015709481025962164 -0.010832727088047738 0 6.0909872825408543e-05 -0.0094738859335692267 0 -0.0041022783782105315 -0.014929740118792202 0 -0.0040898129020119529 -0.017132284760144032 0 -0.0046702953722514871 -0.016835499855457702 0 -0.00012294054236117524 -0.010099360015113856 0 -0.0002374436875052932 -0.010300619075175127 0 -0.00012017469282969248 -0.01036122712419057 0 -0.00042111302016938296 -0.011108597608240223 0 2.2226656902224487e-05 -0.0099747197580161411 0 0.0034858951858994518 -0.0021998073299578156 0 0.0031575419620211423 -0.0034002912828534422 0 0.003576665058090853 -0.004925388563734201 0 -0.00015709481025962164 -0.010832727088047738 0 0.00041637276675151268 -0.013710897111150398 0 6.0909872825408543e-05 -0.0094738859335692267 0 0.00026063507281414393 -0.0078840809460933581 0 0.0031182696931419179 -0.001983469906726586 0 0.0031575419620211423 -0.0034002912828534422 0 0.0021662658608518548 -0.0026967059647906638 0 0.0034858951858994518 -0.0021998073299578156 0 0.0031067886300167125 -0.0020094045928654132 0 0.0031575419620211423 -0.0034002912828534422 0 0.0031575419620211423 -0.0034002912828534422 0 0.0021662658608518548 -0.0026967059647906638 0 0.0022201235675480932 -0.0042210145507191434 0 0.0021662658608518548 -0.0026967059647906638 0 0.0010710524749591656 -0.0029621500084823249 0 0.0022201235675480932 -0.0042210145507191434 0 0.00089800209640846071 -0.0054159045958807016 0 0.0022201235675480932 -0.0042210145507191434 0 0.0022610870990121558 -0.0060251688270398472 0 0.0010710524749591656 -0.0029621500084823249 0 0.00089800209640846071 -0.0054159045958807016 0 -0.00037935836572572813 -0.004734279444826222 0 0.0010710524749591656 -0.0029621500084823249 0 0.00089800209640846071 -0.0054159045958807016 0 0.0022201235675480932 -0.0042210145507191434 0 0.0022201235675480932 -0.0042210145507191434 0 0.003576665058090853 -0.004925388563734201 0 0.0022610870990121558 -0.0060251688270398472 0 0.0031575419620211423 -0.0034002912828534422 0 0.0022201235675480932 -0.0042210145507191434 0 0.003576665058090853 -0.004925388563734201 0 -0.0022445898113269587 -0.0029123808681743948 0 -0.0010475751718075643 -0.0035915941161205806 0 -0.001669148992577975 -0.004822369452599509 0 -0.0014598763279783543 0.00071589310315206512 0 -0.0026744254492250437 -0.0021887411841904044 0 -0.0029107382569175922 -0.00017582477964024379 0 -0.0016473201318566507 -0.0015086290010264472 0 -0.0013583061289360668 -0.0035238497713231181 0 -0.0016473201318566507 -0.0015086290010264472 0 -0.0023832479867583779 -0.0027129649695534375 0 -0.0014598763279783543 0.00071589310315206512 0 -0.0017349540376762934 0.001635068710523719 0 -0.0029107382569175922 -0.00017582477964024379 0 -0.0016473201318566507 -0.0015086290010264472 0 -0.0017248145465224847 -0.00086011522797578305 0 -0.001295537778380921 2.1637251764511358e-05 0 -0.00064529853637278146 -0.0021988756840571858 0 -0.0021483271145279412 -0.0019442815946259229 0 -0.0016473201318566507 -0.0015086290010264472 0 -0.0014199638153191496 -0.0012060357002463269 0 -0.0022445898113269587 -0.0029123808681743948 0 -0.0020402700108919729 -0.002431452229611599 0 -0.0010475751718075643 -0.0035915941161205806 0 -0.0017248145465224847 -0.00086011522797578305 0 -0.0014199638153191496 -0.0012060357002463269 0 0.0010710524749591656 -0.0029621500084823249 0 -0.0010475751718075643 -0.0035915941161205806 0 -0.00037935836572572813 -0.004734279444826222 0 0.0010710524749591656 -0.0029621500084823249 0 -0.0020402700108919729 -0.002431452229611599 0 -0.0010475751718075643 -0.0035915941161205806 0 -0.00017226757123329966 -0.0015812315640315563 0 0.0010710524749591656 -0.0029621500084823249 0 -0.0019636106164851114 -0.0024402396438528901 0 -0.00024026488226484827 -0.001794858901430258 0 -0.0014199638153191496 -0.0012060357002463269 0 -0.00037935836572572813 -0.004734279444826222 0 -0.001669148992577975 -0.004822369452599509 0 -0.0011864840408014399 -0.0066238427756417292 0 -0.0010475751718075643 -0.0035915941161205806 0 -0.00037935836572572813 -0.004734279444826222 0 -0.001669148992577975 -0.004822369452599509 0 -0.002501068034519641 -0.001670645906329445 0 -0.0018263310702713355 -0.0039550051718507308 0 -0.0033734235954132981 -0.0036834477464445644 0 -0.0018263310702713355 -0.0039550051718507308 0 -0.0033734235954132981 -0.0036834477464445644 0 -0.0027915419113021716 -0.0053874766359706065 0 -0.0026744254492250437 -0.0021887411841904044 0 -0.0050611013616765881 -0.0030878380322934026 0 -0.0041831918551650275 -0.0054112192597734199 0 -0.0023832479867583779 -0.0027129649695534375 0 -0.0027761893686038689 -0.0034607121065607311 0 -0.0050611013616765881 -0.0030878380322934026 0 -0.0042188772536862242 -0.0014006727835744544 0 -0.0065928143849562793 -0.0016536719215347381 0 -0.0026744254492250437 -0.0021887411841904044 0 -0.0042188772536862242 -0.0014006727835744544 0 -0.0029107382569175922 -0.00017582477964024379 0 -0.0026744254492250437 -0.0021887411841904044 0 -0.0050611013616765881 -0.0030878380322934026 0 -0.0042188772536862242 -0.0014006727835744544 0 -0.0042188772536862242 -0.0014006727835744544 0 -0.0029107382569175922 -0.00017582477964024379 0 -0.0044788532022001712 0.00032328230586061113 0 -0.0017349540376762934 0.001635068710523719 0 -0.0044788532022001712 0.00032328230586061113 0 -0.0066035092868369106 0.0024677557430260581 0 -0.0042188772536862242 -0.0014006727835744544 0 -0.0044788532022001712 0.00032328230586061113 0 -0.0065928143849562793 -0.0016536719215347381 0 -0.0017349540376762934 0.001635068710523719 0 -0.0029107382569175922 -0.00017582477964024379 0 -0.0044788532022001712 0.00032328230586061113 0 -0.0044788532022001712 0.00032328230586061113 0 -0.0077138052166018699 0.00034213928747903785 0 -0.0065928143849562793 -0.0016536719215347381 0 -0.0044788532022001712 0.00032328230586061113 0 -0.0077138052166018699 0.00034213928747903785 0 -0.0066035092868369106 0.0024677557430260581 0 -0.0077138052166018699 0.00034213928747903785 0 -0.0097561752468133794 0.0014162466329985719 0 -0.0066035092868369106 0.0024677557430260581 0 -0.0077138052166018699 0.00034213928747903785 0 -0.0065928143849562793 -0.0016536719215347381 0 -0.0084422919466434453 -0.0012443386549131216 0 -0.0065928143849562793 -0.0016536719215347381 0 -0.0084408886810607656 -0.0028246594749366262 0 -0.0084422919466434453 -0.0012443386549131216 0 -0.0050611013616765881 -0.0030878380322934026 0 -0.0065928143849562793 -0.0016536719215347381 0 -0.0070169419411030059 -0.0036016453178458092 0 -0.0065928143849562793 -0.0016536719215347381 0 -0.0070169419411030059 -0.0036016453178458092 0 -0.0084408886810607656 -0.0028246594749366262 0 -0.0070169419411030059 -0.0036016453178458092 0 -0.0084408886810607656 -0.0028246594749366262 0 -0.0086715424799815467 -0.0041262330987900291 0 -0.0084408886810607656 -0.0028246594749366262 0 -0.0095079588046148855 -0.0035046309539354318 0 -0.0086715424799815467 -0.0041262330987900291 0 -0.0084408886810607656 -0.0028246594749366262 0 -0.0095079588046148855 -0.0035046309539354318 0 -0.0095865191510663052 -0.0022287326980312506 0 -0.0095079588046148855 -0.0035046309539354318 0 -0.010416267359149052 -0.0039761041624797712 0 -0.0095865191510663052 -0.0022287326980312506 0 -0.010416267359149052 -0.0039761041624797712 0 -0.0095865191510663052 -0.0022287326980312506 0 -0.010433399901467199 -0.00084529814815723016 0 -0.0095865191510663052 -0.0022287326980312506 0 -0.010433399901467199 -0.00084529814815723016 0 -0.0096180349939381307 -0.0003021908257358551 0 -0.0095865191510663052 -0.0022287326980312506 0 -0.0084422919466434453 -0.0012443386549131216 0 -0.0096180349939381307 -0.0003021908257358551 0 -0.0084408886810607656 -0.0028246594749366262 0 -0.0095865191510663052 -0.0022287326980312506 0 -0.0084422919466434453 -0.0012443386549131216 0 -0.010416267359149052 -0.0039761041624797712 0 -0.010433399901467199 -0.00084529814815723016 0 -0.012050699912980984 0.0015925420485716894 0 -0.012241343648065521 0.0019795599739827934 0 -0.012117146718510751 0.001744912231429437 0 -0.012050699912980984 0.0015925420485716894 0 -0.011154630861172523 -0.00015900052058173499 0 -0.011452875964795097 0.00045343098119825264 0 -0.012060901409705472 0.0019599898950509779 0 -0.012123886697098341 0.0019004170981173991 0 -0.012069841845389444 0.0018699746997351341 0 -0.012060901409705472 0.0019599898950509779 0 -0.012127656531692921 0.0019814960293277903 0 -0.012060691779953529 0.0020285353518285035 0 -0.012060901409705472 0.0019599898950509779 0 -0.012127656531692921 0.0019814960293277903 0 -0.012123886697098341 0.0019004170981173991 0 -0.012241343648065521 0.0019795599739827934 0 -0.012123886697098341 0.0019004170981173991 0 -0.012117146718510751 0.001744912231429437 0 -0.012241343648065521 0.0019795599739827934 0 -0.012127656531692921 0.0019814960293277903 0 -0.012123886697098341 0.0019004170981173991 0 -0.012123886697098341 0.0019004170981173991 0 -0.012117146718510751 0.001744912231429437 0 -0.012069841845389444 0.0018699746997351341 0 -0.012117146718510751 0.001744912231429437 0 -0.012069841845389444 0.0018699746997351341 0 -0.012049223012008423 0.0018051665389053251 0 -0.012117146718510751 0.001744912231429437 0 -0.012148298922813364 0.0015605606408550378 0 -0.012050699912980984 0.0015925420485716894 0 -0.012117146718510751 0.001744912231429437 0 -0.012080795867276726 0.0017105233878808403 0 -0.012049223012008423 0.0018051665389053251 0 -0.012117146718510751 0.001744912231429437 0 -0.012080795867276726 0.0017105233878808403 0 -0.012148298922813364 0.0015605606408550378 0 -0.010433399901467199 -0.00084529814815723016 0 -0.012050699912980984 0.0015925420485716894 0 -0.010616237255440988 0.00064016361715423886 0 -0.012050699912980984 0.0015925420485716894 0 -0.010977538118501856 0.0016700415638118888 0 -0.010616237255440988 0.00064016361715423886 0 -0.0077138052166018699 0.00034213928747903785 0 -0.0084422919466434453 -0.0012443386549131216 0 -0.0096180349939381307 -0.0003021908257358551 0 -0.0077138052166018699 0.00034213928747903785 0 -0.0096180349939381307 -0.0003021908257358551 0 -0.0097561752468133794 0.0014162466329985719 0 -0.0096180349939381307 -0.0003021908257358551 0 -0.010616237255440988 0.00064016361715423886 0 -0.0097561752468133794 0.0014162466329985719 0 -0.010433399901467199 -0.00084529814815723016 0 -0.0096180349939381307 -0.0003021908257358551 0 -0.010616237255440988 0.00064016361715423886 0 -0.010977538118501856 0.0016700415638118888 0 -0.010616237255440988 0.00064016361715423886 0 -0.0097561752468133794 0.0014162466329985719 0 -0.0043853943826629672 0.0028217027502524775 0 -0.00239851459678001 0.0042209127724614744 0 -0.002253447892033082 0.0025429470930358267 0 -0.0075321184031883603 0.0023168323655360186 0 -0.0046235078006289145 0.0011930324888283679 0 -0.0097561752468133794 0.0014162466329985719 0 -0.011276787825861881 0.0031282789191680854 0 -0.0066035092868369106 0.0024677557430260581 0 -0.010977538118501856 0.0016700415638118888 0 -0.0097561752468133794 0.0014162466329985719 0 -0.011276787825861881 0.0031282789191680854 0 -0.0043853943826629672 0.0028217027502524775 0 -0.005402409006043849 0.0040420568165300194 0 -0.0067262946646247171 0.0031683319379063627 0 -0.012050699912980984 0.0015925420485716894 0 -0.011276787825861881 0.0031282789191680854 0 -0.01405113932880046 0.0033328365385649704 0 -0.012050699912980984 0.0015925420485716894 0 -0.010977538118501856 0.0016700415638118888 0 -0.011276787825861881 0.0031282789191680854 0 -0.0052921896179421507 0.0055365630153471034 0 -0.0042454972477887426 0.004503245884318682 0 -0.005402409006043849 0.0040420568165300194 0 -0.0043853943826629672 0.0028217027502524775 0 -0.0042454972477887426 0.004503245884318682 0 -0.005402409006043849 0.0040420568165300194 0 -0.0043853943826629672 0.0028217027502524775 0 -0.0042454972477887426 0.004503245884318682 0 -0.00239851459678001 0.0042209127724614744 0 -0.00239851459678001 0.0042209127724614744 0 -0.0016257877590567099 0.0034921742622165313 0 -0.002253447892033082 0.0025429470930358267 0 -0.00239851459678001 0.0042209127724614744 0 -0.0015917430783144797 0.004323867777582863 0 -0.0016257877590567099 0.0034921742622165313 0 -0.0015917430783144797 0.004323867777582863 0 -0.0010249594766771658 0.004155683616160942 0 -0.00085795062679039965 0.003696675861494597 0 -0.0016703139371392923 -4.7360298948156256e-05 0 -0.0016872693320066664 1.9535172400343095e-05 0 -0.00085795062679039965 0.003696675861494597 0 -0.0016257877590567099 0.0034921742622165313 0 -0.0012792823423066857 0.0030102857698699453 0 -0.0015917430783144797 0.004323867777582863 0 -0.00085795062679039965 0.003696675861494597 0 -0.0016257877590567099 0.0034921742622165313 0 -0.00040908544440529843 0.0022841653429510017 0 -0.00085795062679039965 0.003696675861494597 0 -0.0012792823423066857 0.0030102857698699453 0 -0.00040908544440529843 0.0022841653429510017 0 -0.0012792823423066857 0.0030102857698699453 0 -0.002253447892033082 0.0025429470930358267 0 -0.0016257877590567099 0.0034921742622165313 0 -0.0012792823423066857 0.0030102857698699453 0 -0.002253447892033082 0.0025429470930358267 0 -0.0017248145465224847 -0.00086011522797578305 0 -0.0046235078006289145 0.0011930324888283679 0 0.014707755295969684 -0.008417976492175688 0 0.013096353281569962 -0.010884338035024569 0 0.012334535454266965 -0.0083732512797903644 0 0.013096353281569962 -0.010884338035024569 0 0.010942102660352499 -0.010919164633724301 0 0.012334535454266965 -0.0083732512797903644 0 0.010942102660352499 -0.010919164633724301 0 0.0097410660512095154 -0.0082582709577810054 0 0.0077170869394710762 -0.011720144179922103 0 0.010942102660352499 -0.010919164633724301 0 0.0097410660512095154 -0.0082582709577810054 0 0.012334535454266965 -0.0083732512797903644 0 0.0097410660512095154 -0.0082582709577810054 0 0.012334535454266965 -0.0083732512797903644 0 0.011580487820854328 -0.0059076639418366283 0 0.0097410660512095154 -0.0082582709577810054 0 0.011580487820854328 -0.0059076639418366283 0 0.0096226911337578373 -0.0048011252886375547 0 0.014707755295969684 -0.008417976492175688 0 0.012334535454266965 -0.0083732512797903644 0 0.013649891051945117 -0.0062177184627924733 0 0.012334535454266965 -0.0083732512797903644 0 0.013649891051945117 -0.0062177184627924733 0 0.011580487820854328 -0.0059076639418366283 0 0.013649891051945117 -0.0062177184627924733 0 0.012524310877959223 -0.0039180891452688816 0 0.011580487820854328 -0.0059076639418366283 0 0.014612841491508984 -0.0046173098026749126 0 0.013649891051945117 -0.0062177184627924733 0 0.012524310877959223 -0.0039180891452688816 0 0.012524310877959223 -0.0039180891452688816 0 0.010361454169827367 -0.0031898428055349248 0 0.011580487820854328 -0.0059076639418366283 0 0.011146698063786474 -0.0016380845816650765 0 0.012524310877959223 -0.0039180891452688816 0 0.010361454169827367 -0.0031898428055349248 0 0.010361454169827367 -0.0031898428055349248 0 0.011580487820854328 -0.0059076639418366283 0 0.0096226911337578373 -0.0048011252886375547 0 0.0096226911337578373 -0.0048011252886375547 0 0.0094907276345838829 -0.0028809031731984415 0 0.0093806731255855098 -0.0035017104440346904 0 0.0082827363457873247 -0.0052378259021508711 0 0.0071719961733505214 -0.0055196137333508484 0 0.010361454169827367 -0.0031898428055349248 0 0.0096226911337578373 -0.0048011252886375547 0 0.0094907276345838829 -0.0028809031731984415 0 0.0094907276345838829 -0.0028809031731984415 0 0.0093806731255855098 -0.0035017104440346904 0 0.0091970867552411042 -0.0027932201214579395 0 0.0049571353751265762 -0.005537689501724825 0 0.0065391148715447326 -0.008420088621761827 0 0.0032303500417562307 -0.0083953803363279247 0 0.0096226911337578373 -0.0048011252886375547 0 0.0049571353751265762 -0.005537689501724825 0 0.0065391148715447326 -0.008420088621761827 0 0.0097410660512095154 -0.0082582709577810054 0 0.0096226911337578373 -0.0048011252886375547 0 0.0065391148715447326 -0.008420088621761827 0 0.0097410660512095154 -0.0082582709577810054 0 0.0065391148715447326 -0.008420088621761827 0 0.0077170869394710762 -0.011720144179922103 0 0.0065391148715447326 -0.008420088621761827 0 0.004474843192975626 -0.010725859435129296 0 0.0032303500417562307 -0.0083953803363279247 0 0.0065391148715447326 -0.008420088621761827 0 0.004474843192975626 -0.010725859435129296 0 0.0077170869394710762 -0.011720144179922103 0 0.0022898488867700447 -0.010416912671794397 0 0.00028825225870925407 -0.0088954692680654236 0 0.0032303500417562307 -0.0083953803363279247 0 0.004474843192975626 -0.010725859435129296 0 0.0022898488867700447 -0.010416912671794397 0 0.0032303500417562307 -0.0083953803363279247 0 0.004474843192975626 -0.010725859435129296 0 0.0022898488867700447 -0.010416912671794397 0 0.0029681566632961693 -0.012024069306014285 0 0.0022898488867700447 -0.010416912671794397 0 0.00041999156602710852 -0.011566622290445099 0 0.00028825225870925407 -0.0088954692680654236 0 0.0022898488867700447 -0.010416912671794397 0 0.00041999156602710852 -0.011566622290445099 0 0.0029681566632961693 -0.012024069306014285 0 0.0010204514107007888 -0.012732767714259571 0 -0.001183025544245033 -0.010348854691452674 0 -0.00017120249438679557 -0.013120921688468859 0 0.0018868536756364417 -0.011859253234684083 0 0.0015284642626696837 -0.010022926517976895 0 0.00041999156602710852 -0.011566622290445099 0 0.00028825225870925407 -0.0088954692680654236 0 -0.0023545852063422091 -0.0085788882266044971 0 0.0050495669844985843 -0.0063889735852565681 0 0.0022826682138125313 -0.0081453237168563411 0 0.00028825225870925407 -0.0088954692680654236 0 0.00096514087113949059 -0.0062984043709357765 0 -0.0023545852063422091 -0.0085788882266044971 0 0.00096514087113949059 -0.0062984043709357765 0 -0.0029499097299473375 -0.0069579292440391733 0 -0.0023545852063422091 -0.0085788882266044971 0 0.0049571353751265762 -0.005537689501724825 0 0.00096514087113949059 -0.0062984043709357765 0 0.0032303500417562307 -0.0083953803363279247 0 0.00028825225870925407 -0.0088954692680654236 0 0.00096514087113949059 -0.0062984043709357765 0 0.0032303500417562307 -0.0083953803363279247 0 0.0071719961733505214 -0.0055196137333508484 0 0.0050495669844985843 -0.0063889735852565681 0 0.0093806731255855098 -0.0035017104440346904 0 0.0090672524649152448 -0.0030314016173625313 0 0.0091970867552411042 -0.0027932201214579395 0 0.0091970867552411042 -0.0027932201214579395 0 0.0091784706050125758 -0.0021104496856897545 0 0.0090092080203721132 -0.0021788545205557487 0 0.0094907276345838829 -0.0028809031731984415 0 0.0091970867552411042 -0.0027932201214579395 0 0.0091784706050125758 -0.0021104496856897545 0 0.0091970867552411042 -0.0027932201214579395 0 0.0090092080203721132 -0.0021788545205557487 0 0.0089213166995056985 -0.0026330601620149297 0 0.0088617696811932635 -0.0014021337308729475 0 0.0090092080203721132 -0.0021788545205557487 0 0.0088307725420541609 -0.0022300852619578817 0 0.0090092080203721132 -0.0021788545205557487 0 0.0088307725420541609 -0.0022300852619578817 0 0.0089213166995056985 -0.0026330601620149297 0 0.0090672524649152448 -0.0030314016173625313 0 0.008668106566760491 -0.0028096162827946128 0 0.0085574635049501351 -0.0030453060636587786 0 0.0090672524649152448 -0.0030314016173625313 0 0.0091970867552411042 -0.0027932201214579395 0 0.0089213166995056985 -0.0026330601620149297 0 0.0088307725420541609 -0.0022300852619578817 0 0.0089213166995056985 -0.0026330601620149297 0 0.0086266487832658053 -0.0025368769777300978 0 0.0090672524649152448 -0.0030314016173625313 0 0.0089213166995056985 -0.0026330601620149297 0 0.008668106566760491 -0.0028096162827946128 0 0.008668106566760491 -0.0028096162827946128 0 0.0084065569470025778 -0.0026710933584290488 0 0.0085574635049501351 -0.0030453060636587786 0 -0.001157034004446119 -0.0072592198533063083 0 -0.0013942823104146659 -0.0096955162302952858 0 -0.00032177585386066094 -0.009522387332232549 0 0.0025131357307890036 -0.0043995850714684008 0 0.0022826682138125313 -0.0081453237168563411 0 0.0083135237795395594 -0.0027234581917253415 0 0.0086266487832658053 -0.0025368769777300978 0 0.0080804490093835633 -0.0023099534957352593 0 0.0025131357307890036 -0.0043995850714684008 0 0.0030754258976310443 -0.0041335502762228716 0 0.008668106566760491 -0.0028096162827946128 0 0.0084065569470025778 -0.0026710933584290488 0 0.0086266487832658053 -0.0025368769777300978 0 0.0089213166995056985 -0.0026330601620149297 0 0.008668106566760491 -0.0028096162827946128 0 0.0086266487832658053 -0.0025368769777300978 0 0.008695321763903939 0.00038566623958636301 0 0.0086907149118046773 -0.0018852227131080342 0 0.0080804490093835633 -0.0023099534957352593 0 0.0088307725420541609 -0.0022300852619578817 0 0.0086266487832658053 -0.0025368769777300978 0 0.0086907149118046773 -0.0018852227131080342 0 0.0025131357307890036 -0.0043995850714684008 0 0.0029106520209462262 -0.00435258264991865 0 0.0086266487832658053 -0.0025368769777300978 0 0.0086907149118046773 -0.0018852227131080342 0 0.0080804490093835633 -0.0023099534957352593 0 0.0088617696811932635 -0.0014021337308729475 0 0.0088307725420541609 -0.0022300852619578817 0 0.0086907149118046773 -0.0018852227131080342 0 0.004722239366186016 -0.0029442839228049512 0 0.006507195787877262 -0.0011034271944717819 0 0.0065249187964380728 -0.0039785646625656859 0 0.006507195787877262 -0.0011034271944717819 0 0.0080804490093835633 -0.0023099534957352593 0 0.0065249187964380728 -0.0039785646625656859 0 0.008695321763903939 0.00038566623958636301 0 0.006507195787877262 -0.0011034271944717819 0 0.0080804490093835633 -0.0023099534957352593 0 0.0048032915835121859 -0.0068741945659620629 0 0.0088961325419363944 -0.0047105868627698722 0 0.0065249187964380728 -0.0039785646625656859 0 -0.0047811112531435983 -0.0092266664400547649 0 -0.001157034004446119 -0.0072592198533063083 0 -0.0025827543201025092 -0.0094605865907987155 0 0.0021430038746664149 -0.0029999863247274533 0 0.0025131357307890036 -0.0043995850714684008 0 0.0088961325419363944 -0.0047105868627698722 0 0.0080804490093835633 -0.0023099534957352593 0 0.0065249187964380728 -0.0039785646625656859 0 -0.001157034004446119 -0.0072592198533063083 0 -0.0025827543201025092 -0.0094605865907987155 0 -0.0013942823104146659 -0.0096955162302952858 0 -0.0047811112531435983 -0.0092266664400547649 0 -0.0025959658356366285 -0.011002424935365834 0 -0.0025827543201025092 -0.0094605865907987155 0 -0.0047811112531435983 -0.0092266664400547649 0 -0.0025959658356366285 -0.011002424935365834 0 -0.0034256598313914879 -0.012021199860287239 0 -0.0025959658356366285 -0.011002424935365834 0 -0.0018972716511462583 -0.010428009703167913 0 -0.0025827543201025092 -0.0094605865907987155 0 -0.0017409717669716171 -0.011262557016357094 0 -0.0025959658356366285 -0.011002424935365834 0 -0.0018972716511462583 -0.010428009703167913 0 -0.0018972716511462583 -0.010428009703167913 0 -0.0025827543201025092 -0.0094605865907987155 0 -0.0013942823104146659 -0.0096955162302952858 0 0.0020345796159509403 -0.008203228299999081 0 0.0022826682138125313 -0.0081453237168563411 0 -0.0013942823104146659 -0.0096955162302952858 0 -0.0003347088380026077 -0.009528488859437613 0 -0.00076424699066006776 -0.01012876686178709 0 -0.0003347088380026077 -0.009528488859437613 0 -0.00018279663455411194 -0.010582258424888269 0 -0.00076424699066006776 -0.01012876686178709 0 -0.0003347088380026077 -0.009528488859437613 0 -0.00018279663455411194 -0.010582258424888269 0 0.00020848963969711463 -0.011005395287751418 0 0.0022826682138125313 -0.0081453237168563411 0 0.0015284642626696837 -0.010022926517976895 0 -0.00018279663455411194 -0.010582258424888269 0 0.00020757924892348572 -0.011007457762475446 0 -0.00048749285600099276 -0.011200305494583158 0 0.0015137519261538127 -0.010020074185685594 0 0.0015284642626696837 -0.010022926517976895 0 -0.0018972716511462583 -0.010428009703167913 0 -0.0013942823104146659 -0.0096955162302952858 0 -0.0011737706050661792 -0.010716572242616537 0 -0.0013942823104146659 -0.0096955162302952858 0 -0.00076424699066006776 -0.01012876686178709 0 -0.0011737706050661792 -0.010716572242616537 0 -0.00018279663455411194 -0.010582258424888269 0 -0.00076424699066006776 -0.01012876686178709 0 -0.0011737706050661792 -0.010716572242616537 0 -0.00048749285600099276 -0.011200305494583158 0 -0.0011737706050661792 -0.010716572242616537 0 -0.0010068957762107275 -0.011732865685064691 0 -0.00018279663455411194 -0.010582258424888269 0 -0.00048749285600099276 -0.011200305494583158 0 -0.0011737706050661792 -0.010716572242616537 0 -0.0017409717669716171 -0.011262557016357094 0 -0.0018972716511462583 -0.010428009703167913 0 -0.0011737706050661792 -0.010716572242616537 0 -0.0017409717669716171 -0.011262557016357094 0 -0.0011737706050661792 -0.010716572242616537 0 -0.0010068957762107275 -0.011732865685064691 0 -0.0010068957762107275 -0.011732865685064691 0 -0.00066813604357497886 -0.012675733373671737 0 -0.0019238706845338988 -0.012518751937420636 0 0.00020757924892348572 -0.011007457762475446 0 0.00026106492349853375 -0.012781850885064722 0 0.001356945357153614 -0.014168113343894036 0 0.0015284642626696837 -0.010022926517976895 0 0.0017017101589220211 -0.013388212241783014 0 -0.0017409717669716171 -0.011262557016357094 0 -0.0010068957762107275 -0.011732865685064691 0 -0.0019238706845338988 -0.012518751937420636 0 -0.00048749285600099276 -0.011200305494583158 0 -0.0010068957762107275 -0.011732865685064691 0 -0.00032527270976230989 -0.011885763832394104 0 -0.0010068957762107275 -0.011732865685064691 0 -0.00032527270976230989 -0.011885763832394104 0 -0.00066813604357497886 -0.012675733373671737 0 0.00020757924892348572 -0.011007457762475446 0 -0.00032527270976230989 -0.011885763832394104 0 0.00026106492349853375 -0.012781850885064722 0 0.00020757924892348572 -0.011007457762475446 0 -0.00048749285600099276 -0.011200305494583158 0 -0.00032527270976230989 -0.011885763832394104 0 -0.00032527270976230989 -0.011885763832394104 0 0.00026106492349853375 -0.012781850885064722 0 -0.00066813604357497886 -0.012675733373671737 0 0.00026106492349853375 -0.012781850885064722 0 0.00041661592792283027 -0.013714635983378085 0 0.001356945357153614 -0.014168113343894036 0 0.00026106492349853375 -0.012781850885064722 0 -0.00015561326245511797 -0.013491313942932544 0 -0.00066813604357497886 -0.012675733373671737 0 0.00026106492349853375 -0.012781850885064722 0 -0.00015561326245511797 -0.013491313942932544 0 0.00041661592792283027 -0.013714635983378085 0 -0.00097850596671213543 -0.013765367679590764 0 -0.0019545119968538971 -0.013760865326960699 0 -0.0019238706845338988 -0.012518751937420636 0 -0.00066813604357497886 -0.012675733373671737 0 -0.00097850596671213543 -0.013765367679590764 0 -0.0019238706845338988 -0.012518751937420636 0 -0.00015561326245511797 -0.013491313942932544 0 -0.00066813604357497886 -0.012675733373671737 0 -0.00097850596671213543 -0.013765367679590764 0 -0.0034256598313914879 -0.012021199860287239 0 -0.0019238706845338988 -0.012518751937420636 0 -0.0030330739456015448 -0.013809326987012606 0 -0.0019545119968538971 -0.013760865326960699 0 -0.0019238706845338988 -0.012518751937420636 0 -0.0030330739456015448 -0.013809326987012606 0 -0.0047345500120498912 -0.013070190677322287 0 -0.0034256598313914879 -0.012021199860287239 0 -0.0030330739456015448 -0.013809326987012606 0 -0.0017409717669716171 -0.011262557016357094 0 -0.0025959658356366285 -0.011002424935365834 0 -0.0019238706845338988 -0.012518751937420636 0 -0.0025959658356366285 -0.011002424935365834 0 -0.0034256598313914879 -0.012021199860287239 0 -0.0019238706845338988 -0.012518751937420636 0 -0.0027021165736437315 -0.015358871636619 0 -0.0018621948069100945 -0.01471759335119149 0 -0.0016631454545464263 -0.015742427307253316 0 -0.0027021165736437315 -0.015358871636619 0 -0.0016631454545464263 -0.015742427307253316 0 -0.0022406731515124696 -0.01658684487107253 0 -0.0027021165736437315 -0.015358871636619 0 -0.0033399754593157484 -0.016198669838569227 0 -0.0022406731515124696 -0.01658684487107253 0 -0.0041022783782105315 -0.014929740118792202 0 -0.0041136795892240639 -0.017194561812130783 0 -0.0033399754593157484 -0.016198669838569227 0 -0.0041022783782105315 -0.014929740118792202 0 -0.0027021165736437315 -0.015358871636619 0 -0.0033399754593157484 -0.016198669838569227 0 -0.0041022783782105315 -0.014929740118792202 0 -0.0027021165736437315 -0.015358871636619 0 -0.0030330739456015448 -0.013809326987012606 0 -0.0047345500120498912 -0.013070190677322287 0 -0.0041022783782105315 -0.014929740118792202 0 -0.0030330739456015448 -0.013809326987012606 0 -0.0027021165736437315 -0.015358871636619 0 -0.0030330739456015448 -0.013809326987012606 0 -0.0018621948069100945 -0.01471759335119149 0 -0.0019545119968538971 -0.013760865326960699 0 -0.0030330739456015448 -0.013809326987012606 0 -0.0018621948069100945 -0.01471759335119149 0 -0.00097850596671213543 -0.013765367679590764 0 -0.0019545119968538971 -0.013760865326960699 0 -0.0018621948069100945 -0.01471759335119149 0 -0.00097850596671213543 -0.013765367679590764 0 -0.0018621948069100945 -0.01471759335119149 0 -0.00097581024900424661 -0.015103397216301584 0 -0.00097850596671213543 -0.013765367679590764 0 0.00019172345316560889 -0.014522231043100842 0 -0.00097581024900424661 -0.015103397216301584 0 0.00041661592792283027 -0.013714635983378085 0 0.00019172345316560889 -0.014522231043100842 0 0.001356945357153614 -0.014168113343894036 0 -0.00015561326245511797 -0.013491313942932544 0 -0.00097850596671213543 -0.013765367679590764 0 0.00019172345316560889 -0.014522231043100842 0 -0.00015561326245511797 -0.013491313942932544 0 0.00041661592792283027 -0.013714635983378085 0 0.00019172345316560889 -0.014522231043100842 0 -0.00097581024900424661 -0.015103397216301584 0 -0.0016631454545464263 -0.015742427307253316 0 -0.00059406494528889539 -0.016591247993346745 0 0.00019172345316560889 -0.014522231043100842 0 -0.00097581024900424661 -0.015103397216301584 0 -0.00059406494528889539 -0.016591247993346745 0 -0.0018621948069100945 -0.01471759335119149 0 -0.00097581024900424661 -0.015103397216301584 0 -0.0016631454545464263 -0.015742427307253316 0 -0.00059406494528889539 -0.016591247993346745 0 0.00072531475580805537 -0.017821239017665507 0 -0.0018274466199898428 -0.018390023684150821 0 -0.0016631454545464263 -0.015742427307253316 0 -0.00059406494528889539 -0.016591247993346745 0 -0.0022406731515124696 -0.01658684487107253 0 0.00019172345316560889 -0.014522231043100842 0 -0.00059406494528889539 -0.016591247993346745 0 0.00072531475580805537 -0.017821239017665507 0 -0.00059406494528889539 -0.016591247993346745 0 -0.0018274466199898428 -0.018390023684150821 0 -0.0022406731515124696 -0.01658684487107253 0 0.00072531475580805537 -0.017821239017665507 0 -0.0018274466199898428 -0.018390023684150821 0 0.00043303077807389724 -0.019584555537077643 0 -0.0018274466199898428 -0.018390023684150821 0 -0.0028800424668337992 -0.017093122315485029 0 -0.0022406731515124696 -0.01658684487107253 0 -0.0033399754593157484 -0.016198669838569227 0 -0.0028800424668337992 -0.017093122315485029 0 -0.0022406731515124696 -0.01658684487107253 0 -0.0041136795892240639 -0.017194561812130783 0 -0.0033399754593157484 -0.016198669838569227 0 -0.0028800424668337992 -0.017093122315485029 0 -0.00042111302016938296 -0.011108597608240223 0 7.1211947193838181e-05 -0.013336996755595836 0 -0.0039726370402337731 -0.018501567443716529 0 -0.0039718232764594458 -0.017240486260177532 0 -0.001761125129427043 -0.018408079126016823 0 -0.0041136795892240639 -0.017194561812130783 0 -0.0018274466199898428 -0.018390023684150821 0 -0.0028800424668337992 -0.017093122315485029 0 -0.00015709481025962164 -0.010832727088047738 0 0.0015180950637978803 -0.015881008275246196 0 -0.0019375713132739739 -0.019655407715065774 0 -0.0010768862071748287 -0.021081655932833655 0 0.00040927371391014626 -0.020890728449357049 0 -0.0039726370402337731 -0.018501567443716529 0 -0.001761125129427043 -0.018408079126016823 0 -0.00061821424618121415 -0.020268008375077542 0 -0.0019375713132739739 -0.019655407715065774 0 -0.0019253123976284924 -0.022470484845841604 0 -0.0010768862071748287 -0.021081655932833655 0 -0.0010768862071748287 -0.021081655932833655 0 -0.00018173012426550192 -0.022017496124459791 0 0.00040927371391014626 -0.020890728449357049 0 -0.0019253123976284924 -0.022470484845841604 0 -0.0010768862071748287 -0.021081655932833655 0 -0.00018173012426550192 -0.022017496124459791 0 -0.0019253123976284924 -0.022470484845841604 0 -0.00018173012426550192 -0.022017496124459791 0 0.00061071050922137068 -0.023405471856719578 0 0.0011188421320748436 -0.022319923767467383 0 0.001832179027239947 -0.0232810359113307 0 0.00061071050922137068 -0.023405471856719578 0 0.0011188421320748436 -0.022319923767467383 0 -0.00018173012426550192 -0.022017496124459791 0 0.00061071050922137068 -0.023405471856719578 0 0.0011188421320748436 -0.022319923767467383 0 -0.00018173012426550192 -0.022017496124459791 0 0.00040927371391014626 -0.020890728449357049 0 -0.00061821424618121415 -0.020268008375077542 0 0.00043303077807389724 -0.019584555537077643 0 0.0015902101333254838 -0.020339103603424676 0 7.1211947193838181e-05 -0.013336996755595836 0 0.00052293202314306596 -0.014183789211253675 0 -0.001761125129427043 -0.018408079126016823 0 -0.00061821424618121415 -0.020268008375077542 0 0.00043303077807389724 -0.019584555537077643 0 0.00072531475580805537 -0.017821239017665507 0 0.00043303077807389724 -0.019584555537077643 0 0.0017645259199365142 -0.019134083887186799 0 0.0017645259199365142 -0.019134083887186799 0 0.0035420483305409357 -0.020942387058589054 0 0.0024442987231725398 -0.017352745519268794 0 0.00043303077807389724 -0.019584555537077643 0 0.0017645259199365142 -0.019134083887186799 0 0.0015902101333254838 -0.020339103603424676 0 -0.00061821424618121415 -0.020268008375077542 0 0.0015902101333254838 -0.020339103603424676 0 0.0027158779475480754 -0.021975257724058089 0 0.0029505096081965661 -0.018568027429920936 0 0.0023797767565708235 -0.016853072077112698 0 0.0017645259199365142 -0.019134083887186799 0 0.0015902101333254838 -0.020339103603424676 0 0.0035420483305409357 -0.020942387058589054 0 0.0015902101333254838 -0.020339103603424676 0 0.0027158779475480754 -0.021975257724058089 0 0.0035420483305409357 -0.020942387058589054 0 0.0015180950637978803 -0.015881008275246196 0 0.0025452910723871096 -0.017586342624193112 0 0.0011188421320748436 -0.022319923767467383 0 0.00040927371391014626 -0.020890728449357049 0 0.0027158779475480754 -0.021975257724058089 0 0.0011188421320748436 -0.022319923767467383 0 0.0027158779475480754 -0.021975257724058089 0 0.001832179027239947 -0.0232810359113307 0 0.0040953578901615304 -0.022434490236090631 0 0.0043237320233401244 -0.020482391752597924 0 0.0060082896322606692 -0.022661102765701064 0 0.0027158779475480754 -0.021975257724058089 0 0.0040953578901615304 -0.022434490236090631 0 0.0029959369751290849 -0.024065794219597737 0 0.0040953578901615304 -0.022434490236090631 0 0.0043237320233401244 -0.020482391752597924 0 0.0035420483305409357 -0.020942387058589054 0 0.0027158779475480754 -0.021975257724058089 0 0.0040953578901615304 -0.022434490236090631 0 0.0035420483305409357 -0.020942387058589054 0 0.0039419624242518093 -0.019317845023811061 0 0.0023797767565708235 -0.016853072077112698 0 0.0043237320233401244 -0.020482391752597924 0 0.0035420483305409357 -0.020942387058589054 0 0.0025935884771067343 -0.018395915807120064 0 0.0030185840586648078 -0.018624703006723729 0 0.003270942550310785 -0.015142146525801177 0 0.00084248448593698694 -0.015934100770697297 0 0.00019172345316560889 -0.014522231043100842 0 0.00072531475580805537 -0.017821239017665507 0 0.0024442987231725398 -0.017352745519268794 0 0.00072531475580805537 -0.017821239017665507 0 0.0017645259199365142 -0.019134083887186799 0 0.0024442987231725398 -0.017352745519268794 0 0.0016512482309571325 -0.016037887590863779 0 0.0023797767565708235 -0.016853072077112698 0 0.00019172345316560889 -0.014522231043100842 0 0.0025209350997174957 -0.017324527587960437 0 0.001356945357153614 -0.014168113343894036 0 0.0010204514107007888 -0.012732767714259571 0 0.00084248448593698694 -0.015934100770697297 0 -0.00017120249438679557 -0.013120921688468859 0 0.0023797767565708235 -0.016853072077112698 0 0.0017017101589220211 -0.013388212241783014 0 0.00041999156602710852 -0.011566622290445099 0 0.0031729437794038116 -0.014466999390136896 0 0.0029681566632961693 -0.012024069306014285 0 0.0018868536756364417 -0.011859253234684083 0 0.0036207617485564262 -0.014440440073361652 0 0.0010204514107007888 -0.012732767714259571 0 0.003270942550310785 -0.015142146525801177 0 0.00084248448593698694 -0.015934100770697297 0 0.0031729437794038116 -0.014466999390136896 0 0.0029681566632961693 -0.012024069306014285 0 0.0044751404248964703 -0.012909157097912271 0 0.004474843192975626 -0.010725859435129296 0 0.0044751404248964703 -0.012909157097912271 0 0.0077170869394710762 -0.011720144179922103 0 0.0031729437794038116 -0.014466999390136896 0 0.0044751404248964703 -0.012909157097912271 0 0.0062632077565188023 -0.013833603054671257 0 0.0044751404248964703 -0.012909157097912271 0 0.0077170869394710762 -0.011720144179922103 0 0.0062632077565188023 -0.013833603054671257 0 0.004474843192975626 -0.010725859435129296 0 0.0029681566632961693 -0.012024069306014285 0 0.0044751404248964703 -0.012909157097912271 0 0.0077170869394710762 -0.011720144179922103 0 0.0062632077565188023 -0.013833603054671257 0 0.0087004427921424654 -0.014879675577368289 0 0.0087004427921424654 -0.014879675577368289 0 0.0057202812225604386 -0.017271781875211219 0 0.0094553679174780372 -0.017652715738817465 0 0.0062632077565188023 -0.013833603054671257 0 0.0087004427921424654 -0.014879675577368289 0 0.0057202812225604386 -0.017271781875211219 0 0.0030185840586648078 -0.018624703006723729 0 0.003270942550310785 -0.015142146525801177 0 0.0056079898797713537 -0.017605952966299337 0 0.0031729437794038116 -0.014466999390136896 0 0.0062632077565188023 -0.013833603054671257 0 0.0057202812225604386 -0.017271781875211219 0 0.0036207617485564262 -0.014440440073361652 0 0.0055593969792461975 -0.016858784383170913 0 0.0030185840586648078 -0.018624703006723729 0 0.0054824244096339115 -0.019471014287620044 0 0.0056079898797713537 -0.017605952966299337 0 0.0039419624242518093 -0.019317845023811061 0 0.0055878804926238722 -0.021585133691912409 0 0.0030185840586648078 -0.018624703006723729 0 0.0054824244096339115 -0.019471014287620044 0 0.0052719820219350125 -0.02151101793683655 0 0.0052719820219350125 -0.02151101793683655 0 0.0081170479089899029 -0.020159301302898575 0 0.0089806046272309752 -0.022435221601317234 0 0.0054824244096339115 -0.019471014287620044 0 0.0052719820219350125 -0.02151101793683655 0 0.0081170479089899029 -0.020159301302898575 0 0.0057202812225604386 -0.017271781875211219 0 0.0081170479089899029 -0.020159301302898575 0 0.0094553679174780372 -0.017652715738817465 0 0.0055593969792461975 -0.016858784383170913 0 0.0066543683416532108 -0.018138658080974857 0 0.0054824244096339115 -0.019471014287620044 0 0.0056079898797713537 -0.017605952966299337 0 0.0081170479089899029 -0.020159301302898575 0 0.0094553679174780372 -0.017652715738817465 0 0.010704109738934167 -0.020744132935421156 0 0.01262060847778968 -0.018296861568119903 0 0.0081170479089899029 -0.020159301302898575 0 0.010704109738934167 -0.020744132935421156 0 0.0089806046272309752 -0.022435221601317234 0 0.0081170479089899029 -0.020159301302898575 0 0.0094553679174780372 -0.017652715738817465 0 0.010704109738934167 -0.020744132935421156 0 0.013883102525963595 -0.021945751315074546 0 0.010704109738934167 -0.020744132935421156 0 0.01262060847778968 -0.018296861568119903 0 0.0094553679174780372 -0.017652715738817465 0 0.01262060847778968 -0.018296861568119903 0 0.011405236344483592 -0.015450577578716049 0 0.014093008359190223 -0.015522553909943873 0 0.011405236344483592 -0.015450577578716049 0 0.01276254885679636 -0.013228078366566443 0 0.014093008359190223 -0.015522553909943873 0 0.01262060847778968 -0.018296861568119903 0 0.011405236344483592 -0.015450577578716049 0 0.0087004427921424654 -0.014879675577368289 0 0.011405236344483592 -0.015450577578716049 0 0.010415870717671395 -0.013236967798221602 0 0.0087004427921424654 -0.014879675577368289 0 0.0094553679174780372 -0.017652715738817465 0 0.011405236344483592 -0.015450577578716049 0 0.010942102660352499 -0.010919164633724301 0 0.0077170869394710762 -0.011720144179922103 0 0.010415870717671395 -0.013236967798221602 0 0.0077170869394710762 -0.011720144179922103 0 0.0087004427921424654 -0.014879675577368289 0 0.010415870717671395 -0.013236967798221602 0 0.013096353281569962 -0.010884338035024569 0 0.010942102660352499 -0.010919164633724301 0 0.01276254885679636 -0.013228078366566443 0 0.010942102660352499 -0.010919164633724301 0 0.010415870717671395 -0.013236967798221602 0 0.01276254885679636 -0.013228078366566443 0 0.014823484631740354 -0.012858826370414418 0 0.013096353281569962 -0.010884338035024569 0 0.01276254885679636 -0.013228078366566443 0 0.011405236344483592 -0.015450577578716049 0 0.010415870717671395 -0.013236967798221602 0 0.01276254885679636 -0.013228078366566443 0 0.010771470414333153 -0.034837323090275103 0 0.007023021842914731 -0.032094992302248999 0 0.011037021575311048 -0.030495108680966342 0 0.010771470414333153 -0.034837323090275103 0 0.007023021842914731 -0.032094992302248999 0 0.0063569451356681609 -0.035507573151667714 0 0.007023021842914731 -0.032094992302248999 0 0.0026214780619293332 -0.03039090128694753 0 0.0044035101976955893 -0.033549842953108894 0 0.007023021842914731 -0.032094992302248999 0 0.0044035101976955893 -0.033549842953108894 0 0.0063569451356681609 -0.035507573151667714 0 0.0044035101976955893 -0.033549842953108894 0 0.003988321856821673 -0.035612041554606906 0 0.0063569451356681609 -0.035507573151667714 0 0.0084954840830797872 -0.027593812399221703 0 0.0052516469229553575 -0.028760114889758197 0 0.007023021842914731 -0.032094992302248999 0 0.0072714184063665307 -0.028182390109481637 0 0.0026214780619293332 -0.03039090128694753 0 0.013342292151102655 -0.02590637674745367 0 0.011037021575311048 -0.030495108680966342 0 0.0072714184063665307 -0.028182390109481637 0 0.007023021842914731 -0.032094992302248999 0 0.011037021575311048 -0.030495108680966342 0 0.0072714184063665307 -0.028182390109481637 0 0.013342292151102655 -0.02590637674745367 0 0.011011060697734639 -0.023837788747099891 0 0.01021518903979019 -0.026689529045456784 0 0.010405790998416051 -0.026913653115939015 0 0.0084954840830797872 -0.027593812399221703 0 0.013883102525963595 -0.021945751315074546 0 0.010704109738934167 -0.020744132935421156 0 0.011011060697734639 -0.023837788747099891 0 0.013883102525963595 -0.021945751315074546 0 0.013342292151102655 -0.02590637674745367 0 0.011011060697734639 -0.023837788747099891 0 0.010704109738934167 -0.020744132935421156 0 0.011011060697734639 -0.023837788747099891 0 0.0089806046272309752 -0.022435221601317234 0 0.011011060697734639 -0.023837788747099891 0 0.0089806046272309752 -0.022435221601317234 0 0.0077653826662026654 -0.024597665846479225 0 0.011011060697734639 -0.023837788747099891 0 0.01021518903979019 -0.026689529045456784 0 0.0077653826662026654 -0.024597665846479225 0 0.0077653826662026654 -0.024597665846479225 0 0.0056540955224812107 -0.026209782013682206 0 0.0072412549639128947 -0.027542393249690066 0 0.01021518903979019 -0.026689529045456784 0 0.0077653826662026654 -0.024597665846479225 0 0.0072412549639128947 -0.027542393249690066 0 0.0055878804926238722 -0.021585133691912409 0 0.006531128038409861 -0.022801810792740324 0 0.0052719820219350125 -0.02151101793683655 0 0.0089806046272309752 -0.022435221601317234 0 0.0077653826662026654 -0.024597665846479225 0 0.0040953578901615304 -0.022434490236090631 0 0.0060082896322606692 -0.022661102765701064 0 0.0049457825208684596 -0.024339688252956508 0 0.0060082896322606692 -0.022661102765701064 0 0.0077653826662026654 -0.024597665846479225 0 0.0049457825208684596 -0.024339688252956508 0 0.0049457825208684596 -0.024339688252956508 0 0.0056540955224812107 -0.026209782013682206 0 0.0037988533550278886 -0.026170996537141212 0 0.0077653826662026654 -0.024597665846479225 0 0.0049457825208684596 -0.024339688252956508 0 0.0056540955224812107 -0.026209782013682206 0 0.0052516469229553575 -0.028760114889758197 0 0.0023632329805730501 -0.02976150002782153 0 0.0056540955224812107 -0.026209782013682206 0 0.0072412549639128947 -0.027542393249690066 0 0.0046253567773663368 -0.028394137492258272 0 0.0026214780619293332 -0.03039090128694753 0 0.0044035101976955893 -0.033549842953108894 0 0.0021242096641935502 -0.034016310101813538 0 0.0044035101976955893 -0.033549842953108894 0 0.0021242096641935502 -0.034016310101813538 0 0.003988321856821673 -0.035612041554606906 0 0.0023632329805730501 -0.02976150002782153 0 0.0023187114475777255 -0.033024087438423243 0 0.0026214780619293332 -0.03039090128694753 0 0.0021242096641935502 -0.034016310101813538 0 -0.0015443354485863035 -0.032145359927958042 0 0.0021242096641935502 -0.034016310101813538 0 -0.0015443354485863035 -0.032145359927958042 0 0.00057010673217943906 -0.036618206623316635 0 -9.2452311506367456e-05 -0.02897821011290002 0 -0.00067677391113735597 -0.030386944668557681 0 0.0014291902296707211 -0.031509080452743761 0 0.0023632329805730501 -0.02976150002782153 0 0.0015119258207913135 -0.029704474091505562 0 -9.2452311506367456e-05 -0.02897821011290002 0 -0.00063700192679551414 -0.02984189677355837 0 -0.00067677391113735597 -0.030386944668557681 0 -0.00063700192679551414 -0.02984189677355837 0 0.0001775602635099571 -0.02932513181389905 0 -0.00025991241986061774 -0.029540714874915625 0 0.0015119258207913135 -0.029704474091505562 0 0.0010892721539607088 -0.02974093716300218 0 0.0023971533300244747 -0.028769292382886714 0 0.0021813764299571867 -0.027068755610423441 0 0.00055984834309233541 -0.027939653914914979 0 0.0044222594975117727 -0.028077033769966984 0 0.0023971533300244747 -0.028769292382886714 0 0.0021813764299571867 -0.027068755610423441 0 0.0056540955224812107 -0.026209782013682206 0 0.0046253567773663368 -0.028394137492258272 0 0.0037988533550278886 -0.026170996537141212 0 0.0023632329805730501 -0.02976150002782153 0 0.002375722452332008 -0.027418210730189387 0 0.0044222594975117727 -0.028077033769966984 0 0.0021813764299571867 -0.027068755610423441 0 0.0036795975130033162 -0.026101671559721557 0 0.0049457825208684596 -0.024339688252956508 0 0.0037988533550278886 -0.026170996537141212 0 0.0029959369751290849 -0.024065794219597737 0 0.002375722452332008 -0.027418210730189387 0 0.0022541691993598332 -0.026390524198874755 0 0.0040953578901615304 -0.022434490236090631 0 0.0049457825208684596 -0.024339688252956508 0 0.0029959369751290849 -0.024065794219597737 0 0.0027158779475480754 -0.021975257724058089 0 0.0029959369751290849 -0.024065794219597737 0 0.001832179027239947 -0.0232810359113307 0 0.0029959369751290849 -0.024065794219597737 0 0.001832179027239947 -0.0232810359113307 0 0.0015477051757608426 -0.024979852990515982 0 0.0036795975130033162 -0.026101671559721557 0 0.0029959369751290849 -0.024065794219597737 0 0.0015477051757608426 -0.024979852990515982 0 0.0021813764299571867 -0.027068755610423441 0 0.0015477051757608426 -0.024979852990515982 0 0.00017815003576811429 -0.026486581727412986 0 0.0021813764299571867 -0.027068755610423441 0 0.0036795975130033162 -0.026101671559721557 0 0.0015477051757608426 -0.024979852990515982 0 0.0015477051757608426 -0.024979852990515982 0 -0.0002082530388391019 -0.024945576426047708 0 0.00017815003576811429 -0.026486581727412986 0 0.0015477051757608426 -0.024979852990515982 0 -0.0002082530388391019 -0.024945576426047708 0 0.00061071050922137068 -0.023405471856719578 0 0.001832179027239947 -0.0232810359113307 0 0.0015477051757608426 -0.024979852990515982 0 0.00061071050922137068 -0.023405471856719578 0 -0.0019253123976284924 -0.022470484845841604 0 -0.0002082530388391019 -0.024945576426047708 0 0.00061071050922137068 -0.023405471856719578 0 -0.0019253123976284924 -0.022470484845841604 0 -0.0002082530388391019 -0.024945576426047708 0 -0.0017951637730556731 -0.025347102694523782 0 -0.0002082530388391019 -0.024945576426047708 0 0.00017815003576811429 -0.026486581727412986 0 -0.0017951637730556731 -0.025347102694523782 0 0.00017815003576811429 -0.026486581727412986 0 -0.0017951637730556731 -0.025347102694523782 0 -0.0012912543756688248 -0.028102503684468837 0 0.00017815003576811429 -0.026486581727412986 0 0.00055984834309233541 -0.027939653914914979 0 -0.0012912543756688248 -0.028102503684468837 0 0.0021813764299571867 -0.027068755610423441 0 0.00017815003576811429 -0.026486581727412986 0 0.00055984834309233541 -0.027939653914914979 0 0.00055984834309233541 -0.027939653914914979 0 0.0001775602635099571 -0.02932513181389905 0 -0.0012912543756688248 -0.028102503684468837 0 0.0023971533300244747 -0.028769292382886714 0 0.00055984834309233541 -0.027939653914914979 0 0.0001775602635099571 -0.02932513181389905 0 0.0001775602635099571 -0.02932513181389905 0 -0.0012912543756688248 -0.028102503684468837 0 -0.00030944926748274721 -0.0293828825078137 0 0.0001775602635099571 -0.02932513181389905 0 -0.00012714598866507985 -0.029311388596362616 0 -0.00030944926748274721 -0.0293828825078137 0 0.0001775602635099571 -0.02932513181389905 0 -0.00012714598866507985 -0.029311388596362616 0 -0.00025991241986061774 -0.029540714874915625 0 -0.00012714598866507985 -0.029311388596362616 0 -0.00032925634952523481 -0.029138367218802377 0 -0.00025991241986061774 -0.029540714874915625 0 -0.00012714598866507985 -0.029311388596362616 0 -0.00058173003242824035 -0.028371012487461746 0 -0.00032925634952523481 -0.029138367218802377 0 -0.00012714598866507985 -0.029311388596362616 0 -0.00030944926748274721 -0.0293828825078137 0 0.00059563652458428787 -0.02868803574749601 0 -0.00027544567754103822 -0.02685124903812899 0 -0.00058173003242824035 -0.028371012487461746 0 0.00059563652458428787 -0.02868803574749601 0 -0.00012714598866507985 -0.029311388596362616 0 -0.00058173003242824035 -0.028371012487461746 0 0.00059563652458428787 -0.02868803574749601 0 -0.00027544567754103822 -0.02685124903812899 0 -1.8939153117292928e-06 -0.027219131894178197 0 3.3441923059227459e-06 -0.023752396463284593 0 -0.00027544567754103822 -0.02685124903812899 0 0.00059563652458428787 -0.02868803574749601 0 3.3441923059227459e-06 -0.023752396463284593 0 -1.8939153117292928e-06 -0.027219131894178197 0 -0.00058173003242824035 -0.028371012487461746 0 -3.7316918479877997e-07 -0.030679104228509998 0 -0.00027544567754103822 -0.02685124903812899 0 -1.8939153117292928e-06 -0.027219131894178197 0 -0.00058173003242824035 -0.028371012487461746 0 -0.00058173003242824035 -0.028371012487461746 0 -0.00014707093378085677 -0.029061492528125496 0 -0.00032925634952523481 -0.029138367218802377 0 -0.00014707093378085677 -0.029061492528125496 0 -3.7316918479877997e-07 -0.030679104228509998 0 4.2826115759324367e-05 -0.029447390928447344 0 2.087782586498152e-07 -0.030693768432436635 0 -9.4652266085118526e-05 -0.033471028841037691 0 -0.00058173003242824035 -0.028371012487461746 0 -0.00014707093378085677 -0.029061492528125496 0 -3.7316918479877997e-07 -0.030679104228509998 0 2.018939499031148e-06 -0.030690715105016343 0 -2.020850445356914e-06 -0.035377731045614098 0 -0.00011700600464388595 -0.035740803123320883 0 -2.020850445356914e-06 -0.035377731045614098 0 -0.00011700600464388595 -0.035740803123320883 0 -0.00014552732279382317 -0.036675918959819302 0 -0.00014707093378085677 -0.029061492528125496 0 4.2826115759324367e-05 -0.029447390928447344 0 -0.00026026553866205618 -0.029250044833510423 0 -0.00014707093378085677 -0.029061492528125496 0 -0.00026026553866205618 -0.029250044833510423 0 -0.00034643825229802039 -0.029378283396379316 0 -0.00026026553866205618 -0.029250044833510423 0 -0.00034643825229802039 -0.029378283396379316 0 -0.00058059634353062838 -0.029435343383548383 0 -0.00014707093378085677 -0.029061492528125496 0 -0.00034643825229802039 -0.029378283396379316 0 -0.00032925634952523481 -0.029138367218802377 0 -0.00034643825229802039 -0.029378283396379316 0 -0.00032925634952523481 -0.029138367218802377 0 -0.00025991241986061774 -0.029540714874915625 0 -0.00063700192679551414 -0.02984189677355837 0 -0.00025991241986061774 -0.029540714874915625 0 -0.00067677391113735597 -0.030386944668557681 0 -0.00034643825229802039 -0.029378283396379316 0 -0.00025991241986061774 -0.029540714874915625 0 -0.00067677391113735597 -0.030386944668557681 0 -0.00034643825229802039 -0.029378283396379316 0 -0.00067677391113735597 -0.030386944668557681 0 -0.00058059634353062838 -0.029435343383548383 0 -0.00058891310400579599 -0.03333907767107111 0 -0.00033176471665772109 -0.034211464573128694 0 -0.00067677391113735597 -0.030386944668557681 0 0.0014291902296707211 -0.031509080452743761 0 -0.00036384248204602779 -0.03587160054401773 0 0.0021242096641935502 -0.034016310101813538 0 0.00057010673217943906 -0.036618206623316635 0 0.0024319740639136486 -0.036285137289399409 0 0.0021242096641935502 -0.034016310101813538 0 0.0024319740639136486 -0.036285137289399409 0 0.003988321856821673 -0.035612041554606906 0 0.0024319740639136486 -0.036285137289399409 0 0.003988321856821673 -0.035612041554606906 0 0.0034230148186250864 -0.037396680680337281 0 0.0034230148186250864 -0.037396680680337281 0 0.0040767337506039652 -0.038661312106468393 0 0.004872677515540237 -0.037554513577756875 0 0.003988321856821673 -0.035612041554606906 0 0.0034230148186250864 -0.037396680680337281 0 0.004872677515540237 -0.037554513577756875 0 0.00057010673217943906 -0.036618206623316635 0 0.0024319740639136486 -0.036285137289399409 0 0.0024600768225750925 -0.03764250489937819 0 0.0024319740639136486 -0.036285137289399409 0 0.0034230148186250864 -0.037396680680337281 0 0.0024600768225750925 -0.03764250489937819 0 0.0024600768225750925 -0.03764250489937819 0 0.0032565226790716565 -0.03842597184134991 0 0.002801097952830955 -0.039003394887334154 0 0.0034230148186250864 -0.037396680680337281 0 0.0024600768225750925 -0.03764250489937819 0 0.0032565226790716565 -0.03842597184134991 0 0.0034230148186250864 -0.037396680680337281 0 0.0032565226790716565 -0.03842597184134991 0 0.0040767337506039652 -0.038661312106468393 0 0.0032565226790716565 -0.03842597184134991 0 0.0040767337506039652 -0.038661312106468393 0 0.0038313306595799401 -0.039117243767112501 0 0.0032565226790716565 -0.03842597184134991 0 0.0038313306595799401 -0.039117243767112501 0 0.002801097952830955 -0.039003394887334154 0 0.0014291902296707211 -0.031509080452743761 0 0.002801097952830955 -0.039003394887334154 0 -0.00036384248204602779 -0.03587160054401773 0 0.00057010673217943906 -0.036618206623316635 0 0.0024600768225750925 -0.03764250489937819 0 0.002801097952830955 -0.039003394887334154 0 -0.00033176471665772109 -0.034211464573128694 0 0.00032984387859986942 -0.036420229263237375 0 0.0023187114475777255 -0.033024087438423243 0 0.0027033793253131416 -0.03495408402259359 0 0.002801097952830955 -0.039003394887334154 0 -0.00036384248204602779 -0.03587160054401773 0 0.0017771950968082635 -0.040742537938592317 0 -0.00026026553866205618 -0.029250044833510423 0 -0.00058059634353062838 -0.029435343383548383 0 -0.00037412783348338905 -0.02923897301600999 0 4.2826115759324367e-05 -0.029447390928447344 0 -0.00026026553866205618 -0.029250044833510423 0 -0.00037412783348338905 -0.02923897301600999 0 -9.4652266085118526e-05 -0.033471028841037691 0 0.00032984387859986942 -0.036420229263237375 0 0.00014086988781243371 -0.035900004880027571 0 -0.00014552732279382317 -0.036675918959819302 0 2.0167439287507107e-06 -0.040056539121839034 0 -0.00011700600464388595 -0.035740803123320883 0 0.00014086988781243371 -0.035900004880027571 0 -0.00014552732279382317 -0.036675918959819302 0 -2.020850445356914e-06 -0.035377731045614098 0 -0.00014552732279382317 -0.036675918959819302 0 2.0167439287507107e-06 -0.040056539121839034 0 7.2308463612789189e-06 -0.04007504592874063 0 0.0011931372005950457 -0.044723485864552943 0 0.0019103063861140965 -0.046839457618902347 0 0.00032984387859986942 -0.036420229263237375 0 2.3622905674530241e-06 -0.040060197937767869 0 0.003141733969902253 -0.045353953829655111 0 7.2308463612789189e-06 -0.04007504592874063 0 0.0011931372005950457 -0.044723485864552943 0 0.00055782577822953178 -0.044662056120259939 0 0.003141733969902253 -0.045353953829655111 0 0.0011931372005950457 -0.044723485864552943 0 0.0014520650069918188 -0.037549290014666066 0 0.00032984387859986942 -0.036420229263237375 0 0.0038313306595799401 -0.039117243767112501 0 0.002801097952830955 -0.039003394887334154 0 0.0017771950968082635 -0.040742537938592317 0 0.00055782577822953178 -0.044662056120259939 0 0.0011931372005950457 -0.044723485864552943 0 0.0019103063861140965 -0.046839457618902347 0 0.00055782577822953178 -0.044662056120259939 0 0.0019103063861140965 -0.046839457618902347 0 0.0035492649764873128 -0.04294691044147976 0 0.0019103063861140965 -0.046839457618902347 0 0.00062059149817175849 -0.049777216503859058 0 0.0017312685964859774 -0.053099749645586281 0 7.2308463612789189e-06 -0.04007504592874063 0 0.0019103063861140965 -0.046839457618902347 0 0.00053271345778229892 -0.047184185177830573 0 7.2308463612789189e-06 -0.04007504592874063 0 -7.4117748450080691e-07 -0.045628704551372135 0 0.00053271345778229892 -0.047184185177830573 0 -0.00029615003608300558 -0.050556470392889005 0 -7.4117748450080691e-07 -0.045628704551372135 0 0.00053271345778229892 -0.047184185177830573 0 -0.00029615003608300558 -0.050556470392889005 0 0.00062059149817175849 -0.049777216503859058 0 0.00013747647050597767 -0.052323166630520897 0 -0.00029615003608300558 -0.050556470392889005 0 0.00053271345778229892 -0.047184185177830573 0 0.00062059149817175849 -0.049777216503859058 0 0.0019103063861140965 -0.046839457618902347 0 0.00053271345778229892 -0.047184185177830573 0 0.00062059149817175849 -0.049777216503859058 0 0.00062059149817175849 -0.049777216503859058 0 0.00013747647050597767 -0.052323166630520897 0 0.0017312685964859774 -0.053099749645586281 0 0.00013747647050597767 -0.052323166630520897 0 0.0017312685964859774 -0.053099749645586281 0 0.00050437098866531842 -0.053937992466562987 0 0.0019103063861140965 -0.046839457618902347 0 0.0079055345323021994 -0.039531996700265568 0 0.0035492649764873128 -0.04294691044147976 0 0.0047452275049764802 -0.047163122861480875 0 0.0055226192981071643 -0.046648115110691904 0 0.0014520650069918188 -0.037549290014666066 0 0.002276918257151346 -0.037573986571300705 0 0.0040767337506039652 -0.038661312106468393 0 0.0038313306595799401 -0.039117243767112501 0 0.0051898782328908301 -0.039821621768649486 0 0.00055782577822953178 -0.044662056120259939 0 0.0035492649764873128 -0.04294691044147976 0 0.0051898782328908301 -0.039821621768649486 0 0.0040767337506039652 -0.038661312106468393 0 0.0051898782328908301 -0.039821621768649486 0 0.004872677515540237 -0.037554513577756875 0 0.0079055345323021994 -0.039531996700265568 0 0.0035492649764873128 -0.04294691044147976 0 0.0051898782328908301 -0.039821621768649486 0 0.0079055345323021994 -0.039531996700265568 0 0.0051898782328908301 -0.039821621768649486 0 0.0070748248189038913 -0.037362306825229827 0 0.0051898782328908301 -0.039821621768649486 0 0.0070748248189038913 -0.037362306825229827 0 0.004872677515540237 -0.037554513577756875 0 0.0070748248189038913 -0.037362306825229827 0 0.004872677515540237 -0.037554513577756875 0 0.0063569451356681609 -0.035507573151667714 0 0.003988321856821673 -0.035612041554606906 0 0.004872677515540237 -0.037554513577756875 0 0.0063569451356681609 -0.035507573151667714 0 0.010771470414333153 -0.034837323090275103 0 0.0070748248189038913 -0.037362306825229827 0 0.0063569451356681609 -0.035507573151667714 0 0.0004448943689324222 -0.055573683852829743 0 0.0017312685964859774 -0.053099749645586281 0 0.00050437098866531842 -0.053937992466562987 0 0.010771470414333153 -0.034837323090275103 0 0.0079055345323021994 -0.039531996700265568 0 0.0070748248189038913 -0.037362306825229827 0 0.0069881321661927143 -0.045986644805857485 0 0.0055226192981071643 -0.046648115110691904 0 -0.0095210578981730701 -0.0018374402197975962 0 -0.0092735311745401981 -0.000592365986842399 0 -0.0093796731623076793 -0.0034254305073363701 0 -0.0095210578981730701 -0.0018374402197975962 0 -0.009851331733620565 -0.00069342373861181665 0 -0.0095334378877980838 -0.0032900595106605699 0 -0.0073365109532342503 -0.0062215284740348717 0 -0.0082555530721508744 -0.0055574720399688606 0 -0.0065434152275930055 -0.0096650123823638755 0 -0.0063950562257442953 -0.011588942630474738 0 -0.0083086642291334539 -0.0084434366228807612 0 -0.0056966830742463219 -0.010642986863739146 0 -0.0065434152275930055 -0.0096650123823638755 0 -0.0063950562257442953 -0.011588942630474738 0 -0.0095210578981730701 -0.0018374402197975962 0 -0.009851331733620565 -0.00069342373861181665 0 -0.0095965878788786315 -0.0008140635084715566 0 -0.0065434152275930055 -0.0096650123823638755 0 -0.0058291800557571547 -0.0087758860826362538 0 -0.0069064755356150649 -0.008472414732970163 0 -0.0056966830742463219 -0.010642986863739146 0 -0.0065434152275930055 -0.0096650123823638755 0 -0.0055102372534782786 -0.0097624151085020962 0 -0.0065434152275930055 -0.0096650123823638755 0 -0.0055102372534782786 -0.0097624151085020962 0 -0.0058291800557571547 -0.0087758860826362538 0 -0.0055102372534782786 -0.0097624151085020962 0 -0.0058291800557571547 -0.0087758860826362538 0 -0.0045479305960709083 -0.008957089002783275 0 -0.0055102372534782786 -0.0097624151085020962 0 -0.0046437309763351737 -0.010754038405043921 0 -0.0045479305960709083 -0.008957089002783275 0 -0.0046437309763351737 -0.010754038405043921 0 -0.0045479305960709083 -0.008957089002783275 0 -0.0033407256734115519 -0.0099542576037122393 0 -0.0046437309763351737 -0.010754038405043921 0 -0.0033407256734115519 -0.0099542576037122393 0 -0.0029938647138840449 -0.011915827310492823 0 -0.0056966830742463219 -0.010642986863739146 0 -0.0055102372534782786 -0.0097624151085020962 0 -0.0046437309763351737 -0.010754038405043921 0 -0.0056966830742463219 -0.010642986863739146 0 -0.0046437309763351737 -0.010754038405043921 0 -0.0053550796134462014 -0.011356474418359614 0 -0.0053550796134462014 -0.011356474418359614 0 -0.0047019615418392195 -0.012429388685914752 0 -0.0063950562257442953 -0.011588942630474738 0 -0.0046437309763351737 -0.010754038405043921 0 -0.0053550796134462014 -0.011356474418359614 0 -0.0047019615418392195 -0.012429388685914752 0 -0.0047019615418392195 -0.012429388685914752 0 -0.0063950562257442953 -0.011588942630474738 0 -0.0046662589464528817 -0.014340594741450427 0 -0.0046437309763351737 -0.010754038405043921 0 -0.0047019615418392195 -0.012429388685914752 0 -0.0029938647138840449 -0.011915827310492823 0 -0.0047019615418392195 -0.012429388685914752 0 -0.0029938647138840449 -0.011915827310492823 0 -0.0032287791758260943 -0.013437969147808322 0 -0.009702822840077405 -0.00053406378565320405 0 -0.0096378869803208193 -0.00038070969138416191 0 -0.009690135141210348 -0.00030364806430543576 0 -0.009851331733620565 -0.00069342373861181665 0 -0.009702822840077405 -0.00053406378565320405 0 -0.009690135141210348 -0.00030364806430543576 0 -0.0073365109532342503 -0.0062215284740348717 0 -0.0058125352703300879 -0.0072895971171393808 0 -0.0056966830742463219 -0.010642986863739146 0 -0.0053550796134462014 -0.011356474418359614 0 -0.0063950562257442953 -0.011588942630474738 0 -0.0095210578981730701 -0.0018374402197975962 0 -0.0095965878788786315 -0.0008140635084715566 0 -0.0092735311745401981 -0.000592365986842399 0 -0.009851331733620565 -0.00069342373861181665 0 -0.0095965878788786315 -0.0008140635084715566 0 -0.009702822840077405 -0.00053406378565320405 0 -0.010591219885224141 0.00031801184058117779 0 -0.010616791801895552 0.00033055333820907791 0 -0.0095965878788786315 -0.0008140635084715566 0 -0.009702822840077405 -0.00053406378565320405 0 -0.0092735311745401981 -0.000592365986842399 0 -0.009702822840077405 -0.00053406378565320405 0 -0.0096018489689982684 -0.00041458111436420313 0 -0.0096101191764675596 -0.00039597264208719436 0 -0.009702822840077405 -0.00053406378565320405 0 -0.0096101191764675596 -0.00039597264208719436 0 -0.0096378869803208193 -0.00038070969138416191 0 -0.0096101191764675596 -0.00039597264208719436 0 -0.0096378869803208193 -0.00038070969138416191 0 -0.0096168106429766476 -0.00033739620774621981 0 -0.0096018489689982684 -0.00041458111436420313 0 -0.0096296741957942033 -0.00024802679573802749 0 -0.0097052150073181007 0.00025479904910864586 0 -0.010616791801895552 0.00033055333820907791 0 -0.011131505515891123 0.00098856279202787613 0 -0.0096378869803208193 -0.00038070969138416191 0 -0.0096168106429766476 -0.00033739620774621981 0 -0.0096276496774485541 -0.00032623779306791592 0 -0.0096101191764675596 -0.00039597264208719436 0 -0.0096168106429766476 -0.00033739620774621981 0 -0.0096296741957942033 -0.00024802679573802749 0 -0.0096322635484029848 -0.00028431287837618548 0 -0.0096276496774485541 -0.00032623779306791592 0 -0.0096591288411868072 -0.00021842410619407114 0 -0.0096168106429766476 -0.00033739620774621981 0 -0.0096322635484029848 -0.00028431287837618548 0 -0.0096296741957942033 -0.00024802679573802749 0 -0.0096168106429766476 -0.00033739620774621981 0 -0.0096322635484029848 -0.00028431287837618548 0 -0.0096276496774485541 -0.00032623779306791592 0 -0.0096591288411868072 -0.00021842410619407114 0 -0.0097126281962086475 -0.00022590926874686964 0 -0.0096782814876784518 -0.0003065383360980368 0 -0.0096276496774485541 -0.00032623779306791592 0 -0.0096591288411868072 -0.00021842410619407114 0 -0.0096782814876784518 -0.0003065383360980368 0 -0.0096322635484029848 -0.00028431287837618548 0 -0.0096591288411868072 -0.00021842410619407114 0 -0.0096296741957942033 -0.00024802679573802749 0 -0.0096591288411868072 -0.00021842410619407114 0 -0.0096296741957942033 -0.00024802679573802749 0 -0.0097052150073181007 0.00025479904910864586 0 -0.0096018489689982684 -0.00041458111436420313 0 -0.0096101191764675596 -0.00039597264208719436 0 -0.0096296741957942033 -0.00024802679573802749 0 -0.0097987939701142564 -0.00026449218684525841 0 -0.0097606536388212504 -8.1292780808145753e-05 0 -0.010090405579430689 0.00011113296013955057 0 -0.0096591288411868072 -0.00021842410619407114 0 -0.0097126281962086475 -0.00022590926874686964 0 -0.0097606536388212504 -8.1292780808145753e-05 0 -0.0097987939701142564 -0.00026449218684525841 0 -0.0097126281962086475 -0.00022590926874686964 0 -0.0096782814876784518 -0.0003065383360980368 0 -0.0097987939701142564 -0.00026449218684525841 0 -0.0097126281962086475 -0.00022590926874686964 0 -0.0097606536388212504 -8.1292780808145753e-05 0 -0.0096591288411868072 -0.00021842410619407114 0 -0.0097606536388212504 -8.1292780808145753e-05 0 -0.0097052150073181007 0.00025479904910864586 0 -0.0097606536388212504 -8.1292780808145753e-05 0 -0.0097052150073181007 0.00025479904910864586 0 -0.010090405579430689 0.00011113296013955057 0 -0.012123250609449365 0.0023047817588137042 0 -0.012181204027336695 0.0022511184888310181 0 -0.012149109046564526 0.0021836202952327018 0 -0.012123250609449365 0.0023047817588137042 0 -0.012042376139321378 0.0021986465684646355 0 -0.012149109046564526 0.0021836202952327018 0 -0.012270048848640325 0.0023493189615384196 0 -0.012123250609449365 0.0023047817588137042 0 -0.012181204027336695 0.0022511184888310181 0 -0.012270048848640325 0.0023493189615384196 0 -0.012181204027336695 0.0022511184888310181 0 -0.012224967940091864 0.002191334878677681 0 -0.010616791801895552 0.00033055333820907791 0 -0.010870527652117348 -8.8728493580458956e-05 0 -0.0095210578981730701 -0.0018374402197975962 0 -0.0093796731623076793 -0.0034254305073363701 0 -0.0095334378877980838 -0.0032900595106605699 0 -0.0093796731623076793 -0.0034254305073363701 0 -0.0095334378877980838 -0.0032900595106605699 0 -0.010151110195478784 -0.003946747668321488 0 -0.0082555530721508744 -0.0055574720399688606 0 -0.008738171279669733 -0.0049819259764760995 0 -0.012181204027336695 0.0022511184888310181 0 -0.012224967940091864 0.002191334878677681 0 -0.012149109046564526 0.0021836202952327018 0 -0.012224967940091864 0.002191334878677681 0 -0.012149109046564526 0.0021836202952327018 0 -0.012179113931089851 0.0020909436733511219 0 -0.012042376139321378 0.0021986465684646355 0 -0.012149109046564526 0.0021836202952327018 0 -0.012054479199555613 0.0021425083611275584 0 -0.012149109046564526 0.0021836202952327018 0 -0.012054479199555613 0.0021425083611275584 0 -0.012116713492199531 0.0021136426723718403 0 -0.012149109046564526 0.0021836202952327018 0 -0.012116713492199531 0.0021136426723718403 0 -0.012179113931089851 0.0020909436733511219 0 -0.012054479199555613 0.0021425083611275584 0 -0.012068093148212097 0.0020832013726674531 0 -0.012116713492199531 0.0021136426723718403 0 -0.012068093148212097 0.0020832013726674531 0 -0.012134420358395862 0.002066401967963941 0 -0.012116713492199531 0.0021136426723718403 0 -0.012134420358395862 0.002066401967963941 0 -0.012179113931089851 0.0020909436733511219 0 -0.012165997021576299 0.0020247022177347414 0 -0.012134420358395862 0.002066401967963941 0 -0.012116713492199531 0.0021136426723718403 0 -0.012179113931089851 0.0020909436733511219 0 -0.012241343648065521 0.0019795599739827934 0 -0.012127656531692921 0.0019814960293277903 0 -0.012165997021576299 0.0020247022177347414 0 -0.012241343648065521 0.0019795599739827934 0 -0.012179113931089851 0.0020909436733511219 0 -0.012165997021576299 0.0020247022177347414 0 -0.012127656531692921 0.0019814960293277903 0 -0.012165997021576299 0.0020247022177347414 0 -0.012110118891053553 0.0020349786284901308 0 -0.012134420358395862 0.002066401967963941 0 -0.012165997021576299 0.0020247022177347414 0 -0.012110118891053553 0.0020349786284901308 0 -0.012068093148212097 0.0020832013726674531 0 -0.012134420358395862 0.002066401967963941 0 -0.012110118891053553 0.0020349786284901308 0 -0.012127656531692921 0.0019814960293277903 0 -0.012110118891053553 0.0020349786284901308 0 -0.012060691779953529 0.0020285353518285035 0 -0.012068093148212097 0.0020832013726674531 0 -0.012110118891053553 0.0020349786284901308 0 -0.012060691779953529 0.0020285353518285035 0 -0.012241343648065521 0.0019795599739827934 0 -0.012224967940091864 0.002191334878677681 0 -0.012179113931089851 0.0020909436733511219 0 -0.0083086642291334539 -0.0084434366228807612 0 -0.0084608947947377409 -0.0056655584168938027 0 -0.010151110195478784 -0.003946747668321488 0 -0.010416267359149052 -0.0039761041624797712 0 -0.0093796731623076793 -0.0034254305073363701 0 -0.010151110195478784 -0.003946747668321488 0 -0.011154630861172523 -0.00015900052058173499 0 -0.010870527652117348 -8.8728493580458956e-05 0 -0.0095079588046148855 -0.0035046309539354318 0 -0.010416267359149052 -0.0039761041624797712 0 -0.010151110195478784 -0.003946747668321488 0 -0.0095079588046148855 -0.0035046309539354318 0 -0.010151110195478784 -0.003946747668321488 0 -0.0086715424799815467 -0.0041262330987900291 0 -0.0084608947947377409 -0.0056655584168938027 0 -0.010151110195478784 -0.003946747668321488 0 -0.0086715424799815467 -0.0041262330987900291 0 -0.0070169419411030059 -0.0036016453178458092 0 -0.0086715424799815467 -0.0041262330987900291 0 -0.0073855408666444943 -0.0051794796647830627 0 -0.0070169419411030059 -0.0036016453178458092 0 -0.0059189145718633648 -0.0047017610968132983 0 -0.0073855408666444943 -0.0051794796647830627 0 -0.0050611013616765881 -0.0030878380322934026 0 -0.0070169419411030059 -0.0036016453178458092 0 -0.0059189145718633648 -0.0047017610968132983 0 -0.0059189145718633648 -0.0047017610968132983 0 -0.0059234494909504946 -0.0062272558007314179 0 -0.0073855408666444943 -0.0051794796647830627 0 -0.0059234494909504946 -0.0062272558007314179 0 -0.0073855408666444943 -0.0051794796647830627 0 -0.0076700705196483141 -0.0068823687871423728 0 -0.0084608947947377409 -0.0056655584168938027 0 -0.0073855408666444943 -0.0051794796647830627 0 -0.0076700705196483141 -0.0068823687871423728 0 -0.0084608947947377409 -0.0056655584168938027 0 -0.0086715424799815467 -0.0041262330987900291 0 -0.0073855408666444943 -0.0051794796647830627 0 -0.0083086642291334539 -0.0084434366228807612 0 -0.0084608947947377409 -0.0056655584168938027 0 -0.0076700705196483141 -0.0068823687871423728 0 -0.0076700705196483141 -0.0068823687871423728 0 -0.0063906727636573639 -0.0075874292564453915 0 -0.0074199476724540756 -0.0078564345824041083 0 -0.0059234494909504946 -0.0062272558007314179 0 -0.0076700705196483141 -0.0068823687871423728 0 -0.0063906727636573639 -0.0075874292564453915 0 -0.0063906727636573639 -0.0075874292564453915 0 -0.0058291800557571547 -0.0087758860826362538 0 -0.0069064755356150649 -0.008472414732970163 0 -0.0063906727636573639 -0.0075874292564453915 0 -0.0069064755356150649 -0.008472414732970163 0 -0.0074199476724540756 -0.0078564345824041083 0 -0.0083086642291334539 -0.0084434366228807612 0 -0.0076700705196483141 -0.0068823687871423728 0 -0.0074199476724540756 -0.0078564345824041083 0 -0.0065434152275930055 -0.0096650123823638755 0 -0.0083086642291334539 -0.0084434366228807612 0 -0.0069064755356150649 -0.008472414732970163 0 -0.0083086642291334539 -0.0084434366228807612 0 -0.0069064755356150649 -0.008472414732970163 0 -0.0074199476724540756 -0.0078564345824041083 0 -0.0045479305960709083 -0.008957089002783275 0 -0.0032344966858169726 -0.0074847580495269895 0 -0.0033407256734115519 -0.0099542576037122393 0 -0.0045479305960709083 -0.008957089002783275 0 -0.0047602488625525614 -0.0072190498135952953 0 -0.0032344966858169726 -0.0074847580495269895 0 -0.0058291800557571547 -0.0087758860826362538 0 -0.0045479305960709083 -0.008957089002783275 0 -0.0047602488625525614 -0.0072190498135952953 0 -0.0063906727636573639 -0.0075874292564453915 0 -0.0058291800557571547 -0.0087758860826362538 0 -0.0047602488625525614 -0.0072190498135952953 0 -0.0059234494909504946 -0.0062272558007314179 0 -0.0063906727636573639 -0.0075874292564453915 0 -0.0047602488625525614 -0.0072190498135952953 0 -0.0047602488625525614 -0.0072190498135952953 0 -0.0041831918551650275 -0.0054112192597734199 0 -0.0032344966858169726 -0.0074847580495269895 0 -0.0033734235954132981 -0.0036834477464445644 0 -0.0041831918551650275 -0.0054112192597734199 0 -0.0027915419113021716 -0.0053874766359706065 0 -0.0059234494909504946 -0.0062272558007314179 0 -0.0047602488625525614 -0.0072190498135952953 0 -0.0041831918551650275 -0.0054112192597734199 0 -0.0059189145718633648 -0.0047017610968132983 0 -0.0059234494909504946 -0.0062272558007314179 0 -0.0041831918551650275 -0.0054112192597734199 0 -0.0050611013616765881 -0.0030878380322934026 0 -0.0059189145718633648 -0.0047017610968132983 0 -0.0041831918551650275 -0.0054112192597734199 0 -0.0018263310702713355 -0.0039550051718507308 0 -0.0027915419113021716 -0.0053874766359706065 0 -0.0011864840408014399 -0.0066238427756417292 0 -0.0027915419113021716 -0.0053874766359706065 0 -0.0011864840408014399 -0.0066238427756417292 0 -0.0032344966858169726 -0.0074847580495269895 0 -0.0041831918551650275 -0.0054112192597734199 0 -0.0027915419113021716 -0.0053874766359706065 0 -0.0032344966858169726 -0.0074847580495269895 0 0.00089800209640846071 -0.0054159045958807016 0 -0.00037935836572572813 -0.004734279444826222 0 -0.0011864840408014399 -0.0066238427756417292 0 -0.0013583061289360668 -0.0035238497713231181 0 -0.0011800465967178771 -0.004457478129838665 0 -0.00059643187524996573 -0.0083744322077912697 0 0.00092887470704593276 -0.0077679115311846646 0 -0.00019482376827188898 -0.010141914405917401 0 -0.0011864840408014399 -0.0066238427756417292 0 -0.00059643187524996573 -0.0083744322077912697 0 -0.0020293468074965145 -0.0092871258926401478 0 -0.0011864840408014399 -0.0066238427756417292 0 -0.00059643187524996573 -0.0083744322077912697 0 0.00092887470704593276 -0.0077679115311846646 0 -0.0011864840408014399 -0.0066238427756417292 0 -0.0032344966858169726 -0.0074847580495269895 0 -0.0020293468074965145 -0.0092871258926401478 0 -0.0032344966858169726 -0.0074847580495269895 0 -0.0033407256734115519 -0.0099542576037122393 0 -0.0020293468074965145 -0.0092871258926401478 0 0.003576665058090853 -0.004925388563734201 0 0.0022610870990121558 -0.0060251688270398472 0 0.0036906100011828936 -0.0079036206429254595 0 0.00041637276675151268 -0.013710897111150398 0 0.00073502557905051364 -0.016517132058646508 0 0.0022610870990121558 -0.0060251688270398472 0 0.00092887470704593276 -0.0077679115311846646 0 0.0036906100011828936 -0.0079036206429254595 0 0.00089800209640846071 -0.0054159045958807016 0 -0.0011864840408014399 -0.0066238427756417292 0 0.00092887470704593276 -0.0077679115311846646 0 0.00089800209640846071 -0.0054159045958807016 0 0.0022610870990121558 -0.0060251688270398472 0 0.00092887470704593276 -0.0077679115311846646 0 0.00092887470704593276 -0.0077679115311846646 0 0.0036906100011828936 -0.0079036206429254595 0 0.0018420238782841337 -0.0099188564111020606 0 0.0036264150420701911 -0.011202389729907855 0 0.0018420238782841337 -0.0099188564111020606 0 0.0011851008203474617 -0.012642875297590152 0 0.00073502557905051364 -0.016517132058646508 0 0.00091507565351240045 -0.019131763550500714 0 0.0036906100011828936 -0.0079036206429254595 0 0.0036264150420701911 -0.011202389729907855 0 0.0018420238782841337 -0.0099188564111020606 0 0.00092887470704593276 -0.0077679115311846646 0 0.0018420238782841337 -0.0099188564111020606 0 -0.00019482376827188898 -0.010141914405917401 0 0.0018420238782841337 -0.0099188564111020606 0 0.0011851008203474617 -0.012642875297590152 0 -0.00019482376827188898 -0.010141914405917401 0 0.0036264150420701911 -0.011202389729907855 0 0.0011851008203474617 -0.012642875297590152 0 0.0032092165606189332 -0.014434505966905209 0 0.00091507565351240045 -0.019131763550500714 0 0.00093595809139792306 -0.02119912232420499 0 -0.0018495998500783085 -0.010981697500509986 0 -0.0033407256734115519 -0.0099542576037122393 0 -0.0029938647138840449 -0.011915827310492823 0 -0.0018495998500783085 -0.010981697500509986 0 -0.0033407256734115519 -0.0099542576037122393 0 -0.0020293468074965145 -0.0092871258926401478 0 -0.0018495998500783085 -0.010981697500509986 0 -0.0020293468074965145 -0.0092871258926401478 0 -0.00019482376827188898 -0.010141914405917401 0 -0.00059643187524996573 -0.0083744322077912697 0 -0.0020293468074965145 -0.0092871258926401478 0 -0.00019482376827188898 -0.010141914405917401 0 -0.0018495998500783085 -0.010981697500509986 0 -0.00019482376827188898 -0.010141914405917401 0 -0.0010174182958754721 -0.012342908970557367 0 0.0011851008203474617 -0.012642875297590152 0 -0.00019482376827188898 -0.010141914405917401 0 -0.0010174182958754721 -0.012342908970557367 0 0.0011851008203474617 -0.012642875297590152 0 -0.0010174182958754721 -0.012342908970557367 0 -0.00041782381222179156 -0.014636849440739442 0 -0.0010174182958754721 -0.012342908970557367 0 -0.0029938647138840449 -0.011915827310492823 0 -0.0018995502316376412 -0.013456055692634711 0 -0.0018495998500783085 -0.010981697500509986 0 -0.0010174182958754721 -0.012342908970557367 0 -0.0029938647138840449 -0.011915827310492823 0 -0.0029938647138840449 -0.011915827310492823 0 -0.0032287791758260943 -0.013437969147808322 0 -0.0018995502316376412 -0.013456055692634711 0 -0.0032287791758260943 -0.013437969147808322 0 -0.0020830881905273286 -0.014800925925569549 0 -0.0018995502316376412 -0.013456055692634711 0 -0.0010174182958754721 -0.012342908970557367 0 -0.0018995502316376412 -0.013456055692634711 0 -0.00041782381222179156 -0.014636849440739442 0 -0.0020830881905273286 -0.014800925925569549 0 -0.0018995502316376412 -0.013456055692634711 0 -0.00041782381222179156 -0.014636849440739442 0 -0.0020830881905273286 -0.014800925925569549 0 -0.00041782381222179156 -0.014636849440739442 0 -0.0011648479418861623 -0.016382044159857882 0 -0.00041782381222179156 -0.014636849440739442 0 -0.0011648479418861623 -0.016382044159857882 0 -0.00035598081042280036 -0.01739512803120704 0 -0.0011648479418861623 -0.016382044159857882 0 -0.002062877346527916 -0.016085813101845276 0 -0.0014441606893377623 -0.017019791720607611 0 -0.0020830881905273286 -0.014800925925569549 0 -0.002062877346527916 -0.016085813101845276 0 -0.0046662589464528817 -0.014340594741450427 0 -0.002062877346527916 -0.016085813101845276 0 -0.0014441606893377623 -0.017019791720607611 0 -0.0028516523271598388 -0.016799401023594535 0 -0.0020830881905273286 -0.014800925925569549 0 -0.0011648479418861623 -0.016382044159857882 0 -0.002062877346527916 -0.016085813101845276 0 0.0011851008203474617 -0.012642875297590152 0 0.0032092165606189332 -0.014434505966905209 0 0.001031542632036664 -0.015962182842308298 0 0.0011851008203474617 -0.012642875297590152 0 -0.00041782381222179156 -0.014636849440739442 0 0.001031542632036664 -0.015962182842308298 0 -0.00041782381222179156 -0.014636849440739442 0 0.001031542632036664 -0.015962182842308298 0 -0.00035598081042280036 -0.01739512803120704 0 0.00093595809139792306 -0.02119912232420499 0 0.00066099297826317034 -0.022585736365105608 0 0.0032092165606189332 -0.014434505966905209 0 0.001031542632036664 -0.015962182842308298 0 0.0025667745941376735 -0.017696716364293881 0 0.001031542632036664 -0.015962182842308298 0 0.0025667745941376735 -0.017696716364293881 0 0.00010361413311984903 -0.019012604108027215 0 0.001031542632036664 -0.015962182842308298 0 0.00010361413311984903 -0.019012604108027215 0 -0.00035598081042280036 -0.01739512803120704 0 0.00010361413311984903 -0.019012604108027215 0 -0.00035598081042280036 -0.01739512803120704 0 -0.00056265983524724492 -0.017841543981449541 0 0.00010361413311984903 -0.019012604108027215 0 -3.060514291357453e-06 -0.019105488318177197 0 -0.00056265983524724492 -0.017841543981449541 0 0.0025667745941376735 -0.017696716364293881 0 0.00010361413311984903 -0.019012604108027215 0 6.2322558876251639e-06 -0.023738554371407889 0 0.00010361413311984903 -0.019012604108027215 0 -3.060514291357453e-06 -0.019105488318177197 0 6.2322558876251639e-06 -0.023738554371407889 0 0.00066099297826317034 -0.022585736365105608 0 1.4202433701030538e-06 -0.023745138563398722 0 -0.0014441606893377623 -0.017019791720607611 0 -0.00082489304989700812 -0.01723607417661966 0 -0.00058429609360170179 -0.017067302560457954 0 -0.00082489304989700812 -0.01723607417661966 0 -0.00055801574721732841 -0.016772210904031106 0 -0.00058429609360170179 -0.017067302560457954 0 -0.0012387751391891742 -0.012522982016046628 0 -0.0029441266348726163 -0.0096815460107811998 0 -1.4090591997826378e-06 -0.010796771478270453 0 -0.00020416681102504038 -0.01016536685049072 0 -0.00043693644498470373 -0.010100283260070415 0 -0.0014441606893377623 -0.017019791720607611 0 -0.00058429609360170179 -0.017067302560457954 0 -0.0016718116987815494 -0.016999384145922745 0 -0.0026412925297320889 -0.010003749263466175 0 -0.0029441266348726163 -0.0096815460107811998 0 -0.0011648479418861623 -0.016382044159857882 0 -0.0014441606893377623 -0.017019791720607611 0 -0.00082489304989700812 -0.01723607417661966 0 -0.0011648479418861623 -0.016382044159857882 0 -0.00035598081042280036 -0.01739512803120704 0 -0.00082489304989700812 -0.01723607417661966 0 -0.00035598081042280036 -0.01739512803120704 0 -0.00082489304989700812 -0.01723607417661966 0 -0.00056265983524724492 -0.017841543981449541 0 -3.060514291357453e-06 -0.019105488318177197 0 -0.00056265983524724492 -0.017841543981449541 0 9.9994199500571242e-08 -0.014470408245547493 0 -0.00055801574721732841 -0.016772210904031106 0 -0.00056265983524724492 -0.017841543981449541 0 9.9994199500571242e-08 -0.014470408245547493 0 -0.00082489304989700812 -0.01723607417661966 0 -0.00055801574721732841 -0.016772210904031106 0 -0.00056265983524724492 -0.017841543981449541 0 -2.3665125189558581e-06 -0.014460896921010718 0 -0.0012387751391891742 -0.012522982016046628 0 3.2931352484478964e-06 -0.014458607472733784 0 -1.4090591997826378e-06 -0.010796771478270453 0 -3.1591062692531419e-06 -0.010464191243052935 0 -0.00055801574721732841 -0.016772210904031106 0 9.9994199500571242e-08 -0.014470408245547493 0 -0.00058429609360170179 -0.017067302560457954 0 -1.4090591997826378e-06 -0.010796771478270453 0 -3.1591062692531419e-06 -0.010464191243052935 0 -0.00020416681102504038 -0.01016536685049072 0 -3.1591062692531419e-06 -0.010464191243052935 0 -0.0002508926934403775 -0.0095243998114805245 0 -0.00020416681102504038 -0.01016536685049072 0 -3.1591062692531419e-06 -0.010464191243052935 0 2.9336364143334353e-06 -0.0064745000372587944 0 -0.0002508926934403775 -0.0095243998114805245 0 2.9336364143334353e-06 -0.0064745000372587944 0 -0.0002508926934403775 -0.0095243998114805245 0 0.00085273236402761961 -0.0091463407901869586 0 -0.0002508926934403775 -0.0095243998114805245 0 0.00037860628354239825 -0.01081173191854406 0 0.00085273236402761961 -0.0091463407901869586 0 -0.0002508926934403775 -0.0095243998114805245 0 -0.00043693644498470373 -0.010100283260070415 0 0.00037860628354239825 -0.01081173191854406 0 -0.0002508926934403775 -0.0095243998114805245 0 -0.00020416681102504038 -0.01016536685049072 0 -0.00043693644498470373 -0.010100283260070415 0 -0.0096349769400581129 -0.00036916686354931342 0 -0.009648988718237635 -0.00033287367460049544 0 -0.009690135141210348 -0.00030364806430543576 0 -0.0029441266348726163 -0.0096815460107811998 0 -0.0044631381763439006 -0.0056630864430818615 0 -0.002062877346527916 -0.016085813101845276 0 -0.0028516523271598388 -0.016799401023594535 0 -0.0046662589464528817 -0.014340594741450427 0 -0.0029441266348726163 -0.0096815460107811998 0 -0.0058125352703300879 -0.0072895971171393808 0 -0.0096378869803208193 -0.00038070969138416191 0 -0.0096410489894671065 -0.00033902082318118374 0 -0.009690135141210348 -0.00030364806430543576 0 -0.009648988718237635 -0.00033287367460049544 0 -0.0096410489894671065 -0.00033902082318118374 0 -0.009690135141210348 -0.00030364806430543576 0 -0.009648988718237635 -0.00033287367460049544 0 -0.0096410489894671065 -0.00033902082318118374 0 -0.0096522255865177566 -0.00033178029194981073 0 -0.0096378869803208193 -0.00038070969138416191 0 -0.0096276496774485541 -0.00032623779306791592 0 -0.0096410489894671065 -0.00033902082318118374 0 -0.0032287791758260943 -0.013437969147808322 0 -0.0020830881905273286 -0.014800925925569549 0 -0.0046662589464528817 -0.014340594741450427 0 -0.0047019615418392195 -0.012429388685914752 0 -0.0032287791758260943 -0.013437969147808322 0 -0.0046662589464528817 -0.014340594741450427 0 -0.0097987939701142564 -0.00026449218684525841 0 -0.0097255330130476252 -0.00064366266947697346 0 -0.010463299496320218 -0.00032377535411951409 0 -0.0097987939701142564 -0.00026449218684525841 0 -0.0097138008958841376 -0.00035553184573232377 0 -0.0096782814876784518 -0.0003065383360980368 0 -0.0059467920981505001 -0.0014731886009071273 0 -0.0057295440542834558 -0.0017813152140416736 0 -0.0096276496774485541 -0.00032623779306791592 0 -0.0096782814876784518 -0.0003065383360980368 0 -0.0096522255865177566 -0.00033178029194981073 0 -0.009648988718237635 -0.00033287367460049544 0 -0.0097138008958841376 -0.00035553184573232377 0 -0.0096522255865177566 -0.00033178029194981073 0 -0.0044631381763439006 -0.0056630864430818615 0 -0.0057295440542834558 -0.0017813152140416736 0 -0.0097138008958841376 -0.00035553184573232377 0 -0.0096782814876784518 -0.0003065383360980368 0 -0.0096522255865177566 -0.00033178029194981073 0 -0.0096276496774485541 -0.00032623779306791592 0 -0.0096410489894671065 -0.00033902082318118374 0 -0.0096522255865177566 -0.00033178029194981073 0 0.00037860628354239825 -0.01081173191854406 0 0.0023678160255247308 -0.011719257701399328 0 0.0021048520267024362 -0.0099211199358987569 0 -0.0057295440542834558 -0.0017813152140416736 0 -0.002518411117402856 -0.0035108035430005307 0 -0.004512857191021318 0.0030570152447831787 0 -0.0043387594346581239 0.0021768168184052679 0 -0.0050073468375522378 0.0025680384211016465 0 -0.0043387594346581239 0.0021768168184052679 0 -0.0047839003266730235 0.0019234450337566648 0 -0.0050073468375522378 0.0025680384211016465 0 -0.0043387594346581239 0.0021768168184052679 0 -0.0047839003266730235 0.0019234450337566648 0 -0.0041622187478863289 0.0012773629690127251 0 -0.002518411117402856 -0.0035108035430005307 0 -0.00034649947788554608 -0.0038436482318779407 0 0.0021048520267024362 -0.0099211199358987569 0 0.00085273236402761961 -0.0091463407901869586 0 0.0020401275035752866 -0.0072309144771541597 0 0.00037860628354239825 -0.01081173191854406 0 0.0021048520267024362 -0.0099211199358987569 0 0.00085273236402761961 -0.0091463407901869586 0 2.9336364143334353e-06 -0.0064745000372587944 0 0.00085273236402761961 -0.0091463407901869586 0 0.0020401275035752866 -0.0072309144771541597 0 -0.00034649947788554608 -0.0038436482318779407 0 -5.1392590586191654e-06 -0.0037317249855218231 0 -1.4153977897049933e-07 -0.006458680414487274 0 -0.00034649947788554608 -0.0038436482318779407 0 -6.6969476782238225e-10 -0.0064649586963359696 0 -1.2201594950999843e-07 -0.0036194445743570666 0 -2.4757283994246513e-10 -0.0037323609098025108 0 -0.0047839003266730235 0.0019234450337566648 0 -0.0041622187478863289 0.0012773629690127251 0 -0.0049873075911856116 0.0014729325267809812 0 -0.00034649947788554608 -0.0038436482318779407 0 -0.0029425057724553837 0.00035246923691623148 0 6.6562584691025892e-05 -0.0032043130741127085 0 1.0691995887309556e-06 -0.0037254533022497696 0 4.1653264270025538e-06 0.0013283548938287744 0 1.0691995887309556e-06 -0.0037254533022497696 0 4.1653264270025538e-06 0.0013283548938287744 0 -7.2470538886390985e-07 0.0017645268732460753 0 -0.0029425057724553837 0.00035246923691623148 0 -0.0037797639294336188 0.0036608667317417779 0 4.1653264270025538e-06 0.0013283548938287744 0 -7.2470538886390985e-07 0.0017645268732460753 0 -2.0156596607426939e-05 0.0045535157111769274 0 1.1051103479228633e-06 0.0017698389815273788 0 -3.5944316838128913e-07 0.0068625417310486294 0 0.00011040443907219375 0.0070760624885125101 0 -4.0748141057670209e-07 0.0017723142705848289 0 -0.00054070206369637955 0.0039234853362187603 0 -7.2470538886390985e-07 0.0017645268732460753 0 -2.0156596607426939e-05 0.0045535157111769274 0 -0.00020075069938877403 0.0046522316577687177 0 -0.0057976861046798653 0.0016739070933563952 0 -0.005414220410750614 0.0021102325665812282 0 -0.0059543596558552184 0.0023251919066155009 0 -0.0049873075911856116 0.0014729325267809812 0 -0.0057976861046798653 0.0016739070933563952 0 -0.005414220410750614 0.0021102325665812282 0 -0.0047839003266730235 0.0019234450337566648 0 -0.0049873075911856116 0.0014729325267809812 0 -0.005414220410750614 0.0021102325665812282 0 -0.0047839003266730235 0.0019234450337566648 0 -0.005414220410750614 0.0021102325665812282 0 -0.0050073468375522378 0.0025680384211016465 0 -0.00025927348262964119 0.0088164839263506767 0 -3.5944316838128913e-07 0.0068625417310486294 0 -1.9824669039608839e-06 0.011953760012317944 0 -0.00025927348262964119 0.0088164839263506767 0 -0.00058172949903537868 0.010095330116241762 0 -1.9824669039608839e-06 0.011953760012317944 0 -0.00020075069938877403 0.0046522316577687177 0 -0.00061660778211576476 0.0096707241821764149 0 -0.00058172949903537868 0.010095330116241762 0 -2.0156596607426939e-05 0.0045535157111769274 0 -0.00020075069938877403 0.0046522316577687177 0 -0.00061660778211576476 0.0096707241821764149 0 -0.00054070206369637955 0.0039234853362187603 0 -0.00070852346451513466 0.0049183720118350024 0 -0.00025927348262964119 0.0088164839263506767 0 0.00011040443907219375 0.0070760624885125101 0 -0.00058172949903537868 0.010095330116241762 0 -0.00025927348262964119 0.0088164839263506767 0 -3.5944316838128913e-07 0.0068625417310486294 0 0.00011040443907219375 0.0070760624885125101 0 -0.0066120664559775168 0.0018780737533931515 0 -0.0063806124095134595 0.0024878738883953697 0 -0.0059543596558552184 0.0023251919066155009 0 -0.0037797639294336188 0.0036608667317417779 0 -0.0041797835121194131 0.0069725362326046791 0 -0.0057976861046798653 0.0016739070933563952 0 -0.0066120664559775168 0.0018780737533931515 0 -0.0059543596558552184 0.0023251919066155009 0 -0.0066120664559775168 0.0018780737533931515 0 -0.00681763318776866 0.0027381033592404303 0 -0.0074166462337109176 0.0020798998762657649 0 -0.00061660778211576476 0.0096707241821764149 0 -0.00058172949903537868 0.010095330116241762 0 0.00023017384522896342 0.011291622942504898 0 -0.0041797835121194131 0.0069725362326046791 0 -0.0047371469969422304 0.010961748841412619 0 -0.0066120664559775168 0.0018780737533931515 0 -0.00681763318776866 0.0027381033592404303 0 -0.0063806124095134595 0.0024878738883953697 0 -0.00681763318776866 0.0027381033592404303 0 -0.0063806124095134595 0.0024878738883953697 0 -0.0060813889262946296 0.002881770025477094 0 -0.0063806124095134595 0.0024878738883953697 0 -0.0059543596558552184 0.0023251919066155009 0 -0.0060813889262946296 0.002881770025477094 0 -0.0078229779291246974 0.0027043961848090816 0 -0.0080516652595502489 0.0029265038605376047 0 -0.00681763318776866 0.0027381033592404303 0 -0.0060813889262946296 0.002881770025477094 0 -0.0062086527142916981 0.0034218884726585261 0 -0.0080516652595502489 0.0029265038605376047 0 -0.0087522685961978468 0.0035014193424766382 0 -0.0060719699914104624 0.0028343200388519837 0 -0.0061954335280368323 0.0033543041602974296 0 -0.0058048063034172844 0.0031771678936084184 0 -0.012129668970646171 0.0070353775207955558 0 -0.013166685181370879 0.0059092322105025385 0 -0.012163586516402123 0.0055673958503061208 0 -0.0083281386106311608 0.0056287529772920987 0 -0.0087522685961978468 0.0035014193424766382 0 -0.012129668970646171 0.0070353775207955558 0 -0.012163586516402123 0.0055673958503061208 0 -0.011237001656450727 0.0059507606446402165 0 -0.005414220410750614 0.0021102325665812282 0 -0.0050073468375522378 0.0025680384211016465 0 -0.0055802583507974287 0.0027305345706674891 0 -0.005414220410750614 0.0021102325665812282 0 -0.0059543596558552184 0.0023251919066155009 0 -0.0055802583507974287 0.0027305345706674891 0 -0.0059543596558552184 0.0023251919066155009 0 -0.0060719699914104624 0.0028343200388519837 0 -0.0055802583507974287 0.0027305345706674891 0 -0.0055802583507974287 0.0027305345706674891 0 -0.0058048063034172844 0.0031771678936084184 0 -0.0052150952868737412 0.0033673421487643018 0 -0.0060719699914104624 0.0028343200388519837 0 -0.0055802583507974287 0.0027305345706674891 0 -0.0058048063034172844 0.0031771678936084184 0 -0.0050073468375522378 0.0025680384211016465 0 -0.0055802583507974287 0.0027305345706674891 0 -0.0052150952868737412 0.0033673421487643018 0 -0.004512857191021318 0.0030570152447831787 0 -0.0050073468375522378 0.0025680384211016465 0 -0.0052150952868737412 0.0033673421487643018 0 -0.0057295440542834558 -0.0017813152140416736 0 -0.0077121554773604837 0.00073859905732544186 0 -0.0097987939701142564 -0.00026449218684525841 0 -0.010463299496320218 -0.00032377535411951409 0 -0.010090405579430689 0.00011113296013955057 0 -0.010463299496320218 -0.00032377535411951409 0 -0.010625390453475077 0.00035002277874264997 0 -0.010090405579430689 0.00011113296013955057 0 -0.011131505515891123 0.00098856279202787613 0 -0.011468004838711379 0.0013793825555711795 0 -0.012123250609449365 0.0023047817588137042 0 -0.012042376139321378 0.0021986465684646355 0 -0.011925771939058392 0.0022200768212439059 0 -0.010625390453475077 0.00035002277874264997 0 -0.010090405579430689 0.00011113296013955057 0 -0.010540432594773273 0.0010556322407163151 0 -0.0097052150073181007 0.00025479904910864586 0 -0.010090405579430689 0.00011113296013955057 0 -0.010540432594773273 0.0010556322407163151 0 -0.010540432594773273 0.0010556322407163151 0 -0.011102625453980332 0.00084127264881682265 0 -0.011867698589528575 0.001950740914922268 0 -0.011102625453980332 0.00084127264881682265 0 -0.011683220708266459 0.00098284565360191086 0 -0.011867698589528575 0.001950740914922268 0 -0.010625390453475077 0.00035002277874264997 0 -0.011102625453980332 0.00084127264881682265 0 -0.011278557523881814 0.00029683314057283872 0 -0.010625390453475077 0.00035002277874264997 0 -0.010540432594773273 0.0010556322407163151 0 -0.011102625453980332 0.00084127264881682265 0 -0.011102625453980332 0.00084127264881682265 0 -0.011424156036671313 0.00065827264812752203 0 -0.011683220708266459 0.00098284565360191086 0 -0.011102625453980332 0.00084127264881682265 0 -0.011424156036671313 0.00065827264812752203 0 -0.011278557523881814 0.00029683314057283872 0 -0.011424156036671313 0.00065827264812752203 0 -0.011278557523881814 0.00029683314057283872 0 -0.01164962090755884 0.00051690084410423664 0 -0.011278557523881814 0.00029683314057283872 0 -0.011471555239806421 7.9221314943266446e-05 0 -0.01164962090755884 0.00051690084410423664 0 -0.0058048063034172844 0.0031771678936084184 0 -0.0052150952868737412 0.0033673421487643018 0 -0.0059105588261292776 0.0036722023787165887 0 -0.010463299496320218 -0.00032377535411951409 0 -0.010625390453475077 0.00035002277874264997 0 -0.011278557523881814 0.00029683314057283872 0 -0.0077121554773604837 0.00073859905732544186 0 -0.0089567643739707058 0.0026354268788988337 0 -0.010463299496320218 -0.00032377535411951409 0 -0.011278557523881814 0.00029683314057283872 0 -0.011436262132781079 0.00012157872426461608 0 -0.0090413491802987245 0.002543745686774563 0 -0.0089567643739707058 0.0026354268788988337 0 -0.0061954335280368323 0.0033543041602974296 0 -0.0058048063034172844 0.0031771678936084184 0 -0.0059105588261292776 0.0036722023787165887 0 -0.0091107088391925873 0.002782385361381198 0 -0.0092263428520707076 0.0026536836666498659 0 -0.0090670974263444091 0.002583515288150639 0 -0.013166685181370879 0.0059092322105025385 0 -0.012985710855733022 0.0050474584147049287 0 -0.012163586516402123 0.0055673958503061208 0 -0.0087522685961978468 0.0035014193424766382 0 -0.0089567643739707058 0.0026354268788988337 0 -0.0087522685961978468 0.0035014193424766382 0 -0.0098937913321361058 0.0034078039804121764 0 -0.011471555239806421 7.9221314943266446e-05 0 -0.012200795868331242 0.00042071237099869721 0 -0.01164962090755884 0.00051690084410423664 0 -0.0089567643739707058 0.0026354268788988337 0 -0.0098937913321361058 0.0034078039804121764 0 -0.012985710855733022 0.0050474584147049287 0 -0.012163586516402123 0.0055673958503061208 0 -0.012187625309579148 0.0046767586832927779 0 -0.012163586516402123 0.0055673958503061208 0 -0.012187625309579148 0.0046767586832927779 0 -0.011486580446115655 0.0046701055672525565 0 -0.012924100411136499 0.0050006676986583606 0 -0.012187625309579148 0.0046767586832927779 0 -0.012604103736819982 0.0037719070159131511 0 -0.012187625309579148 0.0046767586832927779 0 -0.011987565821968376 0.0040557453695367679 0 -0.011486580446115655 0.0046701055672525565 0 -0.0098937913321361058 0.0034078039804121764 0 -0.010579034491166433 0.0037301001837067214 0 -0.012187625309579148 0.0046767586832927779 0 -0.011987565821968376 0.0040557453695367679 0 -0.012604103736819982 0.0037719070159131511 0 -0.0098937913321361058 0.0034078039804121764 0 -0.010735686888409595 0.0030955713742972552 0 -0.012200795868331242 0.00042071237099869721 0 -0.012009604135425017 0.0012976036099499847 0 -0.012303375082674772 0.0018168432699870608 0 -0.012200795868331242 0.00042071237099869721 0 -0.011683220708266459 0.00098284565360191086 0 -0.01164962090755884 0.00051690084410423664 0 -0.012200795868331242 0.00042071237099869721 0 -0.011683220708266459 0.00098284565360191086 0 -0.012009604135425017 0.0012976036099499847 0 -0.011424156036671313 0.00065827264812752203 0 -0.011683220708266459 0.00098284565360191086 0 -0.01164962090755884 0.00051690084410423664 0 -0.011683220708266459 0.00098284565360191086 0 -0.012009604135425017 0.0012976036099499847 0 -0.011867698589528575 0.001950740914922268 0 -0.012303375082674772 0.0018168432699870608 0 -0.012010342083308943 0.0025730940048097253 0 -0.011936713281654002 0.0023084432430064859 0 -0.012009604135425017 0.0012976036099499847 0 -0.011867698589528575 0.001950740914922268 0 -0.012303375082674772 0.0018168432699870608 0 -0.011867698589528575 0.001950740914922268 0 -0.012303375082674772 0.0018168432699870608 0 -0.011936713281654002 0.0023084432430064859 0 -0.011867698589528575 0.001950740914922268 0 -0.011936713281654002 0.0023084432430064859 0 -0.011875926567033099 0.0021874585413415209 0 -0.010735686888409595 0.0030955713742972552 0 -0.010951149446800281 0.0029650460393830453 0 -0.012604103736819982 0.0037719070159131511 0 -0.011913836560187085 0.0034200933337215863 0 -0.012010342083308943 0.0025730940048097253 0 -0.011987565821968376 0.0040557453695367679 0 -0.011913836560187085 0.0034200933337215863 0 -0.011508609701812051 0.0037285523723792138 0 -0.011987565821968376 0.0040557453695367679 0 -0.012604103736819982 0.0037719070159131511 0 -0.011913836560187085 0.0034200933337215863 0 -0.012010342083308943 0.0025730940048097253 0 -0.011522778322056705 0.002990469698977271 0 -0.011621943473427638 0.0024870448593933155 0 -0.011913836560187085 0.0034200933337215863 0 -0.012010342083308943 0.0025730940048097253 0 -0.011522778322056705 0.002990469698977271 0 -0.011936713281654002 0.0023084432430064859 0 -0.011902062116005016 0.0022468786896475898 0 -0.011875926567033099 0.0021874585413415209 0 -0.012010342083308943 0.0025730940048097253 0 -0.011936713281654002 0.0023084432430064859 0 -0.011911518852112533 0.0023862941426581706 0 -0.011936713281654002 0.0023084432430064859 0 -0.011902062116005016 0.0022468786896475898 0 -0.011911518852112533 0.0023862941426581706 0 -0.011902062116005016 0.0022468786896475898 0 -0.011898241477364492 0.0021644317969599122 0 -0.011920969486312501 0.0021473941833989301 0 -0.011902062116005016 0.0022468786896475898 0 -0.011875926567033099 0.0021874585413415209 0 -0.011898241477364492 0.0021644317969599122 0 -0.011875926567033099 0.0021874585413415209 0 -0.011898241477364492 0.0021644317969599122 0 -0.01187923047185418 0.0021239119334880061 0 -0.011898241477364492 0.0021644317969599122 0 -0.011933078514221299 0.0021248884512596986 0 -0.01187923047185418 0.0021239119334880061 0 -0.011898241477364492 0.0021644317969599122 0 -0.011943622992329121 0.0021017793619957335 0 -0.011933078514221299 0.0021248884512596986 0 -0.011898241477364492 0.0021644317969599122 0 -0.011943622992329121 0.0021017793619957335 0 -0.011920969486312501 0.0021473941833989301 0 -0.011943622992329121 0.0021017793619957335 0 -0.011996795777501002 0.0020787588171135326 0 -0.011933078514221299 0.0021248884512596986 0 -0.011943622992329121 0.0021017793619957335 0 -0.011996795777501002 0.0020787588171135326 0 -0.011996964968162884 0.0020317061622054694 0 -0.012060691779953529 0.0020285353518285035 0 -0.011996795777501002 0.0020787588171135326 0 -0.011996964968162884 0.0020317061622054694 0 -0.012068093148212097 0.0020832013726674531 0 -0.012060691779953529 0.0020285353518285035 0 -0.011996795777501002 0.0020787588171135326 0 -0.012068093148212097 0.0020832013726674531 0 -0.011996795777501002 0.0020787588171135326 0 -0.011991817393332825 0.0021170491838857389 0 -0.012054479199555613 0.0021425083611275584 0 -0.012068093148212097 0.0020832013726674531 0 -0.011991817393332825 0.0021170491838857389 0 -0.011991817393332825 0.0021170491838857389 0 -0.011933078514221299 0.0021248884512596986 0 -0.011964004104107232 0.0021502885753478846 0 -0.011996795777501002 0.0020787588171135326 0 -0.011991817393332825 0.0021170491838857389 0 -0.011933078514221299 0.0021248884512596986 0 -0.011933078514221299 0.0021248884512596986 0 -0.011964004104107232 0.0021502885753478846 0 -0.01187923047185418 0.0021239119334880061 0 -0.012054479199555613 0.0021425083611275584 0 -0.011991817393332825 0.0021170491838857389 0 -0.011964004104107232 0.0021502885753478846 0 -0.012042376139321378 0.0021986465684646355 0 -0.012054479199555613 0.0021425083611275584 0 -0.011964004104107232 0.0021502885753478846 0 -0.012042376139321378 0.0021986465684646355 0 -0.011925771939058392 0.0022200768212439059 0 -0.011964004104107232 0.0021502885753478846 0 -0.011925771939058392 0.0022200768212439059 0 -0.011964004104107232 0.0021502885753478846 0 -0.01187923047185418 0.0021239119334880061 0 -0.011925771939058392 0.0022200768212439059 0 -0.011867698589528575 0.001950740914922268 0 -0.01187923047185418 0.0021239119334880061 0 -0.011468004838711379 0.0013793825555711795 0 -0.011718302746188326 0.0015596464638948989 0 -0.011867698589528575 0.001950740914922268 0 -0.011875926567033099 0.0021874585413415209 0 -0.01187923047185418 0.0021239119334880061 0 -0.010167475118455189 0.0042752467425616805 0 -0.01091187206280239 0.0048954069614721108 0 -0.0097172474722542149 0.0052074485602821921 0 -0.0094476145370703726 0.0043348744967231321 0 -0.0097172474722542149 0.0052074485602821921 0 -0.0087171640543686965 0.0046410516513419988 0 -0.0094476145370703726 0.0043348744967231321 0 -0.010167475118455189 0.0042752467425616805 0 -0.0097172474722542149 0.0052074485602821921 0 -0.0094476145370703726 0.0043348744967231321 0 -0.010167475118455189 0.0042752467425616805 0 -0.0095700287847833403 0.0035298905412949879 0 -0.010167475118455189 0.0042752467425616805 0 -0.010256477563760124 0.0035593273251409729 0 -0.0095700287847833403 0.0035298905412949879 0 -0.011020867538285047 0.0035918584131881945 0 -0.010845700707964284 0.0043712337416668516 0 -0.010167475118455189 0.0042752467425616805 0 -0.011137838416295055 0.0039316178616464548 0 -0.01091187206280239 0.0048954069614721108 0 -0.010167475118455189 0.0042752467425616805 0 -0.011137838416295055 0.0039316178616464548 0 -0.010256477563760124 0.0035593273251409729 0 -0.01115255910003961 0.0027016234045070696 0 -0.011522778322056705 0.002990469698977271 0 -0.011621943473427638 0.0024870448593933155 0 -0.01115255910003961 0.0027016234045070696 0 -0.011522778322056705 0.002990469698977271 0 -0.010717878156760504 0.0036853502334812222 0 -0.011522778322056705 0.002990469698977271 0 -0.011508609701812051 0.0037285523723792138 0 -0.010717878156760504 0.0036853502334812222 0 -0.011913836560187085 0.0034200933337215863 0 -0.011522778322056705 0.002990469698977271 0 -0.011508609701812051 0.0037285523723792138 0 -0.010845700707964284 0.0043712337416668516 0 -0.010670518286168582 0.0052211332117182161 0 -0.01091187206280239 0.0048954069614721108 0 -0.010660798030212082 0.0057835281188084366 0 -0.0097172474722542149 0.0052074485602821921 0 -0.011508609701812051 0.0037285523723792138 0 -0.010717878156760504 0.0036853502334812222 0 -0.011486580446115655 0.0046701055672525565 0 -0.010717878156760504 0.0036853502334812222 0 -0.011486580446115655 0.0046701055672525565 0 -0.010460051460468285 0.0050994228429818798 0 -0.011987565821968376 0.0040557453695367679 0 -0.011508609701812051 0.0037285523723792138 0 -0.011486580446115655 0.0046701055672525565 0 -0.011486580446115655 0.0046701055672525565 0 -0.010460051460468285 0.0050994228429818798 0 -0.011237001656450727 0.0059507606446402165 0 -0.012163586516402123 0.0055673958503061208 0 -0.011486580446115655 0.0046701055672525565 0 -0.011237001656450727 0.0059507606446402165 0 -0.010670518286168582 0.0052211332117182161 0 -0.010583812923018696 0.0056901193965979624 0 -0.010460051460468285 0.0050994228429818798 0 -0.011237001656450727 0.0059507606446402165 0 -0.010416413373006004 0.006555858412497736 0 -0.010660798030212082 0.0057835281188084366 0 -0.0098655023771537335 0.0059833578075209701 0 -0.010416413373006004 0.006555858412497736 0 -0.010660798030212082 0.0057835281188084366 0 -0.0098655023771537335 0.0059833578075209701 0 -0.0097172474722542149 0.0052074485602821921 0 -0.011093207715771835 0.011335125760722004 0 -0.0076586233814211193 0.019874803554459294 0 -0.0098655023771537335 0.0059833578075209701 0 -0.0097172474722542149 0.0052074485602821921 0 -0.0090587791921028695 0.0061466819923745213 0 -0.0098655023771537335 0.0059833578075209701 0 -0.0095537528117257565 0.006761374150822461 0 -0.0090587791921028695 0.0061466819923745213 0 -0.0095537528117257565 0.006761374150822461 0 -0.0089710352473125494 0.0069632698022088829 0 -0.008909242859626007 0.0061247424727695916 0 -0.0059853838099348505 0.015432037509940244 0 -0.0076586233814211193 0.019874803554459294 0 -0.0098655023771537335 0.0059833578075209701 0 -0.0095537528117257565 0.006761374150822461 0 -0.010416413373006004 0.006555858412497736 0 -0.0095537528117257565 0.006761374150822461 0 -0.010416413373006004 0.006555858412497736 0 -0.010105281731275298 0.0077090550624898625 0 -0.0034342742999112397 0.02050772781876177 0 -0.0043755841165339128 0.015765734929380441 0 -0.0095537528117257565 0.006761374150822461 0 -0.0091583160283411312 0.007527527059365614 0 -0.010105281731275298 0.0077090550624898625 0 -0.0095537528117257565 0.006761374150822461 0 -0.0089710352473125494 0.0069632698022088829 0 -0.0091583160283411312 0.007527527059365614 0 -0.012129668970646171 0.0070353775207955558 0 -0.011237001656450727 0.0059507606446402165 0 -0.011176041920440621 0.006954585223742993 0 -0.011237001656450727 0.0059507606446402165 0 -0.010416413373006004 0.006555858412497736 0 -0.011176041920440621 0.006954585223742993 0 -0.010416413373006004 0.006555858412497736 0 -0.011176041920440621 0.006954585223742993 0 -0.010105281731275298 0.0077090550624898625 0 -0.011176041920440621 0.006954585223742993 0 -0.011196570968302361 0.0079854052830320692 0 -0.010105281731275298 0.0077090550624898625 0 -0.0083281386106311608 0.0056287529772920987 0 -0.0047371469969422304 0.010961748841412619 0 -0.012129668970646171 0.0070353775207955558 0 -0.011176041920440621 0.006954585223742993 0 -0.011196570968302361 0.0079854052830320692 0 -0.00058172949903537868 0.010095330116241762 0 0.00023017384522896342 0.011291622942504898 0 9.4117192348335238e-06 0.013509742195641135 0 0.0053181035745852642 0.02303340632760166 0 0.00098171229120899402 0.021508524592357539 0 0.00036076344366872356 0.023513766159468215 0 -0.0047371469969422304 0.010961748841412619 0 -0.0043755841165339128 0.015765734929380441 0 -0.0047371469969422304 0.010961748841412619 0 -0.0011731381919849368 0.014920284103576906 0 3.9341340577294041e-06 0.017048716668736159 0 0.00025208421492967526 0.017577278894384058 0 9.4117192348335238e-06 0.013509742195641135 0 0.0053181035745852642 0.02303340632760166 0 0.00098171229120899402 0.021508524592357539 0 0.00025208421492967526 0.017577278894384058 0 0.00023017384522896342 0.011291622942504898 0 0.00025208421492967526 0.017577278894384058 0 9.4117192348335238e-06 0.013509742195641135 0 3.9341340577294041e-06 0.017048716668736159 0 -1.9824669039608839e-06 0.011953760012317944 0 9.4117192348335238e-06 0.013509742195641135 0 -0.00058172949903537868 0.010095330116241762 0 -1.9824669039608839e-06 0.011953760012317944 0 9.4117192348335238e-06 0.013509742195641135 0 -0.00098614070507666777 0.024701580070508641 0 -0.0003144795567309936 0.022008147349703158 0 -0.00054421751050163559 0.024275984396043782 0 -0.00098614070507666777 0.024701580070508641 0 0.00036076344366872356 0.023513766159468215 0 -0.0003144795567309936 0.022008147349703158 0 0.00098171229120899402 0.021508524592357539 0 0.00036076344366872356 0.023513766159468215 0 -0.0003144795567309936 0.022008147349703158 0 3.9341340577294041e-06 0.017048716668736159 0 0.00025208421492967526 0.017577278894384058 0 -2.4124392956192238e-06 0.022143123340029203 0 0.00025208421492967526 0.017577278894384058 0 -0.0003144795567309936 0.022008147349703158 0 -2.4124392956192238e-06 0.022143123340029203 0 0.00098171229120899402 0.021508524592357539 0 0.00025208421492967526 0.017577278894384058 0 -0.0003144795567309936 0.022008147349703158 0 -0.0003144795567309936 0.022008147349703158 0 -2.4124392956192238e-06 0.022143123340029203 0 -0.00054421751050163559 0.024275984396043782 0 -2.4124392956192238e-06 0.022143123340029203 0 -0.00054421751050163559 0.024275984396043782 0 -2.1296388535916842e-07 0.027235426138979595 0 -0.00054421751050163559 0.024275984396043782 0 -0.00044158082167569305 0.026324616923565077 0 -2.1296388535916842e-07 0.027235426138979595 0 -0.00098614070507666777 0.024701580070508641 0 -0.00054421751050163559 0.024275984396043782 0 -0.00044158082167569305 0.026324616923565077 0 -0.00098614070507666777 0.024701580070508641 0 -0.00044158082167569305 0.026324616923565077 0 -4.1752757896584476e-05 0.025004221397317051 0 0.00022989409762082797 0.0296035964282635 0 -0.00040340567144634445 0.031975839111544384 0 0.0021597739731972362 0.032762993812939067 0 0.00016413286286723837 0.02829079949260857 0 -0.0004245162263012058 0.027158881398662446 0 -0.00044158082167569305 0.026324616923565077 0 0.00022989409762082797 0.0296035964282635 0 -4.1752757896584476e-05 0.025004221397317051 0 -0.00044158082167569305 0.026324616923565077 0 -2.1296388535916842e-07 0.027235426138979595 0 0.00022989409762082797 0.0296035964282635 0 0.00022989409762082797 0.0296035964282635 0 -2.7605125372911276e-07 0.032327484690946449 0 -0.0003131728939891528 0.033308820534950212 0 -2.1296388535916842e-07 0.027235426138979595 0 0.00022989409762082797 0.0296035964282635 0 -2.7605125372911276e-07 0.032327484690946449 0 0.00022989409762082797 0.0296035964282635 0 -0.0003131728939891528 0.033308820534950212 0 -0.00059372686674988046 0.03282341993064742 0 -2.7605125372911276e-07 0.032327484690946449 0 -0.0003131728939891528 0.033308820534950212 0 -1.2403319566956907e-06 0.037421265504224401 0 -0.0003131728939891528 0.033308820534950212 0 -0.00059372686674988046 0.03282341993064742 0 -0.00014693008491041264 0.03486826560612144 0 0.00085890374993548464 0.042193469080743159 0 0.0004696282011304229 0.043468949018052629 0 -0.00059372686674988046 0.03282341993064742 0 -0.00039520019154196465 0.032420736155239764 0 -0.00016849053099830219 0.032639088819863965 0 -0.00059372686674988046 0.03282341993064742 0 -0.00057896255428889791 0.032361955361037711 0 -0.00040340567144634445 0.031975839111544384 0 -0.00059372686674988046 0.03282341993064742 0 -0.00057896255428889791 0.032361955361037711 0 -0.00062348626022420668 0.032390505768859247 0 -0.00059372686674988046 0.03282341993064742 0 -0.00039520019154196465 0.032420736155239764 0 -0.00062348626022420668 0.032390505768859247 0 0.00022989409762082797 0.0296035964282635 0 -0.00059372686674988046 0.03282341993064742 0 -0.00040340567144634445 0.031975839111544384 0 -0.00075322788491508541 0.035532347157944219 0 -0.00097282094465375366 0.042870770483068713 0 -0.00040340567144634445 0.031975839111544384 0 0.00043980413260448671 0.033056463099180172 0 0.0021597739731972362 0.032762993812939067 0 0.00043980413260448671 0.033056463099180172 0 -0.00052942066062717141 0.032499547118599627 0 -0.0006059612820046691 0.032941468359557399 0 -0.00057896255428889791 0.032361955361037711 0 -0.00040340567144634445 0.031975839111544384 0 -0.00052942066062717141 0.032499547118599627 0 -0.00040340567144634445 0.031975839111544384 0 0.00043980413260448671 0.033056463099180172 0 -0.00052942066062717141 0.032499547118599627 0 -0.00079315718437767389 0.032353590989175354 0 -0.00062348626022420668 0.032390505768859247 0 -0.0006059612820046691 0.032941468359557399 0 0.00031542493785991063 0.04402355794899427 0 0.00023076649951348958 0.043844287881784599 0 -0.00057896255428889791 0.032361955361037711 0 -0.00062348626022420668 0.032390505768859247 0 -0.00052942066062717141 0.032499547118599627 0 -0.00062348626022420668 0.032390505768859247 0 -0.00052942066062717141 0.032499547118599627 0 -0.0006059612820046691 0.032941468359557399 0 0.00031542493785991063 0.04402355794899427 0 -0.00097282094465375366 0.042870770483068713 0 0.00015914204283962481 0.046965224566690611 0 0.00070041973541944298 0.046136234398983948 0 0.0017058997890209121 0.046549207947122161 0 0.00015914204283962481 0.046965224566690611 0 0.00070041973541944298 0.046136234398983948 0 -0.00072696220495253015 0.046170676077369466 0 -0.0009187900919411364 0.047116389023158109 0 -0.00072696220495253015 0.046170676077369466 0 -0.0015266265914356777 0.046413681544921696 0 -0.0009187900919411364 0.047116389023158109 0 4.4393338905115275e-05 0.046899408656001049 0 -0.00072696220495253015 0.046170676077369466 0 -0.00097282094465375366 0.042870770483068713 0 -0.00037674356867019152 0.043789069459563824 0 -0.00072696220495253015 0.046170676077369466 0 -0.0015266265914356777 0.046413681544921696 0 -0.0010237920543075805 0.045533281328898938 0 -0.0015266265914356777 0.046413681544921696 0 -0.0019928417166313042 0.045818692345535053 0 -0.0010237920543075805 0.045533281328898938 0 -0.0015266265914356777 0.046413681544921696 0 -0.0025082402169089827 0.046423410380988461 0 -0.0019317026866753515 0.04732140225058163 0 -0.0015266265914356777 0.046413681544921696 0 -0.0025082402169089827 0.046423410380988461 0 -0.0019928417166313042 0.045818692345535053 0 -0.0089710352473125494 0.0069632698022088829 0 -0.0085254774965547227 0.0067219861566633725 0 -0.008909242859626007 0.0061247424727695916 0 -0.0025082402169089827 0.046423410380988461 0 -0.0030781575288029027 0.045507349676270153 0 -0.0019928417166313042 0.045818692345535053 0 -0.0039644602389251413 0.024200267897509876 0 -0.0076586233814211193 0.019874803554459294 0 -0.0089710352473125494 0.0069632698022088829 0 -0.0085254774965547227 0.0067219861566633725 0 -0.0081281417316373481 0.0073575489934519858 0 -0.0034342742999112397 0.02050772781876177 0 -0.0004245162263012058 0.027158881398662446 0 -0.0089710352473125494 0.0069632698022088829 0 -0.0091583160283411312 0.007527527059365614 0 -0.0081281417316373481 0.0073575489934519858 0 -0.0039644602389251413 0.024200267897509876 0 -0.0004245162263012058 0.027158881398662446 0 -0.00075322788491508541 0.035532347157944219 0 -0.0004245162263012058 0.027158881398662446 0 -0.0009187900919411364 0.047116389023158109 0 -0.0015266265914356777 0.046413681544921696 0 -0.0019317026866753515 0.04732140225058163 0 0.0012386431100354339 0.050254480391254144 0 0.00060010408728729714 0.050865625123709714 0 0.00095995179819400656 0.051246571787513857 0 0.0028604418280529478 0.053397568061033573 0 -0.00060389626714724999 0.053047575349105772 0 0.00095995179819400656 0.051246571787513857 0 0.0044640761965626455 0.050710247015896215 0 0.0028604418280529478 0.053397568061033573 0 0.00095995179819400656 0.051246571787513857 0 5.3188906827714851e-06 0.046774113793157865 0 0.0044640761965626455 0.050710247015896215 0 8.7484894273687404e-07 0.04676589603788664 0 0.0009690085083731971 0.04738813443070275 0 1.7309455317642466e-08 0.042524875577969183 0 -6.7303005864354876e-05 0.043223359048496175 0 0.00065474635913186042 0.043113527921394876 0 -1.6048072757461743e-08 0.046756597025603731 0 1.7309455317642466e-08 0.042524875577969183 0 -6.7303005864354876e-05 0.043223359048496175 0 0.0056463944497874624 0.052842046457313531 0 0.0075338923089040789 0.053665408387018478 0 0.0028604418280529478 0.053397568061033573 0 0.0044640761965626455 0.050710247015896215 0 0.0056463944497874624 0.052842046457313531 0 0.0078070889400000242 0.053678857744040624 0 0.0044640761965626455 0.050710247015896215 0 0.0056463944497874624 0.052842046457313531 0 0.0028604418280529478 0.053397568061033573 0 0.0009690085083731971 0.04738813443070275 0 0.00052930433667871038 0.047445107868868762 0 0.00065474635913186042 0.043113527921394876 0 0.0012264895110027363 0.043656437631492462 0 0.00068737111856134281 0.043886071502518109 0 -6.7303005864354876e-05 0.043223359048496175 0 0.00065474635913186042 0.043113527921394876 0 0.00068737111856134281 0.043886071502518109 0 3.5247440794151506e-06 0.042510231248222154 0 0.00054579981445487986 0.036872803059282852 0 -1.2403319566956907e-06 0.037421265504224401 0 -1.1533801654773321e-06 0.04251371429523667 0 -0.00041909491643133865 0.041944645520753644 0 0.00054579981445487986 0.036872803059282852 0 -1.2403319566956907e-06 0.037421265504224401 0 -0.00014693008491041264 0.03486826560612144 0 -0.0003131728939891528 0.033308820534950212 0 -1.2403319566956907e-06 0.037421265504224401 0 -0.00014693008491041264 0.03486826560612144 0 0.00054579981445487986 0.036872803059282852 0 -0.00014693008491041264 0.03486826560612144 0 7.0220793829613441e-05 0.033966583532054076 0 -0.00059372686674988046 0.03282341993064742 0 -0.00014693008491041264 0.03486826560612144 0 7.0220793829613441e-05 0.033966583532054076 0 -0.00041909491643133865 0.041944645520753644 0 0.0004696282011304229 0.043468949018052629 0 0.0004696282011304229 0.043468949018052629 0 0.00052930433667871038 0.047445107868868762 0 0.00031542493785991063 0.04402355794899427 0 0.0004696282011304229 0.043468949018052629 0 0.000514862176774676 0.052897141978021651 0 0.00027018646479001583 0.053014523808487833 0 0.00012483288818207979 0.052880986928739375 0 0.000514862176774676 0.052897141978021651 0 0.00074279546739832586 0.053099172813796634 0 0.00027283464986202006 0.053236693655267009 0 0.000514862176774676 0.052897141978021651 0 0.00027018646479001583 0.053014523808487833 0 0.00027283464986202006 0.053236693655267009 0 -4.4123108898083467e-05 0.045934801558209941 0 0.0003049882351245745 0.046264316241721289 0 0.00095207687480110866 0.045995446898391495 0 0.00031542493785991063 0.04402355794899427 0 0.00052930433667871038 0.047445107868868762 0 -0.00097282094465375366 0.042870770483068713 0 0.00022073098021097915 0.046669285479583628 0 0.00027283464986202006 0.053236693655267009 0 6.4298317071506488e-05 0.053149252723026154 0 -0.00017617207146112401 0.053375905913309964 0 0.00022073098021097915 0.046669285479583628 0 0.00097145142014480959 0.048441665691410736 0 0.0017058997890209121 0.046549207947122161 0 0.002813853921524273 0.046274306311763956 0 0.00239516284319368 0.045455009488184941 0 -3.7564190061009223e-05 0.053082203864102881 0 6.4298317071506488e-05 0.053149252723026154 0 0.00010961281643083226 0.053007433652920523 0 -3.7564190061009223e-05 0.053082203864102881 0 6.4298317071506488e-05 0.053149252723026154 0 -0.0001226446562212444 0.053184164045046257 0 0.00027018646479001583 0.053014523808487833 0 6.4298317071506488e-05 0.053149252723026154 0 0.00010961281643083226 0.053007433652920523 0 0.00027018646479001583 0.053014523808487833 0 0.00027283464986202006 0.053236693655267009 0 6.4298317071506488e-05 0.053149252723026154 0 0.00027018646479001583 0.053014523808487833 0 0.00010961281643083226 0.053007433652920523 0 0.0001368993392060107 0.052913235308572608 0 0.00079941668490105086 0.047916601444800998 0 0.00052930433667871038 0.047445107868868762 0 0.00010961281643083226 0.053007433652920523 0 0.0001368993392060107 0.052913235308572608 0 0.00010873538595253682 0.052911224805422596 0 0.00052930433667871038 0.047445107868868762 0 0.00065655378000094495 0.047898329278370705 0 0.0056463944497874624 0.052842046457313531 0 0.0078070889400000242 0.053678857744040624 0 0.0075338923089040789 0.053665408387018478 0 -3.7564190061009223e-05 0.053082203864102881 0 0.00010961281643083226 0.053007433652920523 0 0.00010873538595253682 0.052911224805422596 0 0.00065655378000094495 0.047898329278370705 0 -0.00067183294628695182 0.050899286926932685 0 0.00033969068261735963 0.05303911462256003 0 -0.00017215112322128726 0.0532549258539428 0 -0.00014373700503685622 0.053040791289130654 0 -3.7564190061009223e-05 0.053082203864102881 0 0.00010873538595253682 0.052911224805422596 0 -0.00034340247915282346 0.053161908542125144 0 -3.7564190061009223e-05 0.053082203864102881 0 -0.0001226446562212444 0.053184164045046257 0 -0.00034340247915282346 0.053161908542125144 0 0.00065655378000094495 0.047898329278370705 0 0.0012386431100354339 0.050254480391254144 0 6.4298317071506488e-05 0.053149252723026154 0 -0.0001226446562212444 0.053184164045046257 0 -0.00017617207146112401 0.053375905913309964 0 -0.0001226446562212444 0.053184164045046257 0 -0.00017617207146112401 0.053375905913309964 0 -0.00034340247915282346 0.053161908542125144 0 0.00097145142014480959 0.048441665691410736 0 0.0014537264557080733 0.049357219230281565 0 -0.00017617207146112401 0.053375905913309964 0 -0.00034340247915282346 0.053161908542125144 0 -0.00056189280531476738 0.053502371342692798 0 -0.00017215112322128726 0.0532549258539428 0 -0.00014373700503685622 0.053040791289130654 0 -0.00060389626714724999 0.053047575349105772 0 0.0031891451546275391 0.045456632476645081 0 0.0033022703606299876 0.044966011916325467 0 0.0037727677530023725 0.045330672927070353 0 0.0031891451546275391 0.045456632476645081 0 0.0028354136063039864 0.045015988499827062 0 0.0033022703606299876 0.044966011916325467 0 0.0031891451546275391 0.045456632476645081 0 0.0037468769790431206 0.046100553375130325 0 0.0037727677530023725 0.045330672927070353 0 0.002813853921524273 0.046274306311763956 0 0.0031891451546275391 0.045456632476645081 0 0.0037468769790431206 0.046100553375130325 0 0.002813853921524273 0.046274306311763956 0 0.0031891451546275391 0.045456632476645081 0 0.00239516284319368 0.045455009488184941 0 0.0031891451546275391 0.045456632476645081 0 0.0028354136063039864 0.045015988499827062 0 0.00239516284319368 0.045455009488184941 0 0.0028354136063039864 0.045015988499827062 0 0.00239516284319368 0.045455009488184941 0 0.0022629431962213763 0.044828414035969238 0 0.00239516284319368 0.045455009488184941 0 0.0013113657901572188 0.045070569977440696 0 0.0022629431962213763 0.044828414035969238 0 0.0017058997890209121 0.046549207947122161 0 0.00239516284319368 0.045455009488184941 0 0.0013113657901572188 0.045070569977440696 0 0.00070041973541944298 0.046136234398983948 0 0.0017058997890209121 0.046549207947122161 0 0.0013113657901572188 0.045070569977440696 0 0.0010923990057259659 0.043227442173524491 0 0.00150292634665429 0.042327225309462424 0 0.0013113657901572188 0.045070569977440696 0 0.0017303930917189903 0.043597819549132846 0 0.00084128835767909504 0.043639752537029161 0 0.0013113657901572188 0.045070569977440696 0 0.0017303930917189903 0.043597819549132846 0 0.002903421139443166 0.043830237501819497 0 0.0017303930917189903 0.043597819549132846 0 0.0013606656111613857 0.042888656505629889 0 0.00084128835767909504 0.043639752537029161 0 0.0017303930917189903 0.043597819549132846 0 0.0013606656111613857 0.042888656505629889 0 0.0024419002546658456 0.042952383140661229 0 -0.00053959234843889946 0.031027926852664988 0 -0.0031769793148941263 0.025068675098004679 0 -0.002737519079212789 0.026515320880533648 0 -0.0034351991067209579 0.026380918930486968 0 -0.0028856905035707652 0.025889886625931696 0 -0.002737519079212789 0.026515320880533648 0 -0.0024170589616461899 0.026110455064562499 0 -0.0028856905035707652 0.025889886625931696 0 0.0013606656111613857 0.042888656505629889 0 0.0020127573241575732 0.042235491249066483 0 0.00066074750576891952 0.042010770940347684 0 0.0013606656111613857 0.042888656505629889 0 0.0020127573241575732 0.042235491249066483 0 0.0024419002546658456 0.042952383140661229 0 -0.00053959234843889946 0.031027926852664988 0 0.0012124494234885912 0.035861547260181377 0 -0.0020315872631579994 0.026657978942367995 0 -0.0019473854568772824 0.025890645045310568 0 -0.0024170589616461899 0.026110455064562499 0 0.0020127573241575732 0.042235491249066483 0 0.0024419002546658456 0.042952383140661229 0 0.0033979496418435296 0.04247555269773718 0 -0.002737519079212789 0.026515320880533648 0 -0.0020315872631579994 0.026657978942367995 0 -0.0024170589616461899 0.026110455064562499 0 0.0033649242615014252 0.042767110534754252 0 0.0024419002546658456 0.042952383140661229 0 0.0033979496418435296 0.04247555269773718 0 0.0033649242615014252 0.042767110534754252 0 0.0024419002546658456 0.042952383140661229 0 0.002903421139443166 0.043830237501819497 0 0.0017303930917189903 0.043597819549132846 0 0.0024419002546658456 0.042952383140661229 0 0.002903421139443166 0.043830237501819497 0 0.0028354136063039864 0.045015988499827062 0 0.0030099152809459672 0.044473229860525779 0 0.0033022703606299876 0.044966011916325467 0 0.0033649242615014252 0.042767110534754252 0 0.002903421139443166 0.043830237501819497 0 0.0044119249066361752 0.042656807032760077 0 0.0028354136063039864 0.045015988499827062 0 0.0022629431962213763 0.044828414035969238 0 0.0030099152809459672 0.044473229860525779 0 0.00150292634665429 0.042327225309462424 0 0.0022496179505530323 0.039586785001514545 0 0.0012124494234885912 0.035861547260181377 0 0.0022496179505530323 0.039586785001514545 0 0.0012124494234885912 0.035861547260181377 0 -0.00084668453227306525 0.030426856062942209 0 0.0033649242615014252 0.042767110534754252 0 0.0033980703626865054 0.042477983898594286 0 0.0044119249066361752 0.042656807032760077 0 0.0027405526546743345 0.039576293830726007 0 0.0026024119180999487 0.03979736406800382 0 0.0026735361945109874 0.040092306633933324 0 0.0027405526546743345 0.039576293830726007 0 0.0026024119180999487 0.03979736406800382 0 0.0023702708903671587 0.039505540185733115 0 0.0012117867619058026 0.036015830813263733 0 0.0012124494234885912 0.035861547260181377 0 0.0022144431261697721 0.039939306117449599 0 0.0018199091844411772 0.040029678385050456 0 0.0019638077724491881 0.040075787619539824 0 0.0016575146135808471 0.040022120309253367 0 0.0016636976433933174 0.040301314587984471 0 0.0026024119180999487 0.03979736406800382 0 0.0023702708903671587 0.039505540185733115 0 0.0018149164173760768 0.039924796978039155 0 0.0022496179505530323 0.039586785001514545 0 0.0018199091844411772 0.040029678385050456 0 0.0033022703606299876 0.044966011916325467 0 0.0037727677530023725 0.045330672927070353 0 0.0037069841046201788 0.044713554262048975 0 0.0022496179505530323 0.039586785001514545 0 0.0026426742514722118 0.041656008727496259 0 0.0030099152809459672 0.044473229860525779 0 0.0033022703606299876 0.044966011916325467 0 0.0037069841046201788 0.044713554262048975 0 -0.0021077942374893152 0.044400453695877938 0 -0.0013132753732415631 0.044436028481398569 0 -0.0017780910525643436 0.045108442095791089 0 -0.0013132753732415631 0.044436028481398569 0 -0.0017780910525643436 0.045108442095791089 0 -0.0010049304906861196 0.044834714746760082 0 -0.0021077942374893152 0.044400453695877938 0 -0.0013132753732415631 0.044436028481398569 0 -0.0011226964409755606 0.043611758948043734 0 -0.0097172474722542149 0.0052074485602821921 0 -0.0084874540174852096 0.0055057938036951236 0 -0.0091231518830704617 0.0062527463963270042 0 -0.0021077942374893152 0.044400453695877938 0 -0.0030781575288029027 0.045507349676270153 0 -0.0017780910525643436 0.045108442095791089 0 -0.0030781575288029027 0.045507349676270153 0 -0.0019928417166313042 0.045818692345535053 0 -0.0017780910525643436 0.045108442095791089 0 -0.0072450354667204066 0.021957414430072413 0 -0.0076586233814211193 0.019874803554459294 0 -0.0017780910525643436 0.045108442095791089 0 -0.0010237920543075805 0.045533281328898938 0 -0.0010049304906861196 0.044834714746760082 0 -0.0019928417166313042 0.045818692345535053 0 -0.0017780910525643436 0.045108442095791089 0 -0.0010237920543075805 0.045533281328898938 0 -0.0010237920543075805 0.045533281328898938 0 0.00016397882197566319 0.045452437136212512 0 -0.00040582544122466885 0.044888219866992034 0 -0.00072696220495253015 0.046170676077369466 0 -0.0010237920543075805 0.045533281328898938 0 0.00016397882197566319 0.045452437136212512 0 -0.0010237920543075805 0.045533281328898938 0 -0.0010049304906861196 0.044834714746760082 0 -0.00040582544122466885 0.044888219866992034 0 0.00070041973541944298 0.046136234398983948 0 -0.00072696220495253015 0.046170676077369466 0 0.00016397882197566319 0.045452437136212512 0 0.00070041973541944298 0.046136234398983948 0 0.0013113657901572188 0.045070569977440696 0 0.00016397882197566319 0.045452437136212512 0 0.0013113657901572188 0.045070569977440696 0 0.00016397882197566319 0.045452437136212512 0 0.00017173375542965679 0.044303080711149558 0 0.0013113657901572188 0.045070569977440696 0 0.00017173375542965679 0.044303080711149558 0 0.00084128835767909504 0.043639752537029161 0 0.00016397882197566319 0.045452437136212512 0 0.00017173375542965679 0.044303080711149558 0 -0.00040582544122466885 0.044888219866992034 0 -0.0013132753732415631 0.044436028481398569 0 -0.0010049304906861196 0.044834714746760082 0 -0.00064532714973039151 0.044278401808260079 0 -0.0010049304906861196 0.044834714746760082 0 -0.00040582544122466885 0.044888219866992034 0 -0.00064532714973039151 0.044278401808260079 0 0.00017173375542965679 0.044303080711149558 0 -0.00040582544122466885 0.044888219866992034 0 -0.00064532714973039151 0.044278401808260079 0 0.00017173375542965679 0.044303080711149558 0 -0.00064532714973039151 0.044278401808260079 0 -0.00033368089414291747 0.043689913303164095 0 -0.00064532714973039151 0.044278401808260079 0 -0.00033368089414291747 0.043689913303164095 0 -0.0011226964409755606 0.043611758948043734 0 -0.0013132753732415631 0.044436028481398569 0 -0.00064532714973039151 0.044278401808260079 0 -0.0011226964409755606 0.043611758948043734 0 -0.0048245940097464768 0.032133595561614603 0 -0.0052238976803649926 0.034206432625810787 0 -0.00033368089414291747 0.043689913303164095 0 -0.00026185322807070212 0.042888741086203191 0 0.00018756279125037726 0.043457294480598783 0 -0.00033368089414291747 0.043689913303164095 0 -0.00026185322807070212 0.042888741086203191 0 -0.0011226964409755606 0.043611758948043734 0 1.6061160887301722e-05 0.042521670338754904 0 -0.0010261670228306013 0.042977243175023445 0 -0.0011226964409755606 0.043611758948043734 0 0.00084128835767909504 0.043639752537029161 0 0.00018756279125037726 0.043457294480598783 0 0.00051787814525230188 0.042903087181415785 0 0.00017173375542965679 0.044303080711149558 0 0.00084128835767909504 0.043639752537029161 0 0.00018756279125037726 0.043457294480598783 0 0.00017173375542965679 0.044303080711149558 0 -0.00033368089414291747 0.043689913303164095 0 0.00018756279125037726 0.043457294480598783 0 -0.00026185322807070212 0.042888741086203191 0 0.00018756279125037726 0.043457294480598783 0 0.00051787814525230188 0.042903087181415785 0 0.0013606656111613857 0.042888656505629889 0 0.00084128835767909504 0.043639752537029161 0 0.00051787814525230188 0.042903087181415785 0 0.0013606656111613857 0.042888656505629889 0 0.00051787814525230188 0.042903087181415785 0 0.00066074750576891952 0.042010770940347684 0 -0.0048245940097464768 0.032133595561614603 0 -0.0031769793148941263 0.025068675098004679 0 -0.00026185322807070212 0.042888741086203191 0 0.00051787814525230188 0.042903087181415785 0 0.00066074750576891952 0.042010770940347684 0 1.6061160887301722e-05 0.042521670338754904 0 0.0003819115048431461 0.041201652055209086 0 0.0012456645887666869 0.041345405529295685 0 -0.0060741584329393498 0.018117704669603989 0 -0.0031769793148941263 0.025068675098004679 0 -0.0042678654747118679 0.018027681728533623 0 -0.0042985417690720416 0.018024936137470228 0 -0.0042879306686744757 0.018049215670103876 0 -0.0064456073276674608 0.016171156962239589 0 -0.0053667682421587549 0.015568499519633187 0 -0.0066215331707801285 0.014738519146638233 0 -0.0058894698153941017 0.01487316237155858 0 -0.007555202162827044 0.01578097496094924 0 -0.0060741584329393498 0.018117704669603989 0 -0.0053667682421587549 0.015568499519633187 0 -0.0078537678105565049 0.0047871064158535037 0 -0.0072352321737318747 0.0041081803831008838 0 -0.0076569561769475767 0.0041984975505365962 0 -0.0073969513333493712 0.0040738415170086494 0 -0.0076569561769475767 0.0041984975505365962 0 -0.0084242207173731518 0.0038093045813924289 0 -0.0065325585467238935 0.021151534060100192 0 -0.0060741584329393498 0.018117704669603989 0 1.6061160887301722e-05 0.042521670338754904 0 -0.0010261670228306013 0.042977243175023445 0 0.0003819115048431461 0.041201652055209086 0 -0.0078537678105565049 0.0047871064158535037 0 -0.0076569561769475767 0.0041984975505365962 0 -0.0081782406272684939 0.0043302867303293717 0 -0.0072352321737318747 0.0041081803831008838 0 -0.00740750908419193 0.004074177907618352 0 -0.0076569561769475767 0.0041984975505365962 0 -0.0064456073276674608 0.016171156962239589 0 -0.0062157212844466325 0.015775813575816224 0 -0.0060741584329393498 0.018117704669603989 0 -0.0064456073276674608 0.016171156962239589 0 -0.0081782406272684939 0.0043302867303293717 0 -0.0087171640543686965 0.0046410516513419988 0 -0.0084242207173731518 0.0038093045813924289 0 -0.0076569561769475767 0.0041984975505365962 0 -0.0081782406272684939 0.0043302867303293717 0 -0.0084242207173731518 0.0038093045813924289 0 -0.0064456073276674608 0.016171156962239589 0 -0.009113813400218912 0.010244192860772336 0 -0.0078537678105565049 0.0047871064158535037 0 -0.0081782406272684939 0.0043302867303293717 0 -0.0087171640543686965 0.0046410516513419988 0 -0.0084874540174852096 0.0055057938036951236 0 -0.0078537678105565049 0.0047871064158535037 0 -0.0087171640543686965 0.0046410516513419988 0 -0.0021077942374893152 0.044400453695877938 0 -0.0010261670228306013 0.042977243175023445 0 -0.0011226964409755606 0.043611758948043734 0 -0.0072450354667204066 0.021957414430072413 0 -0.0065325585467238935 0.021151534060100192 0 -0.0097172474722542149 0.0052074485602821921 0 -0.0084874540174852096 0.0055057938036951236 0 -0.0087171640543686965 0.0046410516513419988 0 -0.0094476145370703726 0.0043348744967231321 0 -0.0084242207173731518 0.0038093045813924289 0 -0.0095700287847833403 0.0035298905412949879 0 -0.0094476145370703726 0.0043348744967231321 0 -0.0087171640543686965 0.0046410516513419988 0 -0.0084242207173731518 0.0038093045813924289 0 -0.0092223762214320298 0.0032994737682069267 0 -0.0090638070341092173 0.0036428409213139687 0 -0.0095700287847833403 0.0035298905412949879 0 -0.009113813400218912 0.010244192860772336 0 -0.0097024217329585785 0.0086186207367480519 0 -0.0092223762214320298 0.0032994737682069267 0 -0.0093090373846908825 0.0029707846707020097 0 -0.0096928265266827147 0.0030286980969074385 0 -0.0092223762214320298 0.0032994737682069267 0 -0.0093090373846908825 0.0029707846707020097 0 -0.0089276195022693541 0.0031457191978923669 0 -0.0092223762214320298 0.0032994737682069267 0 -0.0089276195022693541 0.0031457191978923669 0 -0.0088774185122853025 0.0034181057974007555 0 -0.0089276195022693541 0.0031457191978923669 0 -0.0087116297357907654 0.0031627171904254387 0 -0.0089734806933720618 0.0028880244452987934 0 -0.0089276195022693541 0.0031457191978923669 0 -0.0088774185122853025 0.0034181057974007555 0 -0.0087407013455403568 0.0033141512106455271 0 -0.0092223762214320298 0.0032994737682069267 0 -0.0088774185122853025 0.0034181057974007555 0 -0.0090638070341092173 0.0036428409213139687 0 -0.0085770984265363323 0.0037604472468390723 0 -0.0088774185122853025 0.0034181057974007555 0 -0.0090638070341092173 0.0036428409213139687 0 -0.0085770984265363323 0.0037604472468390723 0 -0.0088774185122853025 0.0034181057974007555 0 -0.0086152308480397614 0.0034662614882379414 0 -0.0085770984265363323 0.0037604472468390723 0 -0.0086152308480397614 0.0034662614882379414 0 -0.0084964656561626207 0.0036017889752340336 0 -0.0088774185122853025 0.0034181057974007555 0 -0.0086152308480397614 0.0034662614882379414 0 -0.0087407013455403568 0.0033141512106455271 0 -0.0042985417690720416 0.018024936137470228 0 -0.0042879306686744757 0.018049215670103876 0 -0.0043417431583685469 0.01806272176971236 0 -0.0053667682421587549 0.015568499519633187 0 -0.0042801615579736519 0.015964974165186784 0 -0.0053667682421587549 0.015568499519633187 0 -0.0047441495909443885 0.013778694069417112 0 -0.0085770984265363323 0.0037604472468390723 0 -0.0084964656561626207 0.0036017889752340336 0 -0.0084076511513061641 0.0036596161941639038 0 -0.0084964656561626207 0.0036017889752340336 0 -0.0084076511513061641 0.0036596161941639038 0 -0.0084062026590080215 0.0035213368113257569 0 -0.0086152308480397614 0.0034662614882379414 0 -0.0084964656561626207 0.0036017889752340336 0 -0.0084062026590080215 0.0035213368113257569 0 -0.0086152308480397614 0.0034662614882379414 0 -0.0084062026590080215 0.0035213368113257569 0 -0.0084366457049796541 0.0033784741054745699 0 -0.0084062026590080215 0.0035213368113257569 0 -0.0083303834677591424 0.0034294755758813591 0 -0.0084366457049796541 0.0033784741054745699 0 -0.0084062026590080215 0.0035213368113257569 0 -0.0083303834677591424 0.0034294755758813591 0 -0.0082661985637108963 0.0035230116580491637 0 -0.0084076511513061641 0.0036596161941639038 0 -0.0084062026590080215 0.0035213368113257569 0 -0.0082661985637108963 0.0035230116580491637 0 -0.0083303834677591424 0.0034294755758813591 0 -0.0084366457049796541 0.0033784741054745699 0 -0.0082978565533479744 0.0033099789692836714 0 -0.0083303834677591424 0.0034294755758813591 0 -0.0082978565533479744 0.0033099789692836714 0 -0.0081930736679071588 0.0034206066298031312 0 -0.0084366457049796541 0.0033784741054745699 0 -0.0084923640025629799 0.0032285575797185548 0 -0.0085952377290636223 0.0033182454655054042 0 -0.0084366457049796541 0.0033784741054745699 0 -0.0084923640025629799 0.0032285575797185548 0 -0.0082978565533479744 0.0033099789692836714 0 -0.0082978565533479744 0.0033099789692836714 0 -0.0083802941765934186 0.0031569849713358731 0 -0.0082250971315747622 0.0031585428938541312 0 -0.0084923640025629799 0.0032285575797185548 0 -0.0082978565533479744 0.0033099789692836714 0 -0.0083802941765934186 0.0031569849713358731 0 -0.0087407013455403568 0.0033141512106455271 0 -0.0085952377290636223 0.0033182454655054042 0 -0.0087116297357907654 0.0031627171904254387 0 -0.0086152308480397614 0.0034662614882379414 0 -0.0084366457049796541 0.0033784741054745699 0 -0.0085952377290636223 0.0033182454655054042 0 -0.0086152308480397614 0.0034662614882379414 0 -0.0087407013455403568 0.0033141512106455271 0 -0.0085952377290636223 0.0033182454655054042 0 -0.0084923640025629799 0.0032285575797185548 0 -0.0087116297357907654 0.0031627171904254387 0 -0.0085447694883241075 0.0030418818078956434 0 -0.0084923640025629799 0.0032285575797185548 0 -0.0085952377290636223 0.0033182454655054042 0 -0.0087116297357907654 0.0031627171904254387 0 -0.0089276195022693541 0.0031457191978923669 0 -0.0087407013455403568 0.0033141512106455271 0 -0.0087116297357907654 0.0031627171904254387 0 -0.0087116297357907654 0.0031627171904254387 0 -0.0085447694883241075 0.0030418818078956434 0 -0.0087244251996782835 0.002860402264301658 0 -0.0087116297357907654 0.0031627171904254387 0 -0.0087244251996782835 0.002860402264301658 0 -0.0089734806933720618 0.0028880244452987934 0 -0.0085447694883241075 0.0030418818078956434 0 -0.0087244251996782835 0.002860402264301658 0 -0.0085430365817818297 0.0028629322640023524 0 -0.0083802941765934186 0.0031569849713358731 0 -0.008353556278166769 0.0030027898329991415 0 -0.0082250971315747622 0.0031585428938541312 0 -0.0084923640025629799 0.0032285575797185548 0 -0.0085447694883241075 0.0030418818078956434 0 -0.0083802941765934186 0.0031569849713358731 0 -0.0085447694883241075 0.0030418818078956434 0 -0.0083802941765934186 0.0031569849713358731 0 -0.008353556278166769 0.0030027898329991415 0 -0.0085447694883241075 0.0030418818078956434 0 -0.008353556278166769 0.0030027898329991415 0 -0.0085430365817818297 0.0028629322640023524 0 -0.0085430365817818297 0.0028629322640023524 0 -0.0083289288389305095 0.0027928855267963402 0 -0.0086871529891149601 0.0026731837212823051 0 -0.008353556278166769 0.0030027898329991415 0 -0.0085430365817818297 0.0028629322640023524 0 -0.0083289288389305095 0.0027928855267963402 0 -0.0087244251996782835 0.002860402264301658 0 -0.0086871529891149601 0.0026731837212823051 0 -0.008925816986043604 0.0025861949681089745 0 -0.0087244251996782835 0.002860402264301658 0 -0.0085430365817818297 0.0028629322640023524 0 -0.0086871529891149601 0.0026731837212823051 0 -0.008925816986043604 0.0025861949681089745 0 -0.0088501897428962233 0.0022306205102918465 0 -0.0095840965258061871 0.0021739242051555543 0 -0.0086871529891149601 0.0026731837212823051 0 -0.008925816986043604 0.0025861949681089745 0 -0.0088553339253977358 0.0025335385425741533 0 -0.010245036631191551 0.012490852330386368 0 -0.010860105186533374 0.015617059322895118 0 -0.0092993351213051245 0.0026424731979660049 0 -0.0095840965258061871 0.0021739242051555543 0 -0.009748499061340031 0.0025735901825435265 0 -0.008925816986043604 0.0025861949681089745 0 -0.0092993351213051245 0.0026424731979660049 0 -0.0095840965258061871 0.0021739242051555543 0 -0.0093090373846908825 0.0029707846707020097 0 -0.0092993351213051245 0.0026424731979660049 0 -0.009748499061340031 0.0025735901825435265 0 -0.0093090373846908825 0.0029707846707020097 0 -0.0092993351213051245 0.0026424731979660049 0 -0.0089734806933720618 0.0028880244452987934 0 -0.008925816986043604 0.0025861949681089745 0 -0.0092993351213051245 0.0026424731979660049 0 -0.0089734806933720618 0.0028880244452987934 0 -0.0087244251996782835 0.002860402264301658 0 -0.008925816986043604 0.0025861949681089745 0 -0.0089734806933720618 0.0028880244452987934 0 -0.0093090373846908825 0.0029707846707020097 0 -0.0089276195022693541 0.0031457191978923669 0 -0.0089734806933720618 0.0028880244452987934 0 0.0022375975498654453 0.040441516274609145 0 0.002603075875705923 0.040558695813772749 0 0.0021521494335398901 0.040807727852738715 0 0.0022375975498654453 0.040441516274609145 0 0.0021521494335398901 0.040807727852738715 0 0.0018549431042724732 0.04045667726340689 0 0.0026024119180999487 0.03979736406800382 0 0.0022750040677622205 0.040053570432559714 0 0.0018971127274212524 0.039963168584208279 0 0.0022750040677622205 0.040053570432559714 0 0.0018549431042724732 0.04045667726340689 0 0.0018971127274212524 0.039963168584208279 0 0.0022375975498654453 0.040441516274609145 0 0.0022750040677622205 0.040053570432559714 0 0.0018549431042724732 0.04045667726340689 0 0.0022375975498654453 0.040441516274609145 0 0.0022750040677622205 0.040053570432559714 0 0.002445744629842862 0.040256020033269696 0 0.002445744629842862 0.040256020033269696 0 0.0024983977714560001 0.0400516035411181 0 0.0026735361945109874 0.040092306633933324 0 0.0022750040677622205 0.040053570432559714 0 0.002445744629842862 0.040256020033269696 0 0.0024983977714560001 0.0400516035411181 0 0.0026024119180999487 0.03979736406800382 0 0.0022750040677622205 0.040053570432559714 0 0.0024983977714560001 0.0400516035411181 0 0.0026024119180999487 0.03979736406800382 0 0.0024983977714560001 0.0400516035411181 0 0.0026735361945109874 0.040092306633933324 0 -0.0019473854568772824 0.025890645045310568 0 -0.0018634765122151592 0.025118191587728489 0 -0.0023349103031939196 0.02538544448690851 0 0.002445744629842862 0.040256020033269696 0 0.0026735361945109874 0.040092306633933324 0 0.002603075875705923 0.040558695813772749 0 -0.00084668453227306525 0.030426856062942209 0 -0.0029500898656216494 0.021200917788409237 0 0.0022375975498654453 0.040441516274609145 0 0.002445744629842862 0.040256020033269696 0 0.002603075875705923 0.040558695813772749 0 -0.007723074682884864 0.0033681389299788362 0 -0.0077944760428326305 0.0033667800628268143 0 -0.0078263738881037756 0.003241526995379065 0 -0.0077944760428326305 0.0033667800628268143 0 -0.0079426876206169644 0.0033040456208593373 0 -0.0078263738881037756 0.003241526995379065 0 -0.0077944760428326305 0.0033667800628268143 0 -0.0079426876206169644 0.0033040456208593373 0 -0.0079021229601339803 0.0034352925918831123 0 -0.007723074682884864 0.0033681389299788362 0 -0.0077944760428326305 0.0033667800628268143 0 -0.0079278074975144813 0.003564574398426011 0 -0.0079426876206169644 0.0033040456208593373 0 -0.0079021229601339803 0.0034352925918831123 0 -0.0080538546226496498 0.0034006492432760911 0 -0.0029342222057483877 0.017017269262925742 0 -0.0033133494677312675 0.018196541652140002 0 -0.0029500898656216494 0.021200917788409237 0 -0.0033133494677312675 0.018196541652140002 0 -0.0019473854568772824 0.025890645045310568 0 -0.0023349103031939196 0.02538544448690851 0 -0.0024170589616461899 0.026110455064562499 0 -0.0023349103031939196 0.02538544448690851 0 -0.0024170589616461899 0.026110455064562499 0 -0.0028856905035707652 0.025889886625931696 0 -0.0033133494677312675 0.018196541652140002 0 -0.0042801615579736519 0.015964974165186784 0 -0.0033133494677312675 0.018196541652140002 0 -0.0034042756599760161 0.02177590573738989 0 -0.0084494997519878098 0.0037847682113164058 0 -0.008128348972307943 0.0035496608360794709 0 -0.0082661985637108963 0.0035230116580491637 0 -0.0042879306686744757 0.018049215670103876 0 -0.0043375464773935685 0.018071325119764985 0 -0.0043417431583685469 0.01806272176971236 0 -0.004369140630734872 0.018081999754269492 0 -0.0043375464773935685 0.018071325119764985 0 -0.0043417431583685469 0.01806272176971236 0 -0.0031769793148941263 0.025068675098004679 0 -0.0034042756599760161 0.02177590573738989 0 -0.008128348972307943 0.0035496608360794709 0 -0.0082661985637108963 0.0035230116580491637 0 -0.0081930736679071588 0.0034206066298031312 0 -0.0083303834677591424 0.0034294755758813591 0 -0.0082661985637108963 0.0035230116580491637 0 -0.0081930736679071588 0.0034206066298031312 0 -0.0082978565533479744 0.0033099789692836714 0 -0.0081930736679071588 0.0034206066298031312 0 -0.0081161326774779226 0.0033030447555705026 0 -0.0079021229601339803 0.0034352925918831123 0 -0.008128348972307943 0.0035496608360794709 0 -0.0080538546226496498 0.0034006492432760911 0 -0.0081930736679071588 0.0034206066298031312 0 -0.0080538546226496498 0.0034006492432760911 0 -0.0081161326774779226 0.0033030447555705026 0 -0.008128348972307943 0.0035496608360794709 0 -0.0081930736679071588 0.0034206066298031312 0 -0.0080538546226496498 0.0034006492432760911 0 -0.0079426876206169644 0.0033040456208593373 0 -0.0080538546226496498 0.0034006492432760911 0 -0.0081161326774779226 0.0033030447555705026 0 -0.0079426876206169644 0.0033040456208593373 0 -0.0081161326774779226 0.0033030447555705026 0 -0.0080788826453563126 0.0031845824447396878 0 -0.0082978565533479744 0.0033099789692836714 0 -0.0081161326774779226 0.0033030447555705026 0 -0.0082250971315747622 0.0031585428938541312 0 -0.0082250971315747622 0.0031585428938541312 0 -0.0080788826453563126 0.0031845824447396878 0 -0.0081363160130728963 0.0030506525584335937 0 -0.0081161326774779226 0.0033030447555705026 0 -0.0082250971315747622 0.0031585428938541312 0 -0.0080788826453563126 0.0031845824447396878 0 -0.0080788826453563126 0.0031845824447396878 0 -0.0081363160130728963 0.0030506525584335937 0 -0.0079484635484456771 0.0031416537826626009 0 -0.008353556278166769 0.0030027898329991415 0 -0.0082250971315747622 0.0031585428938541312 0 -0.0081363160130728963 0.0030506525584335937 0 -0.0083289288389305095 0.0027928855267963402 0 -0.0081363160130728963 0.0030506525584335937 0 -0.0079158799769146315 0.0029810503054873666 0 -0.008353556278166769 0.0030027898329991415 0 -0.0083289288389305095 0.0027928855267963402 0 -0.0081363160130728963 0.0030506525584335937 0 -0.0079158799769146315 0.0029810503054873666 0 -0.0076770990088641999 0.0030671693112208961 0 -0.0077140678795123881 0.0028887368944640274 0 -0.0079158799769146315 0.0029810503054873666 0 -0.0078406315605598319 0.0031017440852671727 0 -0.0076770990088641999 0.0030671693112208961 0 -0.0079158799769146315 0.0029810503054873666 0 -0.0078406315605598319 0.0031017440852671727 0 -0.0079484635484456771 0.0031416537826626009 0 -0.0078406315605598319 0.0031017440852671727 0 -0.0079484635484456771 0.0031416537826626009 0 -0.0078263738881037756 0.003241526995379065 0 -0.0081363160130728963 0.0030506525584335937 0 -0.0079158799769146315 0.0029810503054873666 0 -0.0079484635484456771 0.0031416537826626009 0 -0.0079426876206169644 0.0033040456208593373 0 -0.0080788826453563126 0.0031845824447396878 0 -0.0079484635484456771 0.0031416537826626009 0 -0.0079426876206169644 0.0033040456208593373 0 -0.0079484635484456771 0.0031416537826626009 0 -0.0078263738881037756 0.003241526995379065 0 -0.007723074682884864 0.0033681389299788362 0 -0.0078263738881037756 0.003241526995379065 0 -0.0076770990088641999 0.0030671693112208961 0 -0.0029500898656216494 0.021200917788409237 0 -0.0043508565257584387 0.0096285047431978656 0 -0.008985183088350222 0.015284977715938024 0 -0.0082585908357829495 0.0090797205117284611 0 -0.0042780964368512222 0.012689905263597796 0 -0.0029500898656216494 0.021200917788409237 0 -0.0014530257506551133 0.026919386146347365 0 -0.0078406315605598319 0.0031017440852671727 0 -0.0078263738881037756 0.003241526995379065 0 -0.0076770990088641999 0.0030671693112208961 0 -0.0043508565257584387 0.0096285047431978656 0 -0.0047610821711421558 0.0065360372943013226 0 -0.0082585908357829495 0.0090797205117284611 0 -0.0039038555403423576 0.0090817644174709476 0 -0.0055364814069532552 0.0056085926301438624 0 -0.0039038555403423576 0.0090817644174709476 0 -0.0026095425447086678 0.0057350348992934773 0 -0.0055364814069532552 0.0056085926301438624 0 -0.0082585908357829495 0.0090797205117284611 0 -0.0039038555403423576 0.0090817644174709476 0 -0.0042780964368512222 0.012689905263597796 0 -0.0039038555403423576 0.0090817644174709476 0 -0.0042780964368512222 0.012689905263597796 0 0.00043022116065565019 0.010131053024025581 0 -0.0064772606940604544 0.049828176855428195 0 -0.0062688176523502358 0.050132850330383602 0 -0.0027430126235234577 0.049206055861626491 0 -0.0062550398852103378 0.08003943921953531 0 -0.0061688384706012891 0.08042088614142931 0 -0.0063496020687661883 0.080231555343664218 0 -0.0047965645828545326 0.045604416223860557 0 -0.0030996655248017192 0.059197907451718282 0 -0.0062550398852103378 0.08003943921953531 0 -0.0063496020687661883 0.080231555343664218 0 -0.0065559091526998306 0.080037672302904581 0 -0.0010482136235600262 0.066302582448042324 0 -0.0030996655248017192 0.059197907451718282 0 -0.0047965645828545326 0.045604416223860557 0 -0.0055092947951203789 0.044138071159697839 0 -0.0057275672961342424 0.0017448601160408941 0 -0.0055364814069532552 0.0056085926301438624 0 -0.0073706029971733634 0.0028929452819943932 0 -0.0057275672961342424 0.0017448601160408941 0 -0.0026095425447086678 0.0057350348992934773 0 -0.0055364814069532552 0.0056085926301438624 0 -0.0055092947951203789 0.044138071159697839 0 -0.0049729935288560937 0.033827964361658275 0 -0.0041142098401211183 0.044481085576867134 0 -0.0035991526610263968 0.045212398122595095 0 -0.0029624755793133772 0.044510473930104925 0 -0.0076770990088641999 0.0030671693112208961 0 -0.0073706029971733634 0.0028929452819943932 0 -0.0077140678795123881 0.0028887368944640274 0 -0.0082585908357829495 0.0090797205117284611 0 -0.0055364814069532552 0.0056085926301438624 0 -0.0073706029971733634 0.0028929452819943932 0 -0.0073706029971733634 0.0028929452819943932 0 -0.0077140678795123881 0.0028887368944640274 0 -0.0074682124413461438 0.0023514910394711172 0 -0.0077326460333874232 0.03523464156786893 0 -0.0079984659669879981 0.035270981913131189 0 -0.0081754144251170655 0.034614801219449626 0 -0.0079984659669879981 0.035270981913131189 0 -0.0084273569805830596 0.034918013962091522 0 -0.0081754144251170655 0.034614801219449626 0 -0.0059265608410397092 0.041345521488840777 0 -0.0074588446075158701 0.039868144262108683 0 -0.0047965645828545326 0.045604416223860557 0 -0.0056635896955442577 0.052380494125472209 0 -0.0057275672961342424 0.0017448601160408941 0 -0.0073706029971733634 0.0028929452819943932 0 -0.0074682124413461438 0.0023514910394711172 0 -0.0026309267410950517 0.041493922224207648 0 -0.0020344317579934512 0.042364906760361767 0 -0.0071272911506589749 0.042257038447044801 0 -0.0055092947951203789 0.044138071159697839 0 -0.0059265608410397092 0.041345521488840777 0 -0.0047965645828545326 0.045604416223860557 0 -0.0059265608410397092 0.041345521488840777 0 -0.008488424572175763 0.035192366088368433 0 -0.0087984417852540447 0.035325349417072306 0 -0.0090079578849877381 0.035165740173953949 0 -0.0079490502527492183 0.035238993014120652 0 -0.008488424572175763 0.035192366088368433 0 -0.0087984417852540447 0.035325349417072306 0 -0.0059265608410397092 0.041345521488840777 0 -0.0071876426432152928 0.028466810502913775 0 -0.0074588446075158701 0.039868144262108683 0 -0.0079244056029231132 0.039407229853407652 0 -0.0087474093287075692 0.034940262920876174 0 -0.0085162077885432928 0.035232461476022575 0 -0.0090079578849877381 0.035165740173953949 0 -0.0079984659669879981 0.035270981913131189 0 -0.0084273569805830596 0.034918013962091522 0 -0.0085162077885432928 0.035232461476022575 0 -0.0084273569805830596 0.034918013962091522 0 -0.0087474093287075692 0.034940262920876174 0 -0.0085162077885432928 0.035232461476022575 0 -0.0079158799769146315 0.0029810503054873666 0 -0.0077140678795123881 0.0028887368944640274 0 -0.0080900295494319117 0.0026302698876676006 0 -0.0077140678795123881 0.0028887368944640274 0 -0.0074682124413461438 0.0023514910394711172 0 -0.0080900295494319117 0.0026302698876676006 0 -0.0087984417852540447 0.035325349417072306 0 -0.0090079578849877381 0.035165740173953949 0 -0.0095595044978660348 0.035370372606584564 0 -0.0083289288389305095 0.0027928855267963402 0 -0.0080900295494319117 0.0026302698876676006 0 -0.0084704974275516282 0.0025807061176231294 0 -0.0083289288389305095 0.0027928855267963402 0 -0.0079158799769146315 0.0029810503054873666 0 -0.0080900295494319117 0.0026302698876676006 0 -0.0071876426432152928 0.028466810502913775 0 -0.0088210568347744447 0.021316816999496304 0 -0.0087474093287075692 0.034940262920876174 0 -0.0090079578849877381 0.035165740173953949 0 -0.0090783045361258318 0.034804374631707831 0 -0.0090079578849877381 0.035165740173953949 0 -0.0090783045361258318 0.034804374631707831 0 -0.0093829524453232106 0.034963039445764614 0 -0.0090783045361258318 0.034804374631707831 0 -0.0091152746147175282 0.034364180175682636 0 -0.0094991473980220991 0.034606556630231128 0 -0.0087474093287075692 0.034940262920876174 0 -0.0090783045361258318 0.034804374631707831 0 -0.0086960797886048956 0.034619576209162714 0 -0.0090783045361258318 0.034804374631707831 0 -0.0091152746147175282 0.034364180175682636 0 -0.0086960797886048956 0.034619576209162714 0 -0.0093026935778690641 0.051538774006415454 0 -0.013245626336135921 0.040582506182553456 0 -0.0091152746147175282 0.034364180175682636 0 -0.0085993346268499402 0.034038813215649354 0 -0.0092670490551240992 0.033883331947419701 0 -0.0091152746147175282 0.034364180175682636 0 -0.0085993346268499402 0.034038813215649354 0 -0.0086960797886048956 0.034619576209162714 0 -0.0093026935778690641 0.051538774006415454 0 -0.0056635896955442577 0.052380494125472209 0 -0.0075837793902277717 0.079362857634437914 0 -0.006826540181710492 0.079676417315797221 0 -0.0062620800894726833 0.080449483648782558 0 -0.0075837793902277717 0.079362857634437914 0 -0.0071104893430372091 0.079425577931706029 0 -0.006826540181710492 0.079676417315797221 0 -0.0077964368632692065 0.079363280873783998 0 -0.0071104893430372091 0.079425577931706029 0 -0.0076056307173384425 0.078364117325442254 0 -0.0093026935778690641 0.051538774006415454 0 -0.0089237920477818755 0.052054897178828857 0 -0.0085993346268499402 0.034038813215649354 0 -0.0086960797886048956 0.034619576209162714 0 -0.0081754144251170655 0.034614801219449626 0 -0.0084273569805830596 0.034918013962091522 0 -0.0086960797886048956 0.034619576209162714 0 -0.0081754144251170655 0.034614801219449626 0 -0.0084273569805830596 0.034918013962091522 0 -0.0087474093287075692 0.034940262920876174 0 -0.0086960797886048956 0.034619576209162714 0 -0.0062550398852103378 0.08003943921953531 0 -0.0062620800894726833 0.080449483648782558 0 -0.0061688384706012891 0.08042088614142931 0 -0.0061688384706012891 0.08042088614142931 0 -0.0060245308538425862 0.079961347928263246 0 -0.0055343714831221141 0.080223028622036438 0 -0.0061688384706012891 0.08042088614142931 0 -0.0062616903964685259 0.080122647913632536 0 -0.0060245308538425862 0.079961347928263246 0 -0.0062620800894726833 0.080449483648782558 0 -0.0062616903964685259 0.080122647913632536 0 -0.0064609750165000503 0.079921441965212295 0 -0.006826540181710492 0.079676417315797221 0 -0.0062620800894726833 0.080449483648782558 0 -0.0064609750165000503 0.079921441965212295 0 -0.0062620800894726833 0.080449483648782558 0 -0.0061688384706012891 0.08042088614142931 0 -0.0062616903964685259 0.080122647913632536 0 -0.0062616903964685259 0.080122647913632536 0 -0.0064609750165000503 0.079921441965212295 0 -0.006281887194846277 0.079716818209844734 0 -0.006281887194846277 0.079716818209844734 0 -0.0065220218037236721 0.079458983914225789 0 -0.0059385435430745195 0.079469904785111789 0 -0.0064609750165000503 0.079921441965212295 0 -0.006281887194846277 0.079716818209844734 0 -0.0065220218037236721 0.079458983914225789 0 -0.006826540181710492 0.079676417315797221 0 -0.0064609750165000503 0.079921441965212295 0 -0.0065220218037236721 0.079458983914225789 0 -0.0071104893430372091 0.079425577931706029 0 -0.006826540181710492 0.079676417315797221 0 -0.0065220218037236721 0.079458983914225789 0 -0.0065220218037236721 0.079458983914225789 0 -0.0061238748335015088 0.078897004663740763 0 -0.0067420515255654087 0.07885478176075475 0 -0.0071104893430372091 0.079425577931706029 0 -0.0065220218037236721 0.079458983914225789 0 -0.0067420515255654087 0.07885478176075475 0 -0.005523516342959129 0.07897446995609618 0 -0.0059385435430745195 0.079469904785111789 0 -0.0061238748335015088 0.078897004663740763 0 -0.0065220218037236721 0.079458983914225789 0 -0.0059385435430745195 0.079469904785111789 0 -0.0061238748335015088 0.078897004663740763 0 -0.0059385435430745195 0.079469904785111789 0 -0.0060245308538425862 0.079961347928263246 0 -0.0055614820776564858 0.07978035289989302 0 -0.006281887194846277 0.079716818209844734 0 -0.0059385435430745195 0.079469904785111789 0 -0.0060245308538425862 0.079961347928263246 0 -0.0062616903964685259 0.080122647913632536 0 -0.006281887194846277 0.079716818209844734 0 -0.0060245308538425862 0.079961347928263246 0 -0.0060245308538425862 0.079961347928263246 0 -0.0055614820776564858 0.07978035289989302 0 -0.0055343714831221141 0.080223028622036438 0 -0.0055614820776564858 0.07978035289989302 0 -0.0048416403006653723 0.080088128460932204 0 -0.0055343714831221141 0.080223028622036438 0 -0.0059385435430745195 0.079469904785111789 0 -0.0055614820776564858 0.07978035289989302 0 -0.0051437360187041124 0.07940929528034725 0 -0.0055614820776564858 0.07978035289989302 0 -0.0051437360187041124 0.07940929528034725 0 -0.0048416403006653723 0.080088128460932204 0 -0.005523516342959129 0.07897446995609618 0 -0.0051437360187041124 0.07940929528034725 0 -0.0048279413943586201 0.078646569331932148 0 -0.005523516342959129 0.07897446995609618 0 -0.0059385435430745195 0.079469904785111789 0 -0.0051437360187041124 0.07940929528034725 0 -0.0051437360187041124 0.07940929528034725 0 -0.0039880272874406285 0.079385951604629329 0 -0.0048279413943586201 0.078646569331932148 0 -0.0051437360187041124 0.07940929528034725 0 -0.0048416403006653723 0.080088128460932204 0 -0.0039880272874406285 0.079385951604629329 0 -0.0048416403006653723 0.080088128460932204 0 -0.0040739517688664455 0.080583385919171122 0 -0.0039880272874406285 0.079385951604629329 0 -0.0048416403006653723 0.080088128460932204 0 -0.0049231887851712407 0.081242775124332339 0 -0.0040739517688664455 0.080583385919171122 0 -0.0049231887851712407 0.081242775124332339 0 -0.0038221987468329099 0.081925929887908783 0 -0.0040739517688664455 0.080583385919171122 0 -0.0048416403006653723 0.080088128460932204 0 -0.0055343714831221141 0.080223028622036438 0 -0.0049231887851712407 0.081242775124332339 0 -0.0061688384706012891 0.08042088614142931 0 -0.0055343714831221141 0.080223028622036438 0 -0.0049231887851712407 0.081242775124332339 0 -0.00077861912790416321 0.068258060833862169 0 -0.0010482136235600262 0.066302582448042324 0 -0.023101183324786667 0.0086291936402390704 0 -0.025475113824229914 0.0093935496124847341 0 -0.024176536027925025 0.011060988139613854 0 -0.023101183324786667 0.0086291936402390704 0 -0.024947934032576374 0.0070642175084081197 0 -0.025475113824229914 0.0093935496124847341 0 -0.010860105186533374 0.015617059322895118 0 -0.01429514624581296 0.0088928671870554914 0 -0.023101183324786667 0.0086291936402390704 0 -0.024947934032576374 0.0070642175084081197 0 -0.021840150244464236 0.006512548661992996 0 -0.010860105186533374 0.015617059322895118 0 -0.014689917096976561 0.021309121013974457 0 -0.010860105186533374 0.015617059322895118 0 -0.0088210568347744447 0.021316816999496304 0 -0.0086871529891149601 0.0026731837212823051 0 -0.0088553339253977358 0.0025335385425741533 0 -0.0084704974275516282 0.0025807061176231294 0 -0.010250871122949123 0.035426758414519609 0 -0.0095595044978660348 0.035370372606584564 0 -0.010137058801237704 0.034895135182246982 0 -0.0083289288389305095 0.0027928855267963402 0 -0.0086871529891149601 0.0026731837212823051 0 -0.0084704974275516282 0.0025807061176231294 0 -0.0095595044978660348 0.035370372606584564 0 -0.0093829524453232106 0.034963039445764614 0 -0.0097315134482666345 0.034843030539739125 0 -0.0090079578849877381 0.035165740173953949 0 -0.0095595044978660348 0.035370372606584564 0 -0.0093829524453232106 0.034963039445764614 0 -0.0093829524453232106 0.034963039445764614 0 -0.0097315134482666345 0.034843030539739125 0 -0.0094991473980220991 0.034606556630231128 0 -0.0095595044978660348 0.035370372606584564 0 -0.010137058801237704 0.034895135182246982 0 -0.0097315134482666345 0.034843030539739125 0 -0.010137058801237704 0.034895135182246982 0 -0.0097315134482666345 0.034843030539739125 0 -0.010033604724628341 0.034327634233859872 0 -0.0097315134482666345 0.034843030539739125 0 -0.0094991473980220991 0.034606556630231128 0 -0.010033604724628341 0.034327634233859872 0 -0.014689917096976561 0.021309121013974457 0 -0.016819934014689612 0.024434730788594525 0 -0.0094991473980220991 0.034606556630231128 0 -0.0095951548073391676 0.034203852885740182 0 -0.010033604724628341 0.034327634233859872 0 -0.0091152746147175282 0.034364180175682636 0 -0.0094991473980220991 0.034606556630231128 0 -0.0095951548073391676 0.034203852885740182 0 -0.0090783045361258318 0.034804374631707831 0 -0.0093829524453232106 0.034963039445764614 0 -0.0094991473980220991 0.034606556630231128 0 -0.0091152746147175282 0.034364180175682636 0 -0.0095951548073391676 0.034203852885740182 0 -0.0092670490551240992 0.033883331947419701 0 -0.0095951548073391676 0.034203852885740182 0 -0.0099234355275451269 0.033731793495367868 0 -0.0092670490551240992 0.033883331947419701 0 -0.016819934014689612 0.024434730788594525 0 -0.01883556836024055 0.029772731564977253 0 -0.026035726302184307 0.011727113177399365 0 -0.024856083714044394 0.012976681912200957 0 -0.026614084756116103 0.014133131958910673 0 -0.0095951548073391676 0.034203852885740182 0 -0.010033604724628341 0.034327634233859872 0 -0.0099234355275451269 0.033731793495367868 0 -0.026035726302184307 0.011727113177399365 0 -0.024856083714044394 0.012976681912200957 0 -0.024176536027925025 0.011060988139613854 0 -0.024856083714044394 0.012976681912200957 0 -0.024176536027925025 0.011060988139613854 0 -0.02346111166131843 0.012874915103977596 0 -0.025475113824229914 0.0093935496124847341 0 -0.026035726302184307 0.011727113177399365 0 -0.024176536027925025 0.011060988139613854 0 -0.023101183324786667 0.0086291936402390704 0 -0.024176536027925025 0.011060988139613854 0 -0.021872486223895468 0.01061414710028276 0 -0.024176536027925025 0.011060988139613854 0 -0.02346111166131843 0.012874915103977596 0 -0.021872486223895468 0.01061414710028276 0 -0.021633615386359748 0.01143288813338446 0 -0.020575391754900012 0.010217515574025712 0 -0.02346111166131843 0.012874915103977596 0 -0.021557684760010843 0.0096879814341083604 0 -0.021225951211000932 0.013520965369590398 0 -0.018659490233659162 0.01248718715973246 0 -0.021557684760010843 0.0096879814341083604 0 -0.021225951211000932 0.013520965369590398 0 -0.018659490233659162 0.01248718715973246 0 -0.016351940300757713 0.01274611620864013 0 -0.016553758950823776 0.014513234218978592 0 -0.018659490233659162 0.01248718715973246 0 -0.016713208063770333 0.011156364872412637 0 -0.016351940300757713 0.01274611620864013 0 -0.018659490233659162 0.01248718715973246 0 -0.01886374419724644 0.0094966762625266037 0 -0.016713208063770333 0.011156364872412637 0 -0.01886374419724644 0.0094966762625266037 0 -0.01666334460142074 0.0091902994448639017 0 -0.016713208063770333 0.011156364872412637 0 -0.01886374419724644 0.0094966762625266037 0 -0.017491190095066545 0.0077791197416706894 0 -0.01666334460142074 0.0091902994448639017 0 -0.018659490233659162 0.01248718715973246 0 -0.01886374419724644 0.0094966762625266037 0 -0.021557684760010843 0.0096879814341083604 0 -0.020575391754900012 0.010217515574025712 0 -0.018189263916385263 0.0079676980991010594 0 -0.023101183324786667 0.0086291936402390704 0 -0.021872486223895468 0.01061414710028276 0 -0.020279368552520983 0.0083038955733171251 0 -0.01886374419724644 0.0094966762625266037 0 -0.021557684760010843 0.0096879814341083604 0 -0.01942691804147828 0.0065575076089044691 0 -0.01886374419724644 0.0094966762625266037 0 -0.01942691804147828 0.0065575076089044691 0 -0.017491190095066545 0.0077791197416706894 0 -0.01942691804147828 0.0065575076089044691 0 -0.017491190095066545 0.0077791197416706894 0 -0.016473928457662421 0.006148840356654907 0 -0.01942691804147828 0.0065575076089044691 0 -0.016473928457662421 0.006148840356654907 0 -0.017337482933825473 0.0035673100564902367 0 -0.018189263916385263 0.0079676980991010594 0 -0.014219815559712736 0.0049954307076730516 0 -0.020279368552520983 0.0083038955733171251 0 -0.021840150244464236 0.006512548661992996 0 -0.018690381960728666 0.0059667910487116501 0 -0.023101183324786667 0.0086291936402390704 0 -0.020279368552520983 0.0083038955733171251 0 -0.021840150244464236 0.006512548661992996 0 -0.014648439351397709 0.0051011829729664211 0 -0.012201507558100464 0.0057475524547030759 0 -0.013377907615452409 0.0029533241498984476 0 -0.014648439351397709 0.0051011829729664211 0 -0.013887185982007633 0.0070878627658025632 0 -0.012201507558100464 0.0057475524547030759 0 -0.014648439351397709 0.0051011829729664211 0 -0.016473928457662421 0.006148840356654907 0 -0.013887185982007633 0.0070878627658025632 0 -0.014648439351397709 0.0051011829729664211 0 -0.016473928457662421 0.006148840356654907 0 -0.017337482933825473 0.0035673100564902367 0 -0.016473928457662421 0.006148840356654907 0 -0.015475446754719976 0.0080792906408491995 0 -0.013887185982007633 0.0070878627658025632 0 -0.017491190095066545 0.0077791197416706894 0 -0.016473928457662421 0.006148840356654907 0 -0.015475446754719976 0.0080792906408491995 0 -0.017491190095066545 0.0077791197416706894 0 -0.015475446754719976 0.0080792906408491995 0 -0.01666334460142074 0.0091902994448639017 0 -0.015475446754719976 0.0080792906408491995 0 -0.013887185982007633 0.0070878627658025632 0 -0.014052179755244434 0.0088193214905198641 0 -0.013887185982007633 0.0070878627658025632 0 -0.012496812435604476 0.0073273340802609242 0 -0.012201507558100464 0.0057475524547030759 0 -0.013887185982007633 0.0070878627658025632 0 -0.012496812435604476 0.0073273340802609242 0 -0.012719510663953913 0.0085209136586708329 0 -0.013887185982007633 0.0070878627658025632 0 -0.012719510663953913 0.0085209136586708329 0 -0.014052179755244434 0.0088193214905198641 0 -0.012719510663953913 0.0085209136586708329 0 -0.013465148806473743 0.0093686474268974869 0 -0.013003467137016375 0.010059767942654561 0 -0.012100971204101927 0.010314989049488925 0 -0.012569035255768149 0.0097483818149122405 0 -0.01472736689912729 0.012180829549387016 0 -0.012719510663953913 0.0085209136586708329 0 -0.013465148806473743 0.0093686474268974869 0 -0.014052179755244434 0.0088193214905198641 0 -0.013465148806473743 0.0093686474268974869 0 -0.014083125340747075 0.010069589389616853 0 -0.013003467137016375 0.010059767942654561 0 -0.013465148806473743 0.0093686474268974869 0 -0.014052179755244434 0.0088193214905198641 0 -0.014083125340747075 0.010069589389616853 0 -0.014052179755244434 0.0088193214905198641 0 -0.014083125340747075 0.010069589389616853 0 -0.015223808571963829 0.0099187958474044394 0 -0.014083125340747075 0.010069589389616853 0 -0.013003467137016375 0.010059767942654561 0 -0.01472736689912729 0.012180829549387016 0 -0.015475446754719976 0.0080792906408491995 0 -0.01666334460142074 0.0091902994448639017 0 -0.015223808571963829 0.0099187958474044394 0 -0.015475446754719976 0.0080792906408491995 0 -0.014052179755244434 0.0088193214905198641 0 -0.015223808571963829 0.0099187958474044394 0 -0.014083125340747075 0.010069589389616853 0 -0.015223808571963829 0.0099187958474044394 0 -0.01472736689912729 0.012180829549387016 0 -0.01666334460142074 0.0091902994448639017 0 -0.015223808571963829 0.0099187958474044394 0 -0.016713208063770333 0.011156364872412637 0 -0.016713208063770333 0.011156364872412637 0 -0.01472736689912729 0.012180829549387016 0 -0.016351940300757713 0.01274611620864013 0 -0.015223808571963829 0.0099187958474044394 0 -0.016713208063770333 0.011156364872412637 0 -0.01472736689912729 0.012180829549387016 0 -0.01472736689912729 0.012180829549387016 0 -0.013737725284656757 0.013271445922324956 0 -0.015059050755763494 0.013601758344215878 0 -0.01472736689912729 0.012180829549387016 0 -0.016351940300757713 0.01274611620864013 0 -0.015059050755763494 0.013601758344215878 0 -0.012100971204101927 0.010314989049488925 0 -0.01472736689912729 0.012180829549387016 0 -0.013737725284656757 0.013271445922324956 0 -0.012093238514358019 0.010145880018437824 0 -0.013737725284656757 0.013271445922324956 0 -0.011805660584682945 0.012269080975430485 0 -0.01205842873030972 0.0096171761956256527 0 -0.012665185969149957 0.010790782041812609 0 -0.012471699113844468 0.0092714313993263256 0 -0.013223586005647263 0.01016462891313249 0 -0.013737725284656757 0.013271445922324956 0 -0.011805660584682945 0.012269080975430485 0 -0.012290550577004617 0.01365319085557812 0 -0.010458157028801693 0.01120311432621994 0 -0.010479168944641537 0.013149506912654431 0 -0.0075462341938914461 0.011316371311545396 0 -0.011805660584682945 0.012269080975430485 0 -0.010458157028801693 0.01120311432621994 0 -0.010479168944641537 0.013149506912654431 0 -0.011805660584682945 0.012269080975430485 0 -0.010479168944641537 0.013149506912654431 0 -0.012290550577004617 0.01365319085557812 0 -0.012093238514358019 0.010145880018437824 0 -0.011805660584682945 0.012269080975430485 0 -0.010458157028801693 0.01120311432621994 0 -0.010479168944641537 0.013149506912654431 0 -0.0075462341938914461 0.011316371311545396 0 -0.0093084793102898387 0.015201130815542436 0 -0.010458157028801693 0.01120311432621994 0 -0.0075462341938914461 0.011316371311545396 0 -0.0099093123656077038 0.0093413010402564906 0 -0.0083846713408096546 0.011024892241693788 0 -0.0086461082920563179 0.0093844528676655225 0 -0.00904282893493338 0.0092259123056490921 0 -0.0082324110822940156 0.0074207171922426379 0 -0.0090024232637529282 0.0071080674013550768 0 -0.0075462341938914461 0.011316371311545396 0 -0.0099093123656077038 0.0093413010402564906 0 -0.0090024232637529282 0.0071080674013550768 0 -0.012100971204101927 0.010314989049488925 0 -0.012569035255768149 0.0097483818149122405 0 -0.01042909273556601 0.0073336237061460445 0 -0.01205842873030972 0.0096171761956256527 0 -0.011059593290211637 0.0075431543856370638 0 -0.012093238514358019 0.010145880018437824 0 -0.0099093123656077038 0.0093413010402564906 0 -0.010438785083555153 0.0072559891478746752 0 -0.012471699113844468 0.0092714313993263256 0 -0.011059593290211637 0.0075431543856370638 0 -0.012719510663953913 0.0085209136586708329 0 -0.013003467137016375 0.010059767942654561 0 -0.011184793671126195 0.0079548590499167165 0 -0.012093238514358019 0.010145880018437824 0 -0.010458157028801693 0.01120311432621994 0 -0.0099093123656077038 0.0093413010402564906 0 -0.006512910993685072 0.0092172888499714983 0 -0.007667518916054222 0.01057419403505209 0 -0.0059069716021815117 0.010867150632920033 0 -0.0051649036332346663 0.009353293759075355 0 -0.006512910993685072 0.0092172888499714983 0 -0.0059069716021815117 0.010867150632920033 0 -0.0051649036332346663 0.009353293759075355 0 -0.0054611413396610945 0.0079765126711008986 0 -0.006512910993685072 0.0092172888499714983 0 -0.00904282893493338 0.0092259123056490921 0 -0.006512910993685072 0.0092172888499714983 0 -0.007667518916054222 0.01057419403505209 0 -0.00904282893493338 0.0092259123056490921 0 -0.006512910993685072 0.0092172888499714983 0 -0.0071482456822804658 0.0078375847191293566 0 -0.00904282893493338 0.0092259123056490921 0 -0.0071482456822804658 0.0078375847191293566 0 -0.0082324110822940156 0.0074207171922426379 0 -0.0054611413396610945 0.0079765126711008986 0 -0.006512910993685072 0.0092172888499714983 0 -0.0071482456822804658 0.0078375847191293566 0 -0.0054611413396610945 0.0079765126711008986 0 -0.0071482456822804658 0.0078375847191293566 0 -0.0062065143353248657 0.0067712595451998488 0 -0.0062065143353248657 0.0067712595451998488 0 -0.007465338510740117 0.0065913418056982994 0 -0.0065187757319421164 0.0057954579984178098 0 -0.0071482456822804658 0.0078375847191293566 0 -0.007465338510740117 0.0065913418056982994 0 -0.0082324110822940156 0.0074207171922426379 0 -0.0071482456822804658 0.0078375847191293566 0 -0.0062065143353248657 0.0067712595451998488 0 -0.007465338510740117 0.0065913418056982994 0 -0.007465338510740117 0.0065913418056982994 0 -0.0082324110822940156 0.0074207171922426379 0 -0.0084865707258935281 0.0062954732225845595 0 -0.007465338510740117 0.0065913418056982994 0 -0.0073516060517597103 0.0052875600015966397 0 -0.0084865707258935281 0.0062954732225845595 0 -0.0073516060517597103 0.0052875600015966397 0 -0.0084865707258935281 0.0062954732225845595 0 -0.0084104076476737202 0.0050304738794797457 0 -0.007465338510740117 0.0065913418056982994 0 -0.0073516060517597103 0.0052875600015966397 0 -0.0065187757319421164 0.0057954579984178098 0 -0.0052921896179421507 0.0055365630153471034 0 -0.005402409006043849 0.0040420568165300194 0 -0.0063070293507830758 0.0048181372266495361 0 -0.0073516060517597103 0.0052875600015966397 0 -0.0065187757319421164 0.0057954579984178098 0 -0.0063070293507830758 0.0048181372266495361 0 -0.0052921896179421507 0.0055365630153471034 0 -0.0065187757319421164 0.0057954579984178098 0 -0.0063070293507830758 0.0048181372266495361 0 -0.0052921896179421507 0.0055365630153471034 0 -0.0062065143353248657 0.0067712595451998488 0 -0.0065187757319421164 0.0057954579984178098 0 -0.011059593290211637 0.0075431543856370638 0 -0.010098648464373724 0.00584565300150682 0 -0.012496812435604476 0.0073273340802609242 0 -0.011184793671126195 0.0079548590499167165 0 -0.012201507558100464 0.0057475524547030759 0 -0.012496812435604476 0.0073273340802609242 0 -0.012719510663953913 0.0085209136586708329 0 -0.011184793671126195 0.0079548590499167165 0 -0.0099093123656077038 0.0093413010402564906 0 -0.010438785083555153 0.0072559891478746752 0 -0.0090024232637529282 0.0071080674013550768 0 -0.010438785083555153 0.0072559891478746752 0 -0.0084865707258935281 0.0062954732225845595 0 -0.0084104076476737202 0.0050304738794797457 0 -0.010438785083555153 0.0072559891478746752 0 -0.0090024232637529282 0.0071080674013550768 0 -0.0084865707258935281 0.0062954732225845595 0 -0.0082324110822940156 0.0074207171922426379 0 -0.0090024232637529282 0.0071080674013550768 0 -0.0084865707258935281 0.0062954732225845595 0 -0.011059593290211637 0.0075431543856370638 0 -0.0093663516111083082 0.0046476201332159399 0 -0.011109734583321875 0.0076057338552363695 0 -0.0098061282828807352 0.0052957870420466541 0 -0.0085170316411458009 0.0046910845249872523 0 -0.0098061282828807352 0.0052957870420466541 0 -0.0085170316411458009 0.0046910845249872523 0 -0.0085012155105882291 0.002985435546457992 0 -0.0098138870467770374 0.0054369130739331806 0 -0.010929665094355907 0.0040637275637075004 0 -0.0097418748359870497 0.0038316118553110121 0 -0.011184793671126195 0.0079548590499167165 0 -0.0098138870467770374 0.0054369130739331806 0 -0.012201507558100464 0.0057475524547030759 0 -0.012201507558100464 0.0057475524547030759 0 -0.010929665094355907 0.0040637275637075004 0 -0.013377907615452409 0.0029533241498984476 0 -0.0098138870467770374 0.0054369130739331806 0 -0.012201507558100464 0.0057475524547030759 0 -0.010929665094355907 0.0040637275637075004 0 -0.010929665094355907 0.0040637275637075004 0 -0.0095365402381141617 0.0023706295652185017 0 -0.013377907615452409 0.0029533241498984476 0 -0.010694011437908619 0.0028904144948159881 0 -0.01230291252932305 0.0035188704938381326 0 -0.010929665094355907 0.0040637275637075004 0 -0.0097418748359870497 0.0038316118553110121 0 -0.0095365402381141617 0.0023706295652185017 0 -0.0098138870467770374 0.0054369130739331806 0 -0.0097418748359870497 0.0038316118553110121 0 -0.0085012155105882291 0.002985435546457992 0 -0.010098648464373724 0.00584565300150682 0 -0.0095768538356247185 0.0049179818112751877 0 -0.0097418748359870497 0.0038316118553110121 0 -0.0085012155105882291 0.002985435546457992 0 -0.0095365402381141617 0.0023706295652185017 0 -0.011843126072646639 0.0018760131360275264 0 -0.011915721644201212 0.002001119397751769 0 -0.011789571390956825 0.002202225588751547 0 -0.011843126072646639 0.0018760131360275264 0 -0.011557796778259787 0.0020952467367112509 0 -0.011381585622778505 0.001781596799462542 0 -0.011843126072646639 0.0018760131360275264 0 -0.011557796778259787 0.0020952467367112509 0 -0.011789571390956825 0.002202225588751547 0 -0.005402409006043849 0.0040420568165300194 0 -0.0063070293507830758 0.0048181372266495361 0 -0.0067262946646247171 0.0031683319379063627 0 -0.0073516060517597103 0.0052875600015966397 0 -0.0063070293507830758 0.0048181372266495361 0 -0.0067262946646247171 0.0031683319379063627 0 -0.0093663516111083082 0.0046476201332159399 0 -0.0095286168178449118 0.0028671578245101645 0 -0.0073516060517597103 0.0052875600015966397 0 -0.0084104076476737202 0.0050304738794797457 0 -0.0067262946646247171 0.0031683319379063627 0 -0.0085012155105882291 0.002985435546457992 0 -0.0095365402381141617 0.0023706295652185017 0 -0.005923069880946946 0.0017825231580295034 0 -0.0085170316411458009 0.0046910845249872523 0 -0.0085012155105882291 0.002985435546457992 0 -0.005923069880946946 0.0017825231580295034 0 -0.010694011437908619 0.0028904144948159881 0 -0.0095286168178449118 0.0028671578245101645 0 -0.011988102426295777 0.0018706968433513491 0 -0.011915721644201212 0.002001119397751769 0 -0.011970546598350359 0.001941551813006607 0 -0.011843126072646639 0.0018760131360275264 0 -0.011988102426295777 0.0018706968433513491 0 -0.011915721644201212 0.002001119397751769 0 -0.0075321184031883603 0.0023168323655360186 0 -0.0095286168178449118 0.0028671578245101645 0 -0.01072227646245502 0.0030649714102270057 0 -0.0095286168178449118 0.0028671578245101645 0 -0.012148298922813364 0.0015605606408550378 0 -0.012050699912980984 0.0015925420485716894 0 -0.01405113932880046 0.0033328365385649704 0 -0.012148298922813364 0.0015605606408550378 0 -0.011988102426295777 0.0018706968433513491 0 -0.012030352629960354 0.0017753822277561642 0 -0.011988102426295777 0.0018706968433513491 0 -0.012030352629960354 0.0017753822277561642 0 -0.011970546598350359 0.001941551813006607 0 -0.012049223012008423 0.0018051665389053251 0 -0.012030352629960354 0.0017753822277561642 0 -0.012003174876037003 0.0018879419975439151 0 -0.012080795867276726 0.0017105233878808403 0 -0.012049223012008423 0.0018051665389053251 0 -0.012030352629960354 0.0017753822277561642 0 -0.012080795867276726 0.0017105233878808403 0 -0.012148298922813364 0.0015605606408550378 0 -0.012030352629960354 0.0017753822277561642 0 -0.012030352629960354 0.0017753822277561642 0 -0.012003174876037003 0.0018879419975439151 0 -0.011970546598350359 0.001941551813006607 0 -0.011915721644201212 0.002001119397751769 0 -0.011970546598350359 0.001941551813006607 0 -0.011922605536710854 0.0021607502029409014 0 -0.011902062116005016 0.0022468786896475898 0 -0.011922605536710854 0.0021607502029409014 0 -0.011920969486312501 0.0021473941833989301 0 -0.011922605536710854 0.0021607502029409014 0 -0.011920969486312501 0.0021473941833989301 0 -0.011959224055306241 0.0020339310482796352 0 -0.011943622992329121 0.0021017793619957335 0 -0.011920969486312501 0.0021473941833989301 0 -0.011959224055306241 0.0020339310482796352 0 -0.011970546598350359 0.001941551813006607 0 -0.011922605536710854 0.0021607502029409014 0 -0.011959224055306241 0.0020339310482796352 0 -0.012003174876037003 0.0018879419975439151 0 -0.011959224055306241 0.0020339310482796352 0 -0.012017720911016858 0.0019334198146737822 0 -0.012003174876037003 0.0018879419975439151 0 -0.011970546598350359 0.001941551813006607 0 -0.011959224055306241 0.0020339310482796352 0 -0.011959224055306241 0.0020339310482796352 0 -0.011996964968162884 0.0020317061622054694 0 -0.012017720911016858 0.0019334198146737822 0 -0.011943622992329121 0.0021017793619957335 0 -0.011959224055306241 0.0020339310482796352 0 -0.011996964968162884 0.0020317061622054694 0 -0.012060901409705472 0.0019599898950509779 0 -0.012060691779953529 0.0020285353518285035 0 -0.011996964968162884 0.0020317061622054694 0 -0.012060901409705472 0.0019599898950509779 0 -0.011996964968162884 0.0020317061622054694 0 -0.012017720911016858 0.0019334198146737822 0 -0.012060901409705472 0.0019599898950509779 0 -0.012069841845389444 0.0018699746997351341 0 -0.012017720911016858 0.0019334198146737822 0 -0.012069841845389444 0.0018699746997351341 0 -0.012049223012008423 0.0018051665389053251 0 -0.012017720911016858 0.0019334198146737822 0 -0.012049223012008423 0.0018051665389053251 0 -0.012003174876037003 0.0018879419975439151 0 -0.012017720911016858 0.0019334198146737822 0 -0.011789571390956825 0.002202225588751547 0 -0.011621943473427638 0.0024870448593933155 0 -0.011520483972568286 0.0023995278709348384 0 -0.011557796778259787 0.0020952467367112509 0 -0.011789571390956825 0.002202225588751547 0 -0.011520483972568286 0.0023995278709348384 0 -0.011915721644201212 0.002001119397751769 0 -0.011922605536710854 0.0021607502029409014 0 -0.011789571390956825 0.002202225588751547 0 -0.011922605536710854 0.0021607502029409014 0 -0.011789571390956825 0.002202225588751547 0 -0.011911518852112533 0.0023862941426581706 0 -0.011902062116005016 0.0022468786896475898 0 -0.011922605536710854 0.0021607502029409014 0 -0.011911518852112533 0.0023862941426581706 0 -0.011789571390956825 0.002202225588751547 0 -0.011911518852112533 0.0023862941426581706 0 -0.011621943473427638 0.0024870448593933155 0 -0.012010342083308943 0.0025730940048097253 0 -0.011911518852112533 0.0023862941426581706 0 -0.011621943473427638 0.0024870448593933155 0 -0.011020867538285047 0.0035918584131881945 0 -0.011101768442504467 0.003223804227725501 0 -0.01115255910003961 0.0027016234045070696 0 -0.011621943473427638 0.0024870448593933155 0 -0.011302343830775049 0.0026295665220750809 0 -0.011621943473427638 0.0024870448593933155 0 -0.011520483972568286 0.0023995278709348384 0 -0.011302343830775049 0.0026295665220750809 0 -0.011520483972568286 0.0023995278709348384 0 -0.011302343830775049 0.0026295665220750809 0 -0.01122118778950772 0.0024626639713922118 0 -0.011302343830775049 0.0026295665220750809 0 -0.01122118778950772 0.0024626639713922118 0 -0.010765541276987074 0.0027608696192616723 0 -0.011557796778259787 0.0020952467367112509 0 -0.011520483972568286 0.0023995278709348384 0 -0.01122118778950772 0.0024626639713922118 0 -0.01122118778950772 0.0024626639713922118 0 -0.010765541276987074 0.0027608696192616723 0 -0.010674965058168409 0.0023476261346618535 0 -0.011302343830775049 0.0026295665220750809 0 -0.010765541276987074 0.0027608696192616723 0 -0.010762849104773145 0.0031886848330508078 0 -0.010765541276987074 0.0027608696192616723 0 -0.010762849104773145 0.0031886848330508078 0 -0.010274226223792491 0.0029934180837825784 0 -0.011137838416295055 0.0039316178616464548 0 -0.011302343830775049 0.0026295665220750809 0 -0.010762849104773145 0.0031886848330508078 0 -0.011137838416295055 0.0039316178616464548 0 -0.010762849104773145 0.0031886848330508078 0 -0.010256477563760124 0.0035593273251409729 0 -0.010256477563760124 0.0035593273251409729 0 -0.0095700287847833403 0.0035298905412949879 0 -0.010274226223792491 0.0029934180837825784 0 -0.010762849104773145 0.0031886848330508078 0 -0.010256477563760124 0.0035593273251409729 0 -0.010274226223792491 0.0029934180837825784 0 -0.0092223762214320298 0.0032994737682069267 0 -0.0095700287847833403 0.0035298905412949879 0 -0.0096928265266827147 0.0030286980969074385 0 -0.0095700287847833403 0.0035298905412949879 0 -0.0096928265266827147 0.0030286980969074385 0 -0.010274226223792491 0.0029934180837825784 0 -0.0096928265266827147 0.0030286980969074385 0 -0.010274226223792491 0.0029934180837825784 0 -0.010265194763705103 0.0026075823943377406 0 -0.010765541276987074 0.0027608696192616723 0 -0.010274226223792491 0.0029934180837825784 0 -0.010265194763705103 0.0026075823943377406 0 -0.010265194763705103 0.0026075823943377406 0 -0.009748499061340031 0.0025735901825435265 0 -0.01033052967488436 0.0020921110579127521 0 -0.0093090373846908825 0.0029707846707020097 0 -0.0096928265266827147 0.0030286980969074385 0 -0.009748499061340031 0.0025735901825435265 0 -0.0096928265266827147 0.0030286980969074385 0 -0.010265194763705103 0.0026075823943377406 0 -0.009748499061340031 0.0025735901825435265 0 -0.01429514624581296 0.0088928671870554914 0 -0.014219815559712736 0.0049954307076730516 0 -0.0095840965258061871 0.0021739242051555543 0 -0.009748499061340031 0.0025735901825435265 0 -0.01033052967488436 0.0020921110579127521 0 -0.014648439351397709 0.0051011829729664211 0 -0.017337482933825473 0.0035673100564902367 0 -0.013377907615452409 0.0029533241498984476 0 -0.010767943050240472 0.0016782542453179523 0 -0.011381585622778505 0.001781596799462542 0 -0.010999596584722602 0.0020273492243407087 0 -0.014219815559712736 0.0049954307076730516 0 -0.01230291252932305 0.0035188704938381326 0 -0.014219815559712736 0.0049954307076730516 0 -0.012415946622552935 0.0029863404768565339 0 -0.011557796778259787 0.0020952467367112509 0 -0.011381585622778505 0.001781596799462542 0 -0.011288441195821688 0.0020844805111438765 0 -0.011381585622778505 0.001781596799462542 0 -0.011288441195821688 0.0020844805111438765 0 -0.010999596584722602 0.0020273492243407087 0 -0.01122118778950772 0.0024626639713922118 0 -0.011288441195821688 0.0020844805111438765 0 -0.010999596584722602 0.0020273492243407087 0 -0.011557796778259787 0.0020952467367112509 0 -0.01122118778950772 0.0024626639713922118 0 -0.011288441195821688 0.0020844805111438765 0 -0.010765541276987074 0.0027608696192616723 0 -0.010265194763705103 0.0026075823943377406 0 -0.010674965058168409 0.0023476261346618535 0 -0.012063184324359662 0.0026481650188935136 0 -0.012415946622552935 0.0029863404768565339 0 -0.010265194763705103 0.0026075823943377406 0 -0.01033052967488436 0.0020921110579127521 0 -0.010674965058168409 0.0023476261346618535 0 2.8992486100850693e-05 0.094960255111825792 0 2.6983875408550254e-05 0.094295318199140776 0 -8.7941511574776834e-05 0.094682103495021805 0 -3.2084520597242906e-05 0.094262907378768704 0 -1.7163058567496462e-05 0.094255990022351202 0 2.6983875408550254e-05 0.094295318199140776 0 2.4409823847029621e-05 0.09466019055990936 0 3.734643629860644e-05 0.094578039163271982 0 -3.2084520597242906e-05 0.094262907378768704 0 -1.7163058567496462e-05 0.094255990022351202 0 7.8788965883721303e-05 0.094315378962035401 0 2.8992486100850693e-05 0.094960255111825792 0 -3.7677488743425849e-05 0.094955905113505837 0 -8.7941511574776834e-05 0.094682103495021805 0 -1.3263101739040267e-07 0.094999576731674598 0 -3.7677488743425849e-05 0.094955905113505837 0 -5.1428080657362618e-09 0.095000064019079414 0 -1.3263101739040267e-07 0.094999576731674598 0 -3.7677488743425849e-05 0.094955905113505837 0 -8.7941511574776834e-05 0.094682103495021805 0 2.8992486100850693e-05 0.094960255111825792 0 -3.7677488743425849e-05 0.094955905113505837 0 -8.7945689560005828e-06 0.094982001387514364 0 2.4409823847029621e-05 0.09466019055990936 0 1.5474225660130171e-05 0.094798645464867604 0 -3.7677488743425849e-05 0.094955905113505837 0 -8.7945689560005828e-06 0.094982001387514364 0 -5.1428080657362618e-09 0.095000064019079414 0 2.8992486100850693e-05 0.094960255111825792 0 -8.7945689560005828e-06 0.094982001387514364 0 -4.6255901095254593e-06 0.095003512129109374 0 -8.7945689560005828e-06 0.094982001387514364 0 -5.1428080657362618e-09 0.095000064019079414 0 -4.6255901095254593e-06 0.095003512129109374 0 -3.2084520597242906e-05 0.094262907378768704 0 7.6275431582709382e-06 0.094491487837268143 0 3.4468032094654628e-05 0.094395005672552601 0 -3.2084520597242906e-05 0.094262907378768704 0 7.6275431582709382e-06 0.094491487837268143 0 -8.9118396168066488e-05 0.09459669647870643 0 3.4468032094654628e-05 0.094395005672552601 0 9.9167505704189768e-05 0.094488749098732172 0 7.8788965883721303e-05 0.094315378962035401 0 -3.2084520597242906e-05 0.094262907378768704 0 3.4468032094654628e-05 0.094395005672552601 0 7.8788965883721303e-05 0.094315378962035401 0 7.6275431582709382e-06 0.094491487837268143 0 3.4468032094654628e-05 0.094395005672552601 0 9.9167505704189768e-05 0.094488749098732172 0 9.9167505704189768e-05 0.094488749098732172 0 0.00019847970560466489 0.094325251750155339 0 0.00026498585710608172 0.094499655809962335 0 9.9167505704189768e-05 0.094488749098732172 0 0.00019847970560466489 0.094325251750155339 0 7.8788965883721303e-05 0.094315378962035401 0 0.00039056302003467923 0.094310180106426972 0 0.0005436445162773616 0.094555409213232536 0 0.00026498585710608172 0.094499655809962335 0 0.00019847970560466489 0.094325251750155339 0 0.00039056302003467923 0.094310180106426972 0 0.00026498585710608172 0.094499655809962335 0 0.00019847970560466489 0.094325251750155339 0 0.00039056302003467923 0.094310180106426972 0 0.00025871823468453809 0.094125709890905865 0 0.00025871823468453809 0.094125709890905865 0 0.00037004299561535487 0.093911084151299937 0 0.00051091207797854558 0.094040473618891854 0 0.00039056302003467923 0.094310180106426972 0 0.00025871823468453809 0.094125709890905865 0 0.00051091207797854558 0.094040473618891854 0 0.00025871823468453809 0.094125709890905865 0 0.00012303275730395595 0.094186064110650919 0 0.00018419943696814203 0.093741915223592875 0 -1.7163058567496462e-05 0.094255990022351202 0 0.00012303275730395595 0.094186064110650919 0 0.00018419943696814203 0.093741915223592875 0 0.00019847970560466489 0.094325251750155339 0 7.8788965883721303e-05 0.094315378962035401 0 0.00012303275730395595 0.094186064110650919 0 -1.7163058567496462e-05 0.094255990022351202 0 7.8788965883721303e-05 0.094315378962035401 0 0.00012303275730395595 0.094186064110650919 0 0.00019847970560466489 0.094325251750155339 0 0.00025871823468453809 0.094125709890905865 0 0.00012303275730395595 0.094186064110650919 0 -1.7163058567496462e-05 0.094255990022351202 0 0.00025110164536644425 0.094169535586232991 0 2.6983875408550254e-05 0.094295318199140776 0 -0.00053845780163529048 0.093010346957453055 0 -0.00054295995786568323 0.092575806861220758 0 0.00025110164536644425 0.094169535586232991 0 3.762088684483783e-05 0.093845400711774482 0 2.6983875408550254e-05 0.094295318199140776 0 0.00018419943696814203 0.093741915223592875 0 0.00048792292261576673 0.093298280511964232 0 0.00051227547773710766 0.09372095362335385 0 0.00025871823468453809 0.094125709890905865 0 0.00018419943696814203 0.093741915223592875 0 0.00037004299561535487 0.093911084151299937 0 0.00037004299561535487 0.093911084151299937 0 0.00051227547773710766 0.09372095362335385 0 0.00051091207797854558 0.094040473618891854 0 0.00018419943696814203 0.093741915223592875 0 0.00037004299561535487 0.093911084151299937 0 0.00051227547773710766 0.09372095362335385 0 0.00025110164536644425 0.094169535586232991 0 0.00033385417522031901 0.09321200938429032 0 0.0010293919313031673 0.092738095829478229 0 -0.00054295995786568323 0.092575806861220758 0 -0.0005829654938130399 0.091131271498690533 0 0.00033385417522031901 0.09321200938429032 0 0.00060670883494865207 0.092213363798112138 0 0.0010293919313031673 0.092738095829478229 0 0.00033385417522031901 0.09321200938429032 0 3.762088684483783e-05 0.093845400711774482 0 1.2331000008221054e-05 0.093086553333763006 0 3.762088684483783e-05 0.093845400711774482 0 -0.00016712959468038666 0.09423913410286644 0 1.2331000008221054e-05 0.093086553333763006 0 0.00025110164536644425 0.094169535586232991 0 0.00033385417522031901 0.09321200938429032 0 3.762088684483783e-05 0.093845400711774482 0 3.762088684483783e-05 0.093845400711774482 0 -0.00016712959468038666 0.09423913410286644 0 2.6983875408550254e-05 0.094295318199140776 0 -0.00016712959468038666 0.09423913410286644 0 2.6983875408550254e-05 0.094295318199140776 0 -8.7941511574776834e-05 0.094682103495021805 0 -1.3263101739040267e-07 0.094999576731674598 0 -8.7941511574776834e-05 0.094682103495021805 0 -1.017821542243135e-07 0.094999286708639011 0 -0.00016712959468038666 0.09423913410286644 0 -8.7941511574776834e-05 0.094682103495021805 0 -1.017821542243135e-07 0.094999286708639011 0 -0.00016712959468038666 0.09423913410286644 0 -1.017821542243135e-07 0.094999286708639011 0 -0.00034489519697748739 0.093755047673666395 0 -1.017821542243135e-07 0.094999286708639011 0 -0.00034489519697748739 0.093755047673666395 0 -1.4530831971042791e-06 0.094996150299260312 0 -0.00016712959468038666 0.09423913410286644 0 -0.00034489519697748739 0.093755047673666395 0 1.2331000008221054e-05 0.093086553333763006 0 -0.00034489519697748739 0.093755047673666395 0 -0.00069365325432445236 0.091864155076824425 0 -5.7130462942355583e-05 0.092296658560277078 0 -5.0731537694254859e-07 0.094996822342748477 0 0.00015113707878412834 0.093031253237459047 0 -0.00034489519697748739 0.093755047673666395 0 -1.4530831971042791e-06 0.094996150299260312 0 -0.00069365325432445236 0.091864155076824425 0 -2.678759385856239e-06 0.094992022322204842 0 -0.00044304256110494044 0.092803385377510095 0 3.9212119837259824e-06 0.084879922349372902 0 9.8893771995676786e-07 0.095000256156111879 0 -2.678759385856239e-06 0.094992022322204842 0 -0.00044304256110494044 0.092803385377510095 0 0.00040868237318959435 0.088174165141506833 0 3.9212119837259824e-06 0.084879922349372902 0 0.0019863315172635424 0.089876921385351888 0 -1.5780174268723071e-08 0.084863307222385484 0 0.00046097423579008386 0.086234289142358908 0 -0.00044304256110494044 0.092803385377510095 0 0.00040868237318959435 0.088174165141506833 0 3.9212119837259824e-06 0.084879922349372902 0 0.00015113707878412834 0.093031253237459047 0 0.00059245938274755797 0.091830358078473881 0 -0.00069365325432445236 0.091864155076824425 0 0.00040868237318959435 0.088174165141506833 0 0.00052366100012584066 0.090760390473147878 0 0.00052366100012584066 0.090760390473147878 0 0.0011855425046458795 0.090397154288675105 0 0.0019863315172635424 0.089876921385351888 0 0.00040868237318959435 0.088174165141506833 0 0.00052366100012584066 0.090760390473147878 0 0.0019863315172635424 0.089876921385351888 0 0.00052366100012584066 0.090760390473147878 0 0.00063385968445424238 0.091428830735567859 0 0.0011855425046458795 0.090397154288675105 0 0.00052366100012584066 0.090760390473147878 0 0.00063385968445424238 0.091428830735567859 0 -5.7130462942355583e-05 0.092296658560277078 0 0.00063385968445424238 0.091428830735567859 0 0.00088255611018402363 0.0910782023147792 0 0.0011855425046458795 0.090397154288675105 0 -0.00069365325432445236 0.091864155076824425 0 0.00052366100012584066 0.090760390473147878 0 -5.7130462942355583e-05 0.092296658560277078 0 0.00063385968445424238 0.091428830735567859 0 -5.7130462942355583e-05 0.092296658560277078 0 1.2331000008221054e-05 0.093086553333763006 0 -0.00034489519697748739 0.093755047673666395 0 -5.7130462942355583e-05 0.092296658560277078 0 1.2331000008221054e-05 0.093086553333763006 0 0.00033385417522031901 0.09321200938429032 0 1.2331000008221054e-05 0.093086553333763006 0 0.00060670883494865207 0.092213363798112138 0 0.00063385968445424238 0.091428830735567859 0 1.2331000008221054e-05 0.093086553333763006 0 0.00060670883494865207 0.092213363798112138 0 0.00060670883494865207 0.092213363798112138 0 0.00088255611018402363 0.0910782023147792 0 0.0010293919313031673 0.092738095829478229 0 0.00063385968445424238 0.091428830735567859 0 0.00060670883494865207 0.092213363798112138 0 0.00088255611018402363 0.0910782023147792 0 -0.00052034651022886424 0.088038624256448011 0 -0.0005829654938130399 0.091131271498690533 0 0.00088255611018402363 0.0910782023147792 0 0.0013488809309933399 0.090673396339045087 0 0.0010293919313031673 0.092738095829478229 0 0.00088255611018402363 0.0910782023147792 0 0.0013488809309933399 0.090673396339045087 0 0.00068723737217913803 0.089275244076194124 0 0.00094950980475535574 0.092762687351502782 0 0.0011139708233377031 0.093142573814307517 0 0.00048792292261576673 0.093298280511964232 0 0.00094950980475535574 0.092762687351502782 0 0.0012752599547890717 0.09273621950487565 0 0.0011139708233377031 0.093142573814307517 0 0.0013488809309933399 0.090673396339045087 0 0.0016951825694054823 0.087245966270628472 0 0.0045798029293203091 0.086308310427168564 0 -0.00052034651022886424 0.088038624256448011 0 0.00062480972847735172 0.081311318055938275 0 0.00094950980475535574 0.092762687351502782 0 0.0012752599547890717 0.09273621950487565 0 0.0015385952136074781 0.092190367614660082 0 0.0013488809309933399 0.090673396339045087 0 0.00068723737217913803 0.089275244076194124 0 0.0016951825694054823 0.087245966270628472 0 0.00068723737217913803 0.089275244076194124 0 0.0016951825694054823 0.087245966270628472 0 0.00050525053007544963 0.085516877165451616 0 0.0016951825694054823 0.087245966270628472 0 0.001034804502799296 0.083413706464589982 0 0.0045798029293203091 0.086308310427168564 0 0.00068723737217913803 0.089275244076194124 0 -0.0014310415043140661 0.082300144894304872 0 0.00050525053007544963 0.085516877165451616 0 0.00068723737217913803 0.089275244076194124 0 0.0011855425046458795 0.090397154288675105 0 0.0019863315172635424 0.089876921385351888 0 0.00091818053741938557 0.087360374730629409 0 0.00046097423579008386 0.086234289142358908 0 0.00088255611018402363 0.0910782023147792 0 0.00068723737217913803 0.089275244076194124 0 0.0011855425046458795 0.090397154288675105 0 -0.0014310415043140661 0.082300144894304872 0 0.001034804502799296 0.083413706464589982 0 -0.00062347633615520586 0.081383040093112091 0 -0.0014310415043140661 0.082300144894304872 0 0.00050525053007544963 0.085516877165451616 0 0.001034804502799296 0.083413706464589982 0 0.0016951825694054823 0.087245966270628472 0 0.00050525053007544963 0.085516877165451616 0 0.001034804502799296 0.083413706464589982 0 0.001034804502799296 0.083413706464589982 0 0.00049714661878730824 0.079978768781443887 0 0.0035586049715070761 0.081500016792381544 0 0.001034804502799296 0.083413706464589982 0 0.00049714661878730824 0.079978768781443887 0 -0.00062347633615520586 0.081383040093112091 0 0.00049714661878730824 0.079978768781443887 0 -3.4723297575329989e-06 0.080068572994388285 0 9.1906566554193778e-06 0.075278171935913463 0 0.00049714661878730824 0.079978768781443887 0 -3.4723297575329989e-06 0.080068572994388285 0 -0.00062347633615520586 0.081383040093112091 0 1.0062813716234773e-07 0.084855616935236342 0 -0.0014310415043140661 0.082300144894304872 0 -0.00062347633615520586 0.081383040093112091 0 1.0062813716234773e-07 0.084855616935236342 0 -3.4723297575329989e-06 0.080068572994388285 0 -0.00062347633615520586 0.081383040093112091 0 -0.00038824872623059145 0.072678369709946913 0 4.0874207581628248e-07 0.075262171867004471 0 -3.7215308351889431e-07 0.070034251481065415 0 -0.00038824872623059145 0.072678369709946913 0 -0.00017634358564548976 0.072425884528193513 0 -8.9500563659692943e-05 0.072286844901039399 0 1.7299090133235839e-06 0.075276476164962774 0 0.00047473761939500212 0.078172828725322205 0 0.00049714661878730824 0.079978768781443887 0 9.1906566554193778e-06 0.075278171935913463 0 0.0035586049715070761 0.081500016792381544 0 -0.00038824872623059145 0.072678369709946913 0 4.0874207581628248e-07 0.075262171867004471 0 0.00041923517846733467 0.072713930577441119 0 0.00047473761939500212 0.078172828725322205 0 0.00062480972847735172 0.081311318055938275 0 0.001034804502799296 0.083413706464589982 0 0.0035586049715070761 0.081500016792381544 0 0.0045798029293203091 0.086308310427168564 0 0.00041923517846733467 0.072713930577441119 0 -0.00017634358564548976 0.072425884528193513 0 0.00045346170914369792 0.071909765598001427 0 0.0016195037801522965 0.078012130970589025 0 0.00062480972847735172 0.081311318055938275 0 -0.00038824872623059145 0.072678369709946913 0 0.00041923517846733467 0.072713930577441119 0 -0.00017634358564548976 0.072425884528193513 0 -0.00079322321474828092 0.073192200355565382 0 -0.00017992038313514037 0.0733107927460592 0 -8.9500563659692943e-05 0.072286844901039399 0 0.0016195037801522965 0.078012130970589025 0 0.0018521687056927837 0.077049836906384422 0 -0.00040799092597668942 0.073605074048990152 0 -1.3829469300159156e-05 0.073899415299605434 0 -0.00017992038313514037 0.0733107927460592 0 -0.00079322321474828092 0.073192200355565382 0 -0.00040799092597668942 0.073605074048990152 0 -0.00017992038313514037 0.0733107927460592 0 -0.00040799092597668942 0.073605074048990152 0 -0.00064340632782228355 0.074012343516286855 0 -1.3829469300159156e-05 0.073899415299605434 0 -0.00079322321474828092 0.073192200355565382 0 -0.00040799092597668942 0.073605074048990152 0 -0.00064340632782228355 0.074012343516286855 0 -0.00079322321474828092 0.073192200355565382 0 -0.00064340632782228355 0.074012343516286855 0 -0.0014171595431918687 0.073804246044186866 0 -0.00064340632782228355 0.074012343516286855 0 -0.0010139916913417698 0.074379814822535251 0 -0.00064810869430270387 0.074523719540704136 0 -0.00064340632782228355 0.074012343516286855 0 -0.00064810869430270387 0.074523719540704136 0 -9.1061380586330654e-05 0.074661997743353567 0 -0.00064340632782228355 0.074012343516286855 0 -9.1061380586330654e-05 0.074661997743353567 0 -1.3829469300159156e-05 0.073899415299605434 0 0.0012752599547890717 0.09273621950487565 0 0.0015385952136074781 0.092190367614660082 0 0.0014995231843813125 0.092822845277392013 0 -0.0014171595431918687 0.073804246044186866 0 -0.0010139916913417698 0.074379814822535251 0 -0.0014607533262059398 0.074785833906722068 0 0.00062480972847735172 0.081311318055938275 0 -0.00033294476953107173 0.082367852096634275 0 -0.00064340632782228355 0.074012343516286855 0 -0.0014171595431918687 0.073804246044186866 0 -0.0010139916913417698 0.074379814822535251 0 -0.0010139916913417698 0.074379814822535251 0 -0.0014607533262059398 0.074785833906722068 0 -0.00086375769734644127 0.0748365322253952 0 -0.0014607533262059398 0.074785833906722068 0 -0.00086375769734644127 0.0748365322253952 0 -0.0011526023431995909 0.075274882972915694 0 0.0012752599547890717 0.09273621950487565 0 0.0014995231843813125 0.092822845277392013 0 0.0011139708233377031 0.093142573814307517 0 -0.00064810869430270387 0.074523719540704136 0 -0.00053140147085991326 0.07484126934105291 0 -9.1061380586330654e-05 0.074661997743353567 0 -0.0010139916913417698 0.074379814822535251 0 -0.00064810869430270387 0.074523719540704136 0 -0.00086375769734644127 0.0748365322253952 0 -0.00064810869430270387 0.074523719540704136 0 -0.00086375769734644127 0.0748365322253952 0 -0.00053140147085991326 0.07484126934105291 0 -0.00086375769734644127 0.0748365322253952 0 -0.00068279657079734477 0.075118241731082516 0 -0.00075027817024814149 0.075539435632695148 0 0.0014470349843228121 0.074689392763038043 0 0.0016615808701542379 0.074615145496566365 0 -0.00086375769734644127 0.0748365322253952 0 -0.00068279657079734477 0.075118241731082516 0 -0.00053140147085991326 0.07484126934105291 0 -0.00053140147085991326 0.07484126934105291 0 -0.00031124238305651564 0.075108567443303631 0 -9.1061380586330654e-05 0.074661997743353567 0 -0.00068279657079734477 0.075118241731082516 0 -0.00053140147085991326 0.07484126934105291 0 -0.00031124238305651564 0.075108567443303631 0 0.0015120575085443685 0.069335933860871696 0 0.0013274104867626987 0.068783094197172212 0 -0.00068279657079734477 0.075118241731082516 0 -0.00029448423257728054 0.075453272124758372 0 -0.00075027817024814149 0.075539435632695148 0 -0.00068279657079734477 0.075118241731082516 0 -0.00031124238305651564 0.075108567443303631 0 -0.00025712472909491808 0.075490439027454517 0 -0.00031124238305651564 0.075108567443303631 0 -0.00025712472909491808 0.075490439027454517 0 -1.5912622961333885e-05 0.075447933570082004 0 0.0013274104867626987 0.068783094197172212 0 0.0016615808701542379 0.074615145496566365 0 -0.00086375769734644127 0.0748365322253952 0 -0.00075338102870061644 0.075672392065290195 0 -0.0011526023431995909 0.075274882972915694 0 0.001113588082818259 0.093538778629646505 0 0.0010978198218335299 0.093643351919802831 0 0.001077323783997881 0.093605065815378224 0 0.0016615808701542379 0.074615145496566365 0 0.0011021448504803159 0.075794382015176548 0 -0.00019438661409619599 0.069479810199141637 0 -7.5237983438254685e-05 0.069608351462914164 0 -0.00016480988462302091 0.069777031360605868 0 -9.1171349317553807e-07 0.069440754062002133 0 -0.00019438661409619599 0.069479810199141637 0 -7.5237983438254685e-05 0.069608351462914164 0 -9.1171349317553807e-07 0.069440754062002133 0 -7.5237983438254685e-05 0.069608351462914164 0 0.00010672956146889422 0.069534432446531805 0 0.0010630217046763289 0.064988307641868984 0 0.00065621706185705036 0.065699193166418909 0 -7.5237983438254685e-05 0.069608351462914164 0 -6.36030832012936e-05 0.069889977440233772 0 0.00010672956146889422 0.069534432446531805 0 -7.5237983438254685e-05 0.069608351462914164 0 -0.00016480988462302091 0.069777031360605868 0 -6.36030832012936e-05 0.069889977440233772 0 0.0010978198218335299 0.093643351919802831 0 0.0010628686873095793 0.093697429905000032 0 0.001077323783997881 0.093605065815378224 0 -0.00016480988462302091 0.069777031360605868 0 -0.000117109000557122 0.069901651146313651 0 -0.00014798886218316616 0.070073247848178602 0 0.0010978198218335299 0.093643351919802831 0 0.0010628686873095793 0.093697429905000032 0 0.0010207618457352572 0.093670876180221505 0 0.0011021448504803159 0.075794382015176548 0 0.00018622416909803551 0.071954080220009264 0 -0.0019531558586070477 0.053254941453769057 0 -0.0019045506116042573 0.053077804520010756 0 -0.0021216488985544178 0.053291079447885602 0 0.0010432711924544891 0.065004873345574393 0 0.0010630217046763289 0.064988307641868984 0 -0.00016480988462302091 0.069777031360605868 0 -0.000117109000557122 0.069901651146313651 0 -6.36030832012936e-05 0.069889977440233772 0 0.0010628686873095793 0.093697429905000032 0 0.0010582115354313593 0.093639350604328708 0 0.0010639956643099975 0.093795056217938197 0 0.001077323783997881 0.093605065815378224 0 0.0010582115354313593 0.093639350604328708 0 0.0010376173479201521 0.093563156012720236 0 0.0010628686873095793 0.093697429905000032 0 0.001077323783997881 0.093605065815378224 0 0.0010582115354313593 0.093639350604328708 0 -0.0012754966997241197 0.083805723474090141 0 -0.0013009920387027265 0.081465143513145627 0 -0.00033294476953107173 0.082367852096634275 0 -0.0013009920387027265 0.081465143513145627 0 -0.0014607533262059398 0.074785833906722068 0 -0.0015280903271321377 0.075807918200615956 0 -0.0011526023431995909 0.075274882972915694 0 0.0014995231843813125 0.092822845277392013 0 0.0014432263657283726 0.093400414909682511 0 0.0011139708233377031 0.093142573814307517 0 0.001113588082818259 0.093538778629646505 0 0.001077323783997881 0.093605065815378224 0 0.0010376173479201521 0.093563156012720236 0 0.0016615808701542379 0.074615145496566365 0 -0.0013009920387027265 0.081465143513145627 0 -0.00075338102870061644 0.075672392065290195 0 -0.0015280903271321377 0.075807918200615956 0 -0.0011526023431995909 0.075274882972915694 0 0.0011139708233377031 0.093142573814307517 0 0.00089567045728130613 0.093498301369728615 0 0.00048792292261576673 0.093298280511964232 0 0.0014432263657283726 0.093400414909682511 0 0.0011139708233377031 0.093142573814307517 0 0.00089567045728130613 0.093498301369728615 0 0.0010582115354313593 0.093639350604328708 0 0.0010728128959630278 0.093481513014335535 0 0.00089567045728130613 0.093498301369728615 0 -0.0013009920387027265 0.081465143513145627 0 -0.0009594733966506525 0.082911105873560251 0 0.00089567045728130613 0.093498301369728615 0 0.00048792292261576673 0.093298280511964232 0 0.00051227547773710766 0.09372095362335385 0 0.00089567045728130613 0.093498301369728615 0 0.00051227547773710766 0.09372095362335385 0 0.00078580434532984065 0.093803632717639127 0 0.00051227547773710766 0.09372095362335385 0 0.00078580434532984065 0.093803632717639127 0 0.00051091207797854558 0.094040473618891854 0 0.00089567045728130613 0.093498301369728615 0 0.00078580434532984065 0.093803632717639127 0 0.00096153461777056257 0.093684315211141664 0 0.0010582115354313593 0.093639350604328708 0 0.00089567045728130613 0.093498301369728615 0 0.00096153461777056257 0.093684315211141664 0 0.0010582115354313593 0.093639350604328708 0 0.00096153461777056257 0.093684315211141664 0 0.0010639956643099975 0.093795056217938197 0 0.00078580434532984065 0.093803632717639127 0 0.00096153461777056257 0.093684315211141664 0 0.0010639956643099975 0.093795056217938197 0 0.00078580434532984065 0.093803632717639127 0 0.0010639956643099975 0.093795056217938197 0 0.00077386040863568694 0.094068230175044995 0 0.00078580434532984065 0.093803632717639127 0 0.00077386040863568694 0.094068230175044995 0 0.00051091207797854558 0.094040473618891854 0 0.00077386040863568694 0.094068230175044995 0 0.00051091207797854558 0.094040473618891854 0 0.00059425915251425641 0.094285978091525668 0 0.00059425915251425641 0.094285978091525668 0 0.00092727996626302948 0.094406577255153792 0 0.0005436445162773616 0.094555409213232536 0 0.00039056302003467923 0.094310180106426972 0 0.00059425915251425641 0.094285978091525668 0 0.0005436445162773616 0.094555409213232536 0 0.00039056302003467923 0.094310180106426972 0 0.00051091207797854558 0.094040473618891854 0 0.00059425915251425641 0.094285978091525668 0 0.0010639956643099975 0.093795056217938197 0 0.00077386040863568694 0.094068230175044995 0 0.00092727996626302948 0.094406577255153792 0 0.00077386040863568694 0.094068230175044995 0 0.00059425915251425641 0.094285978091525668 0 0.00092727996626302948 0.094406577255153792 0 0.00019844729830420792 0.093478089295190497 0 -2.7582617667212845e-06 0.093161543047440065 0 0.0011936958547973686 0.093505976061485363 0 0.00095666309396354209 0.09353195964312945 0 0.0010322452422436446 0.093660786488218684 0 0.0010639956643099975 0.093795056217938197 0 0.0011936958547973686 0.093505976061485363 0 0.0010322452422436446 0.093660786488218684 0 -0.0003294628486490964 0.069253049800306679 0 0.00018622416909803551 0.071954080220009264 0 -0.001097070317966525 0.081340441696522062 0 0.00018622416909803551 0.071954080220009264 0 0.001410418141676705 0.0756963237728321 0 0.00019445936839237977 0.076063283571285945 0 0.0011511582507332013 0.073495891747643011 0 0.00095666309396354209 0.09353195964312945 0 0.0010207618457352572 0.093670876180221505 0 0.0010322452422436446 0.093660786488218684 0 -0.0020204202038327343 0.052774038463791605 0 -0.0019045506116042573 0.053077804520010756 0 -0.0021477465543031432 0.05291244082350767 0 -0.000117109000557122 0.069901651146313651 0 -7.0040459433069795e-05 0.069889430303597913 0 -0.00014798886218316616 0.070073247848178602 0 0.0010630217046763289 0.064988307641868984 0 0.00018622416909803551 0.071954080220009264 0 0.0010628686873095793 0.093697429905000032 0 0.0010639956643099975 0.093795056217938197 0 0.0010322452422436446 0.093660786488218684 0 0.0010628686873095793 0.093697429905000032 0 0.0010207618457352572 0.093670876180221505 0 0.0010322452422436446 0.093660786488218684 0 -0.00087723930352001385 0.05073153634580873 0 -0.0014743373049548977 0.050120654606781029 0 -0.0015192215828633878 0.051041413049538756 0 -0.00087723930352001385 0.05073153634580873 0 -0.0014743373049548977 0.050120654606781029 0 -0.00027481128334336946 0.050016475173982965 0 -0.0014743373049548977 0.050120654606781029 0 -0.00027481128334336946 0.050016475173982965 0 -0.0015530751875341981 0.048962390765973196 0 -0.0014743373049548977 0.050120654606781029 0 -0.0020638576010496706 0.049796298317236622 0 -0.0015641077253347264 0.048962400624198633 0 -0.0010446080978948034 0.054889790199034616 0 4.2877158620164675e-05 0.060882174885705104 0 -0.0020638576010496706 0.049796298317236622 0 -0.0024957091185373982 0.050925589201674074 0 -0.0026735795402227356 0.049193000320189313 0 -0.0019045506116042573 0.053077804520010756 0 -0.0021477465543031432 0.05291244082350767 0 -0.0021216488985544178 0.053291079447885602 0 -0.0014743373049548977 0.050120654606781029 0 -0.0024957091185373982 0.050925589201674074 0 -0.0015192215828633878 0.051041413049538756 0 -0.0014743373049548977 0.050120654606781029 0 -0.0020638576010496706 0.049796298317236622 0 -0.0024957091185373982 0.050925589201674074 0 -0.0024957091185373982 0.050925589201674074 0 -0.0017888340437053492 0.051873278733016025 0 -0.0015192215828633878 0.051041413049538756 0 -0.0024957091185373982 0.050925589201674074 0 -0.0017888340437053492 0.051873278733016025 0 -0.0020421032582526393 0.052670845276088493 0 -0.0010446080978948034 0.054889790199034616 0 -0.0012875698204061446 0.053751554105405254 0 -0.0020204202038327343 0.052774038463791605 0 -0.0021477465543031432 0.05291244082350767 0 -0.0020421032582526393 0.052670845276088493 0 -0.0017888340437053492 0.051873278733016025 0 -0.0010118910745449575 0.05165366539890167 0 -0.0017434313804032201 0.052767620559025438 0 -0.0010118910745449575 0.05165366539890167 0 0.00017076651803631701 0.052316893339702041 0 -0.0017434313804032201 0.052767620559025438 0 -0.0017888340437053492 0.051873278733016025 0 -0.0015192215828633878 0.051041413049538756 0 -0.0010118910745449575 0.05165366539890167 0 -0.00087723930352001385 0.05073153634580873 0 -0.0015192215828633878 0.051041413049538756 0 -0.0010118910745449575 0.05165366539890167 0 -0.00087723930352001385 0.05073153634580873 0 -0.0010118910745449575 0.05165366539890167 0 -0.00015848028810801481 0.0510803551436846 0 -0.0010118910745449575 0.05165366539890167 0 0.00017076651803631701 0.052316893339702041 0 -0.00015848028810801481 0.0510803551436846 0 0.00017076651803631701 0.052316893339702041 0 -0.00015848028810801481 0.0510803551436846 0 0.0013150731595939313 0.050936820005790723 0 0.0011544171164947913 0.059494633015332338 0 0.0022115728705874109 0.057969426160234282 0 0.002963040524887133 0.051771422520231293 0 0.0040739606181968346 0.051507501087792958 0 0.0013121381533474558 0.05513829605851317 0 0.00017076651803631701 0.052316893339702041 0 0.002963040524887133 0.051771422520231293 0 0.0013150731595939313 0.050936820005790723 0 0.002963040524887133 0.051771422520231293 0 0.0029863181217408921 0.049776120405381145 0 0.0040739606181968346 0.051507501087792958 0 0.002963040524887133 0.051771422520231293 0 0.0013150731595939313 0.050936820005790723 0 0.0029863181217408921 0.049776120405381145 0 0.0013150731595939313 0.050936820005790723 0 0.0029863181217408921 0.049776120405381145 0 0.0011332994562949106 0.048803933703493972 0 0.0029863181217408921 0.049776120405381145 0 0.0011332994562949106 0.048803933703493972 0 0.0021898644489505223 0.047552728847736245 0 0.0011332994562949106 0.048803933703493972 0 0.0021898644489505223 0.047552728847736245 0 0.00013234185858899858 0.047498187555089957 0 -0.00015848028810801481 0.0510803551436846 0 0.0013150731595939313 0.050936820005790723 0 -0.00027481128334336946 0.050016475173982965 0 -0.00087723930352001385 0.05073153634580873 0 -0.00015848028810801481 0.0510803551436846 0 -0.00027481128334336946 0.050016475173982965 0 0.0013150731595939313 0.050936820005790723 0 0.0011332994562949106 0.048803933703493972 0 -0.00086499802108894327 0.0486000165546496 0 -0.0015767385271938232 0.053469292959335606 0 -0.0019101596048341492 0.05403487288237066 0 0.0011332994562949106 0.048803933703493972 0 -0.00086499802108894327 0.0486000165546496 0 0.00013234185858899858 0.047498187555089957 0 0.00013234185858899858 0.047498187555089957 0 0.00083393241862840279 0.046011032036547661 0 -0.0028997457495721561 0.046728837234282422 0 0.00088082727819006445 0.053201606200738438 0 -0.0008267468166704775 0.057878275121206718 0 0.0021898644489505223 0.047552728847736245 0 0.00013234185858899858 0.047498187555089957 0 0.00083393241862840279 0.046011032036547661 0 0.0021898644489505223 0.047552728847736245 0 0.00083393241862840279 0.046011032036547661 0 0.0035333582320276635 0.045666618588999348 0 0.00088082727819006445 0.053201606200738438 0 0.0015635955208954469 0.051064906771090962 0 0.00047083169382855256 0.053063503154366046 0 1.1112950760110396e-05 0.053659866554787432 0 -0.00034200571756461964 0.053224153420995096 0 0.00047083169382855256 0.053063503154366046 0 0.0010136704479947818 0.053227345291975058 0 0.00070833759956093168 0.053648019928808556 0 0.00047083169382855256 0.053063503154366046 0 0.00070833759956093168 0.053648019928808556 0 1.1112950760110396e-05 0.053659866554787432 0 0.0010136704479947818 0.053227345291975058 0 0.0013523060368759931 0.053545115034997023 0 0.00070833759956093168 0.053648019928808556 0 0.0010136704479947818 0.053227345291975058 0 0.0012509554541218046 0.052924860895770053 0 0.0013523060368759931 0.053545115034997023 0 -0.0008267468166704775 0.057878275121206718 0 0.00070478763182667498 0.062683733080901152 0 0.00070478763182667498 0.062683733080901152 0 0.0013563331604533053 0.060955610004332632 0 -0.00086499802108894327 0.0486000165546496 0 0.00013234185858899858 0.047498187555089957 0 -0.0028997457495721561 0.046728837234282422 0 0.00047083169382855256 0.053063503154366046 0 0.0010136704479947818 0.053227345291975058 0 0.0012509554541218046 0.052924860895770053 0 -0.00097927163302081641 0.05580309513831215 0 -0.0008267468166704775 0.057878275121206718 0 -0.0019101596048341492 0.05403487288237066 0 -0.0008267468166704775 0.057878275121206718 0 0.00031270984631220065 0.060821512452212088 0 -0.00017572897602961097 0.060933192649633254 0 -0.00024092826339440981 0.060334719300823382 0 4.2877158620164675e-05 0.060882174885705104 0 0.00065621706185705036 0.065699193166418909 0 0.0019549965846380577 0.064472481013682623 0 0.0024295326675815476 0.064367556839787579 0 0.0023460173031475242 0.063603840732029057 0 0.0010630217046763289 0.064988307641868984 0 4.2877158620164675e-05 0.060882174885705104 0 -0.0020638576010496706 0.049796298317236622 0 -0.0015641077253347264 0.048962400624198633 0 -0.0026735795402227356 0.049193000320189313 0 -0.0008267468166704775 0.057878275121206718 0 4.2877158620164675e-05 0.060882174885705104 0 -0.0008267468166704775 0.057878275121206718 0 0.00065621706185705036 0.065699193166418909 0 -0.00053891706339281842 0.062988999026230938 0 -0.00023819721779996426 0.063545504211438036 0 -0.00040865905904740717 0.063743743012196208 0 -1.2454274228810034e-05 0.06346951958195976 0 -0.00023819721779996426 0.063545504211438036 0 -9.1513037652967459e-07 0.063573874711966002 0 0.0013274104867626987 0.068783094197172212 0 0.00065621706185705036 0.065699193166418909 0 -0.0014794916649322086 0.067405633229805376 0 0.0016056066879763628 0.070165373790039787 0 0.0014211237419183439 0.068507307274005905 0 0.00065621706185705036 0.065699193166418909 0 0.00066069738143506346 0.06642227961394527 0 -0.00053891706339281842 0.062988999026230938 0 -1.2454274228810034e-05 0.06346951958195976 0 -0.00023819721779996426 0.063545504211438036 0 0.00070478763182667498 0.062683733080901152 0 0.00066536843904488948 0.067117593200447218 0 -0.00023819721779996426 0.063545504211438036 0 -0.00040865905904740717 0.063743743012196208 0 1.0348116101961988e-05 0.063673149660860989 0 0.0013274104867626987 0.068783094197172212 0 0.00066536843904488948 0.067117593200447218 0 -0.0014794916649322086 0.067405633229805376 0 0.0012457533562542761 0.066932981019889176 0 0.0014211237419183439 0.068507307274005905 0 0.00066536843904488948 0.067117593200447218 0 0.00066069738143506346 0.06642227961394527 0 -0.00023819721779996426 0.063545504211438036 0 1.0348116101961988e-05 0.063673149660860989 0 -9.1513037652967459e-07 0.063573874711966002 0 -0.00031124238305651564 0.075108567443303631 0 -1.5912622961333885e-05 0.075447933570082004 0 -9.1061380586330654e-05 0.074661997743353567 0 0.00066536843904488948 0.067117593200447218 0 0.00078411921129284119 0.069504503349594723 0 -2.1774007222927695e-05 0.075376013599836617 0 -9.1061380586330654e-05 0.074661997743353567 0 0.0004551478471105405 0.07437579331724016 0 0.00070478763182667498 0.062683733080901152 0 0.00100024441479156 0.063585235967049986 0 0.0021562020483350017 0.064792536152022712 0 0.0018503001597765288 0.064847620807296252 0 0.0020931724436678767 0.06428536957790848 0 0.00066536843904488948 0.067117593200447218 0 0.00100024441479156 0.063585235967049986 0 0.0014820870254920267 0.053540694946344371 0 0.0012382564543645526 0.053908454521950686 0 0.0015730201576876443 0.0542123857356984 0 0.0012382564543645526 0.053908454521950686 0 0.0010534947674168689 0.054257415708461182 0 0.00070833759956093168 0.053648019928808556 0 0.0014820870254920267 0.053540694946344371 0 0.0012382564543645526 0.053908454521950686 0 0.00070833759956093168 0.053648019928808556 0 0.0012382564543645526 0.053908454521950686 0 0.0010534947674168689 0.054257415708461182 0 0.0015730201576876443 0.0542123857356984 0 0.0010534947674168689 0.054257415708461182 0 0.0014095134264245819 0.054664172376252131 0 0.0015730201576876443 0.0542123857356984 0 0.0010534947674168689 0.054257415708461182 0 0.0014095134264245819 0.054664172376252131 0 0.00099150074945178837 0.054726146627915653 0 0.00100024441479156 0.063585235967049986 0 0.00069271774055484588 0.064649168637691296 0 0.0014095134264245819 0.054664172376252131 0 0.0015411084309534028 0.054292541420113992 0 0.0016454077245329005 0.05491488168789934 0 0.0004551478471105405 0.07437579331724016 0 -1.3829469300159156e-05 0.073899415299605434 0 0.00046610275166706803 0.073351646693012917 0 -9.1061380586330654e-05 0.074661997743353567 0 0.0004551478471105405 0.07437579331724016 0 -1.3829469300159156e-05 0.073899415299605434 0 0.0015552623018429061 0.061528602704994557 0 0.00100024441479156 0.063585235967049986 0 -1.3829469300159156e-05 0.073899415299605434 0 -0.00017992038313514037 0.0733107927460592 0 0.00046610275166706803 0.073351646693012917 0 0.0016454077245329005 0.05491488168789934 0 0.0011938901159333115 0.055117035246398938 0 0.0017391847581689729 0.055618472173623305 0 -0.00017992038313514037 0.0733107927460592 0 0.00046610275166706803 0.073351646693012917 0 -8.9500563659692943e-05 0.072286844901039399 0 0.0014095134264245819 0.054664172376252131 0 0.0016454077245329005 0.05491488168789934 0 0.0011938901159333115 0.055117035246398938 0 0.0014095134264245819 0.054664172376252131 0 0.00099150074945178837 0.054726146627915653 0 0.0011938901159333115 0.055117035246398938 0 0.00099150074945178837 0.054726146627915653 0 0.0011938901159333115 0.055117035246398938 0 0.00069372068923719758 0.05512673979740762 0 0.0011938901159333115 0.055117035246398938 0 0.0010524241881650716 0.055682049966493202 0 0.00069372068923719758 0.05512673979740762 0 5.1635284502726458e-06 0.066159959435714025 0 -2.0791959609258342e-07 0.066145352960486542 0 -1.3586290211959883e-05 0.069634116849219385 0 0.0011938901159333115 0.055117035246398938 0 0.0010524241881650716 0.055682049966493202 0 0.0017391847581689729 0.055618472173623305 0 -0.0013591244261053654 0.063539228116627405 0 0.00036522292876781478 0.066739985879558483 0 -2.0791959609258342e-07 0.066145352960486542 0 2.1547029502276641e-07 0.070021942961738221 0 -1.3586290211959883e-05 0.069634116849219385 0 0.00046610275166706803 0.073351646693012917 0 0.00034336815872143246 0.071306539987583739 0 -8.9500563659692943e-05 0.072286844901039399 0 0.00069271774055484588 0.064649168637691296 0 0.00036522292876781478 0.066739985879558483 0 -0.00038824872623059145 0.072678369709946913 0 -3.7215308351889431e-07 0.070034251481065415 0 0.00034336815872143246 0.071306539987583739 0 5.3792896881020211e-06 0.070009144941794318 0 0.00036522292876781478 0.066739985879558483 0 -0.00038824872623059145 0.072678369709946913 0 0.00034336815872143246 0.071306539987583739 0 -8.9500563659692943e-05 0.072286844901039399 0 -0.0047542754004583848 0.061387897501486238 0 -0.0029537194976172018 0.057553823779367651 0 0.00035654664015948766 0.055754432623412745 0 0.00069372068923719758 0.05512673979740762 0 -7.0312574598403218e-06 0.055028384993191647 0 5.0844677812350102e-06 0.060970578710961551 0 0.00074212982018323536 0.055238994383786308 0 -0.00020064348672415032 0.056850757848178314 0 5.0844677812350102e-06 0.060970578710961551 0 0.0015512570168353861 0.060806402565300274 0 0.00074212982018323536 0.055238994383786308 0 -3.0103883869236598e-06 0.060979418786724873 0 -0.0047542754004583848 0.061387897501486238 0 -0.0013591244261053654 0.063539228116627405 0 -0.0047542754004583848 0.061387897501486238 0 0.0010524241881650716 0.055682049966493202 0 0.00035654664015948766 0.055754432623412745 0 0.00069372068923719758 0.05512673979740762 0 5.1635284502726458e-06 0.066159959435714025 0 -2.0791959609258342e-07 0.066145352960486542 0 1.8430578290544642e-07 0.062190832070903188 0 0.00099150074945178837 0.054726146627915653 0 0.00069372068923719758 0.05512673979740762 0 0.00060092940306839587 0.05446208806726377 0 0.00069372068923719758 0.05512673979740762 0 -7.0312574598403218e-06 0.055028384993191647 0 0.00060092940306839587 0.05446208806726377 0 -7.0312574598403218e-06 0.055028384993191647 0 0.00014427586912128272 0.054226767142732578 0 -0.00033757383904977533 0.054271521416019847 0 -7.0312574598403218e-06 0.055028384993191647 0 0.00014427586912128272 0.054226767142732578 0 0.00060092940306839587 0.05446208806726377 0 0.0010534947674168689 0.054257415708461182 0 0.00099150074945178837 0.054726146627915653 0 0.00060092940306839587 0.05446208806726377 0 0.0010534947674168689 0.054257415708461182 0 0.00060092940306839587 0.05446208806726377 0 0.00070833759956093168 0.053648019928808556 0 0.00014427586912128272 0.054226767142732578 0 0.00060092940306839587 0.05446208806726377 0 0.00070833759956093168 0.053648019928808556 0 0.00014427586912128272 0.054226767142732578 0 0.00070833759956093168 0.053648019928808556 0 1.1112950760110396e-05 0.053659866554787432 0 0.00014427586912128272 0.054226767142732578 0 1.1112950760110396e-05 0.053659866554787432 0 -0.00033757383904977533 0.054271521416019847 0 -0.0019773782492497434 0.055025913875352106 0 -0.0021663380218203093 0.05564371577523345 0 1.1112950760110396e-05 0.053659866554787432 0 -0.00056711116532955563 0.053475921349486456 0 -0.00033757383904977533 0.054271521416019847 0 -0.00056711116532955563 0.053475921349486456 0 -0.00073490230628932057 0.053485730547820791 0 -0.00074802358920243142 0.053443154452253845 0 -0.00056711116532955563 0.053475921349486456 0 -0.00079377687469250348 0.053549903637620931 0 -0.00073490230628932057 0.053485730547820791 0 -0.00056711116532955563 0.053475921349486456 0 -0.00079377687469250348 0.053549903637620931 0 -0.00015079263592285473 0.053705477357926565 0 -0.00079377687469250348 0.053549903637620931 0 -0.00015079263592285473 0.053705477357926565 0 -0.00050706442090543355 0.054705164721004639 0 -0.0029537194976172018 0.057553823779367651 0 -0.0021663380218203093 0.05564371577523345 0 0.00074212982018323536 0.055238994383786308 0 -0.00050706442090543355 0.054705164721004639 0 -0.00020064348672415032 0.056850757848178314 0 0.00074212982018323536 0.055238994383786308 0 -0.00015079263592285473 0.053705477357926565 0 -0.00050706442090543355 0.054705164721004639 0 -0.00079377687469250348 0.053549903637620931 0 -0.00050706442090543355 0.054705164721004639 0 -0.00080936088162810479 0.053380587207649648 0 -2.5544816488150102e-06 0.056241253102515411 0 -2.6944975725133658e-06 0.051502654591617514 0 -0.00080936088162810479 0.053380587207649648 0 -0.00050706442090543355 0.054705164721004639 0 -2.5544816488150102e-06 0.056241253102515411 0 -0.00080936088162810479 0.053380587207649648 0 -0.00050706442090543355 0.054705164721004639 0 -2.5544816488150102e-06 0.056241253102515411 0 -0.00020064348672415032 0.056850757848178314 0 5.0844677812350102e-06 0.060970578710961551 0 -2.5544816488150102e-06 0.056241253102515411 0 -0.00020064348672415032 0.056850757848178314 0 0.00095995179819400656 0.051246571787513857 0 5.3188906827714851e-06 0.046774113793157865 0 -0.00040036564210842233 0.051252386724754351 0 5.3188906827714851e-06 0.046774113793157865 0 -0.00040036564210842233 0.051252386724754351 0 -2.6944975725133658e-06 0.051502654591617514 0 -0.00040036564210842233 0.051252386724754351 0 -2.6944975725133658e-06 0.051502654591617514 0 -0.00080936088162810479 0.053380587207649648 0 -0.00040036564210842233 0.051252386724754351 0 -0.00080936088162810479 0.053380587207649648 0 -0.00060389626714724999 0.053047575349105772 0 -0.00079377687469250348 0.053549903637620931 0 -0.00080936088162810479 0.053380587207649648 0 -0.00060389626714724999 0.053047575349105772 0 0.00095995179819400656 0.051246571787513857 0 -0.00040036564210842233 0.051252386724754351 0 -0.00060389626714724999 0.053047575349105772 0 -0.00017215112322128726 0.0532549258539428 0 -0.00060389626714724999 0.053047575349105772 0 -0.00066095018100198108 0.053442498336966633 0 -0.00079377687469250348 0.053549903637620931 0 -0.00060389626714724999 0.053047575349105772 0 -0.00066095018100198108 0.053442498336966633 0 -0.00079377687469250348 0.053549903637620931 0 -0.00073490230628932057 0.053485730547820791 0 -0.00066095018100198108 0.053442498336966633 0 -0.00073490230628932057 0.053485730547820791 0 -0.00066095018100198108 0.053442498336966633 0 -0.00074802358920243142 0.053443154452253845 0 -0.00067183294628695182 0.050899286926932685 0 -0.00090476329412337252 0.051666207358945483 0 -0.00066095018100198108 0.053442498336966633 0 -0.00056189280531476738 0.053502371342692798 0 -0.00074802358920243142 0.053443154452253845 0 -0.00034340247915282346 0.053161908542125144 0 -0.00066095018100198108 0.053442498336966633 0 -0.00056189280531476738 0.053502371342692798 0 0.0037468769790431206 0.046100553375130325 0 0.0037727677530023725 0.045330672927070353 0 0.0042349992443596104 0.045675819692160856 0 0.0037727677530023725 0.045330672927070353 0 0.0042349992443596104 0.045675819692160856 0 0.00433826863401977 0.044995400906572808 0 0.0042349992443596104 0.045675819692160856 0 0.0045713898698527492 0.04590879080726213 0 0.00433826863401977 0.044995400906572808 0 0.0042349992443596104 0.045675819692160856 0 0.0045247504799765951 0.045802704645304296 0 0.0045713898698527492 0.04590879080726213 0 0.0014537264557080733 0.049357219230281565 0 0.0017172372672297678 0.050039823177712148 0 0.0037468769790431206 0.046100553375130325 0 0.0042349992443596104 0.045675819692160856 0 0.0045247504799765951 0.045802704645304296 0 -0.00056711116532955563 0.053475921349486456 0 -0.00074802358920243142 0.053443154452253845 0 -0.00034200571756461964 0.053224153420995096 0 0.0045247504799765951 0.045802704645304296 0 0.0035333582320276635 0.045666618588999348 0 0.0045713898698527492 0.04590879080726213 0 0.0017172372672297678 0.050039823177712148 0 0.0015635955208954469 0.051064906771090962 0 1.1112950760110396e-05 0.053659866554787432 0 -0.00056711116532955563 0.053475921349486456 0 -0.00034200571756461964 0.053224153420995096 0 0.0021898644489505223 0.047552728847736245 0 0.0035333582320276635 0.045666618588999348 0 0.0040293382689721444 0.047279083714346103 0 0.0035955374136989824 0.045604089306172393 0 0.0033639719602170421 0.045605075850736428 0 0.0035333582320276635 0.045666618588999348 0 0.0045713898698527492 0.04590879080726213 0 0.0040293382689721444 0.047279083714346103 0 0.0045713898698527492 0.04590879080726213 0 0.0051890296521927212 0.045192361773329359 0 0.00433826863401977 0.044995400906572808 0 0.0010543866226452802 0.039923736428732363 0 0.0010927843109706653 0.04016664066720993 0 0.001352794732380335 0.03997165750223601 0 0.0033639719602170421 0.045605075850736428 0 0.002858124393098667 0.043424587962716282 0 0.0029863181217408921 0.049776120405381145 0 0.0021898644489505223 0.047552728847736245 0 0.0066633178233339203 0.048374425036196433 0 0.0033639719602170421 0.045605075850736428 0 0.0023163140827154875 0.046379264521983911 0 0.0033427891774707491 0.046060584329212902 0 0.0033639719602170421 0.045605075850736428 0 0.0029863181217408921 0.049776120405381145 0 0.0066633178233339203 0.048374425036196433 0 0.0040739606181968346 0.051507501087792958 0 0.00083770475062995033 0.040172604968950511 0 0.0010927843109706653 0.04016664066720993 0 0.00085887846493113763 0.040409018196314705 0 0.0010543866226452802 0.039923736428732363 0 0.00083770475062995033 0.040172604968950511 0 0.0010927843109706653 0.04016664066720993 0 0.0010927843109706653 0.04016664066720993 0 0.001286190695629454 0.04016715929998152 0 0.001352794732380335 0.03997165750223601 0 0.0010927843109706653 0.04016664066720993 0 0.001286190695629454 0.04016715929998152 0 0.0012599516707990539 0.040361890286530352 0 0.001286190695629454 0.04016715929998152 0 0.0014392686422784651 0.04016939884687043 0 0.0012599516707990539 0.040361890286530352 0 0.0014392686422784651 0.04016939884687043 0 0.0016636976433933174 0.040301314587984471 0 0.0012599516707990539 0.040361890286530352 0 0.001286190695629454 0.04016715929998152 0 0.0014392686422784651 0.04016939884687043 0 0.001352794732380335 0.03997165750223601 0 0.0014392686422784651 0.04016939884687043 0 0.0016575146135808471 0.040022120309253367 0 0.0016636976433933174 0.040301314587984471 0 0.0026426742514722118 0.041656008727496259 0 0.002858124393098667 0.043424587962716282 0 0.0037727677530023725 0.045330672927070353 0 0.0037069841046201788 0.044713554262048975 0 0.00433826863401977 0.044995400906572808 0 0.0014392686422784651 0.04016939884687043 0 0.0016575146135808471 0.040022120309253367 0 0.001352794732380335 0.03997165750223601 0 0.0014142044845104169 0.040434622165035884 0 0.0013479680483968076 0.040705737238756402 0 0.0012109561727266349 0.040615331452724918 0 0.0014142044845104169 0.040434622165035884 0 0.0013479680483968076 0.040705737238756402 0 0.0016023698855984114 0.040639396682978349 0 0.0016023698855984114 0.040639396682978349 0 0.0018549431042724732 0.04045667726340689 0 0.0017795745735367683 0.040750084350865225 0 0.0021521494335398901 0.040807727852738715 0 0.0018549431042724732 0.04045667726340689 0 0.0017795745735367683 0.040750084350865225 0 0.0014142044845104169 0.040434622165035884 0 0.0016023698855984114 0.040639396682978349 0 0.0018549431042724732 0.04045667726340689 0 0.0016330371558359452 0.040190723604778461 0 0.0018199091844411772 0.040029678385050456 0 0.0014142044845104169 0.040434622165035884 0 0.0018549431042724732 0.04045667726340689 0 0.0018971127274212524 0.039963168584208279 0 0.0018199091844411772 0.040029678385050456 0 0.0013440786807622771 0.040206304834620156 0 0.0014142044845104169 0.040434622165035884 0 0.0017302750087947673 0.040195921630588723 0 0.0013245476811322219 0.040262957334807968 0 0.0013440786807622771 0.040206304834620156 0 0.0011187527663925191 0.040272137641579907 0 0.0010927843109706653 0.04016664066720993 0 0.0012599516707990539 0.040361890286530352 0 0.00085887846493113763 0.040409018196314705 0 0.0014142044845104169 0.040434622165035884 0 0.0013245476811322219 0.040262957334807968 0 0.0011448938095570884 0.04047228312210488 0 0.0013245476811322219 0.040262957334807968 0 0.00085887846493113763 0.040409018196314705 0 0.0011448938095570884 0.04047228312210488 0 0.00085887846493113763 0.040409018196314705 0 0.00096296859373979108 0.040544005969739387 0 0.0011448938095570884 0.04047228312210488 0 0.00085887846493113763 0.040409018196314705 0 0.00096296859373979108 0.040544005969739387 0 0.00076320177421867737 0.040542064243469796 0 0.00096296859373979108 0.040544005969739387 0 0.00081463751384696801 0.040662464185679197 0 0.00076320177421867737 0.040542064243469796 0 0.00096296859373979108 0.040544005969739387 0 0.00093976657099019087 0.040690950080165676 0 0.0010805630464262299 0.040590319736071079 0 0.00093976657099019087 0.040690950080165676 0 0.0010911177722349834 0.040704337989173188 0 0.0010317325009261357 0.040831748819903806 0 0.00093976657099019087 0.040690950080165676 0 0.0010805630464262299 0.040590319736071079 0 0.0010911177722349834 0.040704337989173188 0 0.00093976657099019087 0.040690950080165676 0 0.00086210232218077144 0.040743121218803427 0 0.00090773309415896381 0.0408292340771398 0 0.00096296859373979108 0.040544005969739387 0 0.00093976657099019087 0.040690950080165676 0 0.00081463751384696801 0.040662464185679197 0 0.00093976657099019087 0.040690950080165676 0 0.00086210232218077144 0.040743121218803427 0 0.00081463751384696801 0.040662464185679197 0 0.00086210232218077144 0.040743121218803427 0 0.00081463751384696801 0.040662464185679197 0 0.00078716758196562117 0.040790721880995397 0 0.0014142044845104169 0.040434622165035884 0 0.0011448938095570884 0.04047228312210488 0 0.0012109561727266349 0.040615331452724918 0 0.00096296859373979108 0.040544005969739387 0 0.0011448938095570884 0.04047228312210488 0 0.0010805630464262299 0.040590319736071079 0 0.0011448938095570884 0.04047228312210488 0 0.0010805630464262299 0.040590319736071079 0 0.0012109561727266349 0.040615331452724918 0 0.0010805630464262299 0.040590319736071079 0 0.0010911177722349834 0.040704337989173188 0 0.0012109561727266349 0.040615331452724918 0 0.0010911177722349834 0.040704337989173188 0 0.0012109561727266349 0.040615331452724918 0 0.0011923833108372873 0.040791973087332074 0 0.0013479680483968076 0.040705737238756402 0 0.0012109561727266349 0.040615331452724918 0 0.0011923833108372873 0.040791973087332074 0 0.0013479680483968076 0.040705737238756402 0 0.0011923833108372873 0.040791973087332074 0 0.0013656594524239542 0.040936177795760996 0 0.0011923833108372873 0.040791973087332074 0 0.0011108724933860037 0.040953975183217035 0 0.0010317325009261357 0.040831748819903806 0 0.0010911177722349834 0.040704337989173188 0 0.0011923833108372873 0.040791973087332074 0 0.0010317325009261357 0.040831748819903806 0 0.0011108724933860037 0.040953975183217035 0 0.0012394160877279099 0.041100117825472564 0 0.0013656594524239542 0.040936177795760996 0 0.0011923833108372873 0.040791973087332074 0 0.0011108724933860037 0.040953975183217035 0 0.0013656594524239542 0.040936177795760996 0 0.00083988465899469263 0.040882207491528468 0 0.00078716758196562117 0.040790721880995397 0 0.00073437603277004917 0.040929847362662253 0 0.00083988465899469263 0.040882207491528468 0 0.00078716758196562117 0.040790721880995397 0 0.00090773309415896381 0.0408292340771398 0 0.00086210232218077144 0.040743121218803427 0 0.00078716758196562117 0.040790721880995397 0 0.00090773309415896381 0.0408292340771398 0 0.00083988465899469263 0.040882207491528468 0 0.00090773309415896381 0.0408292340771398 0 0.00089253932877514125 0.040935506776355407 0 0.00090773309415896381 0.0408292340771398 0 0.0010317325009261357 0.040831748819903806 0 0.00089253932877514125 0.040935506776355407 0 0.00093976657099019087 0.040690950080165676 0 0.00090773309415896381 0.0408292340771398 0 0.0010317325009261357 0.040831748819903806 0 0.0011108724933860037 0.040953975183217035 0 0.00089253932877514125 0.040935506776355407 0 0.00092826780266055519 0.041136278067387157 0 0.0011108724933860037 0.040953975183217035 0 0.0010317325009261357 0.040831748819903806 0 0.00089253932877514125 0.040935506776355407 0 0.00083988465899469263 0.040882207491528468 0 0.00089253932877514125 0.040935506776355407 0 0.00073437603277004917 0.040929847362662253 0 0.00089253932877514125 0.040935506776355407 0 0.00092826780266055519 0.041136278067387157 0 0.00069919674032141443 0.040976385632492417 0 -0.00085446437550419391 0.062915082019925989 0 -0.0011863509691429658 0.063139173905811571 0 -0.0012105955319888541 0.062658000799557148 0 -0.00085446437550419391 0.062915082019925989 0 -0.00047723861283937772 0.063162362023563998 0 -0.00092741486136816136 0.063426730246884042 0 -0.00085446437550419391 0.062915082019925989 0 -0.00092741486136816136 0.063426730246884042 0 -0.0011863509691429658 0.063139173905811571 0 -0.00082439759245426527 0.052703413202305843 0 0.00024993791414844476 0.054859651038513244 0 0.0011108724933860037 0.040953975183217035 0 0.00092826780266055519 0.041136278067387157 0 0.0012394160877279099 0.041100117825472564 0 0.00092826780266055519 0.041136278067387157 0 0.0012394160877279099 0.041100117825472564 0 0.0011699786947818539 0.041306811653713672 0 -0.00082439759245426527 0.052703413202305843 0 -0.0023493589636009609 0.050549871143741772 0 -0.0023493589636009609 0.050549871143741772 0 -0.0013773631467329515 0.041921907801235031 0 0.0012394160877279099 0.041100117825472564 0 0.0011699786947818539 0.041306811653713672 0 0.0014293356153185781 0.041155544618877611 0 -0.0024592465337253066 0.045614984503117059 0 -0.0030825239932969033 0.045938902828559072 0 -0.0029002167051754486 0.045236113349093762 0 0.0014293356153185781 0.041155544618877611 0 0.0013656594524239542 0.040936177795760996 0 0.0016988176643932813 0.040998341219432563 0 -0.0018320416729814969 0.045284991652174963 0 -0.0024592465337253066 0.045614984503117059 0 -0.0023960624566586033 0.044895828824889732 0 -0.0013773631467329515 0.041921907801235031 0 -0.00063587286209750666 0.032992885755276154 0 0.0012394160877279099 0.041100117825472564 0 0.0014293356153185781 0.041155544618877611 0 0.0013656594524239542 0.040936177795760996 0 0.0013656594524239542 0.040936177795760996 0 0.0015746608491924001 0.040813466207069944 0 0.0016988176643932813 0.040998341219432563 0 0.0013479680483968076 0.040705737238756402 0 0.0016023698855984114 0.040639396682978349 0 0.0015746608491924001 0.040813466207069944 0 0.0013479680483968076 0.040705737238756402 0 0.0013656594524239542 0.040936177795760996 0 0.0015746608491924001 0.040813466207069944 0 0.0021521494335398901 0.040807727852738715 0 0.0017795745735367683 0.040750084350865225 0 0.0017275056238645655 0.04103065973791515 0 -0.0014530257506551133 0.026919386146347365 0 -0.00063587286209750666 0.032992885755276154 0 0.0016023698855984114 0.040639396682978349 0 0.0015746608491924001 0.040813466207069944 0 0.0017795745735367683 0.040750084350865225 0 0.0015746608491924001 0.040813466207069944 0 0.0017795745735367683 0.040750084350865225 0 0.0017275056238645655 0.04103065973791515 0 0.00016507660567565918 0.034433484207058634 0 -0.00063587286209750666 0.032992885755276154 0 -0.0049729935288560937 0.033827964361658275 0 -0.00063587286209750666 0.032992885755276154 0 -0.0035991526610263968 0.045212398122595095 0 -0.0030825239932969033 0.045938902828559072 0 -0.0029002167051754486 0.045236113349093762 0 -0.0039038555403423576 0.0090817644174709476 0 -0.0026095425447086678 0.0057350348992934773 0 0.00043022116065565019 0.010131053024025581 0 -0.0035991526610263968 0.045212398122595095 0 -0.0029002167051754486 0.045236113349093762 0 -0.0029624755793133772 0.044510473930104925 0 -0.00052442098048227864 0.063424717846542314 0 -0.00037857637149931491 0.063506331851012385 0 -0.00065331954963664465 0.063553097608708184 0 -0.0029002167051754486 0.045236113349093762 0 -0.0023960624566586033 0.044895828824889732 0 -0.0029624755793133772 0.044510473930104925 0 -0.0024592465337253066 0.045614984503117059 0 -0.0029002167051754486 0.045236113349093762 0 -0.0023960624566586033 0.044895828824889732 0 -0.0022702392060395525 0.053059696376971291 0 -0.0030878842664521055 0.05484713295872156 0 -0.0038221987468329099 0.081925929887908783 0 -0.0028312534863954176 0.080273985547350574 0 -0.0017552330188540003 0.08153284933173674 0 -0.0030878842664521055 0.05484713295872156 0 -0.001624017193278462 0.056539575757556762 0 -0.00035176238668339172 0.0635638405807262 0 -0.00065331954963664465 0.063553097608708184 0 -0.0005852979396171222 0.063715173688541377 0 -0.0002558716111544483 0.06362612430122315 0 -0.00035176238668339172 0.0635638405807262 0 -0.0005852979396171222 0.063715173688541377 0 -0.0030996655248017192 0.059197907451718282 0 -0.0018879764961133225 0.06749755764308521 0 -0.0055092947951203789 0.044138071159697839 0 -0.0030878842664521055 0.05484713295872156 0 -0.0062688176523502358 0.050132850330383602 0 -0.0027430126235234577 0.049206055861626491 0 -0.0012134505148268791 0.050254130718698213 0 -0.0030996655248017192 0.059197907451718282 0 -0.0030878842664521055 0.05484713295872156 0 -0.0038221987468329099 0.081925929887908783 0 -0.0040739517688664455 0.080583385919171122 0 -0.0028312534863954176 0.080273985547350574 0 -0.0040739517688664455 0.080583385919171122 0 -0.0028312534863954176 0.080273985547350574 0 -0.0039880272874406285 0.079385951604629329 0 -0.0028312534863954176 0.080273985547350574 0 -0.0011290184458027253 0.079818054450286183 0 -0.0017552330188540003 0.08153284933173674 0 0.00036235967254766836 0.077215936890197581 0 -0.0010434409605476988 0.077557489020212006 0 -0.0028312534863954176 0.080273985547350574 0 -0.0011290184458027253 0.079818054450286183 0 -0.0025096266021934713 0.078455555490441489 0 -0.0028312534863954176 0.080273985547350574 0 -0.0039880272874406285 0.079385951604629329 0 -0.0025096266021934713 0.078455555490441489 0 0.00017650987580057324 0.080572070544249419 0 0.0025853506895817304 0.080077125859886009 0 0.0010904999179425074 0.078257364614599506 0 -0.0011290184458027253 0.079818054450286183 0 0.00025683120177167777 0.081162399941413693 0 -0.0017552330188540003 0.08153284933173674 0 0.00036235967254766836 0.077215936890197581 0 -0.00054169709317186416 0.072386043973685019 0 0.00017650987580057324 0.080572070544249419 0 0.0017713799407084649 0.082076289858612747 0 0.0025853506895817304 0.080077125859886009 0 -0.0010077861012862744 0.063874776700252142 0 -0.00065331954963664465 0.063553097608708184 0 -0.00092741486136816136 0.063426730246884042 0 -0.0010077861012862744 0.063874776700252142 0 -0.00065331954963664465 0.063553097608708184 0 -0.0005852979396171222 0.063715173688541377 0 -0.00054169709317186416 0.072386043973685019 0 -0.0018879764961133225 0.06749755764308521 0 -0.00069252415758499814 0.063292045879871695 0 -0.00065331954963664465 0.063553097608708184 0 -0.00092741486136816136 0.063426730246884042 0 -0.00069252415758499814 0.063292045879871695 0 -0.00052442098048227864 0.063424717846542314 0 -0.00065331954963664465 0.063553097608708184 0 -0.0023493589636009609 0.050549871143741772 0 -0.0022702392060395525 0.053059696376971291 0 -0.0023493589636009609 0.050549871143741772 0 -0.0033094374535330854 0.052764240044055478 0 -0.00092741486136816136 0.063426730246884042 0 -0.0014334978595195009 0.063613630772763594 0 -0.0011863509691429658 0.063139173905811571 0 -0.0014334978595195009 0.063613630772763594 0 -0.0016023295679699952 0.063131186068815334 0 -0.0011863509691429658 0.063139173905811571 0 -0.0029002378402456118 0.069613959034201006 0 -0.003159643974872037 0.065922898529766918 0 8.7316881062746729e-05 0.065816144927487899 0 -0.00043945008581034264 0.06935691674728163 0 -0.00074188950487545906 0.063209209620245232 0 -0.0014334978595195009 0.063613630772763594 0 -0.0022260882219365162 0.063803097850217691 0 -0.0016023295679699952 0.063131186068815334 0 -0.0014334978595195009 0.063613630772763594 0 -0.0016547527529646221 0.06467980297477996 0 -0.0022260882219365162 0.063803097850217691 0 -0.0016547527529646221 0.06467980297477996 0 -0.0022260882219365162 0.063803097850217691 0 -0.0023412904179574302 0.064455222066576556 0 -0.0010077861012862744 0.063874776700252142 0 -0.00092741486136816136 0.063426730246884042 0 -0.0014334978595195009 0.063613630772763594 0 -0.00054169709317186416 0.072386043973685019 0 -0.0025817419225554112 0.068520046288246483 0 -0.00052753726731803957 0.064507180082079035 0 -0.0014334978595195009 0.063613630772763594 0 -0.0016547527529646221 0.06467980297477996 0 0.0017713799407084649 0.082076289858612747 0 0.0038600475841739034 0.081699817823046916 0 0.0025853506895817304 0.080077125859886009 0 -0.00054169709317186416 0.072386043973685019 0 0.00091207049518284662 0.075227792884478339 0 0.0038600475841739034 0.081699817823046916 0 0.0025853506895817304 0.080077125859886009 0 0.0048210324857439705 0.079743500078463175 0 0.0091961215454027176 0.085608012499638272 0 0.010829134070727746 0.084727428579196823 0 0.010156803811108945 0.086259612045250358 0 0.0091961215454027176 0.085608012499638272 0 0.010829134070727746 0.084727428579196823 0 0.0092719464823514831 0.08397319338230716 0 0.0037830563193203348 0.081322625383120073 0 0.0010475637247039204 0.079354922711002487 0 0.0091961215454027176 0.085608012499638272 0 0.0068158371108130982 0.084658921267068477 0 0.0092719464823514831 0.08397319338230716 0 0.0091961215454027176 0.085608012499638272 0 0.0068158371108130982 0.084658921267068477 0 0.008598110603746198 0.087049425685095383 0 0.00091207049518284662 0.075227792884478339 0 0.0010475637247039204 0.079354922711002487 0 -0.0016547527529646221 0.06467980297477996 0 -0.0027237792751274906 0.064889992384442083 0 -0.0023412904179574302 0.064455222066576556 0 0.0038600475841739034 0.081699817823046916 0 0.0048210324857439705 0.079743500078463175 0 0.0059141342806538584 0.081340137546586699 0 -0.0027237792751274906 0.064889992384442083 0 -0.0028867528545344378 0.064664100649546447 0 -0.0023412904179574302 0.064455222066576556 0 0.0010475637247039204 0.079354922711002487 0 -2.2046708606707659e-05 0.077830863061661301 0 0.00013306799308684749 0.078812289623069492 0 0.00053718760442213762 0.078304341490589666 0 0.00077088490063931844 0.079730758700441953 0 0.00039885520245095394 0.081013936867667044 0 8.5985770848349993e-05 0.080478790214010471 0 0.0012869259925456708 0.09396949079484769 0 0.0013017127346934966 0.093860214500732245 0 0.0012387963820810169 0.093921730890964908 0 -0.0020432275805855465 0.080059766479918318 0 -1.7047486828252716e-06 0.083015284618403698 0 0.00303877701718596 0.079199785094519096 0 -2.2046708606707659e-05 0.077830863061661301 0 0.00039885520245095394 0.081013936867667044 0 0.0091961215454027176 0.085608012499638272 0 0.008598110603746198 0.087049425685095383 0 0.009719245667761842 0.086828700534066994 0 0.0091961215454027176 0.085608012499638272 0 0.009719245667761842 0.086828700534066994 0 0.010156803811108945 0.086259612045250358 0 0.0010475637247039204 0.079354922711002487 0 0.00039885520245095394 0.081013936867667044 0 0.00039885520245095394 0.081013936867667044 0 0.00054588222574147361 0.081030774610282658 0 0.0012869259925456708 0.09396949079484769 0 0.0012387963820810169 0.093921730890964908 0 0.0012091523424681068 0.093945749011491178 0 0.0013017127346934966 0.093860214500732245 0 0.0012417029284838667 0.093890776768295658 0 0.0012387963820810169 0.093921730890964908 0 -2.2046708606707659e-05 0.077830863061661301 0 8.5985770848349993e-05 0.080478790214010471 0 0.0013217014367775868 0.093813179087169657 0 0.0013017127346934966 0.093860214500732245 0 0.0012417029284838667 0.093890776768295658 0 0.00051794811410123601 0.081352991323810964 0 8.5985770848349993e-05 0.080478790214010471 0 -2.2046708606707659e-05 0.077830863061661301 0 -0.00043945008581034264 0.06935691674728163 0 -0.0028867528545344378 0.064664100649546447 0 -0.0022260882219365162 0.063803097850217691 0 -0.0023412904179574302 0.064455222066576556 0 -0.0075939645702956995 0.070962378460514883 0 -0.0029002378402456118 0.069613959034201006 0 -0.0058571215977769224 0.068129001230844366 0 -0.0058999272465495942 0.073415537897448785 0 -0.0075939645702956995 0.070962378460514883 0 -0.0029002378402456118 0.069613959034201006 0 -0.0029002378402456118 0.069613959034201006 0 -0.0058571215977769224 0.068129001230844366 0 -0.003159643974872037 0.065922898529766918 0 8.5985770848349993e-05 0.080478790214010471 0 -0.0011628796770999355 0.078888262851060709 0 -0.0075939645702956995 0.070962378460514883 0 -0.0058571215977769224 0.068129001230844366 0 -0.0082321662204403404 0.065829617652697611 0 0.0013217014367775868 0.093813179087169657 0 0.0013878166678529999 0.093965690844416819 0 0.0014867251661794445 0.093321977681514803 0 -0.0058571215977769224 0.068129001230844366 0 -0.0082321662204403404 0.065829617652697611 0 -0.0053156976017719841 0.06360256265771537 0 -0.0082321662204403404 0.065829617652697611 0 -0.0053156976017719841 0.06360256265771537 0 -0.0088510546048278863 0.060707413071462824 0 -0.0011628796770999355 0.078888262851060709 0 -0.0013214546580369655 0.076114893932004088 0 -0.0059457155034493966 0.060551889085090273 0 -0.0053156976017719841 0.06360256265771537 0 -0.0088510546048278863 0.060707413071462824 0 -0.0059457155034493966 0.060551889085090273 0 -0.006849698940408426 0.05842809831147322 0 -0.0088510546048278863 0.060707413071462824 0 -0.0038841095616757347 0.060803247591117125 0 -0.0053156976017719841 0.06360256265771537 0 -0.0018149685637457243 0.062458711852531844 0 -0.0038841095616757347 0.060803247591117125 0 -0.0018149685637457243 0.062458711852531844 0 -0.0023011522093235284 0.05988841436104618 0 -0.0038841095616757347 0.060803247591117125 0 -0.0047571488523612364 0.059161220076397639 0 -0.0034008608283864553 0.059255167277059283 0 -0.0038841095616757347 0.060803247591117125 0 -0.0023011522093235284 0.05988841436104618 0 -0.0034008608283864553 0.059255167277059283 0 -0.0059457155034493966 0.060551889085090273 0 -0.0038841095616757347 0.060803247591117125 0 -0.0047571488523612364 0.059161220076397639 0 -0.0059457155034493966 0.060551889085090273 0 -0.0038841095616757347 0.060803247591117125 0 -0.0053156976017719841 0.06360256265771537 0 -0.003159643974872037 0.065922898529766918 0 -0.0053156976017719841 0.06360256265771537 0 -0.0018149685637457243 0.062458711852531844 0 -0.0058571215977769224 0.068129001230844366 0 -0.003159643974872037 0.065922898529766918 0 -0.0053156976017719841 0.06360256265771537 0 8.7316881062746729e-05 0.065816144927487899 0 0.003084003847547593 0.062026435848204664 0 -0.0018149685637457243 0.062458711852531844 0 -0.003159643974872037 0.065922898529766918 0 8.7316881062746729e-05 0.065816144927487899 0 -0.0018149685637457243 0.062458711852531844 0 -0.00074188950487545906 0.063209209620245232 0 0.00024993791414844476 0.054859651038513244 0 -0.0016023295679699952 0.063131186068815334 0 -0.0011863509691429658 0.063139173905811571 0 -0.0012105955319888541 0.062658000799557148 0 0.00073437603277004917 0.040929847362662253 0 0.00070277020044012014 0.040974542532575139 0 0.00064693875466328434 0.040710044034081336 0 0.00070277020044012014 0.040974542532575139 0 0.00034638311878280235 0.040736290232248569 0 0.00064693875466328434 0.040710044034081336 0 0.00089253932877514125 0.040935506776355407 0 0.00073437603277004917 0.040929847362662253 0 0.00069919674032141443 0.040976385632492417 0 0.00034155929971260734 0.054686848062470567 0 0.00024993791414844476 0.054859651038513244 0 0.00078716758196562117 0.040790721880995397 0 0.00073437603277004917 0.040929847362662253 0 0.00064693875466328434 0.040710044034081336 0 0.00024993791414844476 0.054859651038513244 0 -0.0015250458431709023 0.050346024177346252 0 0.003084003847547593 0.062026435848204664 0 -0.0018149685637457243 0.062458711852531844 0 -0.0014925646488026668 0.058900417449508427 0 -0.0018149685637457243 0.062458711852531844 0 -0.0023011522093235284 0.05988841436104618 0 -0.0014925646488026668 0.058900417449508427 0 0.00034638311878280235 0.040736290232248569 0 0.00064693875466328434 0.040710044034081336 0 0.00059723813019303381 0.040430262237632651 0 -0.0023011522093235284 0.05988841436104618 0 -0.0023682634817084446 0.058304612213527132 0 -0.0015007099553761851 0.058886230092531328 0 -0.0015615909953609675 0.058846104497998007 0 -0.0015230528474455651 0.056572781434770729 0 0.0013121381533474558 0.05513829605851317 0 -0.0015250458431709023 0.050346024177346252 0 0.00066551103118614474 0.048052641998542554 0 -0.0017353856957030593 0.05073038859246122 0 -0.0015250458431709023 0.050346024177346252 0 -0.0014346806279423978 0.050489680579741167 0 -0.0015250458431709023 0.050346024177346252 0 -0.0023682634817084446 0.058304612213527132 0 -0.0015230528474455651 0.056572781434770729 0 -0.0031967421633437736 0.056873339904416273 0 -0.0023682634817084446 0.058304612213527132 0 -0.0015615909953609675 0.058846104497998007 0 -0.0015230528474455651 0.056572781434770729 0 0.00064693875466328434 0.040710044034081336 0 0.00076320177421867737 0.040542064243469796 0 0.00059723813019303381 0.040430262237632651 0 0.00081463751384696801 0.040662464185679197 0 0.00078716758196562117 0.040790721880995397 0 0.00064693875466328434 0.040710044034081336 0 0.00081463751384696801 0.040662464185679197 0 0.00064693875466328434 0.040710044034081336 0 0.00076320177421867737 0.040542064243469796 0 0.00083770475062995033 0.040172604968950511 0 0.00085887846493113763 0.040409018196314705 0 0.00059723813019303381 0.040430262237632651 0 0.00085887846493113763 0.040409018196314705 0 0.00076320177421867737 0.040542064243469796 0 0.00059723813019303381 0.040430262237632651 0 -0.0010307528926271174 0.05309630803875378 0 0.002963040524887133 0.051771422520231293 0 0.0013121381533474558 0.05513829605851317 0 0.0023163140827154875 0.046379264521983911 0 0.00066551103118614474 0.048052641998542554 0 -0.0015230528474455651 0.056572781434770729 0 -0.00072914858143315693 0.054985818078639163 0 -0.0026270495427221595 0.055289391225420086 0 -0.0015230528474455651 0.056572781434770729 0 -0.0026270495427221595 0.055289391225420086 0 -0.0031967421633437736 0.056873339904416273 0 -0.0015230528474455651 0.056572781434770729 0 0.0013121381533474558 0.05513829605851317 0 -0.00072914858143315693 0.054985818078639163 0 -0.0010307528926271174 0.05309630803875378 0 0.0013121381533474558 0.05513829605851317 0 -0.00072914858143315693 0.054985818078639163 0 -0.0010307528926271174 0.05309630803875378 0 -0.00072914858143315693 0.054985818078639163 0 -0.0026270495427221595 0.055289391225420086 0 -0.0010307528926271174 0.05309630803875378 0 -0.0026270495427221595 0.055289391225420086 0 -0.0051966829889776309 0.054368632528650609 0 0.0011544171164947913 0.059494633015332338 0 -0.0001838671388804108 0.064030598156042104 0 -0.0026270495427221595 0.055289391225420086 0 -0.0043171964793628061 0.055888599547041631 0 -0.0031967421633437736 0.056873339904416273 0 -0.0026270495427221595 0.055289391225420086 0 -0.0043171964793628061 0.055888599547041631 0 -0.0051966829889776309 0.054368632528650609 0 -0.0054119936964724304 0.055845864815984692 0 -0.0043171964793628061 0.055888599547041631 0 -0.0049738240971121698 0.057171637092956085 0 -0.0054119936964724304 0.055845864815984692 0 -0.0043171964793628061 0.055888599547041631 0 -0.0051966829889776309 0.054368632528650609 0 -0.0001838671388804108 0.064030598156042104 0 -0.00024066540682639103 0.072800351127531276 0 -0.0017434313804032201 0.052767620559025438 0 -0.0020421032582526393 0.052670845276088493 0 -0.0022297606749022924 0.052821067276189189 0 -0.0051966829889776309 0.054368632528650609 0 -0.0068626449441522219 0.056108733643926469 0 -0.0094474879886652912 0.055654481857868143 0 -0.0020204202038327343 0.052774038463791605 0 -0.0020421032582526393 0.052670845276088493 0 -0.0022297606749022924 0.052821067276189189 0 -0.0017888340437053492 0.051873278733016025 0 -0.0017434313804032201 0.052767620559025438 0 -0.0020421032582526393 0.052670845276088493 0 -0.0054119936964724304 0.055845864815984692 0 -0.0068626449441522219 0.056108733643926469 0 -0.0049738240971121698 0.057171637092956085 0 -0.0054119936964724304 0.055845864815984692 0 -0.0051966829889776309 0.054368632528650609 0 -0.0068626449441522219 0.056108733643926469 0 -0.0068626449441522219 0.056108733643926469 0 -0.006849698940408426 0.05842809831147322 0 -0.0049738240971121698 0.057171637092956085 0 -0.006849698940408426 0.05842809831147322 0 -0.0094474879886652912 0.055654481857868143 0 -0.0088510546048278863 0.060707413071462824 0 -0.0068626449441522219 0.056108733643926469 0 -0.006849698940408426 0.05842809831147322 0 -0.0094474879886652912 0.055654481857868143 0 -0.0059457155034493966 0.060551889085090273 0 -0.006849698940408426 0.05842809831147322 0 -0.0047571488523612364 0.059161220076397639 0 -0.006849698940408426 0.05842809831147322 0 -0.0047571488523612364 0.059161220076397639 0 -0.0049738240971121698 0.057171637092956085 0 -0.0047571488523612364 0.059161220076397639 0 -0.0036844234635509004 0.058124237219719148 0 -0.0049738240971121698 0.057171637092956085 0 -0.0047571488523612364 0.059161220076397639 0 -0.0034008608283864553 0.059255167277059283 0 -0.0036844234635509004 0.058124237219719148 0 -0.0023011522093235284 0.05988841436104618 0 -0.0023682634817084446 0.058304612213527132 0 -0.0034008608283864553 0.059255167277059283 0 -0.0023682634817084446 0.058304612213527132 0 -0.0034008608283864553 0.059255167277059283 0 -0.0036844234635509004 0.058124237219719148 0 -0.0036844234635509004 0.058124237219719148 0 -0.0031967421633437736 0.056873339904416273 0 -0.0049738240971121698 0.057171637092956085 0 -0.0023682634817084446 0.058304612213527132 0 -0.0036844234635509004 0.058124237219719148 0 -0.0031967421633437736 0.056873339904416273 0 -0.0043171964793628061 0.055888599547041631 0 -0.0031967421633437736 0.056873339904416273 0 -0.0049738240971121698 0.057171637092956085 0 -0.0015124664645182161 0.084922682994573034 0 -0.0015291277427699362 0.090737807636963139 0 0.00060632312813805797 0.091664286738437614 0 0.0013677662224270081 0.091405697341772854 0 0.0014698644606772381 0.092392497705913734 0 -0.00024066540682639103 0.072800351127531276 0 -0.0013214546580369655 0.076114893932004088 0 0.001410418141676705 0.0756963237728321 0 0.00019445936839237977 0.076063283571285945 0 0.0016769509099111932 0.077892369511894835 0 0.00019445936839237977 0.076063283571285945 0 -0.0007515990126055474 0.078627589966515712 0 0.0016769509099111932 0.077892369511894835 0 -0.0015124664645182161 0.084922682994573034 0 -0.00024066540682639103 0.072800351127531276 0 -0.0003294628486490964 0.069253049800306679 0 -0.00024066540682639103 0.072800351127531276 0 0.0011936958547973686 0.093505976061485363 0 0.00095666309396354209 0.09353195964312945 0 0.0010244508888787658 0.093256616536445666 0 -0.001097070317966525 0.081340441696522062 0 -0.0015124664645182161 0.084922682994573034 0 0.00092727996626302948 0.094406577255153792 0 0.0005436445162773616 0.094555409213232536 0 0.00078302896628272371 0.094799021579154291 0 0.0011936958547973686 0.093505976061485363 0 0.0010244508888787658 0.093256616536445666 0 0.0012583939798621491 0.093181150909389873 0 -2.7582617667212845e-06 0.093161543047440065 0 -0.00053152578295968681 0.091074333533042465 0 0.0005436445162773616 0.094555409213232536 0 0.00078302896628272371 0.094799021579154291 0 0.0002732627522172771 0.094853562364791449 0 -0.00053152578295968681 0.091074333533042465 0 -0.00040535880967686996 0.092134905733607053 0 0.00019212554313286084 0.094040518275934029 0 -3.0027569962647773e-05 0.094127899911046406 0 9.9205283247826381e-05 0.094306385385942187 0 -0.0015124664645182161 0.084922682994573034 0 -0.00053152578295968681 0.091074333533042465 0 -3.0027569962647773e-05 0.094127899911046406 0 -4.529633619088162e-05 0.094382613965627457 0 9.9205283247826381e-05 0.094306385385942187 0 -0.00053152578295968681 0.091074333533042465 0 -0.00056765425114605199 0.093413498565128969 0 -4.529633619088162e-05 0.094382613965627457 0 -1.4964376673083364e-06 0.094472991521150254 0 9.9205283247826381e-05 0.094306385385942187 0 -3.4172346379538784e-05 0.094949275003706909 0 7.2943247707353377e-06 0.094741968727632922 0 0.0002732627522172771 0.094853562364791449 0 7.2943247707353377e-06 0.094741968727632922 0 0.00016968501014891769 0.09468443082672362 0 0.0002732627522172771 0.094853562364791449 0 7.2943247707353377e-06 0.094741968727632922 0 5.8089761999521653e-05 0.094459538402127979 0 0.00016968501014891769 0.09468443082672362 0 -0.00056765425114605199 0.093413498565128969 0 -0.00052796456362833662 0.093872426804514283 0 5.8089761999521653e-05 0.094459538402127979 0 0.00017727901417600688 0.094519223267470656 0 0.00016968501014891769 0.09468443082672362 0 0.00013188155509119873 0.093281922668267597 0 0.0005640417448295632 0.093065276103072761 0 0.00034293349217745744 0.092478587975882626 0 -4.529633619088162e-05 0.094382613965627457 0 -1.4964376673083364e-06 0.094472991521150254 0 5.8089761999521653e-05 0.094459538402127979 0 -0.0012168502170983571 0.092648179861881674 0 -0.0015291277427699362 0.090737807636963139 0 0.00013188155509119873 0.093281922668267597 0 0.0005640417448295632 0.093065276103072761 0 0.00054922409329781485 0.093575727193897923 0 0.00088867515191962652 0.093266929764552323 0 0.0005640417448295632 0.093065276103072761 0 0.00054922409329781485 0.093575727193897923 0 0.00088867515191962652 0.093266929764552323 0 0.0005640417448295632 0.093065276103072761 0 0.00089399157614866384 0.092698483629417905 0 0.00060632312813805797 0.091664286738437614 0 0.00089399157614866384 0.092698483629417905 0 0.00034293349217745744 0.092478587975882626 0 0.0005640417448295632 0.093065276103072761 0 0.00089399157614866384 0.092698483629417905 0 0.00034293349217745744 0.092478587975882626 0 0.00060632312813805797 0.091664286738437614 0 0.00089399157614866384 0.092698483629417905 0 0.0014698644606772381 0.092392497705913734 0 0.0014867251661794445 0.093321977681514803 0 0.00089399157614866384 0.092698483629417905 0 0.0014698644606772381 0.092392497705913734 0 0.0014867251661794445 0.093321977681514803 0 0.00088867515191962652 0.093266929764552323 0 0.00089399157614866384 0.092698483629417905 0 0.0013217014367775868 0.093813179087169657 0 0.0014867251661794445 0.093321977681514803 0 0.0011777948450847849 0.093587302309953282 0 0.0014867251661794445 0.093321977681514803 0 0.00088867515191962652 0.093266929764552323 0 0.0011777948450847849 0.093587302309953282 0 0.00088867515191962652 0.093266929764552323 0 0.0011777948450847849 0.093587302309953282 0 0.00086641391650438282 0.093599443978612348 0 0.0011777948450847849 0.093587302309953282 0 0.0010617815189822401 0.093829926713043854 0 0.00086641391650438282 0.093599443978612348 0 0.0013217014367775868 0.093813179087169657 0 0.0011777948450847849 0.093587302309953282 0 0.0010617815189822401 0.093829926713043854 0 0.00088867515191962652 0.093266929764552323 0 0.00054922409329781485 0.093575727193897923 0 0.00086641391650438282 0.093599443978612348 0 0.00054922409329781485 0.093575727193897923 0 0.00086641391650438282 0.093599443978612348 0 0.00059256595042255986 0.093968564698876086 0 0.0010617815189822401 0.093829926713043854 0 0.00086641391650438282 0.093599443978612348 0 0.00059256595042255986 0.093968564698876086 0 0.00054922409329781485 0.093575727193897923 0 0.00059256595042255986 0.093968564698876086 0 0.00033791202961759283 0.093978904089808454 0 0.00059256595042255986 0.093968564698876086 0 0.0004401129963637589 0.094169682238903013 0 0.00060879896765057753 0.094261342292932024 0 0.00059256595042255986 0.093968564698876086 0 0.0004401129963637589 0.094169682238903013 0 0.00033791202961759283 0.093978904089808454 0 0.00059256595042255986 0.093968564698876086 0 0.00075726437680213551 0.094103449394797312 0 0.00060879896765057753 0.094261342292932024 0 0.0010617815189822401 0.093829926713043854 0 0.00059256595042255986 0.093968564698876086 0 0.00075726437680213551 0.094103449394797312 0 0.00075726437680213551 0.094103449394797312 0 0.0008025885715269175 0.094330211348296403 0 0.00060879896765057753 0.094261342292932024 0 0.0004401129963637589 0.094169682238903013 0 0.00060879896765057753 0.094261342292932024 0 0.00040724416390556975 0.094359778722316545 0 0.0010617815189822401 0.093829926713043854 0 0.00075726437680213551 0.094103449394797312 0 0.0008025885715269175 0.094330211348296403 0 0.0010617815189822401 0.093829926713043854 0 0.0011377793471212662 0.093921732130964358 0 0.001163009132623358 0.093891953501498746 0 0.003422626974255803 0.092334174763738147 0 0.0039062743740201789 0.091388432715970108 0 0.0013217014367775868 0.093813179087169657 0 0.0010617815189822401 0.093829926713043854 0 0.001163009132623358 0.093891953501498746 0 0.0013217014367775868 0.093813179087169657 0 0.001163009132623358 0.093891953501498746 0 0.0012417029284838667 0.093890776768295658 0 0.0011377793471212662 0.093921732130964358 0 0.0011780188046534663 0.093923489819305317 0 0.001163009132623358 0.093891953501498746 0 0.0011780188046534663 0.093923489819305317 0 0.001163009132623358 0.093891953501498746 0 0.0012417029284838667 0.093890776768295658 0 0.0011780188046534663 0.093923489819305317 0 0.0012417029284838667 0.093890776768295658 0 0.0012387963820810169 0.093921730890964908 0 0.00039885520245095394 0.081013936867667044 0 0.0057416393359380489 0.087378697227929542 0 0.0012869259925456708 0.09396949079484769 0 0.0012091523424681068 0.093945749011491178 0 0.0011814215440894239 0.093964970145378107 0 0.0012869259925456708 0.09396949079484769 0 0.0011814215440894239 0.093964970145378107 0 0.0011228379869597711 0.093992468343248425 0 0.0097562801086406373 0.08677489722352473 0 0.010156803811108945 0.086259612045250358 0 0.013225231518938211 0.086029910127117998 0 0.0011780188046534663 0.093923489819305317 0 0.0012387963820810169 0.093921730890964908 0 0.0012091523424681068 0.093945749011491178 0 0.0011814215440894239 0.093964970145378107 0 0.0011615270474702882 0.093945687501875361 0 0.0011228379869597711 0.093992468343248425 0 0.0011377793471212662 0.093921732130964358 0 0.0011780188046534663 0.093923489819305317 0 0.0011615270474702882 0.093945687501875361 0 0.0012091523424681068 0.093945749011491178 0 0.0011814215440894239 0.093964970145378107 0 0.0011615270474702882 0.093945687501875361 0 0.0011780188046534663 0.093923489819305317 0 0.0012091523424681068 0.093945749011491178 0 0.0011615270474702882 0.093945687501875361 0 0.0011377793471212662 0.093921732130964358 0 0.0011615270474702882 0.093945687501875361 0 0.0011228379869597711 0.093992468343248425 0 0.0008025885715269175 0.094330211348296403 0 0.00071419491833603214 0.094390696385326003 0 0.00070265961162639234 0.094497243566448258 0 0.0008025885715269175 0.094330211348296403 0 0.00060879896765057753 0.094261342292932024 0 0.00071419491833603214 0.094390696385326003 0 0.0039062743740201789 0.091388432715970108 0 0.0057416393359380489 0.087378697227929542 0 0.00060879896765057753 0.094261342292932024 0 0.00071419491833603214 0.094390696385326003 0 0.00053153896052131344 0.09439427619752544 0 0.00060879896765057753 0.094261342292932024 0 0.00053153896052131344 0.09439427619752544 0 0.00040724416390556975 0.094359778722316545 0 0.00053153896052131344 0.09439427619752544 0 0.00039716390891420217 0.094541891275885054 0 0.00040724416390556975 0.094359778722316545 0 0.00071419491833603214 0.094390696385326003 0 0.00053153896052131344 0.09439427619752544 0 0.00039716390891420217 0.094541891275885054 0 0.00071419491833603214 0.094390696385326003 0 0.00070265961162639234 0.094497243566448258 0 0.00060147962404171569 0.094504193084472485 0 0.0036226165472224453 0.090862245997865396 0 0.0054556884919819675 0.088924731690125075 0 0.013225231518938211 0.086029910127117998 0 0.012185633166853529 0.083893309361554549 0 0.013795708833070876 0.083401881394620347 0 0.014290726242364367 0.08044364333144223 0 0.014091967522763803 0.080653302744859698 0 0.014242774184358318 0.080775186474922031 0 0.0057416393359380489 0.087378697227929542 0 0.0096998692598191435 0.082829832330984385 0 0.0057416393359380489 0.087378697227929542 0 0.0054556884919819675 0.088924731690125075 0 0.014290726242364367 0.08044364333144223 0 0.014091967522763803 0.080653302744859698 0 0.014120969930353675 0.080470149167261446 0 0.010829134070727746 0.084727428579196823 0 0.013225231518938211 0.086029910127117998 0 0.012185633166853529 0.083893309361554549 0 0.010829134070727746 0.084727428579196823 0 0.010156803811108945 0.086259612045250358 0 0.013225231518938211 0.086029910127117998 0 0.003263274343530759 0.090470507456713672 0 0.0024220776013412805 0.091300578599859628 0 0.00018697487140215303 0.094454161726941252 0 0.00014793493256170324 0.094378456223188592 0 0.00015331720412587049 0.094384022960719655 0 0.0046578583631684692 0.090172746174943086 0 0.0041862462516295742 0.09025264390911833 0 0.0045838480352481193 0.090646659549581163 0 0.0024220776013412805 0.091300578599859628 0 0.0058589505312744402 0.089292890045690618 0 0.003263274343530759 0.090470507456713672 0 0.0054556884919819675 0.088924731690125075 0 0.0046578583631684692 0.090172746174943086 0 0.0051286966229153351 0.090093106271992587 0 0.0045838480352481193 0.090646659549581163 0 0.0054556884919819675 0.088924731690125075 0 0.0058589505312744402 0.089292890045690618 0 0.014091967522763803 0.080653302744859698 0 0.014120969930353675 0.080470149167261446 0 0.013746966441162713 0.08077017385128954 0 0.00018697487140215303 0.094454161726941252 0 0.00039716390891420217 0.094541891275885054 0 0.00022561558973662276 0.094394400394019709 0 0.00039716390891420217 0.094541891275885054 0 0.00040724416390556975 0.094359778722316545 0 0.00022561558973662276 0.094394400394019709 0 0.00040724416390556975 0.094359778722316545 0 0.00022561558973662276 0.094394400394019709 0 0.00023123974074607207 0.094268294635989944 0 0.00022561558973662276 0.094394400394019709 0 0.00014793493256170324 0.094378456223188592 0 0.00013752659994890347 0.094315315384014956 0 0.00018697487140215303 0.094454161726941252 0 0.00022561558973662276 0.094394400394019709 0 0.00014793493256170324 0.094378456223188592 0 0.00014793493256170324 0.094378456223188592 0 0.00013752659994890347 0.094315315384014956 0 0.00014975852170324413 0.094350683707896732 0 0.00013752659994890347 0.094315315384014956 0 0.00012697979482219102 0.09433980345941996 0 0.00014975852170324413 0.094350683707896732 0 0.00013752659994890347 0.094315315384014956 0 0.00012697979482219102 0.09433980345941996 0 5.8196647533057891e-05 0.094205202915838282 0 0.0004401129963637589 0.094169682238903013 0 0.00040724416390556975 0.094359778722316545 0 0.00023123974074607207 0.094268294635989944 0 0.00022561558973662276 0.094394400394019709 0 0.00013752659994890347 0.094315315384014956 0 0.00023123974074607207 0.094268294635989944 0 0.00013752659994890347 0.094315315384014956 0 0.00023123974074607207 0.094268294635989944 0 5.8196647533057891e-05 0.094205202915838282 0 0.00023123974074607207 0.094268294635989944 0 5.8196647533057891e-05 0.094205202915838282 0 0.00033791202961759283 0.093978904089808454 0 0.0004401129963637589 0.094169682238903013 0 0.00023123974074607207 0.094268294635989944 0 0.00033791202961759283 0.093978904089808454 0 0.00013188155509119873 0.093281922668267597 0 5.8196647533057891e-05 0.094205202915838282 0 0.00033791202961759283 0.093978904089808454 0 -1.4964376673083364e-06 0.094472991521150254 0 5.8196647533057891e-05 0.094205202915838282 0 5.8089761999521653e-05 0.094459538402127979 0 -0.0012168502170983571 0.092648179861881674 0 -0.0010936427487252133 0.09314293012354323 0 0.00013188155509119873 0.093281922668267597 0 0.00054922409329781485 0.093575727193897923 0 0.00033791202961759283 0.093978904089808454 0 0.00012697979482219102 0.09433980345941996 0 5.8089761999521653e-05 0.094459538402127979 0 0.00017727901417600688 0.094519223267470656 0 0.00012697979482219102 0.09433980345941996 0 5.8196647533057891e-05 0.094205202915838282 0 5.8089761999521653e-05 0.094459538402127979 0 0.00012697979482219102 0.09433980345941996 0 0.00017727901417600688 0.094519223267470656 0 0.00020814850106201253 0.094405237404443884 0 0.00012018084624944738 0.094677253089457722 0 0.00014937417165854051 0.094704973007188664 0 0.00017727901417600688 0.094519223267470656 0 0.00025105404050814275 0.094445513123702904 0 0.00020814850106201253 0.094405237404443884 0 0.00017727901417600688 0.094519223267470656 0 0.00018423369706056631 0.094824346866000844 0 0.00021352756553834459 0.094789905990808554 0 0.00025105404050814275 0.094445513123702904 0 0.00020814850106201253 0.094405237404443884 0 0.00026871586402435867 0.094394673736704626 0 0.00020814850106201253 0.094405237404443884 0 0.0001957354985947991 0.094352788477306881 0 0.00026871586402435867 0.094394673736704626 0 0.00020814850106201253 0.094405237404443884 0 0.00014975852170324413 0.094350683707896732 0 0.0001957354985947991 0.094352788477306881 0 0.00012697979482219102 0.09433980345941996 0 0.00020814850106201253 0.094405237404443884 0 0.00014975852170324413 0.094350683707896732 0 0.00014793493256170324 0.094378456223188592 0 0.00014975852170324413 0.094350683707896732 0 0.0001957354985947991 0.094352788477306881 0 0.00014793493256170324 0.094378456223188592 0 0.0001957354985947991 0.094352788477306881 0 0.00015331720412587049 0.094384022960719655 0 0.0014139413743274811 0.093110958684624323 0 0.0024220776013412805 0.091300578599859628 0 0.0014139413743274811 0.093110958684624323 0 0.00070926474798528984 0.094080499669508336 0 -4.7205958101525905e-06 0.094982653294101438 0 -2.7159077330053923e-06 0.094972491075675153 0 -5.6196536299201683e-06 0.094967332550225825 0 -4.7205958101525905e-06 0.094982653294101438 0 -2.7159077330053923e-06 0.094972491075675153 0 -1.0800295163592514e-06 0.094990213856158606 0 0.0010379459401236317 0.092076493785612709 0 0.0024220776013412805 0.091300578599859628 0 -2.7159077330053923e-06 0.094972491075675153 0 2.253027403248132e-05 0.094942975682172928 0 1.3455603144530504e-05 0.094961859529038933 0 3.7852210050231179e-08 0.095000035296982824 0 -1.0800295163592514e-06 0.094990213856158606 0 -6.475643112595476e-06 0.094987347217772786 0 3.7852210050231179e-08 0.095000035296982824 0 -1.0800295163592514e-06 0.094990213856158606 0 -9.9009240675579146e-09 0.094999974543724927 0 -2.7159077330053923e-06 0.094972491075675153 0 -1.0800295163592514e-06 0.094990213856158606 0 -6.475643112595476e-06 0.094987347217772786 0 -4.7205958101525905e-06 0.094982653294101438 0 -1.0800295163592514e-06 0.094990213856158606 0 -2.0390719048003053e-06 0.094994727864212092 0 -1.0800295163592514e-06 0.094990213856158606 0 -9.9009240675579146e-09 0.094999974543724927 0 -7.0395405755642052e-08 0.094997718747081697 0 -9.9009240675579146e-09 0.094999974543724927 0 -7.0395405755642052e-08 0.094997718747081697 0 6.1080705123557202e-09 0.095000008283127366 0 -1.0800295163592514e-06 0.094990213856158606 0 -7.0395405755642052e-08 0.094997718747081697 0 -2.0390719048003053e-06 0.094994727864212092 0 -7.0395405755642052e-08 0.094997718747081697 0 -2.0390719048003053e-06 0.094994727864212092 0 -1.9113032952818422e-07 0.094999465205335157 0 0.00070926474798528984 0.094080499669508336 0 0.00019754955975979021 0.09476931255335086 0 0.00014937417165854051 0.094704973007188664 0 0.00019754955975979021 0.09476931255335086 0 0.00018423369706056631 0.094824346866000844 0 6.6838738605878918e-05 0.094972461312525819 0 7.4873948815191847e-05 0.094937863017193411 0 0.00025105404050814275 0.094445513123702904 0 0.00026871586402435867 0.094394673736704626 0 0.00031421688931248414 0.094439967213753459 0 3.917209134908325e-07 0.094999000213942003 0 0.00019754955975979021 0.09476931255335086 0 -7.0395405755642052e-08 0.094997718747081697 0 6.1080705123557202e-09 0.095000008283127366 0 -1.9113032952818422e-07 0.094999465205335157 0 6.6838738605878918e-05 0.094972461312525819 0 5.7408290816290164e-08 0.094999850730450558 0 7.4873948815191847e-05 0.094937863017193411 0 4.1421727305442612e-10 0.094999999410081665 0 3.801366545966382e-07 0.094999621182859526 0 -1.0946510098530261e-10 0.09499999987743285 0 0.00019754955975979021 0.09476931255335086 0 6.3211409809408392e-07 0.094999304160296338 0 7.4873948815191847e-05 0.094937863017193411 0 9.2581452459010819e-08 0.095000013660920424 0 0.00011347905393090694 0.094892784342882022 0 5.7408290816290164e-08 0.094999850730450558 0 7.4873948815191847e-05 0.094937863017193411 0 9.2581452459010819e-08 0.095000013660920424 0 9.2581452459010819e-08 0.095000013660920424 0 6.131851961974381e-05 0.094897338480961782 0 0.00011347905393090694 0.094892784342882022 0 9.2581452459010819e-08 0.095000013660920424 0 6.131851961974381e-05 0.094897338480961782 0 -2.5021083769528375e-07 0.094999472489049705 0 6.131851961974381e-05 0.094897338480961782 0 0.00011347905393090694 0.094892784342882022 0 0.00016089013961897495 0.094851922949885606 0 6.131851961974381e-05 0.094897338480961782 0 0.00016089013961897495 0.094851922949885606 0 0.00014289056023210383 0.094788209295817882 0 0.00018423369706056631 0.094824346866000844 0 7.4873948815191847e-05 0.094937863017193411 0 0.00011347905393090694 0.094892784342882022 0 0.00018423369706056631 0.094824346866000844 0 0.00011347905393090694 0.094892784342882022 0 0.00021352756553834459 0.094789905990808554 0 0.00017727901417600688 0.094519223267470656 0 0.00021352756553834459 0.094789905990808554 0 0.00016968501014891769 0.09468443082672362 0 0.00021352756553834459 0.094789905990808554 0 0.00016968501014891769 0.09468443082672362 0 0.0002732627522172771 0.094853562364791449 0 0.00021352756553834459 0.094789905990808554 0 0.0002732627522172771 0.094853562364791449 0 0.00016089013961897495 0.094851922949885606 0 0.00011347905393090694 0.094892784342882022 0 0.00021352756553834459 0.094789905990808554 0 0.00016089013961897495 0.094851922949885606 0 0.00014289056023210383 0.094788209295817882 0 0.00028617337901798553 0.094675583573537142 0 0.00017231483058493386 0.094629623366355484 0 0.0002732627522172771 0.094853562364791449 0 0.00014289056023210383 0.094788209295817882 0 0.00028617337901798553 0.094675583573537142 0 0.0002732627522172771 0.094853562364791449 0 0.00016089013961897495 0.094851922949885606 0 0.00014289056023210383 0.094788209295817882 0 0.0005436445162773616 0.094555409213232536 0 0.0002732627522172771 0.094853562364791449 0 0.00028617337901798553 0.094675583573537142 0 0.0005436445162773616 0.094555409213232536 0 0.00028617337901798553 0.094675583573537142 0 0.00026498585710608172 0.094499655809962335 0 9.9167505704189768e-05 0.094488749098732172 0 0.00026498585710608172 0.094499655809962335 0 0.00017231483058493386 0.094629623366355484 0 0.00028617337901798553 0.094675583573537142 0 0.00026498585710608172 0.094499655809962335 0 0.00017231483058493386 0.094629623366355484 0 6.15128278270948e-05 0.094668196703541235 0 -8.9118396168066488e-05 0.09459669647870643 0 3.2258031252714868e-05 0.094823034758233685 0 9.9167505704189768e-05 0.094488749098732172 0 0.00017231483058493386 0.094629623366355484 0 6.15128278270948e-05 0.094668196703541235 0 7.6275431582709382e-06 0.094491487837268143 0 9.9167505704189768e-05 0.094488749098732172 0 6.15128278270948e-05 0.094668196703541235 0 0.00014289056023210383 0.094788209295817882 0 0.00017231483058493386 0.094629623366355484 0 6.15128278270948e-05 0.094668196703541235 0 7.6275431582709382e-06 0.094491487837268143 0 6.15128278270948e-05 0.094668196703541235 0 -8.9118396168066488e-05 0.09459669647870643 0 -8.9118396168066488e-05 0.09459669647870643 0 -2.5021083769528375e-07 0.094999472489049705 0 3.2258031252714868e-05 0.094823034758233685 0 -5.1428080657362618e-09 0.095000064019079414 0 -4.6255901095254593e-06 0.095003512129109374 0 4.0377978820344386e-10 0.094999967207661296 0 1.5474225660130171e-05 0.094798645464867604 0 -3.6420929153693248e-08 0.094999706160518504 0 6.131851961974381e-05 0.094897338480961782 0 -2.5021083769528375e-07 0.094999472489049705 0 3.2258031252714868e-05 0.094823034758233685 0 6.131851961974381e-05 0.094897338480961782 0 0.00014289056023210383 0.094788209295817882 0 3.2258031252714868e-05 0.094823034758233685 0 0.00014289056023210383 0.094788209295817882 0 6.15128278270948e-05 0.094668196703541235 0 3.2258031252714868e-05 0.094823034758233685 0 1.2140435426421448e-05 0.09497961671853547 0 1.736904960186396e-05 0.094972340335902447 0 1.814535862562094e-05 0.094967863878337569 0 1.2140435426421448e-05 0.09497961671853547 0 1.736904960186396e-05 0.094972340335902447 0 9.9548804173741706e-06 0.094985401787454002 0 1.736904960186396e-05 0.094972340335902447 0 1.814535862562094e-05 0.094967863878337569 0 2.522048278672672e-05 0.09495912067723157 0 1.736904960186396e-05 0.094972340335902447 0 2.522048278672672e-05 0.09495912067723157 0 1.9419801246365343e-05 0.094972656620236642 0 1.736904960186396e-05 0.094972340335902447 0 9.9548804173741706e-06 0.094985401787454002 0 1.9419801246365343e-05 0.094972656620236642 0 1.2140435426421448e-05 0.09497961671853547 0 9.9548804173741706e-06 0.094985401787454002 0 1.0783329378842237e-08 0.094999969241848739 0 9.9548804173741706e-06 0.094985401787454002 0 1.0783329378842237e-08 0.094999969241848739 0 1.1243472329249153e-08 0.094999967808670122 0 1.2140435426421448e-05 0.09497961671853547 0 1.0783329378842237e-08 0.094999969241848739 0 1.4097061749453326e-05 0.094972690750758079 0 1.0783329378842237e-08 0.094999969241848739 0 1.4097061749453326e-05 0.094972690750758079 0 7.4564624523683452e-06 0.094982341923180585 0 1.2140435426421448e-05 0.09497961671853547 0 1.4097061749453326e-05 0.094972690750758079 0 1.814535862562094e-05 0.094967863878337569 0 1.4097061749453326e-05 0.094972690750758079 0 1.814535862562094e-05 0.094967863878337569 0 2.0929711238977916e-05 0.094956736279396756 0 1.4097061749453326e-05 0.094972690750758079 0 2.0929711238977916e-05 0.094956736279396756 0 1.7830117484825207e-05 0.094958501332270795 0 2.0929711238977916e-05 0.094956736279396756 0 2.3166562417480939e-05 0.094944683404903085 0 1.9910044837879328e-05 0.094938630332414273 0 2.0929711238977916e-05 0.094956736279396756 0 2.3166562417480939e-05 0.094944683404903085 0 2.522048278672672e-05 0.09495912067723157 0 1.814535862562094e-05 0.094967863878337569 0 2.0929711238977916e-05 0.094956736279396756 0 2.522048278672672e-05 0.09495912067723157 0 2.3166562417480939e-05 0.094944683404903085 0 1.5521213166244804e-05 0.094933214193637455 0 1.456603454636759e-05 0.094919939801195757 0 2.3166562417480939e-05 0.094944683404903085 0 1.456603454636759e-05 0.094919939801195757 0 1.9910044837879328e-05 0.094938630332414273 0 0.0058154549188317532 0.088825145321703963 0 0.0070185712744554266 0.085239477101245575 0 2.3166562417480939e-05 0.094944683404903085 0 2.9845257558067487e-05 0.094951113390323041 0 1.5521213166244804e-05 0.094933214193637455 0 0.010261485934830382 0.083783869543189171 0 0.009750450698006962 0.083531718954162476 0 0.0098741533584510537 0.082939309738243983 0 0.010732162515986762 0.083403667283479505 0 0.010261485934830382 0.083783869543189171 0 0.0098741533584510537 0.082939309738243983 0 0.0058154549188317532 0.088825145321703963 0 0.00950330508525302 0.086316619276412473 0 0.0051082293758799519 0.0894413406730169 0 0.0058154549188317532 0.088825145321703963 0 2.3166562417480939e-05 0.094944683404903085 0 2.522048278672672e-05 0.09495912067723157 0 2.9845257558067487e-05 0.094951113390323041 0 2.522048278672672e-05 0.09495912067723157 0 3.0686588376045778e-05 0.094955244939488648 0 1.9419801246365343e-05 0.094972656620236642 0 0.010833529401292305 0.10081485101760337 0 0.0080052180066811258 0.09761819149239942 0 0.0050479739598492833 0.097809231600676297 0 0.0058154549188317532 0.088825145321703963 0 0.0038847589221030067 0.092307971943082129 0 0.0098231258959927022 0.096918483881193243 0 0.013395613701733502 0.095039208705261571 0 0.0063160741777586859 0.094933652805809191 0 0.013395613701733502 0.095039208705261571 0 0.0098643797059570042 0.090283817342537501 0 0.0070761479053079047 0.095021707759837148 0 0.0078540959486246564 0.094739405555537254 0 0.0055600162962115432 0.094670490652527847 0 0.0080052180066811258 0.09761819149239942 0 0.0098231258959927022 0.096918483881193243 0 0.0063160741777586859 0.094933652805809191 0 0.010833529401292305 0.10081485101760337 0 0.0080052180066811258 0.09761819149239942 0 0.0098231258959927022 0.096918483881193243 0 0.010833529401292305 0.10081485101760337 0 0.0098231258959927022 0.096918483881193243 0 0.015396226548227905 0.097159362088405921 0 0.015396226548227905 0.097159362088405921 0 0.013395613701733502 0.095039208705261571 0 0.020045701171658502 0.093400630329214085 0 0.0098231258959927022 0.096918483881193243 0 0.015396226548227905 0.097159362088405921 0 0.013395613701733502 0.095039208705261571 0 0.00950330508525302 0.086316619276412473 0 0.012533990384113906 0.082977452577237237 0 0.013395613701733502 0.095039208705261571 0 0.012764227007881409 0.084437473586606929 0 0.020045701171658502 0.093400630329214085 0 0.013717485118791182 0.084720888459579258 0 0.012533990384113906 0.082977452577237237 0 0.012764227007881409 0.084437473586606929 0 0.013487614461752801 0.083427978181646253 0 0.013622550723283149 0.083471440851529757 0 0.013395613701733502 0.095039208705261571 0 0.0098643797059570042 0.090283817342537501 0 0.012764227007881409 0.084437473586606929 0 0.0098643797059570042 0.090283817342537501 0 0.0068892708169420577 0.090765450723547553 0 0.0070761479053079047 0.095021707759837148 0 0.0098643797059570042 0.090283817342537501 0 0.0089578584162236206 0.086379949344235277 0 0.012764227007881409 0.084437473586606929 0 0.0098643797059570042 0.090283817342537501 0 0.0068892708169420577 0.090765450723547553 0 0.0089578584162236206 0.086379949344235277 0 0.0068892708169420577 0.090765450723547553 0 0.0045854948424696815 0.086367857342302415 0 0.0089578584162236206 0.086379949344235277 0 0.0038169880998559728 0.092448392936893817 0 0.0068892708169420577 0.090765450723547553 0 0.0045854948424696815 0.086367857342302415 0 0.0038169880998559728 0.092448392936893817 0 0.0068892708169420577 0.090765450723547553 0 0.0070761479053079047 0.095021707759837148 0 0.0055600162962115432 0.094670490652527847 0 0.0017404247362975721 0.094478588651780826 0 0.0063160741777586859 0.094933652805809191 0 0.0050479739598492833 0.097809231600676297 0 -0.00070017354099618004 0.094832762170132479 0 0.0038169880998559728 0.092448392936893817 0 0.0070761479053079047 0.095021707759837148 0 0.0015073897215793009 0.095561835417539848 0 9.9548804173741706e-06 0.094985401787454002 0 1.9419801246365343e-05 0.094972656620236642 0 8.3349844464640889e-06 0.094988397592363341 0 0.0038847589221030067 0.092307971943082129 0 0.0017404247362975721 0.094478588651780826 0 0.0080052180066811258 0.09761819149239942 0 0.0063160741777586859 0.094933652805809191 0 0.0050479739598492833 0.097809231600676297 0 9.9548804173741706e-06 0.094985401787454002 0 8.3349844464640889e-06 0.094988397592363341 0 1.1243472329249153e-08 0.094999967808670122 0 0.0017404247362975721 0.094478588651780826 0 4.3475525878946842e-06 0.094996836019271155 0 5.8605868625488827e-06 0.094998619840088699 0 4.2403532871587385e-09 0.095000002533804501 0 -2.321779129915718e-09 0.094999996137594522 0 0.0017404247362975721 0.094478588651780826 0 3.571305409979016e-06 0.094997699839497227 0 0.0015073897215793009 0.095561835417539848 0 0.00013333565596103812 0.094562109532299904 0 -1.2076401409256994e-06 0.094996014600324183 0 0.00013333565596103812 0.094562109532299904 0 -1.2076401409256994e-06 0.094996014600324183 0 5.2760981857620208e-07 0.095000721239547031 0 0.0038169880998559728 0.092448392936893817 0 0.00013333565596103812 0.094562109532299904 0 0.0045854948424696815 0.086367857342302415 0 0.0020322054031669643 0.091878768549021606 0 0.0030521837817314946 0.090799143560221382 0 0.0038169880998559728 0.092448392936893817 0 0.0015073897215793009 0.095561835417539848 0 0.00013333565596103812 0.094562109532299904 0 0.00013333565596103812 0.094562109532299904 0 5.2760981857620208e-07 0.095000721239547031 0 -8.5378801039768108e-05 0.094906666609645765 0 5.2760981857620208e-07 0.095000721239547031 0 -8.5378801039768108e-05 0.094906666609645765 0 -2.9187454792154078e-05 0.094982964084370528 0 0.0030521837817314946 0.090799143560221382 0 0.0047493920729258362 0.089313072555969999 0 -8.5378801039768108e-05 0.094906666609645765 0 -2.9187454792154078e-05 0.094982964084370528 0 -2.9318538422644278e-05 0.094971086776732008 0 5.2760981857620208e-07 0.095000721239547031 0 -2.9187454792154078e-05 0.094982964084370528 0 -1.5948467047706256e-07 0.094999790577142834 0 -1.5948467047706256e-07 0.094999790577142834 0 -1.5120687992720836e-05 0.09498457530368172 0 -6.475643112595476e-06 0.094987347217772786 0 -2.9187454792154078e-05 0.094982964084370528 0 -1.5948467047706256e-07 0.094999790577142834 0 -1.5120687992720836e-05 0.09498457530368172 0 -2.9187454792154078e-05 0.094982964084370528 0 -1.5120687992720836e-05 0.09498457530368172 0 -1.3634967220853247e-05 0.09497684233173416 0 -2.7159077330053923e-06 0.094972491075675153 0 -6.475643112595476e-06 0.094987347217772786 0 -4.3203535364768967e-06 0.094972605068343666 0 -1.5120687992720836e-05 0.09498457530368172 0 -6.475643112595476e-06 0.094987347217772786 0 -4.3203535364768967e-06 0.094972605068343666 0 3.7852210050231179e-08 0.095000035296982824 0 -1.5948467047706256e-07 0.094999790577142834 0 -6.475643112595476e-06 0.094987347217772786 0 1.3455603144530504e-05 0.094961859529038933 0 1.6624887378541106e-05 0.094973712047601716 0 4.9637494962368237e-05 0.094953424715574122 0 1.3455603144530504e-05 0.094961859529038933 0 -4.3203535364768967e-06 0.094972605068343666 0 1.6624887378541106e-05 0.094973712047601716 0 2.253027403248132e-05 0.094942975682172928 0 1.3455603144530504e-05 0.094961859529038933 0 4.9637494962368237e-05 0.094953424715574122 0 -2.7159077330053923e-06 0.094972491075675153 0 1.3455603144530504e-05 0.094961859529038933 0 -4.3203535364768967e-06 0.094972605068343666 0 -1.5120687992720836e-05 0.09498457530368172 0 -4.3203535364768967e-06 0.094972605068343666 0 -1.3634967220853247e-05 0.09497684233173416 0 -4.3203535364768967e-06 0.094972605068343666 0 -1.3634967220853247e-05 0.09497684233173416 0 1.6624887378541106e-05 0.094973712047601716 0 -1.3634967220853247e-05 0.09497684233173416 0 1.6624887378541106e-05 0.094973712047601716 0 -2.9318538422644278e-05 0.094971086776732008 0 0.013051168439180971 0.080744882499524717 0 0.012948586123669245 0.082106173807120417 0 0.013487601148987324 0.081513520070711804 0 0.013051168439180971 0.080744882499524717 0 0.012948586123669245 0.082106173807120417 0 0.01045484123876313 0.081601951286305666 0 0.0058779914356839194 0.08866098287522152 0 0.0047493920729258362 0.089313072555969999 0 -2.9187454792154078e-05 0.094982964084370528 0 -1.3634967220853247e-05 0.09497684233173416 0 -2.9318538422644278e-05 0.094971086776732008 0 0.0045854948424696815 0.086367857342302415 0 0.01045484123876313 0.081601951286305666 0 0.0089578584162236206 0.086379949344235277 0 0.01045484123876313 0.081601951286305666 0 0.0089578584162236206 0.086379949344235277 0 0.012764227007881409 0.084437473586606929 0 0.012948586123669245 0.082106173807120417 0 0.012764227007881409 0.084437473586606929 0 0.013487614461752801 0.083427978181646253 0 0.012948586123669245 0.082106173807120417 0 0.01045484123876313 0.081601951286305666 0 0.012764227007881409 0.084437473586606929 0 0.013861569622970256 0.082475521817384212 0 0.013827749161472339 0.081829559020575732 0 0.013487614461752801 0.083427978181646253 0 0.012948586123669245 0.082106173807120417 0 0.013827749161472339 0.081829559020575732 0 0.013487614461752801 0.083427978181646253 0 0.013861569622970256 0.082475521817384212 0 0.01414025570185958 0.08160765189499701 0 0.013827749161472339 0.081829559020575732 0 0.01414025570185958 0.08160765189499701 0 0.014303326490210631 0.080380992533034989 0 0.014077597864023763 0.082895012002721424 0 0.014427262064326131 0.08123186314567539 0 0.014334506424725068 0.081400112777849754 0 0.013861569622970256 0.082475521817384212 0 0.01414025570185958 0.08160765189499701 0 0.014077597864023763 0.082895012002721424 0 0.01414025570185958 0.08160765189499701 0 0.014202644013811055 0.081330350974847851 0 0.013827749161472339 0.081829559020575732 0 0.01414025570185958 0.08160765189499701 0 0.014202644013811055 0.081330350974847851 0 0.014303326490210631 0.080380992533034989 0 0.014202644013811055 0.081330350974847851 0 0.013921114379692869 0.081262142367018939 0 0.014123250514326807 0.081393129020631477 0 0.014202644013811055 0.081330350974847851 0 0.014123250514326807 0.081393129020631477 0 0.014303326490210631 0.080380992533034989 0 0.012948586123669245 0.082106173807120417 0 0.013827749161472339 0.081829559020575732 0 0.013487601148987324 0.081513520070711804 0 0.014202644013811055 0.081330350974847851 0 0.013827749161472339 0.081829559020575732 0 0.013921114379692869 0.081262142367018939 0 0.013827749161472339 0.081829559020575732 0 0.013487601148987324 0.081513520070711804 0 0.013921114379692869 0.081262142367018939 0 0.0058779914356839194 0.08866098287522152 0 0.0058589505312744402 0.089292890045690618 0 0.013051168439180971 0.080744882499524717 0 0.013726635772128357 0.080901855111540161 0 0.013751129518919998 0.080707771511250068 0 0.013051168439180971 0.080744882499524717 0 0.013487601148987324 0.081513520070711804 0 0.013921114379692869 0.081262142367018939 0 0.013051168439180971 0.080744882499524717 0 0.013726635772128357 0.080901855111540161 0 0.013921114379692869 0.081262142367018939 0 0.013726635772128357 0.080901855111540161 0 0.013921114379692869 0.081262142367018939 0 0.013957100964870052 0.081071396496614073 0 0.013726635772128357 0.080901855111540161 0 0.013957100964870052 0.081071396496614073 0 0.013809955096552896 0.080814501363961483 0 0.013921114379692869 0.081262142367018939 0 0.014123250514326807 0.081393129020631477 0 0.013957100964870052 0.081071396496614073 0 0.014123250514326807 0.081393129020631477 0 0.013957100964870052 0.081071396496614073 0 0.014019136496318011 0.080826377224643697 0 0.014091967522763803 0.080653302744859698 0 0.014019136496318011 0.080826377224643697 0 0.013746966441162713 0.08077017385128954 0 0.014019136496318011 0.080826377224643697 0 0.013746966441162713 0.08077017385128954 0 0.013809955096552896 0.080814501363961483 0 0.014123250514326807 0.081393129020631477 0 0.014019136496318011 0.080826377224643697 0 0.014242774184358318 0.080775186474922031 0 0.013957100964870052 0.081071396496614073 0 0.014019136496318011 0.080826377224643697 0 0.013809955096552896 0.080814501363961483 0 0.014091967522763803 0.080653302744859698 0 0.014019136496318011 0.080826377224643697 0 0.014242774184358318 0.080775186474922031 0 0.013726635772128357 0.080901855111540161 0 0.013751129518919998 0.080707771511250068 0 0.013809955096552896 0.080814501363961483 0 0.0058589505312744402 0.089292890045690618 0 0.0059380559563229846 0.089183275487056152 0 0.010829134070727746 0.084727428579196823 0 0.012185633166853529 0.083893309361554549 0 0.010827630251295923 0.08267898241830586 0 0.012496987230112855 0.082624001104669428 0 0.012185633166853529 0.083893309361554549 0 0.010827630251295923 0.08267898241830586 0 0.012496987230112855 0.082624001104669428 0 0.012185633166853529 0.083893309361554549 0 0.013795708833070876 0.083401881394620347 0 0.010745208550918359 0.081830243509346021 0 0.0096998692598191435 0.082829832330984385 0 0.014123250514326807 0.081393129020631477 0 0.012496987230112855 0.082624001104669428 0 0.011898166664039526 0.081196743273624569 0 0.014123250514326807 0.081393129020631477 0 0.012496987230112855 0.082624001104669428 0 0.013795708833070876 0.083401881394620347 0 0.012496987230112855 0.082624001104669428 0 0.011898166664039526 0.081196743273624569 0 0.010827630251295923 0.08267898241830586 0 0.011898166664039526 0.081196743273624569 0 0.012570541454093601 0.080514868724666538 0 0.010016750641825238 0.079936608751120686 0 0.014123250514326807 0.081393129020631477 0 0.011898166664039526 0.081196743273624569 0 0.012570541454093601 0.080514868724666538 0 0.014123250514326807 0.081393129020631477 0 0.012570541454093601 0.080514868724666538 0 0.014303326490210631 0.080380992533034989 0 0.012570541454093601 0.080514868724666538 0 0.014303326490210631 0.080380992533034989 0 0.011951554425675956 0.078442351006459216 0 0.012570541454093601 0.080514868724666538 0 0.011951554425675956 0.078442351006459216 0 0.010016750641825238 0.079936608751120686 0 0.011951554425675956 0.078442351006459216 0 0.012122704744241687 0.07436938556859915 0 0.013855853162391149 0.076824253348258653 0 0.011951554425675956 0.078442351006459216 0 0.012122704744241687 0.07436938556859915 0 0.010188129568095965 0.076136765641479406 0 0.012122704744241687 0.07436938556859915 0 0.014863135145597275 0.074630400396796956 0 0.013453003251366724 0.071608725896996031 0 0.012122704744241687 0.07436938556859915 0 0.014863135145597275 0.074630400396796956 0 0.013855853162391149 0.076824253348258653 0 0.014303326490210631 0.080380992533034989 0 0.013855853162391149 0.076824253348258653 0 0.015550109000131087 0.077099771732624459 0 0.014303326490210631 0.080380992533034989 0 0.011951554425675956 0.078442351006459216 0 0.013855853162391149 0.076824253348258653 0 0.014863135145597275 0.074630400396796956 0 0.013855853162391149 0.076824253348258653 0 0.015550109000131087 0.077099771732624459 0 0.014303326490210631 0.080380992533034989 0 0.01735377940256588 0.077892494627245609 0 0.015550109000131087 0.077099771732624459 0 0.01735377940256588 0.077892494627245609 0 0.017288387236715105 0.076189414529129904 0 0.015550109000131087 0.077099771732624459 0 0.013861569622970256 0.082475521817384212 0 0.014077597864023763 0.082895012002721424 0 0.013487614461752801 0.083427978181646253 0 0.014077597864023763 0.082895012002721424 0 0.013487614461752801 0.083427978181646253 0 0.013622550723283149 0.083471440851529757 0 0.014334506424725068 0.081400112777849754 0 0.012533990384113906 0.082977452577237237 0 0.01735377940256588 0.077892494627245609 0 0.017288387236715105 0.076189414529129904 0 0.019808758660442103 0.075759723321510083 0 0.010261485934830382 0.083783869543189171 0 0.0097894737924672064 0.084167918100933936 0 0.009750450698006962 0.083531718954162476 0 0.0097894737924672064 0.084167918100933936 0 0.0090740259477587216 0.083234487109432043 0 0.009750450698006962 0.083531718954162476 0 0.012533990384113906 0.082977452577237237 0 0.012526786812635636 0.076975516085060633 0 0.017288387236715105 0.076189414529129904 0 0.019808758660442103 0.075759723321510083 0 0.01688082833539975 0.072004447120045223 0 0.013517721573734948 0.075793633960695037 0 0.012526786812635636 0.076975516085060633 0 0.014863135145597275 0.074630400396796956 0 0.017288387236715105 0.076189414529129904 0 0.016739277241820262 0.071941107416423289 0 0.014863135145597275 0.074630400396796956 0 0.017288387236715105 0.076189414529129904 0 0.015550109000131087 0.077099771732624459 0 0.0090740259477587216 0.083234487109432043 0 0.009750450698006962 0.083531718954162476 0 0.0098741533584510537 0.082939309738243983 0 0.0070185712744554266 0.085239477101245575 0 0.0096127510880241324 0.079874072346931946 0 0.0090740259477587216 0.083234487109432043 0 0.0098741533584510537 0.082939309738243983 0 0.0090010667606204697 0.082473985745457973 0 1.5521213166244804e-05 0.094933214193637455 0 -2.3078287847047669e-05 0.094898816483414403 0 1.456603454636759e-05 0.094919939801195757 0 0.016523252390030524 0.072041462911241375 0 0.016264141475736255 0.069150395098527273 0 0.014205181880428235 0.068999004404125319 0 0.012526786812635636 0.076975516085060633 0 0.012136566810570416 0.074235144104739137 0 0.012526786812635636 0.076975516085060633 0 0.0096127510880241324 0.079874072346931946 0 0.016739277241820262 0.071941107416423289 0 0.014205181880428235 0.068999004404125319 0 0.013453003251366724 0.071608725896996031 0 0.014205181880428235 0.068999004404125319 0 0.012112745682735156 0.069235668414615467 0 0.013453003251366724 0.071608725896996031 0 0.010777227229734558 0.070803239026622916 0 0.012112745682735156 0.069235668414615467 0 0.0099064940669207641 0.06805419991731651 0 0.010777227229734558 0.070803239026622916 0 0.012112745682735156 0.069235668414615467 0 0.013453003251366724 0.071608725896996031 0 0.012122704744241687 0.07436938556859915 0 0.010777227229734558 0.070803239026622916 0 0.009089767053726017 0.073162498866839662 0 0.012122704744241687 0.07436938556859915 0 0.010777227229734558 0.070803239026622916 0 0.013453003251366724 0.071608725896996031 0 0.014863135145597275 0.074630400396796956 0 0.016739277241820262 0.071941107416423289 0 0.013453003251366724 0.071608725896996031 0 0.0082509680360609034 0.070166286819473164 0 0.0058016202925484355 0.069593492139796431 0 0.0056692241793060115 0.071783394085021768 0 0.0082509680360609034 0.070166286819473164 0 0.0056692241793060115 0.071783394085021768 0 0.009089767053726017 0.073162498866839662 0 0.010777227229734558 0.070803239026622916 0 0.0082509680360609034 0.070166286819473164 0 0.009089767053726017 0.073162498866839662 0 0.010777227229734558 0.070803239026622916 0 0.0082509680360609034 0.070166286819473164 0 0.0099064940669207641 0.06805419991731651 0 0.0082509680360609034 0.070166286819473164 0 0.0058016202925484355 0.069593492139796431 0 0.0073412077312519173 0.06771540127411671 0 0.0058016202925484355 0.069593492139796431 0 0.0038583940683555788 0.068661240038712615 0 0.0054036151145234997 0.067733451502293068 0 0.0058016202925484355 0.069593492139796431 0 0.0038583940683555788 0.068661240038712615 0 0.0032126933820630921 0.070946847164109622 0 0.0038583940683555788 0.068661240038712615 0 0.0032126933820630921 0.070946847164109622 0 0.0022611292795170412 0.069155769426983232 0 0.0058016202925484355 0.069593492139796431 0 0.0032126933820630921 0.070946847164109622 0 0.0056692241793060115 0.071783394085021768 0 0.0056692241793060115 0.071783394085021768 0 0.0041938531446540049 0.072863354957453039 0 0.0075045655717825991 0.073545203354155861 0 0.0032126933820630921 0.070946847164109622 0 0.0041938531446540049 0.072863354957453039 0 0.0015876884007288668 0.071963210303767372 0 0.0032126933820630921 0.070946847164109622 0 0.0056692241793060115 0.071783394085021768 0 0.0041938531446540049 0.072863354957453039 0 0.0041938531446540049 0.072863354957453039 0 0.004945294078220956 0.075414218360606869 0 0.0016943547062381701 0.075237423681772053 0 0.0041938531446540049 0.072863354957453039 0 0.0075045655717825991 0.073545203354155861 0 0.004945294078220956 0.075414218360606869 0 0.0056692241793060115 0.071783394085021768 0 0.0074674691778971267 0.076304789236880791 0 0.009089767053726017 0.073162498866839662 0 0.0070183317544861611 0.07386874442157218 0 0.007941472963697481 0.075357474435413213 0 0.0074674691778971267 0.076304789236880791 0 0.009089767053726017 0.073162498866839662 0 0.010188129568095965 0.076136765641479406 0 0.012122704744241687 0.07436938556859915 0 0.009089767053726017 0.073162498866839662 0 0.010188129568095965 0.076136765641479406 0 0.011951554425675956 0.078442351006459216 0 0.010188129568095965 0.076136765641479406 0 0.010016750641825238 0.079936608751120686 0 0.0074674691778971267 0.076304789236880791 0 0.010188129568095965 0.076136765641479406 0 0.010016750641825238 0.079936608751120686 0 0.007941472963697481 0.075357474435413213 0 0.0095502330751178807 0.077872169365018368 0 0.0075045655717825991 0.073545203354155861 0 0.0072530712535415825 0.076933509159087574 0 0.004945294078220956 0.075414218360606869 0 0.0075045655717825991 0.073545203354155861 0 0.0099036577684258661 0.076848934889434117 0 0.0072530712535415825 0.076933509159087574 0 0.0099036577684258661 0.076848934889434117 0 0.0072530712535415825 0.076933509159087574 0 0.008284673627449576 0.080748296631984795 0 0.0072530712535415825 0.076933509159087574 0 0.008284673627449576 0.080748296631984795 0 0.0056759992535377231 0.078603601715951099 0 0.010458090171159454 0.079287641567802422 0 0.0095502330751178807 0.077872169365018368 0 0.011898166664039526 0.081196743273624569 0 0.0099036577684258661 0.076848934889434117 0 0.008284673627449576 0.080748296631984795 0 0.011898166664039526 0.081196743273624569 0 0.008284673627449576 0.080748296631984795 0 0.010827630251295923 0.08267898241830586 0 0.0068158371108130982 0.084658921267068477 0 0.008284673627449576 0.080748296631984795 0 0.0092719464823514831 0.08397319338230716 0 0.008284673627449576 0.080748296631984795 0 0.0092719464823514831 0.08397319338230716 0 0.010827630251295923 0.08267898241830586 0 0.010829134070727746 0.084727428579196823 0 0.0092719464823514831 0.08397319338230716 0 0.010827630251295923 0.08267898241830586 0 0.0025853506895817304 0.080077125859886009 0 0.0037152566415427214 0.078119928220955703 0 0.0010904999179425074 0.078257364614599506 0 0.0068158371108130982 0.084658921267068477 0 0.008284673627449576 0.080748296631984795 0 0.0048814078853559578 0.081939936692885865 0 0.0037830563193203348 0.081322625383120073 0 0.0036432116576105367 0.080070618364845095 0 0.0025853506895817304 0.080077125859886009 0 0.0048210324857439705 0.079743500078463175 0 0.0037152566415427214 0.078119928220955703 0 0.0048814078853559578 0.081939936692885865 0 0.0030758599590245649 0.078731262537503066 0 0.0056759992535377231 0.078603601715951099 0 0.008284673627449576 0.080748296631984795 0 0.0048814078853559578 0.081939936692885865 0 0.0056759992535377231 0.078603601715951099 0 0.0037152566415427214 0.078119928220955703 0 0.0025956291176974962 0.076499090871156569 0 0.0010904999179425074 0.078257364614599506 0 0.0036432116576105367 0.080070618364845095 0 0.0028162269040095172 0.078297490710886652 0 0.0030758599590245649 0.078731262537503066 0 0.0056759992535377231 0.078603601715951099 0 0.004945294078220956 0.075414218360606869 0 0.0072530712535415825 0.076933509159087574 0 0.0056759992535377231 0.078603601715951099 0 0.004945294078220956 0.075414218360606869 0 0.0030758599590245649 0.078731262537503066 0 0.004945294078220956 0.075414218360606869 0 0.0016943547062381701 0.075237423681772053 0 0.0016943547062381701 0.075237423681772053 0 -0.0011904251789882166 0.075086078889480101 0 -0.00021724111597233294 0.073528406970869195 0 0.0016943547062381701 0.075237423681772053 0 0.00065613561088680042 0.076460801633148723 0 -0.0011904251789882166 0.075086078889480101 0 0.0025956291176974962 0.076499090871156569 0 0.0016943547062381701 0.075237423681772053 0 0.00065613561088680042 0.076460801633148723 0 0.0028162269040095172 0.078297490710886652 0 0.0022904613873282005 0.077315402241531328 0 0.0025956291176974962 0.076499090871156569 0 0.00065613561088680042 0.076460801633148723 0 0.0010904999179425074 0.078257364614599506 0 0.00065613561088680042 0.076460801633148723 0 0.0010904999179425074 0.078257364614599506 0 -0.0013485083550977531 0.076956040057814576 0 0.00017650987580057324 0.080572070544249419 0 0.0010904999179425074 0.078257364614599506 0 -0.0015539488836313587 0.079025067494860435 0 0.0010904999179425074 0.078257364614599506 0 -0.0015539488836313587 0.079025067494860435 0 -0.0013485083550977531 0.076956040057814576 0 -0.0039880272874406285 0.079385951604629329 0 -0.0039669616443689937 0.078230280858428008 0 -0.0025096266021934713 0.078455555490441489 0 -0.0039669616443689937 0.078230280858428008 0 -0.0025096266021934713 0.078455555490441489 0 -0.003671326049654533 0.077104633015637025 0 -0.0010434409605476988 0.077557489020212006 0 -0.0019406192919890655 0.077156403181170882 0 -0.0015539488836313587 0.079025067494860435 0 -0.0013485083550977531 0.076956040057814576 0 -0.003671326049654533 0.077104633015637025 0 -0.0013485083550977531 0.076956040057814576 0 -0.003671326049654533 0.077104633015637025 0 -0.0040426249947255717 0.075663746828315712 0 -0.0011904251789882166 0.075086078889480101 0 -0.0028902581323560213 0.07359392047324613 0 -0.0036703753668176266 0.075244505612610785 0 -0.0027783625883830748 0.075195317059888814 0 -0.0040469055880678556 0.075514615337145763 0 -0.0013485083550977531 0.076956040057814576 0 -0.0011904251789882166 0.075086078889480101 0 -0.0040426249947255717 0.075663746828315712 0 0.00065613561088680042 0.076460801633148723 0 -0.0013485083550977531 0.076956040057814576 0 -0.0011904251789882166 0.075086078889480101 0 -0.0011904251789882166 0.075086078889480101 0 -0.0028902581323560213 0.07359392047324613 0 -0.00021724111597233294 0.073528406970869195 0 -0.0028902581323560213 0.07359392047324613 0 -0.0022400851088084719 0.071015898918380019 0 -0.0051660933121584034 0.072417886544926147 0 -0.0028902581323560213 0.07359392047324613 0 -0.0022400851088084719 0.071015898918380019 0 -0.00021724111597233294 0.073528406970869195 0 -0.0022400851088084719 0.071015898918380019 0 0.0015876884007288668 0.071963210303767372 0 0.00032257945558170482 0.068019485042897787 0 -0.0022400851088084719 0.071015898918380019 0 -0.00021724111597233294 0.073528406970869195 0 0.0015876884007288668 0.071963210303767372 0 0.0016943547062381701 0.075237423681772053 0 -0.00021724111597233294 0.073528406970869195 0 0.0015876884007288668 0.071963210303767372 0 0.0041938531446540049 0.072863354957453039 0 0.0016943547062381701 0.075237423681772053 0 0.0015876884007288668 0.071963210303767372 0 0.00066479052044098031 0.070322431077396594 0 -0.00012936528843347932 0.068950140161047654 0 0.0032126933820630921 0.070946847164109622 0 0.0015876884007288668 0.071963210303767372 0 0.00036055990016799243 0.070044116246071958 0 0.0032126933820630921 0.070946847164109622 0 0.00036055990016799243 0.070044116246071958 0 0.0022611292795170412 0.069155769426983232 0 0.0038583940683555788 0.068661240038712615 0 0.0022611292795170412 0.069155769426983232 0 0.0026294133870641513 0.067692322879199227 0 0.00036055990016799243 0.070044116246071958 0 0.0022611292795170412 0.069155769426983232 0 0.0011944899151594074 0.067992393590806124 0 0.00036055990016799243 0.070044116246071958 0 0.00010369087651904654 0.067925520661187413 0 0.0011944899151594074 0.067992393590806124 0 0.00036055990016799243 0.070044116246071958 0 -0.0010987330631993784 0.067522120869284608 0 0.00010369087651904654 0.067925520661187413 0 -0.00012936528843347932 0.068950140161047654 0 -0.0014509198938242841 0.067162938005547276 0 -0.0025435891269610625 0.06608749656921252 0 -0.001708074749678621 0.067909239468265076 0 -0.0011880591970004275 0.064526221121004257 0 0.00032257945558170482 0.068019485042897787 0 -0.001708074749678621 0.067909239468265076 0 -0.0011880591970004275 0.064526221121004257 0 -0.0025435891269610625 0.06608749656921252 0 -0.0036889035857009447 0.068339900628372752 0 -0.001708074749678621 0.067909239468265076 0 -0.0025435891269610625 0.06608749656921252 0 -0.0036889035857009447 0.068339900628372752 0 -0.0044051998504291284 0.065296973209248294 0 -0.0022400851088084719 0.071015898918380019 0 -0.0036889035857009447 0.068339900628372752 0 -0.001708074749678621 0.067909239468265076 0 -0.0022400851088084719 0.071015898918380019 0 0.00032257945558170482 0.068019485042897787 0 -0.001708074749678621 0.067909239468265076 0 -0.0054055342847043972 0.058065902968343366 0 -0.0055528465458420636 0.057919313531897755 0 -0.0054245914193721372 0.057410156093548402 0 -0.0056764404454889804 0.057716544037005844 0 -0.0055921682513659374 0.058132297107131095 0 -0.0061387502126720884 0.0574097887524469 0 -0.005651920370639137 0.058372212276882177 0 -0.0055921682513659374 0.058132297107131095 0 -0.0061387502126720884 0.0574097887524469 0 -0.0056764404454889804 0.057716544037005844 0 -0.0054245914193721372 0.057410156093548402 0 -0.0061387502126720884 0.0574097887524469 0 -0.0055528465458420636 0.057919313531897755 0 -0.0056764404454889804 0.057716544037005844 0 -0.0055921682513659374 0.058132297107131095 0 -0.00091954726921706449 0.069724454283690618 0 -0.00099355254683014278 0.069620232314517513 0 -0.0054055342847043972 0.058065902968343366 0 -0.0055528465458420636 0.057919313531897755 0 -0.0055921682513659374 0.058132297107131095 0 -0.0055528465458420636 0.057919313531897755 0 -0.0056764404454889804 0.057716544037005844 0 -0.0054245914193721372 0.057410156093548402 0 -0.0014509198938242841 0.067162938005547276 0 -0.0043807084942612418 0.060465947615888742 0 -0.0035477783372734194 0.06315234960908539 0 -0.00071940485305854165 0.063916963993018217 0 -0.0027387073861187615 0.060470867758873108 0 -0.0035477783372734194 0.06315234960908539 0 -0.0028505530987722018 0.064631964568469577 0 -0.00071940485305854165 0.063916963993018217 0 -0.0025435891269610625 0.06608749656921252 0 -0.0028505530987722018 0.064631964568469577 0 -0.0044051998504291284 0.065296973209248294 0 -0.0035477783372734194 0.06315234960908539 0 -0.0028505530987722018 0.064631964568469577 0 -0.0044051998504291284 0.065296973209248294 0 -0.0025435891269610625 0.06608749656921252 0 -0.0028505530987722018 0.064631964568469577 0 -0.00071940485305854165 0.063916963993018217 0 -0.001365399846286468 0.066800913977496004 0 -0.0014509198938242841 0.067162938005547276 0 -0.00048892219268212766 0.066807280839849006 0 -0.0010987330631993784 0.067522120869284608 0 0.00010369087651904654 0.067925520661187413 0 -0.0053903268191907933 0.058079567260441466 0 -0.005651920370639137 0.058372212276882177 0 -0.0055921682513659374 0.058132297107131095 0 -0.00091954726921706449 0.069724454283690618 0 -0.0014509198938242841 0.067162938005547276 0 -0.00048892219268212766 0.066807280839849006 0 0.0011944899151594074 0.067992393590806124 0 0.0020748513809111285 0.065934068815096017 0 -0.00048892219268212766 0.066807280839849006 0 0.00010369087651904654 0.067925520661187413 0 0.0011944899151594074 0.067992393590806124 0 0.0011944899151594074 0.067992393590806124 0 0.0026294133870641513 0.067692322879199227 0 0.0020748513809111285 0.065934068815096017 0 0.0022611292795170412 0.069155769426983232 0 0.0011944899151594074 0.067992393590806124 0 0.0026294133870641513 0.067692322879199227 0 0.0026294133870641513 0.067692322879199227 0 0.0020748513809111285 0.065934068815096017 0 0.0038373963889950652 0.066691134434623253 0 -0.0054055342847043972 0.058065902968343366 0 -0.0047882297115585393 0.057266665325215654 0 -0.0054245914193721372 0.057410156093548402 0 0.0027493678836069497 0.082862023196350179 0 -0.00023074394523156961 0.083841561442688214 0 0.00079753687217331258 0.085178159172178747 0 -0.00091954726921706449 0.069724454283690618 0 0.00045924788581911232 0.073246137799897235 0 -0.00091954726921706449 0.069724454283690618 0 -0.0015763163996978453 0.072033607533581595 0 -0.0047882297115585393 0.057266665325215654 0 -0.0051506985109118601 0.056917297734993377 0 -0.0054245914193721372 0.057410156093548402 0 -0.0047882297115585393 0.057266665325215654 0 -0.004648854771845538 0.056677597952630721 0 -0.0048425450155310827 0.056863213350646064 0 -0.0047882297115585393 0.057266665325215654 0 -0.0051506985109118601 0.056917297734993377 0 -0.0048425450155310827 0.056863213350646064 0 0.00079753687217331258 0.085178159172178747 0 -0.0011427759728950698 0.085291225943587012 0 -0.00090217750882644701 0.085967622568788024 0 -0.0015763163996978453 0.072033607533581595 0 -0.0026146253208250442 0.075588827340908424 0 -0.00023074394523156961 0.083841561442688214 0 0.00079753687217331258 0.085178159172178747 0 -0.0011427759728950698 0.085291225943587012 0 0.00079753687217331258 0.085178159172178747 0 -0.00090217750882644701 0.085967622568788024 0 -0.0011293434156927815 0.087187644679763254 0 0.00079753687217331258 0.085178159172178747 0 -0.001119767710459 0.087353228534614288 0 -0.0011293434156927815 0.087187644679763254 0 -0.0047882297115585393 0.057266665325215654 0 -0.004648854771845538 0.056677597952630721 0 -0.0042054348221476807 0.056537640089243293 0 -0.004648854771845538 0.056677597952630721 0 -0.0047226565035095713 0.05636939446651839 0 -0.0045013141889934461 0.056370624572930336 0 -0.004648854771845538 0.056677597952630721 0 -0.0045013141889934461 0.056370624572930336 0 -0.0042054348221476807 0.056537640089243293 0 -0.0026146253208250442 0.075588827340908424 0 -0.0026110909059802422 0.075632646078364674 0 -0.0051506985109118601 0.056917297734993377 0 -0.0049026238481587377 0.056594531928693931 0 -0.0053084998493045871 0.056461394044033997 0 -0.0051506985109118601 0.056917297734993377 0 -0.0048425450155310827 0.056863213350646064 0 -0.0049026238481587377 0.056594531928693931 0 -0.004648854771845538 0.056677597952630721 0 -0.0048425450155310827 0.056863213350646064 0 -0.0049026238481587377 0.056594531928693931 0 -0.0047226565035095713 0.05636939446651839 0 -0.0049026238481587377 0.056594531928693931 0 -0.0049720849370078184 0.056197195899877143 0 -0.004648854771845538 0.056677597952630721 0 -0.0047226565035095713 0.05636939446651839 0 -0.0049026238481587377 0.056594531928693931 0 -0.0049026238481587377 0.056594531928693931 0 -0.0053084998493045871 0.056461394044033997 0 -0.0049720849370078184 0.056197195899877143 0 -0.0051506985109118601 0.056917297734993377 0 -0.005731166858866113 0.056807564754586877 0 -0.0053084998493045871 0.056461394044033997 0 -0.005731166858866113 0.056807564754586877 0 -0.0053084998493045871 0.056461394044033997 0 -0.005818575043461699 0.056158772900597724 0 -0.0051506985109118601 0.056917297734993377 0 -0.005731166858866113 0.056807564754586877 0 -0.0054245914193721372 0.057410156093548402 0 -0.005731166858866113 0.056807564754586877 0 -0.0054245914193721372 0.057410156093548402 0 -0.0061387502126720884 0.0574097887524469 0 -0.0043807084942612418 0.060465947615888742 0 -0.005593181723413056 0.057806901154639732 0 -0.005731166858866113 0.056807564754586877 0 -0.0061387502126720884 0.0574097887524469 0 -0.0065676693579396683 0.05644781257573251 0 -0.005731166858866113 0.056807564754586877 0 -0.005818575043461699 0.056158772900597724 0 -0.0065676693579396683 0.05644781257573251 0 -0.0062672403373354021 0.055662282115467351 0 -0.005818575043461699 0.056158772900597724 0 -0.0065676693579396683 0.05644781257573251 0 -0.0062672403373354021 0.055662282115467351 0 -0.005818575043461699 0.056158772900597724 0 -0.0056600359869188608 0.055504372417080394 0 -0.005363807945230792 0.056013498928099113 0 -0.005818575043461699 0.056158772900597724 0 -0.0056600359869188608 0.055504372417080394 0 -0.005363807945230792 0.056013498928099113 0 -0.0056600359869188608 0.055504372417080394 0 -0.0050033236784438077 0.055644537493300963 0 -0.0053084998493045871 0.056461394044033997 0 -0.005363807945230792 0.056013498928099113 0 -0.005818575043461699 0.056158772900597724 0 -0.0056600359869188608 0.055504372417080394 0 -0.0061655030266415537 0.05498125046322936 0 -0.0056757308994904946 0.054950095577504653 0 -0.0056600359869188608 0.055504372417080394 0 -0.0056757308994904946 0.054950095577504653 0 -0.0052876824554768456 0.055167221690630104 0 -0.0062672403373354021 0.055662282115467351 0 -0.0056600359869188608 0.055504372417080394 0 -0.0061655030266415537 0.05498125046322936 0 -0.0062672403373354021 0.055662282115467351 0 -0.0061655030266415537 0.05498125046322936 0 -0.0067051538185556045 0.055064287983777563 0 -0.0061655030266415537 0.05498125046322936 0 -0.0059330524987337655 0.054367203676703009 0 -0.0070261721524749292 0.054526926470470916 0 -0.0075790853594055489 0.06897766792776712 0 -0.0070000174101645159 0.066544205222925132 0 -0.0061655030266415537 0.05498125046322936 0 -0.0056757308994904946 0.054950095577504653 0 -0.0059735655419679732 0.054600949554608758 0 -0.0065749345483298461 0.065582642569752589 0 -0.0075790853594055489 0.06897766792776712 0 -0.0056757308994904946 0.054950095577504653 0 -0.0051927662836347439 0.054551697446369445 0 -0.0052876824554768456 0.055167221690630104 0 -0.0056757308994904946 0.054950095577504653 0 -0.0059735655419679732 0.054600949554608758 0 -0.0051927662836347439 0.054551697446369445 0 -0.020583258599864551 0.092121266312203048 0 -0.02186317958916693 0.093369990499882816 0 -0.019757229536092123 0.093178862079404415 0 -0.0075790853594055489 0.06897766792776712 0 -0.010877351484877371 0.075390091792793851 0 -0.010625800628242884 0.058356925822086132 0 -0.010850704021745317 0.054479133916909901 0 -0.014159966374843885 0.061953755705454222 0 -0.020583258599864551 0.092121266312203048 0 -0.02186317958916693 0.093369990499882816 0 -0.021125304460167443 0.090993065111204183 0 -0.0075790853594055489 0.06897766792776712 0 -0.014116141614467581 0.076231487574652146 0 -0.0085601352948638919 0.056048965936791338 0 -0.010850704021745317 0.054479133916909901 0 -0.0070261721524749292 0.054526926470470916 0 -0.010625800628242884 0.058356925822086132 0 -0.0085601352948638919 0.056048965936791338 0 -0.0094009453379911394 0.059131873695077081 0 -0.010625800628242884 0.058356925822086132 0 -0.0085601352948638919 0.056048965936791338 0 -0.010850704021745317 0.054479133916909901 0 -0.017423528846316712 0.092899924588876401 0 -0.019757229536092123 0.093178862079404415 0 -0.018586359319128186 0.091575657742612671 0 -0.011027929565273414 0.082155915387293499 0 -0.010877351484877371 0.075390091792793851 0 -0.019757229536092123 0.093178862079404415 0 -0.019715707545167729 0.091740900211744775 0 -0.018586359319128186 0.091575657742612671 0 -0.020583258599864551 0.092121266312203048 0 -0.019757229536092123 0.093178862079404415 0 -0.019715707545167729 0.091740900211744775 0 -0.004428657404040995 0.054508418027351103 0 -0.0051927662836347439 0.054551697446369445 0 -0.0048454075848279148 0.055066950080361936 0 -0.0051927662836347439 0.054551697446369445 0 -0.0052876824554768456 0.055167221690630104 0 -0.0048454075848279148 0.055066950080361936 0 -0.004428657404040995 0.054508418027351103 0 -0.0048454075848279148 0.055066950080361936 0 -0.0043220219208295425 0.055485645582408025 0 -0.011027929565273414 0.082155915387293499 0 -0.0060550343328196685 0.074623261312134426 0 -0.0048454075848279148 0.055066950080361936 0 -0.0043220219208295425 0.055485645582408025 0 -0.0050033236784438077 0.055644537493300963 0 -0.0043220219208295425 0.055485645582408025 0 -0.0050033236784438077 0.055644537493300963 0 -0.0045911517478346257 0.056015947799928266 0 -0.0052876824554768456 0.055167221690630104 0 -0.0048454075848279148 0.055066950080361936 0 -0.0050033236784438077 0.055644537493300963 0 -0.0056600359869188608 0.055504372417080394 0 -0.0052876824554768456 0.055167221690630104 0 -0.0050033236784438077 0.055644537493300963 0 -0.005363807945230792 0.056013498928099113 0 -0.0050033236784438077 0.055644537493300963 0 -0.0049720849370078184 0.056197195899877143 0 -0.0050033236784438077 0.055644537493300963 0 -0.0049720849370078184 0.056197195899877143 0 -0.0045911517478346257 0.056015947799928266 0 -0.0047226565035095713 0.05636939446651839 0 -0.0049720849370078184 0.056197195899877143 0 -0.0045911517478346257 0.056015947799928266 0 -0.0053084998493045871 0.056461394044033997 0 -0.005363807945230792 0.056013498928099113 0 -0.0049720849370078184 0.056197195899877143 0 -0.0026146253208250442 0.075588827340908424 0 -0.0060550343328196685 0.074623261312134426 0 -0.0042054348221476807 0.056537640089243293 0 -0.0043220219208295425 0.055485645582408025 0 -0.0045911517478346257 0.056015947799928266 0 -0.0047226565035095713 0.05636939446651839 0 -0.0045013141889934461 0.056370624572930336 0 -0.0045911517478346257 0.056015947799928266 0 -0.0045013141889934461 0.056370624572930336 0 -0.0042054348221476807 0.056537640089243293 0 -0.0045911517478346257 0.056015947799928266 0 -0.0028209020053463776 0.088726102227787512 0 -0.0027614042282478528 0.09022352797415302 0 -0.0034557065526373922 0.089487393073479193 0 -0.0026146253208250442 0.075588827340908424 0 -0.0051567927669193886 0.082544732347682004 0 -0.0038919573738885839 0.088317098028648094 0 -0.0046342334159408761 0.088223378567743482 0 -0.004501764195794929 0.087382725055437899 0 -0.0024711574293663986 0.088844696180058552 0 -0.0038919573738885839 0.088317098028648094 0 -0.0026386841912716128 0.087365982028089997 0 -0.0024711574293663986 0.088844696180058552 0 -0.0038919573738885839 0.088317098028648094 0 -0.004064631132472689 0.089274931370786459 0 -0.0024711574293663986 0.088844696180058552 0 -0.004064631132472689 0.089274931370786459 0 -0.0039494104340547474 0.090225768437058193 0 -0.0038919573738885839 0.088317098028648094 0 -0.004064631132472689 0.089274931370786459 0 -0.0047342823798790356 0.088957591148196916 0 -0.004064631132472689 0.089274931370786459 0 -0.0039494104340547474 0.090225768437058193 0 -0.0048511688785614756 0.089700464708164659 0 -0.0034557065526373922 0.089487393073479193 0 -0.0039494104340547474 0.090225768437058193 0 -0.0034422333248054688 0.090212900627119896 0 -0.0051567927669193886 0.082544732347682004 0 -0.0057748154114597525 0.084469548522689425 0 -0.0039494104340547474 0.090225768437058193 0 -0.0034422333248054688 0.090212900627119896 0 -0.0041223018191269712 0.091028714219316631 0 -0.0039494104340547474 0.090225768437058193 0 -0.0041223018191269712 0.091028714219316631 0 -0.0045750604682671479 0.090499615685686916 0 -0.0027614042282478528 0.09022352797415302 0 -0.0034557065526373922 0.089487393073479193 0 -0.0034422333248054688 0.090212900627119896 0 -0.0027614042282478528 0.09022352797415302 0 -0.0034422333248054688 0.090212900627119896 0 -0.0034629364456900181 0.090998783502742639 0 -0.002718332789826429 0.091763102877753994 0 -0.0027614042282478528 0.09022352797415302 0 -0.0034629364456900181 0.090998783502742639 0 -0.0034629364456900181 0.090998783502742639 0 -0.0041223018191269712 0.091028714219316631 0 -0.0043183445763507597 0.091884164427516207 0 -0.0034422333248054688 0.090212900627119896 0 -0.0034629364456900181 0.090998783502742639 0 -0.0041223018191269712 0.091028714219316631 0 -0.0043183445763507597 0.091884164427516207 0 -0.0043720718531567882 0.091839706166356019 0 -0.0043877182713551949 0.091640253153279949 0 -0.0041223018191269712 0.091028714219316631 0 -0.0043183445763507597 0.091884164427516207 0 -0.0043720718531567882 0.091839706166356019 0 -0.0054810979404542378 0.092037876957068776 0 -0.0043183445763507597 0.091884164427516207 0 -0.0049492215954662555 0.091414926927238738 0 -0.011027929565273414 0.082155915387293499 0 -0.0070853652687088058 0.084270874758458625 0 -0.002718332789826429 0.091763102877753994 0 -0.0034629364456900181 0.090998783502742639 0 -0.0043183445763507597 0.091884164427516207 0 -0.0033796551510506664 0.092598698850534303 0 -0.0028546336012932527 0.092785858059356061 0 -0.0034033939099878908 0.09212765055069036 0 -0.0033796551510506664 0.092598698850534303 0 -0.0038923280016058591 0.093359394810669794 0 -0.0028546336012932527 0.092785858059356061 0 -0.0023614766073044025 0.092923433773206152 0 -0.0026164624040653215 0.092693816553845315 0 -0.0043720718531567882 0.091839706166356019 0 -0.00483961670487453 0.091412206391550982 0 -0.0039920572815583324 0.092064647215003431 0 -0.0039226858207770197 0.091714145092234564 0 -0.0039604303923630076 0.091821758660816544 0 -0.0033796551510506664 0.092598698850534303 0 -0.0038923280016058591 0.093359394810669794 0 -0.0039920572815583324 0.092064647215003431 0 -0.0041223018191269712 0.091028714219316631 0 -0.00483961670487453 0.091412206391550982 0 -0.0045750604682671479 0.090499615685686916 0 -0.0041223018191269712 0.091028714219316631 0 -0.0043720718531567882 0.091839706166356019 0 -0.00483961670487453 0.091412206391550982 0 -0.0038923280016058591 0.093359394810669794 0 -0.003057769285059735 0.094032713122702741 0 -0.0028546336012932527 0.092785858059356061 0 -0.0038923280016058591 0.093359394810669794 0 -0.003057769285059735 0.094032713122702741 0 -0.0039140621568665504 0.094446342314487258 0 -0.0053737639058760462 0.087181284105796522 0 -0.0054640251613814732 0.087407964629900581 0 -0.0051968206225620978 0.087530208539259344 0 -0.0034207700219136151 0.091481985842954555 0 -0.0036698598319474568 0.090582327657981521 0 -0.0053737639058760462 0.087181284105796522 0 -0.0056430757260640752 0.087404619009733286 0 -0.0054640251613814732 0.087407964629900581 0 -0.0039226858207770197 0.091714145092234564 0 -0.0036698598319474568 0.090582327657981521 0 -0.00483961670487453 0.091412206391550982 0 -0.0045750604682671479 0.090499615685686916 0 -0.0051657870869316431 0.089942544049271753 0 -0.0036698598319474568 0.090582327657981521 0 -0.003717074965948463 0.090584182763671042 0 -0.0039494104340547474 0.090225768437058193 0 -0.0045750604682671479 0.090499615685686916 0 -0.0048511688785614756 0.089700464708164659 0 -0.0045750604682671479 0.090499615685686916 0 -0.0051657870869316431 0.089942544049271753 0 -0.0048511688785614756 0.089700464708164659 0 -0.0054175637500614836 0.089972362573107631 0 -0.0047342823798790356 0.088957591148196916 0 -0.0054312599782668875 0.088232434980991994 0 -0.0056430757260640752 0.087404619009733286 0 -0.0054611545284901381 0.087496399168488947 0 -0.0055773588660828488 0.087483535593110257 0 -0.0036698598319474568 0.090582327657981521 0 -0.0040848470930437628 0.088806639439693774 0 -0.0054175637500614836 0.089972362573107631 0 -0.0048511688785614756 0.089700464708164659 0 -0.0047342823798790356 0.088957591148196916 0 -0.004064631132472689 0.089274931370786459 0 -0.0048511688785614756 0.089700464708164659 0 -0.0047342823798790356 0.088957591148196916 0 -0.0054611545284901381 0.087496399168488947 0 -0.0055773588660828488 0.087483535593110257 0 -0.0056347776542120774 0.087530097882258781 0 -0.0038919573738885839 0.088317098028648094 0 -0.0047342823798790356 0.088957591148196916 0 -0.0046342334159408761 0.088223378567743482 0 -0.0047342823798790356 0.088957591148196916 0 -0.0054312599782668875 0.088232434980991994 0 -0.0046342334159408761 0.088223378567743482 0 -0.0054640251613814732 0.087407964629900581 0 -0.0055195702192799758 0.087500220312068375 0 -0.0054008208243535938 0.087572895164335876 0 -0.0054640251613814732 0.087407964629900581 0 -0.0054008208243535938 0.087572895164335876 0 -0.0051968206225620978 0.087530208539259344 0 -0.0056430757260640752 0.087404619009733286 0 -0.0054640251613814732 0.087407964629900581 0 -0.0055773588660828488 0.087483535593110257 0 -0.0054640251613814732 0.087407964629900581 0 -0.0055773588660828488 0.087483535593110257 0 -0.0055195702192799758 0.087500220312068375 0 -0.0055195702192799758 0.087500220312068375 0 -0.0056347776542120774 0.087530097882258781 0 -0.0054008208243535938 0.087572895164335876 0 -0.0055773588660828488 0.087483535593110257 0 -0.0055195702192799758 0.087500220312068375 0 -0.0056347776542120774 0.087530097882258781 0 -0.0056347776542120774 0.087530097882258781 0 -0.0054008208243535938 0.087572895164335876 0 -0.0051664485378124531 0.087967669252333222 0 -0.0056347776542120774 0.087530097882258781 0 -0.0057919135689712747 0.08682064383916549 0 -0.0071249173910087589 0.086518391491649582 0 -0.0057919135689712747 0.08682064383916549 0 -0.0055362946900556617 0.085893754566094743 0 -0.0071249173910087589 0.086518391491649582 0 -0.0029419468031683092 0.085372583475670213 0 -0.00015349908430527747 0.085888390697236541 0 0.008115945163477252 0.063681874221188497 0 0.01076041312729566 0.064307295741894699 0 0.011491284561064725 0.062666729467230065 0 0.0018221744802408455 0.078953664786905145 0 -0.00015349908430527747 0.085888390697236541 0 0.0091958939715403084 0.064812189013556426 0 0.008115945163477252 0.063681874221188497 0 0.01076041312729566 0.064307295741894699 0 -0.0055362946900556617 0.085893754566094743 0 -0.0053050485996790813 0.086489813175251035 0 -0.0039829440227453251 0.086088647723766412 0 0.008115945163477252 0.063681874221188497 0 0.0048904891862748476 0.064838974099248617 0 0.0073856910560345943 0.065050362344211701 0 0.0091958939715403084 0.064812189013556426 0 0.008115945163477252 0.063681874221188497 0 0.0073856910560345943 0.065050362344211701 0 -0.0054611545284901381 0.087496399168488947 0 -0.0057919135689712747 0.08682064383916549 0 -0.0053050485996790813 0.086489813175251035 0 -0.0053050485996790813 0.086489813175251035 0 -0.004501764195794929 0.087382725055437899 0 -0.0039829440227453251 0.086088647723766412 0 -0.0054312599782668875 0.088232434980991994 0 -0.0053050485996790813 0.086489813175251035 0 -0.004501764195794929 0.087382725055437899 0 -0.0040848470930437628 0.088806639439693774 0 -0.0042059621444013014 0.088162057079158612 0 -0.0057919135689712747 0.08682064383916549 0 -0.0055362946900556617 0.085893754566094743 0 -0.0053050485996790813 0.086489813175251035 0 -0.0054611545284901381 0.087496399168488947 0 -0.0056347776542120774 0.087530097882258781 0 -0.0057919135689712747 0.08682064383916549 0 -0.0054312599782668875 0.088232434980991994 0 -0.0046342334159408761 0.088223378567743482 0 -0.004501764195794929 0.087382725055437899 0 -0.0026386841912716128 0.087365982028089997 0 -0.0021099505634509354 0.086213643856385511 0 -0.0039829440227453251 0.086088647723766412 0 -0.004501764195794929 0.087382725055437899 0 -0.0026386841912716128 0.087365982028089997 0 -0.0039829440227453251 0.086088647723766412 0 -0.0038919573738885839 0.088317098028648094 0 -0.004501764195794929 0.087382725055437899 0 -0.0026386841912716128 0.087365982028089997 0 -0.0011212996110346099 0.087345417934844738 0 -0.0011293434156927815 0.087187644679763254 0 -0.0026386841912716128 0.087365982028089997 0 -0.0011212996110346099 0.087345417934844738 0 -0.0024711574293663986 0.088844696180058552 0 -0.0026386841912716128 0.087365982028089997 0 -0.00090217750882644701 0.085967622568788024 0 -0.0011293434156927815 0.087187644679763254 0 -0.0021099505634509354 0.086213643856385511 0 -0.0011293434156927815 0.087187644679763254 0 -0.0026386841912716128 0.087365982028089997 0 -0.0021099505634509354 0.086213643856385511 0 -0.0011427759728950698 0.085291225943587012 0 -0.0021099505634509354 0.086213643856385511 0 -0.0030596162748304616 0.084861720415006753 0 -0.00023074394523156961 0.083841561442688214 0 -0.0011427759728950698 0.085291225943587012 0 -0.0030596162748304616 0.084861720415006753 0 -0.0011427759728950698 0.085291225943587012 0 -0.00090217750882644701 0.085967622568788024 0 -0.0021099505634509354 0.086213643856385511 0 0.0018221744802408455 0.078953664786905145 0 0.0012438116677365655 0.075737697913632385 0 -0.0021099505634509354 0.086213643856385511 0 -0.0030596162748304616 0.084861720415006753 0 -0.0039829440227453251 0.086088647723766412 0 -0.0055362946900556617 0.085893754566094743 0 -0.0030596162748304616 0.084861720415006753 0 -0.0039829440227453251 0.086088647723766412 0 0.0048904891862748476 0.064838974099248617 0 0.0062228472265490973 0.066237564833670368 0 0.0073856910560345943 0.065050362344211701 0 0.0048904891862748476 0.064838974099248617 0 0.0062228472265490973 0.066237564833670368 0 0.0038373963889950652 0.066691134434623253 0 0.00045924788581911232 0.073246137799897235 0 0.0012438116677365655 0.075737697913632385 0 0.0020748513809111285 0.065934068815096017 0 0.0048904891862748476 0.064838974099248617 0 0.0038373963889950652 0.066691134434623253 0 0.0038583940683555788 0.068661240038712615 0 0.0026294133870641513 0.067692322879199227 0 0.0038373963889950652 0.066691134434623253 0 0.0038583940683555788 0.068661240038712615 0 0.0038373963889950652 0.066691134434623253 0 0.0054036151145234997 0.067733451502293068 0 0.0058016202925484355 0.069593492139796431 0 0.0054036151145234997 0.067733451502293068 0 0.0073412077312519173 0.06771540127411671 0 0.0062228472265490973 0.066237564833670368 0 0.0038373963889950652 0.066691134434623253 0 0.0054036151145234997 0.067733451502293068 0 0.0062228472265490973 0.066237564833670368 0 0.0054036151145234997 0.067733451502293068 0 0.0073412077312519173 0.06771540127411671 0 0.0073412077312519173 0.06771540127411671 0 0.0099064940669207641 0.06805419991731651 0 0.0084889673908437498 0.065989328620107271 0 0.0082509680360609034 0.070166286819473164 0 0.0073412077312519173 0.06771540127411671 0 0.0099064940669207641 0.06805419991731651 0 0.0099064940669207641 0.06805419991731651 0 0.0084889673908437498 0.065989328620107271 0 0.010421426391024356 0.065629841412091827 0 0.0091958939715403084 0.064812189013556426 0 0.010421426391024356 0.065629841412091827 0 0.01076041312729566 0.064307295741894699 0 0.0091958939715403084 0.064812189013556426 0 0.0084889673908437498 0.065989328620107271 0 0.010421426391024356 0.065629841412091827 0 0.0062228472265490973 0.066237564833670368 0 0.0084889673908437498 0.065989328620107271 0 0.0073856910560345943 0.065050362344211701 0 0.0091958939715403084 0.064812189013556426 0 0.0084889673908437498 0.065989328620107271 0 0.0073856910560345943 0.065050362344211701 0 0.0062228472265490973 0.066237564833670368 0 0.0073412077312519173 0.06771540127411671 0 0.0084889673908437498 0.065989328620107271 0 0.013335258141703426 0.065769222435910171 0 0.012152565091484695 0.067267682041548149 0 0.014105631153257447 0.06715772088659773 0 0.013335258141703426 0.065769222435910171 0 0.012025376245065987 0.065033616608893396 0 0.012152565091484695 0.067267682041548149 0 0.013335258141703426 0.065769222435910171 0 0.014105631153257447 0.06715772088659773 0 0.014994412566374024 0.065387288463214011 0 0.013335258141703426 0.065769222435910171 0 0.014994412566374024 0.065387288463214011 0 0.01327957511647437 0.06403469056416021 0 0.013335258141703426 0.065769222435910171 0 0.012025376245065987 0.065033616608893396 0 0.01327957511647437 0.06403469056416021 0 0.010421426391024356 0.065629841412091827 0 0.012025376245065987 0.065033616608893396 0 0.012152565091484695 0.067267682041548149 0 0.010421426391024356 0.065629841412091827 0 0.012025376245065987 0.065033616608893396 0 0.01076041312729566 0.064307295741894699 0 0.0099064940669207641 0.06805419991731651 0 0.010421426391024356 0.065629841412091827 0 0.012152565091484695 0.067267682041548149 0 0.012112745682735156 0.069235668414615467 0 0.0099064940669207641 0.06805419991731651 0 0.012152565091484695 0.067267682041548149 0 0.014205181880428235 0.068999004404125319 0 0.012112745682735156 0.069235668414615467 0 0.012152565091484695 0.067267682041548149 0 0.0096127510880241324 0.079874072346931946 0 0.0098804280608987809 0.075944044104474598 0 0.016264141475736255 0.069150395098527273 0 0.014205181880428235 0.068999004404125319 0 0.012152565091484695 0.067267682041548149 0 0.015300069502950044 0.068979078128944341 0 0.012152565091484695 0.067267682041548149 0 0.014105631153257447 0.06715772088659773 0 0.015300069502950044 0.068979078128944341 0 0.014105631153257447 0.06715772088659773 0 0.014994412566374024 0.065387288463214011 0 -2.3078287847047669e-05 0.094898816483414403 0 1.0164526225660929e-06 0.094888274636437384 0 -4.0269015476080904e-05 0.094815578875525289 0 0.0096127510880241324 0.079874072346931946 0 0.0027712086243246695 0.085953841819620611 0 -2.3078287847047669e-05 0.094898816483414403 0 1.0164526225660929e-06 0.094888274636437384 0 1.456603454636759e-05 0.094919939801195757 0 1.0164526225660929e-06 0.094888274636437384 0 -1.7050597982847871e-05 0.094867554560441825 0 -1.4311686704978951e-06 0.094883433490551367 0 1.0164526225660929e-06 0.094888274636437384 0 -1.4311686704978951e-06 0.094883433490551367 0 6.5348096075096643e-06 0.094898177341284168 0 0.0031564357344401103 0.088516381429249225 0 0.0027712086243246695 0.085953841819620611 0 1.0164526225660929e-06 0.094888274636437384 0 -1.7050597982847871e-05 0.094867554560441825 0 -3.2765191696534123e-05 0.094860280332329155 0 -1.7050597982847871e-05 0.094867554560441825 0 -3.2765191696534123e-05 0.094860280332329155 0 -3.4134566618153542e-05 0.094847242907557208 0 0.0027712086243246695 0.085953841819620611 0 0.0027594095599438066 0.086636685448861606 0 -1.7050597982847871e-05 0.094867554560441825 0 -3.4134566618153542e-05 0.094847242907557208 0 -1.8151071188393267e-05 0.094850591317635249 0 -3.4134566618153542e-05 0.094847242907557208 0 -3.3733686477141229e-05 0.094853885019775555 0 -1.8151071188393267e-05 0.094850591317635249 0 -2.7363205679285478e-05 0.094910963862379877 0 -2.6207126135139526e-05 0.094905044775038652 0 -3.3733686477141229e-05 0.094853885019775555 0 -1.8151071188393267e-05 0.094850591317635249 0 -3.9461635360367244e-05 0.09486810376234639 0 -3.230072782969598e-05 0.094831481114684646 0 -3.4134566618153542e-05 0.094847242907557208 0 -2.4614158900360689e-05 0.094841240208797931 0 -1.7050597982847871e-05 0.094867554560441825 0 -1.4311686704978951e-06 0.094883433490551367 0 -1.8151071188393267e-05 0.094850591317635249 0 -7.7621933792017541e-05 0.094937864885728251 0 -5.8736844606684757e-05 0.09494107443692279 0 -7.2666902654441466e-05 0.094928741077517642 0 -7.7621933792017541e-05 0.094937864885728251 0 -5.8736844606684757e-05 0.09494107443692279 0 -4.7397255385676657e-05 0.094956205004939467 0 -5.8736844606684757e-05 0.09494107443692279 0 -7.2666902654441466e-05 0.094928741077517642 0 -6.5368011898138712e-05 0.094934136764257424 0 -7.7621933792017541e-05 0.094937864885728251 0 -7.2666902654441466e-05 0.094928741077517642 0 -7.2599842668726858e-05 0.094921011005419414 0 -7.7621933792017541e-05 0.094937864885728251 0 -7.2599842668726858e-05 0.094921011005419414 0 -6.1847462632328096e-05 0.094904265618265093 0 -7.2666902654441466e-05 0.094928741077517642 0 -7.4502195958875468e-05 0.094922231308049887 0 -8.0654446176623416e-05 0.094925797702288942 0 -7.2666902654441466e-05 0.094928741077517642 0 -7.2599842668726858e-05 0.094921011005419414 0 -7.4502195958875468e-05 0.094922231308049887 0 -7.2599842668726858e-05 0.094921011005419414 0 -7.4502195958875468e-05 0.094922231308049887 0 -6.8946626202820243e-05 0.094915432056051657 0 -7.5084530707114039e-05 0.09492275834104888 0 -7.5587796860085289e-05 0.094930430003394989 0 -6.8946626202820243e-05 0.094915432056051657 0 -7.4502195958875468e-05 0.094922231308049887 0 -7.5084530707114039e-05 0.09492275834104888 0 -8.0654446176623416e-05 0.094925797702288942 0 -7.4502195958875468e-05 0.094922231308049887 0 -7.5084530707114039e-05 0.09492275834104888 0 -6.8946626202820243e-05 0.094915432056051657 0 -7.5084530707114039e-05 0.09492275834104888 0 -7.5587796860085289e-05 0.094930430003394989 0 -8.0654446176623416e-05 0.094925797702288942 0 -0.0012600784662335652 0.090286149309802277 0 -0.0011960140599288692 0.090383342848731674 0 -8.0654446176623416e-05 0.094925797702288942 0 -7.9390243993787452e-05 0.094930929080305468 0 -9.5034187678545473e-05 0.094934943910816971 0 -7.7335011497659586e-05 0.094931101731307851 0 -8.0654446176623416e-05 0.094925797702288942 0 -9.5034187678545473e-05 0.094934943910816971 0 -0.0012600784662335652 0.090286149309802277 0 -0.0012549327288593828 0.090338158071627664 0 -7.2666902654441466e-05 0.094928741077517642 0 -8.0654446176623416e-05 0.094925797702288942 0 -7.9390243993787452e-05 0.094930929080305468 0 -7.2666902654441466e-05 0.094928741077517642 0 -7.9390243993787452e-05 0.094930929080305468 0 -6.5368011898138712e-05 0.094934136764257424 0 -7.9390243993787452e-05 0.094930929080305468 0 -7.2430301378334313e-05 0.094927971256960605 0 -9.5034187678545473e-05 0.094934943910816971 0 -7.9390243993787452e-05 0.094930929080305468 0 -7.2430301378334313e-05 0.094927971256960605 0 -6.5368011898138712e-05 0.094934136764257424 0 -7.5587796860085289e-05 0.094930430003394989 0 -6.8946626202820243e-05 0.094915432056051657 0 -4.2088020136702047e-05 0.094883086478405126 0 -6.1847462632328096e-05 0.094904265618265093 0 -6.8946626202820243e-05 0.094915432056051657 0 -4.2088020136702047e-05 0.094883086478405126 0 -0.0043485182041980161 0.087737231086739906 0 -0.0047610656472126577 0.08785412891530385 0 -0.004677893630563295 0.087634723167188844 0 -0.0012600784662335652 0.090286149309802277 0 -0.0017954405781648447 0.088868772843610791 0 -7.7621933792017541e-05 0.094937864885728251 0 -6.1847462632328096e-05 0.094904265618265093 0 -3.9461635360367244e-05 0.09486810376234639 0 -6.1847462632328096e-05 0.094904265618265093 0 -4.2088020136702047e-05 0.094883086478405126 0 -3.9461635360367244e-05 0.09486810376234639 0 -7.2599842668726858e-05 0.094921011005419414 0 -6.1847462632328096e-05 0.094904265618265093 0 -6.8946626202820243e-05 0.094915432056051657 0 -0.0047610656472126577 0.08785412891530385 0 -0.0050082213009695047 0.087736649812235473 0 -0.0051664485378124531 0.087967669252333222 0 -4.2088020136702047e-05 0.094883086478405126 0 -3.9461635360367244e-05 0.09486810376234639 0 1.0382429588082937e-06 0.094843800915682397 0 -0.0017954405781648447 0.088868772843610791 0 -0.00015349908430527747 0.085888390697236541 0 -0.0047610656472126577 0.08785412891530385 0 -0.0050082213009695047 0.087736649812235473 0 -0.0049113004718385304 0.087593608078064114 0 -3.9461635360367244e-05 0.09486810376234639 0 -2.4614158900360689e-05 0.094841240208797931 0 1.0382429588082937e-06 0.094843800915682397 0 -3.3733686477141229e-05 0.094853885019775555 0 -3.9461635360367244e-05 0.09486810376234639 0 -2.4614158900360689e-05 0.094841240208797931 0 0.0027712086243246695 0.085953841819620611 0 0.0019817119916081178 0.085212993551014596 0 -3.4134566618153542e-05 0.094847242907557208 0 -3.3733686477141229e-05 0.094853885019775555 0 -2.4614158900360689e-05 0.094841240208797931 0 0.01327957511647437 0.06403469056416021 0 0.01076041312729566 0.064307295741894699 0 0.011491284561064725 0.062666729467230065 0 0.012025376245065987 0.065033616608893396 0 0.01327957511647437 0.06403469056416021 0 0.01076041312729566 0.064307295741894699 0 0.0019817119916081178 0.085212993551014596 0 -0.00015349908430527747 0.085888390697236541 0 -0.0050082213009695047 0.087736649812235473 0 -0.0051664485378124531 0.087967669252333222 0 -0.0051968206225620978 0.087530208539259344 0 -0.0054008208243535938 0.087572895164335876 0 -0.0051664485378124531 0.087967669252333222 0 -0.0051968206225620978 0.087530208539259344 0 -0.0050082213009695047 0.087736649812235473 0 -0.0051968206225620978 0.087530208539259344 0 -0.0049113004718385304 0.087593608078064114 0 -0.0051968206225620978 0.087530208539259344 0 -0.0049113004718385304 0.087593608078064114 0 -0.0050253433667472071 0.087317985409845436 0 -0.0049113004718385304 0.087593608078064114 0 -0.0050253433667472071 0.087317985409845436 0 -0.00469062316301705 0.08735603982894867 0 -0.0047610656472126577 0.08785412891530385 0 -0.0049113004718385304 0.087593608078064114 0 -0.004677893630563295 0.087634723167188844 0 -0.0049113004718385304 0.087593608078064114 0 -0.00469062316301705 0.08735603982894867 0 -0.004677893630563295 0.087634723167188844 0 -0.0025385915437566076 0.092508541289514454 0 -0.0021864761190851928 0.091147663835558126 0 -0.0050253433667472071 0.087317985409845436 0 -0.0050200639540867722 0.086998999796491491 0 -0.00469062316301705 0.08735603982894867 0 -0.0053737639058760462 0.087181284105796522 0 -0.0051968206225620978 0.087530208539259344 0 -0.0050253433667472071 0.087317985409845436 0 -0.0053737639058760462 0.087181284105796522 0 -0.0050253433667472071 0.087317985409845436 0 -0.0050200639540867722 0.086998999796491491 0 -0.0034207700219136151 0.091481985842954555 0 -0.0025385915437566076 0.092508541289514454 0 -0.003057769285059735 0.094032713122702741 0 -0.0021653288016986942 0.093590879882741007 0 -0.0028546336012932527 0.092785858059356061 0 -0.0025385915437566076 0.092508541289514454 0 -0.0023614766073044025 0.092923433773206152 0 -0.0025385915437566076 0.092508541289514454 0 -0.0011651533490980161 0.093103344204998467 0 -0.00045120425403803006 0.094673109210956244 0 -0.00026809682821240518 0.094585646702496959 0 -0.00028631733401136963 0.094848162507149517 0 -0.00020463094028269014 0.094101860912995522 0 0.00015210582204532852 0.094304530537853801 0 9.7082044876097253e-05 0.093998482163082639 0 -0.00040265577337632465 0.094954360404989516 0 -0.00020463094028269014 0.094101860912995522 0 0.00015210582204532852 0.094304530537853801 0 -0.00040265577337632465 0.094954360404989516 0 -0.00020463094028269014 0.094101860912995522 0 -0.0015198700097384156 0.094258179104848294 0 -0.00020463094028269014 0.094101860912995522 0 -0.0015198700097384156 0.094258179104848294 0 -0.0016364191949348613 0.092859158034250197 0 -0.00079632449875255938 0.093284958625840519 0 -0.0011651533490980161 0.093103344204998467 0 -2.8198600960666051e-06 0.094438789456529351 0 -0.00026809682821240518 0.094585646702496959 0 -0.00014541815013222815 0.094708179938607334 0 -2.8198600960666051e-06 0.094438789456529351 0 0.00015210582204532852 0.094304530537853801 0 9.7082044876097253e-05 0.093998482163082639 0 -0.00026809682821240518 0.094585646702496959 0 -0.00014541815013222815 0.094708179938607334 0 -0.00028631733401136963 0.094848162507149517 0 -2.8198600960666051e-06 0.094438789456529351 0 -0.00014541815013222815 0.094708179938607334 0 -2.5850071249564931e-05 0.094738646854078928 0 -0.00014541815013222815 0.094708179938607334 0 -0.00011358506594509988 0.094822510314843594 0 -2.5850071249564931e-05 0.094738646854078928 0 -0.00011358506594509988 0.094822510314843594 0 -6.234868131114603e-05 0.094873132442518743 0 -3.4209974797426058e-05 0.094829189644846504 0 -0.00014541815013222815 0.094708179938607334 0 -0.00011358506594509988 0.094822510314843594 0 -0.00028631733401136963 0.094848162507149517 0 -0.00011358506594509988 0.094822510314843594 0 -0.00028631733401136963 0.094848162507149517 0 -0.000152209444417088 0.09488681373291688 0 -0.0043485182041980161 0.087737231086739906 0 -0.00469062316301705 0.08735603982894867 0 -0.004677893630563295 0.087634723167188844 0 -0.00013525333869818715 0.094952313998093799 0 -0.00028631733401136963 0.094848162507149517 0 -0.000152209444417088 0.09488681373291688 0 -0.0012600784662335652 0.090286149309802277 0 -0.0021864761190851928 0.091147663835558126 0 -9.5263074045370569e-05 0.09489792320882541 0 -5.4745050209508282e-05 0.094911629311358617 0 -6.234868131114603e-05 0.094873132442518743 0 -0.00011358506594509988 0.094822510314843594 0 -9.5263074045370569e-05 0.09489792320882541 0 -6.234868131114603e-05 0.094873132442518743 0 -0.00011358506594509988 0.094822510314843594 0 -9.5263074045370569e-05 0.09489792320882541 0 -0.000152209444417088 0.09488681373291688 0 -9.5263074045370569e-05 0.09489792320882541 0 -0.000152209444417088 0.09488681373291688 0 -9.5034187678545473e-05 0.094934943910816971 0 -0.00013525333869818715 0.094952313998093799 0 -0.000152209444417088 0.09488681373291688 0 -9.5034187678545473e-05 0.094934943910816971 0 -7.2430301378334313e-05 0.094927971256960605 0 -9.5263074045370569e-05 0.09489792320882541 0 -9.5034187678545473e-05 0.094934943910816971 0 -7.2430301378334313e-05 0.094927971256960605 0 -9.5263074045370569e-05 0.09489792320882541 0 -5.4745050209508282e-05 0.094911629311358617 0 -7.2430301378334313e-05 0.094927971256960605 0 -5.4745050209508282e-05 0.094911629311358617 0 -5.1927944762401659e-05 0.094930815840769997 0 -5.4745050209508282e-05 0.094911629311358617 0 -2.9213155501751134e-05 0.094927369890075497 0 -5.1927944762401659e-05 0.094930815840769997 0 -5.4745050209508282e-05 0.094911629311358617 0 -2.9213155501751134e-05 0.094927369890075497 0 -2.8003478155036737e-05 0.09488923185716 0 -5.4745050209508282e-05 0.094911629311358617 0 -2.8003478155036737e-05 0.09488923185716 0 -6.234868131114603e-05 0.094873132442518743 0 -2.9213155501751134e-05 0.094927369890075497 0 2.3701581405229738e-06 0.094908910849333644 0 -2.1543702029889121e-07 0.094944223255287272 0 -2.9213155501751134e-05 0.094927369890075497 0 -2.8003478155036737e-05 0.09488923185716 0 2.3701581405229738e-06 0.094908910849333644 0 2.3701581405229738e-06 0.094908910849333644 0 7.8123440122892623e-06 0.094845806657628387 0 1.6619859562784111e-05 0.094933674427110176 0 -2.8003478155036737e-05 0.09488923185716 0 2.3701581405229738e-06 0.094908910849333644 0 7.8123440122892623e-06 0.094845806657628387 0 7.8123440122892623e-06 0.094845806657628387 0 -3.4209974797426058e-05 0.094829189644846504 0 -2.5850071249564931e-05 0.094738646854078928 0 -2.8003478155036737e-05 0.09488923185716 0 -6.234868131114603e-05 0.094873132442518743 0 -3.4209974797426058e-05 0.094829189644846504 0 -2.8003478155036737e-05 0.09488923185716 0 7.8123440122892623e-06 0.094845806657628387 0 -3.4209974797426058e-05 0.094829189644846504 0 -0.00011358506594509988 0.094822510314843594 0 -3.4209974797426058e-05 0.094829189644846504 0 -2.5850071249564931e-05 0.094738646854078928 0 7.8123440122892623e-06 0.094845806657628387 0 -2.5850071249564931e-05 0.094738646854078928 0 1.4319033303177517e-05 0.094737377720127053 0 -2.8198600960666051e-06 0.094438789456529351 0 -2.5850071249564931e-05 0.094738646854078928 0 1.4319033303177517e-05 0.094737377720127053 0 7.8123440122892623e-06 0.094845806657628387 0 1.4319033303177517e-05 0.094737377720127053 0 1.5483678915096556e-05 0.094879925363120787 0 1.4319033303177517e-05 0.094737377720127053 0 1.2875227244114333e-05 0.094766143349503437 0 -6.5994260217441669e-06 0.094602197406889688 0 1.4319033303177517e-05 0.094737377720127053 0 1.2875227244114333e-05 0.094766143349503437 0 1.5483678915096556e-05 0.094879925363120787 0 -2.8198600960666051e-06 0.094438789456529351 0 1.4319033303177517e-05 0.094737377720127053 0 -6.5994260217441669e-06 0.094602197406889688 0 1.2875227244114333e-05 0.094766143349503437 0 1.5483678915096556e-05 0.094879925363120787 0 -1.1199585429138004e-06 0.094842322837296683 0 1.5483678915096556e-05 0.094879925363120787 0 4.9019693099915506e-08 0.094999850402480837 0 -1.1199585429138004e-06 0.094842322837296683 0 4.9019693099915506e-08 0.094999850402480837 0 -1.1199585429138004e-06 0.094842322837296683 0 -9.5070458106204714e-09 0.094999757545042043 0 1.5483678915096556e-05 0.094879925363120787 0 4.9019693099915506e-08 0.094999850402480837 0 1.6619859562784111e-05 0.094933674427110176 0 4.9019693099915506e-08 0.094999850402480837 0 1.6619859562784111e-05 0.094933674427110176 0 9.1489930754550474e-09 0.09499993175584083 0 7.8123440122892623e-06 0.094845806657628387 0 1.5483678915096556e-05 0.094879925363120787 0 1.6619859562784111e-05 0.094933674427110176 0 1.6619859562784111e-05 0.094933674427110176 0 9.0948374433647825e-06 0.094972981478733412 0 -2.1543702029889121e-07 0.094944223255287272 0 2.3701581405229738e-06 0.094908910849333644 0 1.6619859562784111e-05 0.094933674427110176 0 -2.1543702029889121e-07 0.094944223255287272 0 1.6619859562784111e-05 0.094933674427110176 0 9.1489930754550474e-09 0.09499993175584083 0 9.0948374433647825e-06 0.094972981478733412 0 9.1489930754550474e-09 0.09499993175584083 0 1.5129693491206032e-08 0.094999952233830537 0 9.0948374433647825e-06 0.094972981478733412 0 1.5129693491206032e-08 0.094999952233830537 0 6.4130456775495667e-06 0.094974053672937264 0 9.0948374433647825e-06 0.094972981478733412 0 2.4140213794088664e-09 0.094999994887726397 0 6.9157824120418664e-06 0.09498434496180698 0 4.1787533024025498e-06 0.094989116247784625 0 3.5677873669362953e-09 0.094999980054062655 0 2.9747853466460642e-07 0.094991647901284934 0 6.4130456775495667e-06 0.094974053672937264 0 1.1187119628291603e-06 0.094962689946859802 0 9.0948374433647825e-06 0.094972981478733412 0 1.1187119628291603e-06 0.094962689946859802 0 9.0948374433647825e-06 0.094972981478733412 0 -2.1543702029889121e-07 0.094944223255287272 0 -2.1543702029889121e-07 0.094944223255287272 0 -1.3014662473111991e-05 0.094955178253457104 0 -2.3543080963120002e-05 0.094943747350542146 0 -2.9213155501751134e-05 0.094927369890075497 0 -2.1543702029889121e-07 0.094944223255287272 0 -2.3543080963120002e-05 0.094943747350542146 0 -1.3014662473111991e-05 0.094955178253457104 0 -2.3543080963120002e-05 0.094943747350542146 0 -2.9826404346555321e-05 0.09495747398701862 0 1.1187119628291603e-06 0.094962689946859802 0 -2.1543702029889121e-07 0.094944223255287272 0 -1.3014662473111991e-05 0.094955178253457104 0 1.1187119628291603e-06 0.094962689946859802 0 -1.3014662473111991e-05 0.094955178253457104 0 -1.1095960290797033e-05 0.094965586593894147 0 -6.5368011898138712e-05 0.094934136764257424 0 -5.1927944762401659e-05 0.094930815840769997 0 -4.2870782919419977e-05 0.094943149869218202 0 -7.2430301378334313e-05 0.094927971256960605 0 -6.5368011898138712e-05 0.094934136764257424 0 -5.1927944762401659e-05 0.094930815840769997 0 -2.9213155501751134e-05 0.094927369890075497 0 -5.1927944762401659e-05 0.094930815840769997 0 -4.2870782919419977e-05 0.094943149869218202 0 -2.9213155501751134e-05 0.094927369890075497 0 -2.3543080963120002e-05 0.094943747350542146 0 -4.2870782919419977e-05 0.094943149869218202 0 -2.3543080963120002e-05 0.094943747350542146 0 -4.2870782919419977e-05 0.094943149869218202 0 -2.9826404346555321e-05 0.09495747398701862 0 -4.2870782919419977e-05 0.094943149869218202 0 -4.4374244650112586e-05 0.094949380941075037 0 -2.9826404346555321e-05 0.09495747398701862 0 -5.8736844606684757e-05 0.09494107443692279 0 -6.5368011898138712e-05 0.094934136764257424 0 -4.2870782919419977e-05 0.094943149869218202 0 -5.8736844606684757e-05 0.09494107443692279 0 -4.2870782919419977e-05 0.094943149869218202 0 -4.4374244650112586e-05 0.094949380941075037 0 -1.4311686704978951e-06 0.094883433490551367 0 -1.8151071188393267e-05 0.094850591317635249 0 1.9876612379982397e-05 0.094899263886905283 0 -2.7363205679285478e-05 0.094910963862379877 0 -1.7434973031898107e-05 0.094926436573394349 0 -7.7621933792017541e-05 0.094937864885728251 0 -4.7397255385676657e-05 0.094956205004939467 0 -2.3883902735214924e-05 0.094984357173707651 0 -4.7397255385676657e-05 0.094956205004939467 0 -4.4374244650112586e-05 0.094949380941075037 0 -2.9826404346555321e-05 0.09495747398701862 0 -5.8736844606684757e-05 0.09494107443692279 0 -4.7397255385676657e-05 0.094956205004939467 0 -4.4374244650112586e-05 0.094949380941075037 0 -4.7397255385676657e-05 0.094956205004939467 0 -2.9826404346555321e-05 0.09495747398701862 0 -3.0376690739524753e-05 0.09496711142051513 0 -2.9826404346555321e-05 0.09495747398701862 0 -2.5068794135816807e-05 0.094965470390957013 0 -3.0376690739524753e-05 0.09496711142051513 0 -4.7397255385676657e-05 0.094956205004939467 0 -3.0376690739524753e-05 0.09496711142051513 0 -2.3883902735214924e-05 0.094984357173707651 0 -2.5068794135816807e-05 0.094965470390957013 0 -3.0376690739524753e-05 0.09496711142051513 0 -1.8474920597733637e-05 0.094973386471924895 0 -3.0376690739524753e-05 0.09496711142051513 0 -1.8474920597733637e-05 0.094973386471924895 0 -2.3883902735214924e-05 0.094984357173707651 0 6.4130456775495667e-06 0.094974053672937264 0 1.1187119628291603e-06 0.094962689946859802 0 -1.1095960290797033e-05 0.094965586593894147 0 2.9747853466460642e-07 0.094991647901284934 0 -5.7944678687830854e-06 0.094989237428872775 0 6.9157824120418664e-06 0.09498434496180698 0 -1.8474920597733637e-05 0.094973386471924895 0 -3.6268083051267467e-06 0.094978568745012093 0 6.4130456775495667e-06 0.094974053672937264 0 -1.1095960290797033e-05 0.094965586593894147 0 -1.8474920597733637e-05 0.094973386471924895 0 -2.9826404346555321e-05 0.09495747398701862 0 -2.5068794135816807e-05 0.094965470390957013 0 -1.1095960290797033e-05 0.094965586593894147 0 -1.3014662473111991e-05 0.094955178253457104 0 -2.9826404346555321e-05 0.09495747398701862 0 -1.1095960290797033e-05 0.094965586593894147 0 -1.8474920597733637e-05 0.094973386471924895 0 -3.6268083051267467e-06 0.094978568745012093 0 -2.3883902735214924e-05 0.094984357173707651 0 -2.5068794135816807e-05 0.094965470390957013 0 -1.1095960290797033e-05 0.094965586593894147 0 -1.8474920597733637e-05 0.094973386471924895 0 -3.6268083051267467e-06 0.094978568745012093 0 -2.3883902735214924e-05 0.094984357173707651 0 1.2040661452093776e-05 0.0949747835438597 0 -1.7434973031898107e-05 0.094926436573394349 0 -1.1397785686436202e-05 0.094935118923595421 0 1.9259600536277871e-05 0.094937016611019956 0 1.9876612379982397e-05 0.094899263886905283 0 1.2040661452093776e-05 0.0949747835438597 0 1.0164526225660929e-06 0.094888274636437384 0 1.3713973262012445e-05 0.094914944878210727 0 6.5348096075096643e-06 0.094898177341284168 0 -1.4311686704978951e-06 0.094883433490551367 0 1.9876612379982397e-05 0.094899263886905283 0 6.5348096075096643e-06 0.094898177341284168 0 1.9259600536277871e-05 0.094937016611019956 0 1.9876612379982397e-05 0.094899263886905283 0 1.3713973262012445e-05 0.094914944878210727 0 1.9876612379982397e-05 0.094899263886905283 0 1.3713973262012445e-05 0.094914944878210727 0 6.5348096075096643e-06 0.094898177341284168 0 1.0164526225660929e-06 0.094888274636437384 0 1.3713973262012445e-05 0.094914944878210727 0 1.456603454636759e-05 0.094919939801195757 0 1.3713973262012445e-05 0.094914944878210727 0 1.456603454636759e-05 0.094919939801195757 0 1.9910044837879328e-05 0.094938630332414273 0 1.9259600536277871e-05 0.094937016611019956 0 1.7830117484825207e-05 0.094958501332270795 0 1.2040661452093776e-05 0.0949747835438597 0 1.9259600536277871e-05 0.094937016611019956 0 1.9910044837879328e-05 0.094938630332414273 0 1.7830117484825207e-05 0.094958501332270795 0 1.9259600536277871e-05 0.094937016611019956 0 1.3713973262012445e-05 0.094914944878210727 0 1.9910044837879328e-05 0.094938630332414273 0 2.0929711238977916e-05 0.094956736279396756 0 1.9910044837879328e-05 0.094938630332414273 0 1.7830117484825207e-05 0.094958501332270795 0 1.4097061749453326e-05 0.094972690750758079 0 1.7830117484825207e-05 0.094958501332270795 0 7.4564624523683452e-06 0.094982341923180585 0 1.7830117484825207e-05 0.094958501332270795 0 7.4564624523683452e-06 0.094982341923180585 0 1.2040661452093776e-05 0.0949747835438597 0 1.0783329378842237e-08 0.094999969241848739 0 3.9913924061023307e-09 0.094999965593483879 0 7.4564624523683452e-06 0.094982341923180585 0 3.9913924061023307e-09 0.094999965593483879 0 7.4564624523683452e-06 0.094982341923180585 0 4.1787533024025498e-06 0.094989116247784625 0 2.4140213794088664e-09 0.094999994887726397 0 3.9913924061023307e-09 0.094999965593483879 0 4.1787533024025498e-06 0.094989116247784625 0 6.9157824120418664e-06 0.09498434496180698 0 -3.6268083051267467e-06 0.094978568745012093 0 1.2040661452093776e-05 0.0949747835438597 0 6.9157824120418664e-06 0.09498434496180698 0 4.1787533024025498e-06 0.094989116247784625 0 1.2040661452093776e-05 0.0949747835438597 0 7.4564624523683452e-06 0.094982341923180585 0 4.1787533024025498e-06 0.094989116247784625 0 1.2040661452093776e-05 0.0949747835438597 0 -0.012153704308357719 0.026880805406284042 0 -0.012718221175202962 0.024164000585838858 0 -0.014444277467252553 0.027120546638361553 0 -0.017402878620047812 0.028634250712119554 0 -0.014599249075776838 0.026960922177267213 0 -0.016883748274230979 0.032160940667636959 0 -0.014244208997589427 0.026282556921949952 0 -0.015997670874573405 0.030273462124487383 0 -0.012153704308357719 0.026880805406284042 0 -0.011556975842310527 0.025362389087547087 0 -0.012718221175202962 0.024164000585838858 0 -0.012153704308357719 0.026880805406284042 0 -0.01013223187476966 0.027251743720382859 0 -0.011556975842310527 0.025362389087547087 0 -0.011556975842310527 0.025362389087547087 0 -0.011647417184163084 0.023976437274787862 0 -0.012718221175202962 0.024164000585838858 0 -0.011556975842310527 0.025362389087547087 0 -0.011647417184163084 0.023976437274787862 0 -0.010120846544206761 0.024000229899297006 0 -0.011647417184163084 0.023976437274787862 0 -0.012718221175202962 0.024164000585838858 0 -0.012488248900299767 0.021837012280750492 0 -0.011647417184163084 0.023976437274787862 0 -0.010120846544206761 0.024000229899297006 0 -0.011081608562452477 0.023271686132602578 0 -0.017402878620047812 0.028634250712119554 0 -0.014743369831666275 0.02554190136377596 0 -0.020745105185941567 0.027558751202409852 0 -0.017402878620047812 0.028634250712119554 0 -0.014743369831666275 0.02554190136377596 0 -0.014599249075776838 0.026960922177267213 0 -0.014743369831666275 0.02554190136377596 0 -0.020745105185941567 0.027558751202409852 0 -0.020867189520585035 0.022511551479298213 0 -0.020745105185941567 0.027558751202409852 0 -0.024777795048918673 0.030337734905372945 0 -0.025747691266949542 0.026911147387889994 0 -0.020745105185941567 0.027558751202409852 0 -0.020867189520585035 0.022511551479298213 0 -0.025747691266949542 0.026911147387889994 0 -0.024777795048918673 0.030337734905372945 0 -0.019999601531038254 0.03091736205716164 0 -0.022780891439573542 0.032794729207447852 0 -0.020745105185941567 0.027558751202409852 0 -0.024777795048918673 0.030337734905372945 0 -0.019999601531038254 0.03091736205716164 0 -0.017402878620047812 0.028634250712119554 0 -0.020745105185941567 0.027558751202409852 0 -0.019999601531038254 0.03091736205716164 0 -0.017402878620047812 0.028634250712119554 0 -0.019999601531038254 0.03091736205716164 0 -0.016883748274230979 0.032160940667636959 0 -0.019999601531038254 0.03091736205716164 0 -0.019066554698093499 0.037185324609120371 0 -0.016883748274230979 0.032160940667636959 0 -0.019999601531038254 0.03091736205716164 0 -0.022780891439573542 0.032794729207447852 0 -0.019066554698093499 0.037185324609120371 0 -0.018049367851018936 0.034967385246911967 0 -0.015997670874573405 0.030273462124487383 0 -0.022780891439573542 0.032794729207447852 0 -0.022734667699936834 0.036003237657195777 0 -0.02836667672670385 0.032545008419266205 0 -0.022780891439573542 0.032794729207447852 0 -0.022734667699936834 0.036003237657195777 0 -0.019066554698093499 0.037185324609120371 0 -0.022734667699936834 0.036003237657195777 0 -0.022742447539631491 0.03898158193774541 0 -0.025034591656778196 0.038591603166528113 0 -0.022734667699936834 0.036003237657195777 0 -0.022742447539631491 0.03898158193774541 0 -0.019066554698093499 0.037185324609120371 0 -0.018038704291487542 0.032800918374989559 0 -0.014014873512214494 0.035030575535852669 0 -0.012797515794861641 0.030511874552849674 0 -0.014014873512214494 0.035030575535852669 0 -0.012797515794861641 0.030511874552849674 0 -0.010342146555393521 0.033810678703894911 0 -0.012153704308357719 0.026880805406284042 0 -0.012797515794861641 0.030511874552849674 0 -0.014444277467252553 0.027120546638361553 0 -0.018038704291487542 0.032800918374989559 0 -0.012797515794861641 0.030511874552849674 0 -0.014444277467252553 0.027120546638361553 0 -0.012153704308357719 0.026880805406284042 0 -0.012797515794861641 0.030511874552849674 0 -0.01088991734137165 0.028981744513709884 0 -0.01013223187476966 0.027251743720382859 0 -0.01088991734137165 0.028981744513709884 0 -0.009071631130430342 0.028832673423094972 0 -0.012153704308357719 0.026880805406284042 0 -0.01013223187476966 0.027251743720382859 0 -0.01088991734137165 0.028981744513709884 0 -0.012797515794861641 0.030511874552849674 0 -0.01088991734137165 0.028981744513709884 0 -0.010068062988177759 0.031131774154325158 0 -0.01088991734137165 0.028981744513709884 0 -0.010068062988177759 0.031131774154325158 0 -0.009071631130430342 0.028832673423094972 0 -0.012797515794861641 0.030511874552849674 0 -0.010068062988177759 0.031131774154325158 0 -0.010342146555393521 0.033810678703894911 0 -0.010068062988177759 0.031131774154325158 0 -0.010342146555393521 0.033810678703894911 0 -0.0096095202034506728 0.032539636610827809 0 -0.010068062988177759 0.031131774154325158 0 -0.0096095202034506728 0.032539636610827809 0 -0.0087520845627532418 0.031012325701093583 0 -0.0087520845627532418 0.031012325701093583 0 -0.0088906171577807259 0.032378645475191661 0 -0.0080380713051090291 0.031484800585032086 0 -0.0096095202034506728 0.032539636610827809 0 -0.0087520845627532418 0.031012325701093583 0 -0.0088906171577807259 0.032378645475191661 0 -0.010068062988177759 0.031131774154325158 0 -0.0087520845627532418 0.031012325701093583 0 -0.009071631130430342 0.028832673423094972 0 -0.0087520845627532418 0.031012325701093583 0 -0.0071473876180139428 0.030266191849477639 0 -0.0075457759073161148 0.028900443079377877 0 -0.0087520845627532418 0.031012325701093583 0 -0.0071473876180139428 0.030266191849477639 0 -0.0080380713051090291 0.031484800585032086 0 -0.0071473876180139428 0.030266191849477639 0 -0.0061567416691375625 0.028557300980225481 0 -0.0052156318045278715 0.030201426424202413 0 -0.0071473876180139428 0.030266191849477639 0 -0.0052156318045278715 0.030201426424202413 0 -0.0070152485165803254 0.03149089896112555 0 -0.0071473876180139428 0.030266191849477639 0 -0.0070152485165803254 0.03149089896112555 0 -0.0080380713051090291 0.031484800585032086 0 -0.0071473876180139428 0.030266191849477639 0 -0.0061567416691375625 0.028557300980225481 0 -0.0075457759073161148 0.028900443079377877 0 -0.0061567416691375625 0.028557300980225481 0 -0.0051299441878565966 0.027234716193677882 0 -0.0070736416935962112 0.026262731656037902 0 -0.0061567416691375625 0.028557300980225481 0 -0.0075457759073161148 0.028900443079377877 0 -0.0070736416935962112 0.026262731656037902 0 -0.01013223187476966 0.027251743720382859 0 -0.009071631130430342 0.028832673423094972 0 -0.0070736416935962112 0.026262731656037902 0 -0.009071631130430342 0.028832673423094972 0 -0.0075457759073161148 0.028900443079377877 0 -0.0070736416935962112 0.026262731656037902 0 -0.0087520845627532418 0.031012325701093583 0 -0.009071631130430342 0.028832673423094972 0 -0.0075457759073161148 0.028900443079377877 0 -0.0036153605535878424 0.027653347971395008 0 -0.004571975146595123 0.028616466648318184 0 -0.0052156318045278715 0.030201426424202413 0 -0.0036153605535878424 0.027653347971395008 0 -0.0040425652842006983 0.027647676553056798 0 -0.004571975146595123 0.028616466648318184 0 -0.0037204808848789925 0.026704887997756586 0 -0.0040425652842006983 0.027647676553056798 0 -0.0043135575633283293 0.027637717639196844 0 -0.0036153605535878424 0.027653347971395008 0 -0.0037204808848789925 0.026704887997756586 0 -0.0040425652842006983 0.027647676553056798 0 -0.0040425652842006983 0.027647676553056798 0 -0.0043135575633283293 0.027637717639196844 0 -0.004571975146595123 0.028616466648318184 0 -0.0061567416691375625 0.028557300980225481 0 -0.0050227743084453602 0.028211883847643223 0 -0.0052156318045278715 0.030201426424202413 0 -0.0043135575633283293 0.027637717639196844 0 -0.0050227743084453602 0.028211883847643223 0 -0.004571975146595123 0.028616466648318184 0 -0.0050227743084453602 0.028211883847643223 0 -0.004571975146595123 0.028616466648318184 0 -0.0052156318045278715 0.030201426424202413 0 -0.0061567416691375625 0.028557300980225481 0 -0.0050227743084453602 0.028211883847643223 0 -0.0051299441878565966 0.027234716193677882 0 -0.0051299441878565966 0.027234716193677882 0 -0.0045954922305424546 0.026947213379974091 0 -0.0045390625981703214 0.027272246205622581 0 -0.0051299441878565966 0.027234716193677882 0 -0.0045360538145707702 0.026534459594086741 0 -0.0045306202221477273 0.026660861197970873 0 -0.0051299441878565966 0.027234716193677882 0 -0.0045954922305424546 0.026947213379974091 0 -0.0045306202221477273 0.026660861197970873 0 -0.0044500410963994753 0.02672017026750878 0 -0.0045954922305424546 0.026947213379974091 0 -0.0045306202221477273 0.026660861197970873 0 -0.0043135575633283293 0.027637717639196844 0 -0.0050227743084453602 0.028211883847643223 0 -0.0045390625981703214 0.027272246205622581 0 -0.0050227743084453602 0.028211883847643223 0 -0.0051299441878565966 0.027234716193677882 0 -0.0045390625981703214 0.027272246205622581 0 -0.003627219137151525 0.025937373020827267 0 -0.0037204808848789925 0.026704887997756586 0 -0.0040505905413516828 0.026825440624533386 0 -0.0048572274551403399 0.024283437198008021 0 -0.0066224170472682989 0.024057234423755271 0 -0.003627219137151525 0.025937373020827267 0 -0.0042759127147149779 0.026697685028936758 0 -0.0045461262664886776 0.026635494229914312 0 -0.003627219137151525 0.025937373020827267 0 -0.0042759127147149779 0.026697685028936758 0 -0.0040505905413516828 0.026825440624533386 0 -0.0043135575633283293 0.027637717639196844 0 -0.0045390625981703214 0.027272246205622581 0 -0.0040505905413516828 0.026825440624533386 0 -0.0045390625981703214 0.027272246205622581 0 -0.0042759127147149779 0.026697685028936758 0 -0.0040505905413516828 0.026825440624533386 0 -0.0045954922305424546 0.026947213379974091 0 -0.0045390625981703214 0.027272246205622581 0 -0.0042759127147149779 0.026697685028936758 0 -0.0044500410963994753 0.02672017026750878 0 -0.0042759127147149779 0.026697685028936758 0 -0.0045461262664886776 0.026635494229914312 0 -0.0044500410963994753 0.02672017026750878 0 -0.0045954922305424546 0.026947213379974091 0 -0.0042759127147149779 0.026697685028936758 0 -0.0037204808848789925 0.026704887997756586 0 -0.0043135575633283293 0.027637717639196844 0 -0.0040505905413516828 0.026825440624533386 0 -0.006247650091531747 0.022598137176270114 0 -0.0071355749094305634 0.021040269244141301 0 -0.0081904064857341533 0.022045065645891031 0 -0.0071355749094305634 0.021040269244141301 0 -0.0081904064857341533 0.022045065645891031 0 -0.0080547372543924838 0.020555051489382494 0 -0.0052961409370630534 0.026872185305365642 0 -0.0068337782636334367 0.025291415650373142 0 -0.0058032707746016252 0.023640878150896317 0 -0.0052961409370630534 0.026872185305365642 0 -0.0068337782636334367 0.025291415650373142 0 -0.008728828518400877 0.026129577225298458 0 -0.0051299441878565966 0.027234716193677882 0 -0.0045360538145707702 0.026534459594086741 0 -0.0070736416935962112 0.026262731656037902 0 -0.0066224170472682989 0.024057234423755271 0 -0.0070656105425973212 0.0211973975784642 0 -0.0044500410963994753 0.02672017026750878 0 -0.0045461262664886776 0.026635494229914312 0 -0.0045306202221477273 0.026660861197970873 0 -0.0066224170472682989 0.024057234423755271 0 -0.0066187356421831258 0.024068410801498075 0 -0.0081904064857341533 0.022045065645891031 0 -0.0086480525860759133 0.019408062982056346 0 -0.0080547372543924838 0.020555051489382494 0 -0.0068337782636334367 0.025291415650373142 0 -0.0058032707746016252 0.023640878150896317 0 -0.007767405091598182 0.023978607256897367 0 -0.0086480525860759133 0.019408062982056346 0 -0.008065563954185978 0.019924976563013022 0 -0.0077106310007954513 0.019268074707402043 0 -0.0086480525860759133 0.019408062982056346 0 -0.0080547372543924838 0.020555051489382494 0 -0.008065563954185978 0.019924976563013022 0 -0.0060082667289922979 0.020101446276303402 0 -0.0071355749094305634 0.021040269244141301 0 -0.0067020842495588741 0.018707645464388255 0 -0.0065821754389181943 0.018910075338616973 0 -0.0061226512960173476 0.017063338563481748 0 -0.0071355749094305634 0.021040269244141301 0 -0.0077106310007954513 0.019268074707402043 0 -0.0062540358574865815 0.018490485922465778 0 -0.0071355749094305634 0.021040269244141301 0 -0.008065563954185978 0.019924976563013022 0 -0.0077106310007954513 0.019268074707402043 0 -0.0071355749094305634 0.021040269244141301 0 -0.0080547372543924838 0.020555051489382494 0 -0.008065563954185978 0.019924976563013022 0 -0.011556975842310527 0.025362389087547087 0 -0.008728828518400877 0.026129577225298458 0 -0.010120846544206761 0.024000229899297006 0 -0.01013223187476966 0.027251743720382859 0 -0.011556975842310527 0.025362389087547087 0 -0.0070736416935962112 0.026262731656037902 0 -0.0093870051618835746 0.024934563978493439 0 -0.0078429949080940902 0.024941547101987191 0 -0.0066224170472682989 0.024057234423755271 0 -0.0078429949080940902 0.024941547101987191 0 -0.0068337782636334367 0.025291415650373142 0 -0.008728828518400877 0.026129577225298458 0 -0.007767405091598182 0.023978607256897367 0 -0.007767405091598182 0.023978607256897367 0 -0.010120846544206761 0.024000229899297006 0 -0.0088327924669220365 0.022288267376581791 0 -0.008728828518400877 0.026129577225298458 0 -0.007767405091598182 0.023978607256897367 0 -0.010120846544206761 0.024000229899297006 0 -0.0058032707746016252 0.023640878150896317 0 -0.007767405091598182 0.023978607256897367 0 -0.0073374959758070769 0.022160915801663648 0 -0.010632781174054088 0.022233224148382018 0 -0.010222440550351883 0.020336012684954087 0 -0.012488248900299767 0.021837012280750492 0 -0.010120846544206761 0.024000229899297006 0 -0.010632781174054088 0.022233224148382018 0 -0.011081608562452477 0.023271686132602578 0 -0.010632781174054088 0.022233224148382018 0 -0.0088327924669220365 0.022288267376581791 0 -0.010222440550351883 0.020336012684954087 0 -0.010120846544206761 0.024000229899297006 0 -0.010632781174054088 0.022233224148382018 0 -0.0088327924669220365 0.022288267376581791 0 -0.007767405091598182 0.023978607256897367 0 -0.0088327924669220365 0.022288267376581791 0 -0.0073374959758070769 0.022160915801663648 0 -0.0088327924669220365 0.022288267376581791 0 -0.0073374959758070769 0.022160915801663648 0 -0.0081816287497273009 0.02061641372376212 0 -0.0081816287497273009 0.02061641372376212 0 -0.0061131116978894841 0.020102498025577013 0 -0.0086062884312362083 0.018351693035622927 0 -0.0073374959758070769 0.022160915801663648 0 -0.0081816287497273009 0.02061641372376212 0 -0.0061131116978894841 0.020102498025577013 0 -0.0081816287497273009 0.02061641372376212 0 -0.010222440550351883 0.020336012684954087 0 -0.0086062884312362083 0.018351693035622927 0 -0.010222440550351883 0.020336012684954087 0 -0.011035756437186267 0.017342706985573247 0 -0.013068196557212589 0.01886303313068579 0 -0.0088327924669220365 0.022288267376581791 0 -0.0081816287497273009 0.02061641372376212 0 -0.010222440550351883 0.020336012684954087 0 -0.0046523465280372276 0.015523719910681374 0 -0.0072949985995057181 0.016847915237500743 0 -0.0052746703815730782 0.018039372610996189 0 -0.0077106310007954513 0.019268074707402043 0 -0.0072949985995057181 0.016847915237500743 0 -0.0052746703815730782 0.018039372610996189 0 -0.0065770430192148999 0.017447779389000554 0 -0.0061226512960173476 0.017063338563481748 0 -0.0070656105425973212 0.0211973975784642 0 -0.0075093816776450719 0.017760189223683446 0 -0.0086480525860759133 0.019408062982056346 0 -0.0077106310007954513 0.019268074707402043 0 -0.0072949985995057181 0.016847915237500743 0 -0.0086480525860759133 0.019408062982056346 0 -0.0072949985995057181 0.016847915237500743 0 -0.0089920654917794527 0.015466657851400794 0 -0.0058032707746016252 0.023640878150896317 0 -0.0073374959758070769 0.022160915801663648 0 -0.0061131116978894841 0.020102498025577013 0 -0.0072949985995057181 0.016847915237500743 0 -0.0089920654917794527 0.015466657851400794 0 -0.0063491361854436552 0.014694623863937524 0 -0.0046523465280372276 0.015523719910681374 0 -0.0072949985995057181 0.016847915237500743 0 -0.0063491361854436552 0.014694623863937524 0 -0.0040743556250419678 0.013124238137652785 0 -0.0063491361854436552 0.014694623863937524 0 -0.0066956598968981821 0.012587343247696579 0 -0.0049442673757318879 0.012749231927965628 0 -0.0053554825926812643 0.012689525152559451 0 -0.0089920654917794527 0.015466657851400794 0 -0.0063491361854436552 0.014694623863937524 0 -0.0066956598968981821 0.012587343247696579 0 -0.0075093816776450719 0.017760189223683446 0 -0.007949824152241821 0.014197734198425105 0 -0.0089920654917794527 0.015466657851400794 0 -0.0066956598968981821 0.012587343247696579 0 -0.0090971815060403964 0.012003740809612537 0 -0.0066956598968981821 0.012587343247696579 0 -0.007667518916054222 0.01057419403505209 0 -0.0090971815060403964 0.012003740809612537 0 -0.00904282893493338 0.0092259123056490921 0 -0.007667518916054222 0.01057419403505209 0 -0.0090971815060403964 0.012003740809612537 0 -0.0066956598968981821 0.012587343247696579 0 -0.007667518916054222 0.01057419403505209 0 -0.0059069716021815117 0.010867150632920033 0 -0.0046735170983273787 0.012953574373020832 0 -0.0066956598968981821 0.012587343247696579 0 -0.0059069716021815117 0.010867150632920033 0 -0.010222440550351883 0.020336012684954087 0 -0.011035756437186267 0.017342706985573247 0 -0.0086062884312362083 0.018351693035622927 0 -0.011035756437186267 0.017342706985573247 0 -0.0086062884312362083 0.018351693035622927 0 -0.0093084793102898387 0.015201130815542436 0 -0.0086062884312362083 0.018351693035622927 0 -0.0066388592804198692 0.015855974273604322 0 -0.0093084793102898387 0.015201130815542436 0 -0.0061131116978894841 0.020102498025577013 0 -0.0086062884312362083 0.018351693035622927 0 -0.0066388592804198692 0.015855974273604322 0 -0.0083846713408096546 0.011024892241693788 0 -0.007949824152241821 0.014197734198425105 0 -0.0075462341938914461 0.011316371311545396 0 -0.0066388592804198692 0.015855974273604322 0 -0.0093084793102898387 0.015201130815542436 0 -0.010479168944641537 0.013149506912654431 0 -0.0093084793102898387 0.015201130815542436 0 -0.011467476621290914 0.015007602820900636 0 -0.011035756437186267 0.017342706985573247 0 -0.0093084793102898387 0.015201130815542436 0 -0.011467476621290914 0.015007602820900636 0 -0.010479168944641537 0.013149506912654431 0 -0.011467476621290914 0.015007602820900636 0 -0.012290550577004617 0.01365319085557812 0 -0.011035756437186267 0.017342706985573247 0 -0.011467476621290914 0.015007602820900636 0 -0.013861035516316672 0.015381647583025003 0 -0.011467476621290914 0.015007602820900636 0 -0.012290550577004617 0.01365319085557812 0 -0.013861035516316672 0.015381647583025003 0 -0.013737725284656757 0.013271445922324956 0 -0.013861035516316672 0.015381647583025003 0 -0.015059050755763494 0.013601758344215878 0 -0.013737725284656757 0.013271445922324956 0 -0.012290550577004617 0.01365319085557812 0 -0.013861035516316672 0.015381647583025003 0 -0.013861035516316672 0.015381647583025003 0 -0.016553758950823776 0.014513234218978592 0 -0.015542619429613656 0.017298153622204656 0 -0.016351940300757713 0.01274611620864013 0 -0.016553758950823776 0.014513234218978592 0 -0.015059050755763494 0.013601758344215878 0 -0.013861035516316672 0.015381647583025003 0 -0.016553758950823776 0.014513234218978592 0 -0.015059050755763494 0.013601758344215878 0 -0.011035756437186267 0.017342706985573247 0 -0.013861035516316672 0.015381647583025003 0 -0.013068196557212589 0.01886303313068579 0 -0.013861035516316672 0.015381647583025003 0 -0.015542619429613656 0.017298153622204656 0 -0.013068196557212589 0.01886303313068579 0 -0.010222440550351883 0.020336012684954087 0 -0.013068196557212589 0.01886303313068579 0 -0.012488248900299767 0.021837012280750492 0 -0.013068196557212589 0.01886303313068579 0 -0.015646454390701989 0.021173244217937759 0 -0.012488248900299767 0.021837012280750492 0 -0.015542619429613656 0.017298153622204656 0 -0.013068196557212589 0.01886303313068579 0 -0.015646454390701989 0.021173244217937759 0 -0.015542619429613656 0.017298153622204656 0 -0.015646454390701989 0.021173244217937759 0 -0.018278459441721396 0.019200921746941858 0 -0.014743369831666275 0.02554190136377596 0 -0.015646454390701989 0.021173244217937759 0 -0.012488248900299767 0.021837012280750492 0 -0.014743369831666275 0.02554190136377596 0 -0.015646454390701989 0.021173244217937759 0 -0.019647868319113693 0.022498261700236569 0 -0.014244208997589427 0.026282556921949952 0 -0.013428456464988478 0.024337050544945719 0 -0.014743369831666275 0.02554190136377596 0 -0.014599249075776838 0.026960922177267213 0 -0.012488248900299767 0.021837012280750492 0 -0.011647417184163084 0.023976437274787862 0 -0.011081608562452477 0.023271686132602578 0 -0.012488248900299767 0.021837012280750492 0 -0.010632781174054088 0.022233224148382018 0 -0.011081608562452477 0.023271686132602578 0 -0.012488248900299767 0.021837012280750492 0 -0.019647868319113693 0.022498261700236569 0 -0.018278459441721396 0.019200921746941858 0 -0.025043516201638284 0.019857422523227829 0 -0.020867189520585035 0.022511551479298213 0 -0.025265225237978799 0.023117189699049079 0 -0.025747691266949542 0.026911147387889994 0 -0.017595991706351663 0.024099351418237439 0 -0.02057969466224847 0.022453080986177539 0 -0.015646454390701989 0.021173244217937759 0 -0.019647868319113693 0.022498261700236569 0 -0.018278459441721396 0.019200921746941858 0 -0.02057969466224847 0.022453080986177539 0 -0.025471630147220557 0.019786233387906575 0 -0.020867189520585035 0.022511551479298213 0 -0.025265225237978799 0.023117189699049079 0 -0.026431873951753289 0.019658775895007984 0 -0.018278459441721396 0.019200921746941858 0 -0.019629402052254771 0.016045645259189438 0 -0.025043516201638284 0.019857422523227829 0 -0.016553758950823776 0.014513234218978592 0 -0.015542619429613656 0.017298153622204656 0 -0.019629402052254771 0.016045645259189438 0 -0.015542619429613656 0.017298153622204656 0 -0.018278459441721396 0.019200921746941858 0 -0.019629402052254771 0.016045645259189438 0 -0.018659490233659162 0.01248718715973246 0 -0.016553758950823776 0.014513234218978592 0 -0.019629402052254771 0.016045645259189438 0 -0.018659490233659162 0.01248718715973246 0 -0.019629402052254771 0.016045645259189438 0 -0.021225951211000932 0.013520965369590398 0 -0.019629402052254771 0.016045645259189438 0 -0.021225951211000932 0.013520965369590398 0 -0.023328442809104174 0.014947746792821607 0 -0.022793839659157444 0.020075955121483278 0 -0.024394804137984481 0.021561940672345681 0 -0.02346111166131843 0.012874915103977596 0 -0.021225951211000932 0.013520965369590398 0 -0.023328442809104174 0.014947746792821607 0 -0.019629402052254771 0.016045645259189438 0 -0.026033241528997875 0.014415961188450378 0 -0.025043516201638284 0.019857422523227829 0 -0.026033241528997875 0.014415961188450378 0 -0.031471207571935909 0.016623847559709255 0 -0.025043516201638284 0.019857422523227829 0 -0.02850638407140273 0.018113780354850152 0 -0.025471630147220557 0.019786233387906575 0 -0.024856083714044394 0.012976681912200957 0 -0.023328442809104174 0.014947746792821607 0 -0.026614084756116103 0.014133131958910673 0 -0.026033241528997875 0.014415961188450378 0 -0.032887906330724102 0.01303035704386806 0 -0.031471207571935909 0.016623847559709255 0 -0.024856083714044394 0.012976681912200957 0 -0.02346111166131843 0.012874915103977596 0 -0.023328442809104174 0.014947746792821607 0 -0.024394804137984481 0.021561940672345681 0 -0.01883556836024055 0.029772731564977253 0 -0.017700003167522294 0.044844780831175164 0 -0.016071096512409792 0.043864973995313049 0 -0.017231917275433103 0.042700123840715275 0 -0.017700003167522294 0.044844780831175164 0 -0.015391709082615937 0.045380792515376536 0 -0.016071096512409792 0.043864973995313049 0 -0.01883556836024055 0.029772731564977253 0 -0.013245626336135921 0.040582506182553456 0 -0.016071096512409792 0.043864973995313049 0 -0.015555009423699303 0.042324608248449649 0 -0.017231917275433103 0.042700123840715275 0 -0.032887906330724102 0.01303035704386806 0 -0.033814091510232028 0.017812394355492929 0 -0.031471207571935909 0.016623847559709255 0 -0.033814091510232028 0.017812394355492929 0 -0.031471207571935909 0.016623847559709255 0 -0.031026266451107336 0.020617328678373001 0 -0.01883556836024055 0.029772731564977253 0 -0.019882010855923577 0.034263722842352851 0 -0.033814091510232028 0.017812394355492929 0 -0.034795795927042308 0.022090864050368045 0 -0.031026266451107336 0.020617328678373001 0 -0.034795795927042308 0.022090864050368045 0 -0.031026266451107336 0.020617328678373001 0 -0.031567608838068709 0.0271576378467068 0 -0.019882010855923577 0.034263722842352851 0 -0.019636191428322663 0.044504026201593189 0 -0.015555009423699303 0.042324608248449649 0 -0.017231917275433103 0.042700123840715275 0 -0.016786732810973058 0.040576686998964065 0 -0.013161554220040311 0.053594088385303246 0 -0.019636191428322663 0.044504026201593189 0 -0.010994160821185863 0.075872777393040422 0 -0.012755658660011208 0.073563892915995535 0 -0.010241609667716122 0.074027457874840233 0 -0.019636191428322663 0.044504026201593189 0 -0.017252931071149284 0.054529618089514141 0 -0.012755658660011208 0.073563892915995535 0 -0.010237072932500729 0.071809433528768757 0 -0.012091170745062952 0.069942044581296936 0 -0.012755658660011208 0.073563892915995535 0 -0.010241609667716122 0.074027457874840233 0 -0.010237072932500729 0.071809433528768757 0 -0.019636191428322663 0.044504026201593189 0 -0.027238424153113443 0.034278339742120321 0 -0.027964811819229603 0.023455837222658614 0 -0.031026266451107336 0.020617328678373001 0 -0.031567608838068709 0.0271576378467068 0 -0.025265225237978799 0.023117189699049079 0 -0.027964811819229603 0.023455837222658614 0 -0.025747691266949542 0.026911147387889994 0 -0.025265225237978799 0.023117189699049079 0 -0.027964811819229603 0.023455837222658614 0 -0.026431873951753289 0.019658775895007984 0 -0.031471207571935909 0.016623847559709255 0 -0.026431873951753289 0.019658775895007984 0 -0.031026266451107336 0.020617328678373001 0 -0.027964811819229603 0.023455837222658614 0 -0.026431873951753289 0.019658775895007984 0 -0.031026266451107336 0.020617328678373001 0 -0.0050572575854462192 0.077497291978085261 0 -0.0064084397613814919 0.076192707644302193 0 -0.0040426249947255717 0.075663746828315712 0 -0.003671326049654533 0.077104633015637025 0 -0.0050572575854462192 0.077497291978085261 0 -0.0040426249947255717 0.075663746828315712 0 -0.0039669616443689937 0.078230280858428008 0 -0.003671326049654533 0.077104633015637025 0 -0.0050572575854462192 0.077497291978085261 0 -0.0039669616443689937 0.078230280858428008 0 -0.0050572575854462192 0.077497291978085261 0 -0.0048279413943586201 0.078646569331932148 0 -0.0039880272874406285 0.079385951604629329 0 -0.0039669616443689937 0.078230280858428008 0 -0.0048279413943586201 0.078646569331932148 0 -0.005523516342959129 0.07897446995609618 0 -0.0048279413943586201 0.078646569331932148 0 -0.0055874543747100299 0.078429288621452625 0 -0.0050572575854462192 0.077497291978085261 0 -0.0048279413943586201 0.078646569331932148 0 -0.0055874543747100299 0.078429288621452625 0 -0.0050572575854462192 0.077497291978085261 0 -0.0055874543747100299 0.078429288621452625 0 -0.0063952338545936755 0.078043533420057418 0 -0.0055874543747100299 0.078429288621452625 0 -0.0061238748335015088 0.078897004663740763 0 -0.0063952338545936755 0.078043533420057418 0 -0.005523516342959129 0.07897446995609618 0 -0.0055874543747100299 0.078429288621452625 0 -0.0061238748335015088 0.078897004663740763 0 -0.0061238748335015088 0.078897004663740763 0 -0.0067420515255654087 0.07885478176075475 0 -0.0063952338545936755 0.078043533420057418 0 -0.0067420515255654087 0.07885478176075475 0 -0.0063952338545936755 0.078043533420057418 0 -0.0076056307173384425 0.078364117325442254 0 -0.0063952338545936755 0.078043533420057418 0 -0.0064084397613814919 0.076192707644302193 0 -0.0075455305050997762 0.077405451766724365 0 -0.0050572575854462192 0.077497291978085261 0 -0.0063952338545936755 0.078043533420057418 0 -0.0064084397613814919 0.076192707644302193 0 -0.0062519784975030076 0.075860480945941097 0 -0.0091903477623293921 0.07676634664262065 0 -0.0084308103031743159 0.074686380172780051 0 -0.0064084397613814919 0.076192707644302193 0 -0.0075455305050997762 0.077405451766724365 0 -0.0091903477623293921 0.07676634664262065 0 -0.0061827124686524128 0.076074453915435769 0 -0.0075165928599216858 0.076440410998218702 0 -0.0075455305050997762 0.077405451766724365 0 -0.008432249814480831 0.077550473981352647 0 -0.0091903477623293921 0.07676634664262065 0 -0.0093026935778690641 0.051538774006415454 0 -0.010162235561273197 0.055547952349472886 0 -0.0063952338545936755 0.078043533420057418 0 -0.0075455305050997762 0.077405451766724365 0 -0.0076056307173384425 0.078364117325442254 0 -0.0077964368632692065 0.079363280873783998 0 -0.0076056307173384425 0.078364117325442254 0 -0.0092419845352312516 0.077839479105966933 0 -0.0071104893430372091 0.079425577931706029 0 -0.0067420515255654087 0.07885478176075475 0 -0.0076056307173384425 0.078364117325442254 0 -0.0076056307173384425 0.078364117325442254 0 -0.008432249814480831 0.077550473981352647 0 -0.0092419845352312516 0.077839479105966933 0 -0.0075455305050997762 0.077405451766724365 0 -0.0076056307173384425 0.078364117325442254 0 -0.008432249814480831 0.077550473981352647 0 -0.013033384395862475 0.045911059602367736 0 -0.015391709082615937 0.045380792515376536 0 -0.014297110876915591 0.044095585396299625 0 -0.015391709082615937 0.045380792515376536 0 -0.016071096512409792 0.043864973995313049 0 -0.014297110876915591 0.044095585396299625 0 -0.013161554220040311 0.053594088385303246 0 -0.010162235561273197 0.055547952349472886 0 -0.010994160821185863 0.075872777393040422 0 -0.0092419845352312516 0.077839479105966933 0 -0.0091903477623293921 0.07676634664262065 0 -0.016071096512409792 0.043864973995313049 0 -0.015555009423699303 0.042324608248449649 0 -0.014297110876915591 0.044095585396299625 0 -0.008432249814480831 0.077550473981352647 0 -0.0092419845352312516 0.077839479105966933 0 -0.0091903477623293921 0.07676634664262065 0 -0.010994160821185863 0.075872777393040422 0 -0.0091903477623293921 0.07676634664262065 0 -0.0097063464349287313 0.075348191262230468 0 -0.0091903477623293921 0.07676634664262065 0 -0.0097063464349287313 0.075348191262230468 0 -0.0084308103031743159 0.074686380172780051 0 -0.010994160821185863 0.075872777393040422 0 -0.0097063464349287313 0.075348191262230468 0 -0.010241609667716122 0.074027457874840233 0 -0.0097063464349287313 0.075348191262230468 0 -0.010241609667716122 0.074027457874840233 0 -0.0084308103031743159 0.074686380172780051 0 -0.010241609667716122 0.074027457874840233 0 -0.0086956665997051392 0.073103032962149622 0 -0.0084308103031743159 0.074686380172780051 0 -0.010241609667716122 0.074027457874840233 0 -0.010237072932500729 0.071809433528768757 0 -0.0086956665997051392 0.073103032962149622 0 -0.010237072932500729 0.071809433528768757 0 -0.0086956665997051392 0.073103032962149622 0 -0.0080762259779436612 0.071378109977827023 0 -0.0086956665997051392 0.073103032962149622 0 -0.006906793494885378 0.073267542654647577 0 -0.0084308103031743159 0.074686380172780051 0 -0.0086956665997051392 0.073103032962149622 0 -0.006906793494885378 0.073267542654647577 0 -0.0080762259779436612 0.071378109977827023 0 -0.006906793494885378 0.073267542654647577 0 -0.0069405364696877849 0.071461398224602693 0 -0.0080762259779436612 0.071378109977827023 0 -0.0062519784975030076 0.075860480945941097 0 -0.006906793494885378 0.073267542654647577 0 -0.0084308103031743159 0.074686380172780051 0 -0.0062519784975030076 0.075860480945941097 0 -0.006906793494885378 0.073267542654647577 0 -0.0050776295625400737 0.074151042759049976 0 -0.006906793494885378 0.073267542654647577 0 -0.0051660933121584034 0.072417886544926147 0 -0.0069405364696877849 0.071461398224602693 0 -0.006906793494885378 0.073267542654647577 0 -0.0050776295625400737 0.074151042759049976 0 -0.0051660933121584034 0.072417886544926147 0 -0.0028902581323560213 0.07359392047324613 0 -0.0050776295625400737 0.074151042759049976 0 -0.0051660933121584034 0.072417886544926147 0 -0.0028902581323560213 0.07359392047324613 0 -0.0050776295625400737 0.074151042759049976 0 -0.0036703753668176266 0.075244505612610785 0 -0.0061827124686524128 0.076074453915435769 0 -0.0040469055880678556 0.075514615337145763 0 -0.0062519784975030076 0.075860480945941097 0 -0.0050776295625400737 0.074151042759049976 0 -0.0036703753668176266 0.075244505612610785 0 -0.0022400851088084719 0.071015898918380019 0 -0.0051660933121584034 0.072417886544926147 0 -0.0056761723118789855 0.070182673071988472 0 -0.0022400851088084719 0.071015898918380019 0 -0.0036889035857009447 0.068339900628372752 0 -0.0056761723118789855 0.070182673071988472 0 -0.0055530976386329312 0.070525998425946562 0 -0.0057162185512978324 0.069090590975246044 0 -0.0051660933121584034 0.072417886544926147 0 -0.0069405364696877849 0.071461398224602693 0 -0.0054653483140707079 0.068915786979264454 0 -0.0054653483140707079 0.068915786979264454 0 -0.0076098973953699208 0.069649113833844756 0 -0.0079318143017262435 0.067023976813184935 0 -0.0069405364696877849 0.071461398224602693 0 -0.0054653483140707079 0.068915786979264454 0 -0.0076098973953699208 0.069649113833844756 0 -0.0076098973953699208 0.069649113833844756 0 -0.0096047573819438067 0.068528940237098684 0 -0.0079318143017262435 0.067023976813184935 0 -0.0076098973953699208 0.069649113833844756 0 -0.0080762259779436612 0.071378109977827023 0 -0.0096047573819438067 0.068528940237098684 0 -0.0069405364696877849 0.071461398224602693 0 -0.0076098973953699208 0.069649113833844756 0 -0.0080762259779436612 0.071378109977827023 0 -0.0080762259779436612 0.071378109977827023 0 -0.010479683440282482 0.067396950529996003 0 -0.0090820547911158473 0.061882179435270725 0 -0.010237072932500729 0.071809433528768757 0 -0.0080762259779436612 0.071378109977827023 0 -0.010479683440282482 0.067396950529996003 0 -0.010237072932500729 0.071809433528768757 0 -0.010479683440282482 0.067396950529996003 0 -0.014420952973155923 0.067541098068212804 0 -0.010479683440282482 0.067396950529996003 0 -0.011190528466183668 0.064284609918965605 0 -0.014420952973155923 0.067541098068212804 0 -0.0089737828404598072 0.067942849846432951 0 -0.0096672629448284926 0.06525439542339119 0 -0.010479683440282482 0.067396950529996003 0 -0.011190528466183668 0.064284609918965605 0 -0.0090820547911158473 0.061882179435270725 0 -0.011190528466183668 0.064284609918965605 0 -0.0090820547911158473 0.061882179435270725 0 -0.012007931819949616 0.06139879511856159 0 -0.0090820547911158473 0.061882179435270725 0 -0.010901057793836964 0.05747164075775836 0 -0.012007931819949616 0.06139879511856159 0 -0.0096047573819438067 0.068528940237098684 0 -0.010860505721124318 0.064848260104509475 0 -0.0079318143017262435 0.067023976813184935 0 -0.0096672629448284926 0.06525439542339119 0 -0.010753103024855847 0.061608548070382581 0 -0.010860505721124318 0.064848260104509475 0 -0.0079318143017262435 0.067023976813184935 0 -0.0079837390785965287 0.06437388235625717 0 -0.0054653483140707079 0.068915786979264454 0 -0.0079318143017262435 0.067023976813184935 0 -0.0059287371091983924 0.065727306835466376 0 -0.0057162185512978324 0.069090590975246044 0 -0.0060135277590842714 0.066556824220630015 0 -0.0079318143017262435 0.067023976813184935 0 -0.0059287371091983924 0.065727306835466376 0 -0.0079837390785965287 0.06437388235625717 0 -0.0036889035857009447 0.068339900628372752 0 -0.0063839670721360653 0.066856848129912633 0 -0.0044051998504291284 0.065296973209248294 0 -0.0036889035857009447 0.068339900628372752 0 -0.0056761723118789855 0.070182673071988472 0 -0.0063839670721360653 0.066856848129912633 0 -0.026465919913351857 0.037331514701583711 0 -0.026484062173646582 0.037189815728463749 0 -0.026308732602496658 0.03716898099466024 0 -0.025747691266949542 0.026911147387889994 0 -0.031567608838068709 0.0271576378467068 0 -0.02836667672670385 0.032545008419266205 0 -0.027238424153113443 0.034278339742120321 0 -0.026891791271464485 0.035209939898014277 0 -0.024777795048918673 0.030337734905372945 0 -0.022780891439573542 0.032794729207447852 0 -0.02836667672670385 0.032545008419266205 0 -0.024777795048918673 0.030337734905372945 0 -0.025747691266949542 0.026911147387889994 0 -0.02836667672670385 0.032545008419266205 0 -0.027964811819229603 0.023455837222658614 0 -0.025747691266949542 0.026911147387889994 0 -0.031567608838068709 0.0271576378467068 0 -0.026205505713165038 0.037733742973996114 0 -0.026465919913351857 0.037331514701583711 0 -0.026171964443951021 0.037345540245423629 0 -0.01300263868983295 0.060209591183848402 0 -0.017252931071149284 0.054529618089514141 0 -0.011190528466183668 0.064284609918965605 0 -0.014420952973155923 0.067541098068212804 0 -0.012007931819949616 0.06139879511856159 0 -0.017252931071149284 0.054529618089514141 0 -0.01704066476967328 0.057872994102476587 0 -0.012349433035391487 0.062793646825708802 0 -0.012007931819949616 0.06139879511856159 0 -0.01391551653014156 0.060782427563554252 0 -0.026465919913351857 0.037331514701583711 0 -0.026171964443951021 0.037345540245423629 0 -0.026484062173646582 0.037189815728463749 0 -0.017252931071149284 0.054529618089514141 0 -0.0199858868490435 0.050318215652845472 0 -0.01391551653014156 0.060782427563554252 0 -0.012858001739579947 0.059192625183868607 0 -0.013844283733249694 0.058558517402995829 0 -0.012007931819949616 0.06139879511856159 0 -0.01391551653014156 0.060782427563554252 0 -0.012858001739579947 0.059192625183868607 0 -0.010901057793836964 0.05747164075775836 0 -0.012007931819949616 0.06139879511856159 0 -0.012858001739579947 0.059192625183868607 0 -0.010901057793836964 0.05747164075775836 0 -0.012858001739579947 0.059192625183868607 0 -0.012954772920472176 0.057174369758038343 0 -0.012858001739579947 0.059192625183868607 0 -0.013844283733249694 0.058558517402995829 0 -0.012954772920472176 0.057174369758038343 0 -0.013844283733249694 0.058558517402995829 0 -0.013985150110347172 0.056998340105831054 0 -0.012954772920472176 0.057174369758038343 0 -0.013844283733249694 0.058558517402995829 0 -0.015305983344534283 0.058356509609379631 0 -0.013985150110347172 0.056998340105831054 0 -0.0199858868490435 0.050318215652845472 0 -0.020566679987456312 0.049018602076906906 0 -0.026484062173646582 0.037189815728463749 0 -0.026313878382899943 0.037885638133030634 0 -0.026308732602496658 0.03716898099466024 0 -0.01391551653014156 0.060782427563554252 0 -0.013844283733249694 0.058558517402995829 0 -0.015305983344534283 0.058356509609379631 0 -0.025905423073057977 0.036807322925483742 0 -0.026891791271464485 0.035209939898014277 0 -0.022734667699936834 0.036003237657195777 0 -0.025034591656778196 0.038591603166528113 0 -0.02836667672670385 0.032545008419266205 0 -0.020566679987456312 0.049018602076906906 0 -0.020125989683986125 0.049089808798404799 0 -0.025034591656778196 0.038591603166528113 0 -0.026313878382899943 0.037885638133030634 0 -0.025143170946154699 0.04062915572151235 0 -0.025034591656778196 0.038591603166528113 0 -0.026313878382899943 0.037885638133030634 0 -0.026308732602496658 0.03716898099466024 0 -0.015305983344534283 0.058356509609379631 0 -0.016018780226454303 0.055472367584114286 0 -0.014652857448909633 0.055623084757814509 0 -0.015305983344534283 0.058356509609379631 0 -0.016018780226454303 0.055472367584114286 0 -0.017566401109520288 0.055609089752678018 0 -0.016018780226454303 0.055472367584114286 0 -0.015947861305416828 0.054053348431820643 0 -0.014652857448909633 0.055623084757814509 0 -0.016018780226454303 0.055472367584114286 0 -0.015947861305416828 0.054053348431820643 0 -0.017095592057879628 0.053556406083537525 0 -0.015947861305416828 0.054053348431820643 0 -0.013922982695412799 0.054169074111462136 0 -0.018148552489964623 0.051413341865846604 0 -0.015947861305416828 0.054053348431820643 0 -0.014652857448909633 0.055623084757814509 0 -0.013922982695412799 0.054169074111462136 0 -0.013429336184557951 0.055662746723591575 0 -0.01308066494970762 0.055238942603884296 0 -0.013922982695412799 0.054169074111462136 0 -0.014652857448909633 0.055623084757814509 0 -0.013429336184557951 0.055662746723591575 0 -0.013922982695412799 0.054169074111462136 0 -0.015305983344534283 0.058356509609379631 0 -0.014652857448909633 0.055623084757814509 0 -0.013985150110347172 0.056998340105831054 0 -0.014652857448909633 0.055623084757814509 0 -0.013985150110347172 0.056998340105831054 0 -0.013429336184557951 0.055662746723591575 0 -0.012954772920472176 0.057174369758038343 0 -0.012224775537457098 0.055404128864196538 0 -0.013429336184557951 0.055662746723591575 0 -0.013985150110347172 0.056998340105831054 0 -0.012954772920472176 0.057174369758038343 0 -0.013429336184557951 0.055662746723591575 0 -0.010901057793836964 0.05747164075775836 0 -0.012954772920472176 0.057174369758038343 0 -0.012224775537457098 0.055404128864196538 0 -0.012224775537457098 0.055404128864196538 0 -0.013429336184557951 0.055662746723591575 0 -0.01308066494970762 0.055238942603884296 0 -0.01308066494970762 0.055238942603884296 0 -0.012464076846531988 0.056402491907168339 0 -0.013124060625544592 0.05553773461418287 0 -0.012224775537457098 0.055404128864196538 0 -0.01308066494970762 0.055238942603884296 0 -0.012464076846531988 0.056402491907168339 0 -0.011636317699760049 0.058814577250207473 0 -0.011996935700585425 0.057602102007408305 0 -0.012464076846531988 0.056402491907168339 0 -0.013124060625544592 0.05553773461418287 0 -0.012877001766047197 0.055621182833724588 0 -0.013124060625544592 0.05553773461418287 0 -0.013222076300361384 0.055496802257229694 0 -0.012877001766047197 0.055621182833724588 0 -0.013124060625544592 0.05553773461418287 0 -0.013222076300361384 0.055496802257229694 0 -0.013314849758495388 0.055320144838153167 0 -0.013124060625544592 0.05553773461418287 0 -0.013314849758495388 0.055320144838153167 0 -0.013440658981137287 0.055038968861548923 0 -0.013314849758495388 0.055320144838153167 0 -0.013173526149843545 0.055537584678561416 0 -0.013318869729630473 0.054989715045594391 0 -0.013222076300361384 0.055496802257229694 0 -0.013314849758495388 0.055320144838153167 0 -0.013173526149843545 0.055537584678561416 0 -0.013222076300361384 0.055496802257229694 0 -0.013173526149843545 0.055537584678561416 0 -0.013185224834234665 0.055468134494296911 0 -0.0048632693140736056 0.057601737287449627 0 -0.006536940161771667 0.057318481611837058 0 -0.012822605992240166 0.055575139258165235 0 -0.012613167426170987 0.054530777656442764 0 -0.012364238332434623 0.055170355671970733 0 -0.012822605992240166 0.055575139258165235 0 -0.012568356310121683 0.055754164767975747 0 -0.012364238332434623 0.055170355671970733 0 -0.012613167426170987 0.054530777656442764 0 -0.013922982695412799 0.054169074111462136 0 -0.011956292640181894 0.054135478763823276 0 -0.013173526149843545 0.055537584678561416 0 -0.013318869729630473 0.054989715045594391 0 -0.012613167426170987 0.054530777656442764 0 -0.014341789930722375 0.04743813390484946 0 -0.013197774578334327 0.04575709691358195 0 -0.013318869729630473 0.054989715045594391 0 -0.012613167426170987 0.054530777656442764 0 -0.013922982695412799 0.054169074111462136 0 -0.01308066494970762 0.055238942603884296 0 -0.013922982695412799 0.054169074111462136 0 -0.013440658981137287 0.055038968861548923 0 -0.01308066494970762 0.055238942603884296 0 -0.013124060625544592 0.05553773461418287 0 -0.013440658981137287 0.055038968861548923 0 -0.013314849758495388 0.055320144838153167 0 -0.013318869729630473 0.054989715045594391 0 -0.013440658981137287 0.055038968861548923 0 -0.013318869729630473 0.054989715045594391 0 -0.013922982695412799 0.054169074111462136 0 -0.013440658981137287 0.055038968861548923 0 -0.0035477783372734194 0.06315234960908539 0 -0.0065768564945896928 0.062696399731972843 0 -0.0058474197906326197 0.060251465326287133 0 -0.0035477783372734194 0.06315234960908539 0 -0.0027387073861187615 0.060470867758873108 0 -0.0058474197906326197 0.060251465326287133 0 -0.0063839670721360653 0.066856848129912633 0 -0.0044051998504291284 0.065296973209248294 0 -0.0065768564945896928 0.062696399731972843 0 -0.0035477783372734194 0.06315234960908539 0 -0.0044051998504291284 0.065296973209248294 0 -0.0065768564945896928 0.062696399731972843 0 -0.0060135277590842714 0.066556824220630015 0 -0.0061845843546350782 0.064976072475832286 0 -0.0059287371091983924 0.065727306835466376 0 -0.0065768564945896928 0.062696399731972843 0 -0.0079837390785965287 0.06437388235625717 0 -0.0065768564945896928 0.062696399731972843 0 -0.0088328943837178951 0.061653938070059186 0 -0.0058474197906326197 0.060251465326287133 0 -0.0065768564945896928 0.062696399731972843 0 -0.0088328943837178951 0.061653938070059186 0 -0.0079837390785965287 0.06437388235625717 0 -0.010860505721124318 0.064848260104509475 0 -0.0088328943837178951 0.061653938070059186 0 -0.0079837390785965287 0.06437388235625717 0 -0.010753103024855847 0.061608548070382581 0 -0.011636317699760049 0.058814577250207473 0 -0.010860505721124318 0.064848260104509475 0 -0.011870631829980327 0.06098424205797473 0 -0.0088328943837178951 0.061653938070059186 0 -0.011870631829980327 0.06098424205797473 0 -0.012464076846531988 0.056402491907168339 0 -0.0087347188680705293 0.058370109985938598 0 -0.012464076846531988 0.056402491907168339 0 -0.0087347188680705293 0.058370109985938598 0 -0.010690381095665983 0.055903719457063725 0 -0.011870631829980327 0.06098424205797473 0 -0.0088328943837178951 0.061653938070059186 0 -0.0087347188680705293 0.058370109985938598 0 -0.0087347188680705293 0.058370109985938598 0 -0.0081380694053432585 0.056190877709365476 0 -0.010690381095665983 0.055903719457063725 0 -0.0088328943837178951 0.061653938070059186 0 -0.0087347188680705293 0.058370109985938598 0 -0.0058474197906326197 0.060251465326287133 0 -0.0087347188680705293 0.058370109985938598 0 -0.0048515359772508225 0.057545550662620064 0 -0.0058474197906326197 0.060251465326287133 0 -0.0087347188680705293 0.058370109985938598 0 -0.0048515359772508225 0.057545550662620064 0 -0.0081380694053432585 0.056190877709365476 0 -0.0027387073861187615 0.060470867758873108 0 -0.0048515359772508225 0.057545550662620064 0 -0.0058474197906326197 0.060251465326287133 0 -0.0067051538185556045 0.055064287983777563 0 -0.0068276091842246339 0.055480064496653873 0 -0.0072157525641998654 0.054585443865208576 0 -0.0062672403373354021 0.055662282115467351 0 -0.0067051538185556045 0.055064287983777563 0 -0.0068276091842246339 0.055480064496653873 0 -0.0062672403373354021 0.055662282115467351 0 -0.0065676693579396683 0.05644781257573251 0 -0.0068276091842246339 0.055480064496653873 0 -0.005593181723413056 0.057806901154639732 0 -0.0061064050878093731 0.056799420037829923 0 -0.0048515359772508225 0.057545550662620064 0 -0.0068276091842246339 0.055480064496653873 0 -0.0081380694053432585 0.056190877709365476 0 -0.0068276091842246339 0.055480064496653873 0 -0.0083047348132533425 0.054894942320232905 0 -0.0072157525641998654 0.054585443865208576 0 -0.0068276091842246339 0.055480064496653873 0 -0.0083047348132533425 0.054894942320232905 0 -0.0081380694053432585 0.056190877709365476 0 -0.0083047348132533425 0.054894942320232905 0 -0.0081380694053432585 0.056190877709365476 0 -0.0095864528153811884 0.055215718245601522 0 -0.0083047348132533425 0.054894942320232905 0 -0.0095864528153811884 0.055215718245601522 0 -0.0097233406986333981 0.054463150849937927 0 -0.0081380694053432585 0.056190877709365476 0 -0.010690381095665983 0.055903719457063725 0 -0.0095864528153811884 0.055215718245601522 0 -0.010690381095665983 0.055903719457063725 0 -0.010862094994344432 0.054871108836177164 0 -0.0095864528153811884 0.055215718245601522 0 -0.010862094994344432 0.054871108836177164 0 -0.0097233406986333981 0.054463150849937927 0 -0.011267244857445451 0.053847132180897025 0 -0.010862094994344432 0.054871108836177164 0 -0.0095864528153811884 0.055215718245601522 0 -0.0097233406986333981 0.054463150849937927 0 -0.0026602147896057347 0.055946989314604831 0 -0.00020162832123847644 0.056157247643269868 0 -0.0097233406986333981 0.054463150849937927 0 -0.0086397044201619155 0.053689438087686815 0 -0.011267244857445451 0.053847132180897025 0 0.0062286712845958615 0.055798114477939767 0 0.0035468552970469801 0.055127038280671531 0 0.0083127387009516059 0.053524728238819506 0 0.0062286712845958615 0.055798114477939767 0 0.0057974921356922339 0.058287144872536056 0 0.0093166415550017187 0.054879080895134047 0 0.0062286712845958615 0.055798114477939767 0 0.0057974921356922339 0.058287144872536056 0 0.0041120480598861751 0.057234089710355221 0 0.0057974921356922339 0.058287144872536056 0 0.0041120480598861751 0.057234089710355221 0 0.0038565124367757539 0.059396331003012857 0 0.0062286712845958615 0.055798114477939767 0 0.0041120480598861751 0.057234089710355221 0 0.0035468552970469801 0.055127038280671531 0 0.0018752884074852596 0.057587532871533981 0 0.0035468552970469801 0.055127038280671531 0 -0.00210399958079186 0.056763258619605093 0 0.0041120480598861751 0.057234089710355221 0 0.0018752884074852596 0.057587532871533981 0 0.0035468552970469801 0.055127038280671531 0 0.0041120480598861751 0.057234089710355221 0 0.0018752884074852596 0.057587532871533981 0 0.0038565124367757539 0.059396331003012857 0 -0.0083047348132533425 0.054894942320232905 0 -0.0086397044201619155 0.053689438087686815 0 -0.0072157525641998654 0.054585443865208576 0 -0.0083047348132533425 0.054894942320232905 0 -0.0097233406986333981 0.054463150849937927 0 -0.0086397044201619155 0.053689438087686815 0 -0.0086397044201619155 0.053689438087686815 0 -0.0072157525641998654 0.054585443865208576 0 -0.0065844825378337368 0.054810156555197442 0 -0.0026602147896057347 0.055946989314604831 0 -0.0052587371367115564 0.056729665034561193 0 0.0018752884074852596 0.057587532871533981 0 -0.00210399958079186 0.056763258619605093 0 -0.00012904867672632679 0.059496178036676714 0 -0.00210399958079186 0.056763258619605093 0 -0.0061515466552760729 0.058982585240085775 0 -0.0094009453379911394 0.059131873695077081 0 -0.0052587371367115564 0.056729665034561193 0 -0.0074167562513652429 0.057649899255540892 0 -0.0085601352948638919 0.056048965936791338 0 -0.0065844825378337368 0.054810156555197442 0 -0.0070261721524749292 0.054526926470470916 0 -0.0085601352948638919 0.056048965936791338 0 -0.0065844825378337368 0.054810156555197442 0 -0.0094009453379911394 0.059131873695077081 0 -0.0072157525641998654 0.054585443865208576 0 -0.0065844825378337368 0.054810156555197442 0 -0.0070261721524749292 0.054526926470470916 0 -0.0061655030266415537 0.05498125046322936 0 -0.0067051538185556045 0.055064287983777563 0 -0.0070261721524749292 0.054526926470470916 0 -0.0067051538185556045 0.055064287983777563 0 -0.0072157525641998654 0.054585443865208576 0 -0.0070261721524749292 0.054526926470470916 0 0.01919620455091128 0.066878895022027249 0 0.019168599689129567 0.068315241540901323 0 0.020155973915089054 0.069186679574446644 0 0.01919620455091128 0.066878895022027249 0 0.019168599689129567 0.068315241540901323 0 0.018367326627918863 0.068621697248124711 0 0.01890534379773607 0.067540686122261481 0 0.018437495689794577 0.068123527965090039 0 0.018270505470391853 0.06908383909276325 0 -0.001805105669033752 0.042317622199780219 0 -0.0014658425776336859 0.042435989303095764 0 -0.0013814247857290749 0.043296243553266174 0 0.0028708420706383291 0.055847513779721289 0 0.0065760362396273123 0.061433446668480128 0 0.0028708420706383291 0.055847513779721289 0 0.0045391193956256376 0.050485032258182988 0 0.0028708420706383291 0.055847513779721289 0 0.0044023679106980603 0.057439814667663881 0 -0.013454629811700803 0.055024853462412322 0 -0.012987290622849491 0.055157825566572907 0 -0.013076321038736608 0.05457739858711598 0 0.01890534379773607 0.067540686122261481 0 0.018437495689794577 0.068123527965090039 0 0.018095338353185497 0.068266522161770427 0 0.018437495689794577 0.068123527965090039 0 0.018106706155307524 0.068270962712573241 0 0.018270505470391853 0.06908383909276325 0 0.0046788096481220629 0.057447083481502265 0 0.0044023679106980603 0.057439814667663881 0 -0.0010952363105227471 0.042594122500311818 0 -0.0014658425776336859 0.042435989303095764 0 -0.0013814247857290749 0.043296243553266174 0 -0.0010952363105227471 0.042594122500311818 0 -0.0009826038786456613 0.042970738699252456 0 -0.00079981971117602108 0.042703883681256022 0 -0.0010952363105227471 0.042594122500311818 0 -0.0011729051255738995 0.042170542266447966 0 -0.00064025971922561603 0.042187802207910331 0 -0.0010952363105227471 0.042594122500311818 0 -0.0014658425776336859 0.042435989303095764 0 -0.0011729051255738995 0.042170542266447966 0 -0.001805105669033752 0.042317622199780219 0 -0.0014658425776336859 0.042435989303095764 0 -0.0011729051255738995 0.042170542266447966 0 -0.012822605992240166 0.055575139258165235 0 -0.013041363716857959 0.056221394335374146 0 -0.012568356310121683 0.055754164767975747 0 0.0028708420706383291 0.055847513779721289 0 -0.0030939071556698445 0.051131923894574438 0 -0.001805105669033752 0.042317622199780219 0 -0.0011729051255738995 0.042170542266447966 0 -0.0010248073913036507 0.041560362069910796 0 -0.0011729051255738995 0.042170542266447966 0 -0.0010248073913036507 0.041560362069910796 0 -0.00064025971922561603 0.042187802207910331 0 -0.013173526149843545 0.055537584678561416 0 -0.013177560216420333 0.055450865585484156 0 -0.013185224834234665 0.055468134494296911 0 -0.0048632693140736056 0.057601737287449627 0 0.0028708420706383291 0.055847513779721289 0 0.0028708420706383291 0.055847513779721289 0 0.001799199803371807 0.055054805844175776 0 -0.013454629811700803 0.055024853462412322 0 -0.013185224834234665 0.055468134494296911 0 -0.012987290622849491 0.055157825566572907 0 -0.013222076300361384 0.055496802257229694 0 -0.013185224834234665 0.055468134494296911 0 -0.012877001766047197 0.055621182833724588 0 -0.012877001766047197 0.055621182833724588 0 -0.011886020876172977 0.055399188976149996 0 -0.012517821653600637 0.055095608117431819 0 -0.013185224834234665 0.055468134494296911 0 -0.012877001766047197 0.055621182833724588 0 -0.012987290622849491 0.055157825566572907 0 -0.012877001766047197 0.055621182833724588 0 -0.012987290622849491 0.055157825566572907 0 -0.012517821653600637 0.055095608117431819 0 -0.012464076846531988 0.056402491907168339 0 -0.010690381095665983 0.055903719457063725 0 -0.011886020876172977 0.055399188976149996 0 -0.012464076846531988 0.056402491907168339 0 -0.012877001766047197 0.055621182833724588 0 -0.011886020876172977 0.055399188976149996 0 -0.010690381095665983 0.055903719457063725 0 -0.010862094994344432 0.054871108836177164 0 -0.011886020876172977 0.055399188976149996 0 -0.010862094994344432 0.054871108836177164 0 -0.011886020876172977 0.055399188976149996 0 -0.011957259058831429 0.054764693625234222 0 -0.011886020876172977 0.055399188976149996 0 -0.011957259058831429 0.054764693625234222 0 -0.012517821653600637 0.055095608117431819 0 -0.010862094994344432 0.054871108836177164 0 -0.011957259058831429 0.054764693625234222 0 -0.011267244857445451 0.053847132180897025 0 -0.011957259058831429 0.054764693625234222 0 -0.013076321038736608 0.05457739858711598 0 -0.011267244857445451 0.053847132180897025 0 0.0044023679106980603 0.057439814667663881 0 -0.00020162832123847644 0.056157247643269868 0 -0.011957259058831429 0.054764693625234222 0 -0.012517821653600637 0.055095608117431819 0 -0.013076321038736608 0.05457739858711598 0 -0.012987290622849491 0.055157825566572907 0 -0.012517821653600637 0.055095608117431819 0 -0.013076321038736608 0.05457739858711598 0 0.016452182038986459 0.069916911724672251 0 0.017638532583028735 0.070612280820041687 0 0.018270505470391853 0.06908383909276325 0 0.0076584807907209007 0.063240836157684707 0 0.0065760362396273123 0.061433446668480128 0 0.0044023679106980603 0.057439814667663881 0 0.0090969199181378801 0.060112973979005328 0 0.018106706155307524 0.068270962712573241 0 0.016452182038986459 0.069916911724672251 0 0.018270505470391853 0.06908383909276325 0 0.0062286712845958615 0.055798114477939767 0 0.0093166415550017187 0.054879080895134047 0 0.0083127387009516059 0.053524728238819506 0 0.012544396849997563 0.051945783491822502 0 0.0093166415550017187 0.054879080895134047 0 0.0083127387009516059 0.053524728238819506 0 0.016452182038986459 0.069916911724672251 0 0.017638532583028735 0.070612280820041687 0 0.016391511621666591 0.071828426477532861 0 0.014735205670651334 0.071737404403248176 0 0.016452182038986459 0.069916911724672251 0 0.016391511621666591 0.071828426477532861 0 0.0088111822681628798 0.063775828991276512 0 0.0090969199181378801 0.060112973979005328 0 0.017638532583028735 0.070612280820041687 0 0.018400731063862533 0.071870154118590462 0 0.016391511621666591 0.071828426477532861 0 0.019036599423375319 0.070022722563157336 0 0.02058854294831761 0.069943695781645138 0 0.018400731063862533 0.071870154118590462 0 -0.0013395241863427005 0.033036469488958366 0 -0.00221967453457764 0.0337158158643793 0 -0.0016133169344941015 0.034135207301463862 0 0.017638532583028735 0.070612280820041687 0 0.019036599423375319 0.070022722563157336 0 0.018400731063862533 0.071870154118590462 0 0.002627116730438746 0.047807930702094464 0 0.0056535361614209103 0.050712007333889086 0 0.019036599423375319 0.070022722563157336 0 0.019131194480996355 0.069133002700101906 0 0.018367326627918863 0.068621697248124711 0 0.017638532583028735 0.070612280820041687 0 0.019036599423375319 0.070022722563157336 0 0.018367326627918863 0.068621697248124711 0 0.019036599423375319 0.070022722563157336 0 0.019131194480996355 0.069133002700101906 0 0.02033510705564846 0.069329464168011973 0 0.019036599423375319 0.070022722563157336 0 0.02033510705564846 0.069329464168011973 0 0.02058854294831761 0.069943695781645138 0 0.0087093939048795144 0.054463225471229268 0 0.0045391193956256376 0.050485032258182988 0 0.019131194480996355 0.069133002700101906 0 0.019168599689129567 0.068315241540901323 0 0.02033510705564846 0.069329464168011973 0 0.019131194480996355 0.069133002700101906 0 0.019168599689129567 0.068315241540901323 0 0.018367326627918863 0.068621697248124711 0 -0.0009826038786456613 0.042970738699252456 0 -0.0011844527115301032 0.04346900568369097 0 -0.00045356133225524096 0.042794284899227639 0 -0.0010952363105227471 0.042594122500311818 0 -0.0009826038786456613 0.042970738699252456 0 -0.0013814247857290749 0.043296243553266174 0 0.0019081597117662306 0.046024084548853941 0 0.0029326003916689135 0.048377307959996257 0 0.0037902656488041013 0.047653283526381228 0 0.0045391193956256376 0.050485032258182988 0 0.002627116730438746 0.047807930702094464 0 0.0045391193956256376 0.050485032258182988 0 0.0027241070368474118 0.047215996463826966 0 0.002627116730438746 0.047807930702094464 0 0.0027241070368474118 0.047215996463826966 0 -0.0009826038786456613 0.042970738699252456 0 -0.0013814247857290749 0.043296243553266174 0 -0.0011844527115301032 0.04346900568369097 0 0.00074732246404114158 0.04116227664988658 0 0.00043173066706182761 0.041428806468615312 0 -0.0017743419129170308 0.039512220297580912 0 0.00074732246404114158 0.04116227664988658 0 -0.0017743419129170308 0.039512220297580912 0 -0.00088496340050584583 0.037439807435892883 0 0.0027241070368474118 0.047215996463826966 0 -0.0010676779169648011 0.034512462395440473 0 0.002627116730438746 0.047807930702094464 0 -0.0010227558454806132 0.036131565595164825 0 0.00016299963668511404 0.016884457746174426 0 0.0011297206308751016 0.016949169561609717 0 0.00089882504976125611 0.015340167147704325 0 -0.00104629175962561 0.043310127175622375 0 -0.00056903817115529351 0.043718797975044167 0 -0.00058972582332302188 0.043240615693054513 0 0.0011297206308751016 0.016949169561609717 0 0.0016934793098200512 0.016088907161335847 0 0.0029772473985178426 0.017660254953287349 0 0.00016299963668511404 0.016884457746174426 0 0.0011297206308751016 0.016949169561609717 0 0.0013518418126648275 0.017965454760714768 0 0.0011297206308751016 0.016949169561609717 0 0.0016934793098200512 0.016088907161335847 0 0.00089882504976125611 0.015340167147704325 0 0.0016934793098200512 0.016088907161335847 0 0.0017810892089379815 0.015355218094477228 0 0.00089882504976125611 0.015340167147704325 0 -0.00056903817115529351 0.043718797975044167 0 -0.0002039196109408215 0.042956739731687114 0 -0.00058972582332302188 0.043240615693054513 0 -0.00104629175962561 0.043310127175622375 0 -0.00058972582332302188 0.043240615693054513 0 -0.00045356133225524096 0.042794284899227639 0 -0.0002039196109408215 0.042956739731687114 0 -0.00058972582332302188 0.043240615693054513 0 -0.00045356133225524096 0.042794284899227639 0 -0.0010676779169648011 0.034512462395440473 0 0.00049646497241641286 0.030287461687857582 0 0.0027241070368474118 0.047215996463826966 0 0.0021395795145841274 0.046425356156728582 0 0.003169368565380264 0.016293517999900628 0 0.0026039253094863172 0.016187235596745269 0 0.0031951251351251004 0.015827185318930917 0 0.003169368565380264 0.016293517999900628 0 0.0026039253094863172 0.016187235596745269 0 0.0026628127117019848 0.016536874964507581 0 0.0016934793098200512 0.016088907161335847 0 0.0026039253094863172 0.016187235596745269 0 0.0026784659102815169 0.017057996620157494 0 0.00076180631142820307 0.018768203440480871 0 0.0012545388627069642 0.020556822893589045 0 0.0013220823269809883 0.019210329811906589 0 0.0012545388627069642 0.020556822893589045 0 0.0017810892089379815 0.015355218094477228 0 0.0026039253094863172 0.016187235596745269 0 0.0025057358174303741 0.015089762145288914 0 0.0016934793098200512 0.016088907161335847 0 0.0017810892089379815 0.015355218094477228 0 0.0026039253094863172 0.016187235596745269 0 0.0031951251351251004 0.015827185318930917 0 0.0032328442246813273 0.015162435274519718 0 0.0036098502004167678 0.015556836416435588 0 0.0031951251351251004 0.015827185318930917 0 0.0032328442246813273 0.015162435274519718 0 0.0025057358174303741 0.015089762145288914 0 0.0026039253094863172 0.016187235596745269 0 0.0031951251351251004 0.015827185318930917 0 0.0025057358174303741 0.015089762145288914 0 0.0036786159291618127 0.014186434703979685 0 0.0025057358174303741 0.015089762145288914 0 0.0026177408196463268 0.013480596859442981 0 0.0036786159291618127 0.014186434703979685 0 0.0032328442246813273 0.015162435274519718 0 0.0036098502004167678 0.015556836416435588 0 0.0036786159291618127 0.014186434703979685 0 0.0032328442246813273 0.015162435274519718 0 0.0025057358174303741 0.015089762145288914 0 0.0017810892089379815 0.015355218094477228 0 0.0025057358174303741 0.015089762145288914 0 0.0014708204735830272 0.013930231746767411 0 0.0025057358174303741 0.015089762145288914 0 0.0026177408196463268 0.013480596859442981 0 0.0014708204735830272 0.013930231746767411 0 0.0026177408196463268 0.013480596859442981 0 0.0014708204735830272 0.013930231746767411 0 0.0021269579676931722 0.012278536572084952 0 0.0036786159291618127 0.014186434703979685 0 0.0026177408196463268 0.013480596859442981 0 0.0038498108658307556 0.012925153488725104 0 -0.00045356133225524096 0.042794284899227639 0 0.00021414110771304307 0.042040375107844946 0 -0.00064025971922561603 0.042187802207910331 0 -0.0010952363105227471 0.042594122500311818 0 -0.00079981971117602108 0.042703883681256022 0 -0.00064025971922561603 0.042187802207910331 0 -0.0009826038786456613 0.042970738699252456 0 -0.00079981971117602108 0.042703883681256022 0 -0.00045356133225524096 0.042794284899227639 0 -0.00079981971117602108 0.042703883681256022 0 -0.00045356133225524096 0.042794284899227639 0 -0.00064025971922561603 0.042187802207910331 0 0.0017810892089379815 0.015355218094477228 0 0.00089882504976125611 0.015340167147704325 0 0.0014708204735830272 0.013930231746767411 0 0.00049646497241641286 0.030287461687857582 0 0.001250252105424959 0.028713697699040041 0 -0.0002039196109408215 0.042956739731687114 0 -0.00045356133225524096 0.042794284899227639 0 0.00021414110771304307 0.042040375107844946 0 0.001250252105424959 0.028713697699040041 0 0.0017175864417933318 0.028669827998849682 0 0.00021414110771304307 0.042040375107844946 0 -0.00023509996947591329 0.041541824147939464 0 0.00062485476610424655 0.041093571234407412 0 -0.0010248073913036507 0.041560362069910796 0 -0.00023509996947591329 0.041541824147939464 0 -0.00064025971922561603 0.042187802207910331 0 0.00021414110771304307 0.042040375107844946 0 -0.00023509996947591329 0.041541824147939464 0 -0.00064025971922561603 0.042187802207910331 0 -0.0010248073913036507 0.041560362069910796 0 -0.00023509996947591329 0.041541824147939464 0 -0.00027443514565875764 0.040863046348314377 0 -0.0030939071556698445 0.051131923894574438 0 -0.0054512556974710118 0.046789415954653989 0 -0.012568356310121683 0.055754164767975747 0 -0.012364238332434623 0.055170355671970733 0 -0.011622587796205591 0.055077867586584436 0 -0.012613167426170987 0.054530777656442764 0 -0.012364238332434623 0.055170355671970733 0 -0.012135386109796489 0.054777888421143568 0 -0.012135386109796489 0.054777888421143568 0 -0.011622587796205591 0.055077867586584436 0 -0.011956292640181894 0.054135478763823276 0 -0.012364238332434623 0.055170355671970733 0 -0.012135386109796489 0.054777888421143568 0 -0.011622587796205591 0.055077867586584436 0 -0.012613167426170987 0.054530777656442764 0 -0.012135386109796489 0.054777888421143568 0 -0.011956292640181894 0.054135478763823276 0 -0.00027443514565875764 0.040863046348314377 0 0.00062485476610424655 0.041093571234407412 0 0.00048228447508175207 0.040170857502638171 0 -0.011622587796205591 0.055077867586584436 0 -0.010490892727996092 0.054066744875749279 0 -0.011956292640181894 0.054135478763823276 0 -0.0054512556974710118 0.046789415954653989 0 -0.0057435409299894154 0.040214204397562646 0 -0.00023509996947591329 0.041541824147939464 0 -0.00027443514565875764 0.040863046348314377 0 0.00062485476610424655 0.041093571234407412 0 0.0026177408196463268 0.013480596859442981 0 0.0021269579676931722 0.012278536572084952 0 0.0038498108658307556 0.012925153488725104 0 0.0021269579676931722 0.012278536572084952 0 0.0038498108658307556 0.012925153488725104 0 0.0035579987211701264 0.01172569729114159 0 0.0038498108658307556 0.012925153488725104 0 0.0035579987211701264 0.01172569729114159 0 0.0048581594270323903 0.012195798681937894 0 0.0035579987211701264 0.01172569729114159 0 0.0028564365052511542 0.010639214517499516 0 0.0041025657349131094 0.010605552944852454 0 0.0021269579676931722 0.012278536572084952 0 0.0035579987211701264 0.01172569729114159 0 0.0028564365052511542 0.010639214517499516 0 0.00062485476610424655 0.041093571234407412 0 0.00048228447508175207 0.040170857502638171 0 0.0010309710396351984 0.040152561816019401 0 0.0017175864417933318 0.028669827998849682 0 0.0008312848341683988 0.03317995915922127 0 -0.0020086060199962577 0.03392269191050009 0 -0.00040982961705795352 0.032815860219611921 0 -9.6998631685349775e-05 0.03220639917449114 0 -0.0020086060199962577 0.03392269191050009 0 -0.00088137628853860578 0.033895924744517365 0 -0.00040982961705795352 0.032815860219611921 0 -0.0057435409299894154 0.040214204397562646 0 0.0008312848341683988 0.03317995915922127 0 -0.01711699978134688 0.049396078220064359 0 -0.0070804913183847747 0.040617136662376756 0 -0.015581187462214459 0.042425405647362892 0 -0.0057435409299894154 0.040214204397562646 0 -0.0027664499334385979 0.034902129527627564 0 0.0008312848341683988 0.03317995915922127 0 -0.00052195357844082369 0.026868098352473876 0 -0.00086310087172576145 0.033869238300603774 0 0.00058445007160322739 0.033835970887427735 0 -0.00040982961705795352 0.032815860219611921 0 -0.0093601786671334043 0.034576550902414092 0 -0.0099694071491480806 0.032930319433464722 0 -0.0090641521019085933 0.033408322834274862 0 0.00058445007160322739 0.033835970887427735 0 -0.00040982961705795352 0.032815860219611921 0 -9.6998631685349775e-05 0.03220639917449114 0 -0.00052195357844082369 0.026868098352473876 0 -0.0027664499334385979 0.034902129527627564 0 0.0008312848341683988 0.03317995915922127 0 0.00069498081956134261 0.033267228058906924 0 -0.0093232820378724279 0.03299929641150097 0 -0.009790558849472341 0.032851025003870445 0 -0.0099694071491480806 0.032930319433464722 0 -0.0093232820378724279 0.03299929641150097 0 -0.0099694071491480806 0.032930319433464722 0 -0.0090641521019085933 0.033408322834274862 0 -0.0093232820378724279 0.03299929641150097 0 -0.009790558849472341 0.032851025003870445 0 -0.0094234007934322853 0.032666343813389544 0 -0.0028238564993830133 0.034923672403327041 0 -0.0027664499334385979 0.034902129527627564 0 -0.0034872604152350922 0.034360505564895262 0 -0.0027664499334385979 0.034902129527627564 0 -0.010342146555393521 0.033810678703894911 0 -0.0070804913183847747 0.040617136662376756 0 -0.011984416411471507 0.037848774272566998 0 -0.010342146555393521 0.033810678703894911 0 -0.009790558849472341 0.032851025003870445 0 -0.0096872650713431211 0.03276399281770364 0 -0.010342146555393521 0.033810678703894911 0 -0.0096095202034506728 0.032539636610827809 0 -0.009790558849472341 0.032851025003870445 0 -0.0096095202034506728 0.032539636610827809 0 -0.009790558849472341 0.032851025003870445 0 -0.0094234007934322853 0.032666343813389544 0 -0.018038704291487542 0.032800918374989559 0 -0.014014873512214494 0.035030575535852669 0 -0.015581187462214459 0.042425405647362892 0 -0.0070804913183847747 0.040617136662376756 0 -0.015581187462214459 0.042425405647362892 0 -0.011984416411471507 0.037848774272566998 0 -0.014014873512214494 0.035030575535852669 0 -0.015581187462214459 0.042425405647362892 0 -0.011984416411471507 0.037848774272566998 0 -0.014014873512214494 0.035030575535852669 0 -0.010342146555393521 0.033810678703894911 0 -0.011984416411471507 0.037848774272566998 0 -0.022742447539631491 0.03898158193774541 0 -0.019066554698093499 0.037185324609120371 0 -0.021069388295210479 0.043170293670750107 0 -0.018038704291487542 0.032800918374989559 0 -0.015581187462214459 0.042425405647362892 0 -0.021069388295210479 0.043170293670750107 0 -0.018049367851018936 0.034967385246911967 0 -0.019297440266202639 0.038016099873070787 0 -0.015581187462214459 0.042425405647362892 0 -0.021069388295210479 0.043170293670750107 0 -0.017973730831910666 0.045455213030813249 0 -0.022742447539631491 0.03898158193774541 0 -0.021069388295210479 0.043170293670750107 0 -0.025143170946154699 0.04062915572151235 0 -0.022742447539631491 0.03898158193774541 0 -0.025034591656778196 0.038591603166528113 0 -0.025143170946154699 0.04062915572151235 0 -0.016018780226454303 0.055472367584114286 0 -0.017566401109520288 0.055609089752678018 0 -0.017095592057879628 0.053556406083537525 0 -0.017753461019936523 0.052407343897741293 0 -0.018148552489964623 0.051413341865846604 0 -0.018169056397272391 0.049404958487880207 0 -0.021069388295210479 0.043170293670750107 0 -0.025143170946154699 0.04062915572151235 0 -0.018169056397272391 0.049404958487880207 0 -0.017566401109520288 0.055609089752678018 0 -0.017753461019936523 0.052407343897741293 0 -0.018169056397272391 0.049404958487880207 0 -0.020125989683986125 0.049089808798404799 0 -0.019150844898412834 0.04979694551116938 0 -0.017566401109520288 0.055609089752678018 0 -0.017753461019936523 0.052407343897741293 0 -0.017095592057879628 0.053556406083537525 0 -0.015947861305416828 0.054053348431820643 0 -0.017095592057879628 0.053556406083537525 0 -0.018148552489964623 0.051413341865846604 0 -0.017753461019936523 0.052407343897741293 0 -0.017095592057879628 0.053556406083537525 0 -0.018148552489964623 0.051413341865846604 0 -0.01711699978134688 0.049396078220064359 0 -0.015581187462214459 0.042425405647362892 0 -0.017973730831910666 0.045455213030813249 0 -0.0057435409299894154 0.040214204397562646 0 -0.013197774578334327 0.04575709691358195 0 -0.01711699978134688 0.049396078220064359 0 -0.018148552489964623 0.051413341865846604 0 -0.018169056397272391 0.049404958487880207 0 -0.01711699978134688 0.049396078220064359 0 -0.018169056397272391 0.049404958487880207 0 -0.017973730831910666 0.045455213030813249 0 -0.021069388295210479 0.043170293670750107 0 -0.018169056397272391 0.049404958487880207 0 -0.017973730831910666 0.045455213030813249 0 0.0080151853284145588 0.016309545972399739 0 0.0075651759988212908 0.015912627384442334 0 0.0081815884926060949 0.017510498785307152 0 0.0080151853284145588 0.016309545972399739 0 0.0081815884926060949 0.017510498785307152 0 0.008225903888060826 0.016166381177189052 0 -0.0033249799748328039 0.032261444174561532 0 -0.0062882560854287646 0.032228969729252634 0 -0.0059938337125111348 0.034071859340265104 0 0.00054242298127262715 0.024932142673967705 0 0.00045576656238713271 0.024544180085047759 0 0.0080151853284145588 0.016309545972399739 0 0.008225903888060826 0.016166381177189052 0 0.0079268884754132227 0.015838901476868415 0 0.0080151853284145588 0.016309545972399739 0 0.0075651759988212908 0.015912627384442334 0 0.0079268884754132227 0.015838901476868415 0 0.0066951674524087911 0.016335397843522503 0 0.0075651759988212908 0.015912627384442334 0 0.0071354545665330386 0.015475492999546016 0 0.0066951674524087911 0.016335397843522503 0 0.0075651759988212908 0.015912627384442334 0 0.0081815884926060949 0.017510498785307152 0 -0.00099677193412136232 0.025994135656292355 0 -0.0034935215271494017 0.026955776138655754 0 -0.00032288136840089037 0.030176107612062616 0 -0.0033249799748328039 0.032261444174561532 0 -0.0052156318045278715 0.030201426424202413 0 -0.00099677193412136232 0.025994135656292355 0 0.00054242298127262715 0.024932142673967705 0 0.0060260087473702206 0.020683935307656096 0 0.0066951674524087911 0.016335397843522503 0 0.0081815884926060949 0.017510498785307152 0 -0.0033249799748328039 0.032261444174561532 0 -0.0052156318045278715 0.030201426424202413 0 -0.0062882560854287646 0.032228969729252634 0 -0.0052156318045278715 0.030201426424202413 0 -0.0070152485165803254 0.03149089896112555 0 -0.0062882560854287646 0.032228969729252634 0 -0.0070152485165803254 0.03149089896112555 0 -0.0080380713051090291 0.031484800585032086 0 -0.0078715293294631325 0.032448187499467082 0 -0.0062882560854287646 0.032228969729252634 0 -0.0078715293294631325 0.032448187499467082 0 -0.0070729477462119139 0.033383589585259263 0 -0.0070152485165803254 0.03149089896112555 0 -0.0062882560854287646 0.032228969729252634 0 -0.0078715293294631325 0.032448187499467082 0 -0.0096095202034506728 0.032539636610827809 0 -0.0094234007934322853 0.032666343813389544 0 -0.0088906171577807259 0.032378645475191661 0 -0.0088906171577807259 0.032378645475191661 0 -0.0080380713051090291 0.031484800585032086 0 -0.0078715293294631325 0.032448187499467082 0 -0.0078715293294631325 0.032448187499467082 0 -0.0085949701944945216 0.032901697488946377 0 -0.0081138982653904245 0.033604090578256446 0 -0.0088906171577807259 0.032378645475191661 0 -0.0078715293294631325 0.032448187499467082 0 -0.0085949701944945216 0.032901697488946377 0 -0.0093232820378724279 0.03299929641150097 0 -0.0088906171577807259 0.032378645475191661 0 -0.0085949701944945216 0.032901697488946377 0 -0.0093232820378724279 0.03299929641150097 0 -0.0085949701944945216 0.032901697488946377 0 -0.0090641521019085933 0.033408322834274862 0 -0.0093232820378724279 0.03299929641150097 0 -0.0094234007934322853 0.032666343813389544 0 -0.0088906171577807259 0.032378645475191661 0 -0.0093601786671334043 0.034576550902414092 0 -0.0081138982653904245 0.033604090578256446 0 -0.0071260207741983854 0.034697722632972744 0 -0.00052195357844082369 0.026868098352473876 0 0.0002554968375032817 0.024315414221741251 0 -0.0085949701944945216 0.032901697488946377 0 -0.0090641521019085933 0.033408322834274862 0 -0.0081138982653904245 0.033604090578256446 0 -0.0093601786671334043 0.034576550902414092 0 -0.0090641521019085933 0.033408322834274862 0 -0.0081138982653904245 0.033604090578256446 0 -0.0062882560854287646 0.032228969729252634 0 -0.0070729477462119139 0.033383589585259263 0 -0.0059938337125111348 0.034071859340265104 0 -0.0081138982653904245 0.033604090578256446 0 -0.0070729477462119139 0.033383589585259263 0 -0.0071260207741983854 0.034697722632972744 0 -0.0078715293294631325 0.032448187499467082 0 -0.0081138982653904245 0.033604090578256446 0 -0.0070729477462119139 0.033383589585259263 0 0.0081580796575025771 0.015919449322399845 0 0.008225903888060826 0.016166381177189052 0 0.0080603571118323288 0.015770389631715544 0 -0.0070729477462119139 0.033383589585259263 0 -0.0071260207741983854 0.034697722632972744 0 -0.0059938337125111348 0.034071859340265104 0 0.0002554968375032817 0.024315414221741251 0 0.00045576656238713271 0.024544180085047759 0 0.008225903888060826 0.016166381177189052 0 0.0080603571118323288 0.015770389631715544 0 0.0079268884754132227 0.015838901476868415 0 0.0080603571118323288 0.015770389631715544 0 0.0078884869931311538 0.015553695435496263 0 0.0079268884754132227 0.015838901476868415 0 0.0080603571118323288 0.015770389631715544 0 0.0080555650501618076 0.015558193361405645 0 0.0081932082425731599 0.015799066918208361 0 0.0081580796575025771 0.015919449322399845 0 0.0080603571118323288 0.015770389631715544 0 0.0081932082425731599 0.015799066918208361 0 0.0002554968375032817 0.024315414221741251 0 0.0015448367996645856 0.023304470910151386 0 0.0080603571118323288 0.015770389631715544 0 0.0080555650501618076 0.015558193361405645 0 0.0078884869931311538 0.015553695435496263 0 0.0085126587710680959 0.015948190795416185 0 0.0081932082425731599 0.015799066918208361 0 0.008230857875986701 0.015370048145405652 0 0.0085126587710680959 0.015948190795416185 0 0.0079733773166427869 0.015958282459089795 0 0.0081932082425731599 0.015799066918208361 0 -0.00052195357844082369 0.026868098352473876 0 0.0019235349795626447 0.01811651590519732 0 0.0035579987211701264 0.01172569729114159 0 0.0041025657349131094 0.010605552944852454 0 0.0048581594270323903 0.012195798681937894 0 0.0080555650501618076 0.015558193361405645 0 0.0081932082425731599 0.015799066918208361 0 0.008230857875986701 0.015370048145405652 0 0.0080555650501618076 0.015558193361405645 0 0.008230857875986701 0.015370048145405652 0 0.0077638368442711206 0.015187988148996667 0 0.008230857875986701 0.015370048145405652 0 0.0077638368442711206 0.015187988148996667 0 0.0076416654029117887 0.014889708881864373 0 0.0080555650501618076 0.015558193361405645 0 0.0078884869931311538 0.015553695435496263 0 0.0077638368442711206 0.015187988148996667 0 0.0078884869931311538 0.015553695435496263 0 0.0077638368442711206 0.015187988148996667 0 0.007619099568904361 0.015227184853500974 0 0.007619099568904361 0.015227184853500974 0 0.0074715897435386064 0.01528824111109303 0 0.0073766910677351546 0.014940675234126559 0 0.0077638368442711206 0.015187988148996667 0 0.007619099568904361 0.015227184853500974 0 0.0073766910677351546 0.014940675234126559 0 0.0078884869931311538 0.015553695435496263 0 0.007619099568904361 0.015227184853500974 0 0.0074715897435386064 0.01528824111109303 0 0.0078884869931311538 0.015553695435496263 0 0.0079268884754132227 0.015838901476868415 0 0.0074715897435386064 0.01528824111109303 0 0.0075651759988212908 0.015912627384442334 0 0.0079268884754132227 0.015838901476868415 0 0.0074715897435386064 0.01528824111109303 0 0.0075651759988212908 0.015912627384442334 0 0.0071354545665330386 0.015475492999546016 0 0.0074715897435386064 0.01528824111109303 0 0.0074715897435386064 0.01528824111109303 0 0.0072492816362126865 0.014996210770024561 0 0.0073766910677351546 0.014940675234126559 0 0.0071354545665330386 0.015475492999546016 0 0.0074715897435386064 0.01528824111109303 0 0.0072492816362126865 0.014996210770024561 0 0.0072489685941486475 0.01477668373658819 0 0.0072492816362126865 0.014996210770024561 0 0.0073766910677351546 0.014940675234126559 0 0.0073766910677351546 0.014940675234126559 0 0.0072416007356761901 0.014863802448186832 0 0.0076416654029117887 0.014889708881864373 0 0.0073766910677351546 0.014940675234126559 0 0.0072014888506549196 0.014853180411584168 0 0.0072416007356761901 0.014863802448186832 0 0.0072014888506549196 0.014853180411584168 0 0.0072416007356761901 0.014863802448186832 0 0.0068328742715195664 0.01495871636754483 0 0.0072489685941486475 0.01477668373658819 0 0.0073766910677351546 0.014940675234126559 0 0.0072014888506549196 0.014853180411584168 0 0.0072489685941486475 0.01477668373658819 0 0.0072702852176369541 0.014792386031418808 0 0.0072014888506549196 0.014853180411584168 0 0.0038498108658307556 0.012925153488725104 0 0.0048581594270323903 0.012195798681937894 0 0.005805303600548861 0.013767498669533059 0 0.0036786159291618127 0.014186434703979685 0 0.0038498108658307556 0.012925153488725104 0 0.005805303600548861 0.013767498669533059 0 0.0019235349795626447 0.01811651590519732 0 0.0038310638517988355 0.01621721940811241 0 0.0077638368442711206 0.015187988148996667 0 0.0073766910677351546 0.014940675234126559 0 0.0076416654029117887 0.014889708881864373 0 0.0038310638517988355 0.01621721940811241 0 0.0044976620186051551 0.016010847561989013 0 0.0072416007356761901 0.014863802448186832 0 0.0076416654029117887 0.014889708881864373 0 0.0068328742715195664 0.01495871636754483 0 0.005805303600548861 0.013767498669533059 0 0.005352436690669253 0.015090007795930086 0 0.0068328742715195664 0.01495871636754483 0 0.0038733627621963451 0.014606457904932865 0 0.0041848088018062177 0.015020707211428976 0 0.0036786159291618127 0.014186434703979685 0 0.005805303600548861 0.013767498669533059 0 0.005352436690669253 0.015090007795930086 0 0.0036098502004167678 0.015556836416435588 0 0.003197339475823598 0.016048923457461717 0 0.0032821889078746202 0.016065312491708394 0 0.0031951251351251004 0.015827185318930917 0 0.0036098502004167678 0.015556836416435588 0 0.0032821889078746202 0.016065312491708394 0 0.0041848088018062177 0.015020707211428976 0 0.0046527455927309874 0.015676895400348733 0 0.0068328742715195664 0.01495871636754483 0 0.0066450436517671739 0.015458992813700941 0 0.007037346470711788 0.01505452339997326 0 0.005352436690669253 0.015090007795930086 0 0.0068328742715195664 0.01495871636754483 0 0.0066450436517671739 0.015458992813700941 0 0.0046527455927309874 0.015676895400348733 0 0.0051156408924702221 0.016450375424129696 0 0.003197339475823598 0.016048923457461717 0 0.0031572347115445009 0.016185802580638748 0 0.0030019983401271886 0.016374724467137221 0 0.003197339475823598 0.016048923457461717 0 0.0031572347115445009 0.016185802580638748 0 0.0032821889078746202 0.016065312491708394 0 0.003169368565380264 0.016293517999900628 0 0.0031951251351251004 0.015827185318930917 0 0.0032821889078746202 0.016065312491708394 0 0.0031572347115445009 0.016185802580638748 0 0.0032821889078746202 0.016065312491708394 0 0.0031600353785411271 0.016257750682094861 0 0.003169368565380264 0.016293517999900628 0 0.0032821889078746202 0.016065312491708394 0 0.0031600353785411271 0.016257750682094861 0 0.0072702852176369541 0.014792386031418808 0 0.0072014888506549196 0.014853180411584168 0 0.0071522363377477128 0.015058371807844967 0 0.0072014888506549196 0.014853180411584168 0 0.0068328742715195664 0.01495871636754483 0 0.007037346470711788 0.01505452339997326 0 0.0072014888506549196 0.014853180411584168 0 0.0071522363377477128 0.015058371807844967 0 0.007037346470711788 0.01505452339997326 0 0.0066450436517671739 0.015458992813700941 0 0.007037346470711788 0.01505452339997326 0 0.0069687653120451224 0.015289352504959707 0 0.0071522363377477128 0.015058371807844967 0 0.007037346470711788 0.01505452339997326 0 0.0069687653120451224 0.015289352504959707 0 0.0066450436517671739 0.015458992813700941 0 0.0069687653120451224 0.015289352504959707 0 0.0069536893169523523 0.015412888996786398 0 0.0072493085732245966 0.015078856157512652 0 0.0071522363377477128 0.015058371807844967 0 0.0071103315576828939 0.015300550738406865 0 0.0072493085732245966 0.015078856157512652 0 0.0071103315576828939 0.015300550738406865 0 0.0072885557264655504 0.015339940979486448 0 0.0071522363377477128 0.015058371807844967 0 0.0069687653120451224 0.015289352504959707 0 0.0071103315576828939 0.015300550738406865 0 0.0071103315576828939 0.015300550738406865 0 0.0069536893169523523 0.015412888996786398 0 0.0071107436730850383 0.015590372667561424 0 0.0071103315576828939 0.015300550738406865 0 0.0071107436730850383 0.015590372667561424 0 0.0072885557264655504 0.015339940979486448 0 0.0069687653120451224 0.015289352504959707 0 0.0071103315576828939 0.015300550738406865 0 0.0069536893169523523 0.015412888996786398 0 0.0035714042415492401 0.016555034036080815 0 0.0034079977433299339 0.018162580213014489 0 0.00280114219605308 0.017337071961349686 0 0.0034079977433299339 0.018162580213014489 0 0.005015283460282194 0.018271882695215399 0 0.0040035171407113521 0.019536426850148662 0 0.0035714042415492401 0.016555034036080815 0 0.0034079977433299339 0.018162580213014489 0 0.005015283460282194 0.018271882695215399 0 0.0051156408924702221 0.016450375424129696 0 0.0056873997318474439 0.017645899433630423 0 0.0056873997318474439 0.017645899433630423 0 0.0066254450205522853 0.016169491449822763 0 0.0023942219889319912 0.021011394774623229 0 0.0030846986692834228 0.019629210394817131 0 0.003169368565380264 0.016293517999900628 0 0.0032183126110155408 0.016169272667390752 0 0.0031600353785411271 0.016257750682094861 0 0.0032183126110155408 0.016169272667390752 0 0.0031600353785411271 0.016257750682094861 0 0.0030019983401271886 0.016374724467137221 0 -2.1995389940178094e-05 0.01719871502196995 0 0.0030019983401271886 0.016374724467137221 0 0.0017671550113571735 0.017456188205350658 0 0.003197339475823598 0.016048923457461717 0 0.0035714042415492401 0.016555034036080815 0 0.0030019983401271886 0.016374724467137221 0 0.0031572347115445009 0.016185802580638748 0 0.0031600353785411271 0.016257750682094861 0 0.0030019983401271886 0.016374724467137221 0 0.0030019983401271886 0.016374724467137221 0 0.00280114219605308 0.017337071961349686 0 0.0017671550113571735 0.017456188205350658 0 0.0035714042415492401 0.016555034036080815 0 0.0030019983401271886 0.016374724467137221 0 0.00280114219605308 0.017337071961349686 0 0.0034079977433299339 0.018162580213014489 0 0.00280114219605308 0.017337071961349686 0 0.0022094810291075628 0.018336687914228017 0 0.0034079977433299339 0.018162580213014489 0 0.0022094810291075628 0.018336687914228017 0 0.0024303140480994197 0.019542914067593401 0 0.00280114219605308 0.017337071961349686 0 0.0022094810291075628 0.018336687914228017 0 0.0017671550113571735 0.017456188205350658 0 0.0022094810291075628 0.018336687914228017 0 0.0017671550113571735 0.017456188205350658 0 0.00076781095921534123 0.017962843727932311 0 -2.1995389940178094e-05 0.01719871502196995 0 0.0017671550113571735 0.017456188205350658 0 0.00076781095921534123 0.017962843727932311 0 -2.1995389940178094e-05 0.01719871502196995 0 0.00076781095921534123 0.017962843727932311 0 0.00024732554951952711 0.018827637725629263 0 0.0023942219889319912 0.021011394774623229 0 0.0015709239658327249 0.022642586227659512 0 0.00076781095921534123 0.017962843727932311 0 0.00024732554951952711 0.018827637725629263 0 0.0014016452599648409 0.019024980222494822 0 0.0022094810291075628 0.018336687914228017 0 0.00076781095921534123 0.017962843727932311 0 0.0014016452599648409 0.019024980222494822 0 0.00024732554951952711 0.018827637725629263 0 0.0014016452599648409 0.019024980222494822 0 0.0013456776305916874 0.020402244365458445 0 0.0015709239658327249 0.022642586227659512 0 0.0010229000860177112 0.025979451886457176 0 0.00063032029648332115 0.025835280542211691 0 0.00047069798676205565 0.024646216857504694 0 0.0012754470956038405 0.026028100336702265 0 7.2159836253168802e-05 0.021525048043441214 0 0.0012369078119419171 0.022936059208949641 0 0.00025785860758803297 0.023003043213018149 0 0.0015709239658327249 0.022642586227659512 0 0.0016034744933990123 0.022527388936353612 0 0.0024303140480994197 0.019542914067593401 0 0.0013456776305916874 0.020402244365458445 0 0.002730548047035515 0.020848274515222934 0 0.0014016452599648409 0.019024980222494822 0 0.0024303140480994197 0.019542914067593401 0 0.0013456776305916874 0.020402244365458445 0 0.0022094810291075628 0.018336687914228017 0 0.0014016452599648409 0.019024980222494822 0 0.0024303140480994197 0.019542914067593401 0 0.0016813137762391672 0.024250351729850225 0 0.0012369078119419171 0.022936059208949641 0 0.0024846801218508081 0.024379186890590803 0 0.0016034744933990123 0.022527388936353612 0 0.0024675156918430264 0.023590865714798182 0 0.0013456776305916874 0.020402244365458445 0 0.002730548047035515 0.020848274515222934 0 0.0022296024401615377 0.022472854190521321 0 0.00074568571698252625 0.023360371506024047 0 -0.0019081688394636251 0.021070905126241733 0 -0.0014335705168683581 0.024945125847480421 0 0.0010229000860177112 0.025979451886457176 0 0.00032510682528013994 0.027752513027704113 0 0.00094814915176648449 0.025035283729518906 0 0.0010229000860177112 0.025979451886457176 0 0.0016813137762391672 0.024250351729850225 0 0.0012369078119419171 0.022936059208949641 0 0.00025785860758803297 0.023003043213018149 0 -0.00020592539204356274 0.032662392369095239 0 -0.00040033279177318162 0.031670719828129655 0 0.00014120535215435287 0.032155207955525414 0 0.0051278378830588583 0.019372038363586523 0 0.0038838886444600065 0.019149811570466337 0 0.0041630873634805176 0.020857923353204553 0 0.0051278378830588583 0.019372038363586523 0 0.0059571559229839493 0.019970069867223238 0 0.0062422165066441226 0.019241248905527284 0 0.0056873997318474439 0.017645899433630423 0 0.0058761928597867441 0.017998602212101138 0 0.0050451673539747121 0.017763080077277942 0 0.0051278378830588583 0.019372038363586523 0 0.0062422165066441226 0.019241248905527284 0 0.0050451673539747121 0.017763080077277942 0 0.0051278378830588583 0.019372038363586523 0 0.0038838886444600065 0.019149811570466337 0 0.0056873997318474439 0.017645899433630423 0 0.004675447971800562 0.018792208717793309 0 0.0034079977433299339 0.018162580213014489 0 0.0024303140480994197 0.019542914067593401 0 0.0040035171407113521 0.019536426850148662 0 0.004675447971800562 0.018792208717793309 0 0.0042354798882797765 0.019304233349709692 0 0.0024303140480994197 0.019542914067593401 0 0.0040035171407113521 0.019536426850148662 0 0.002730548047035515 0.020848274515222934 0 0.0038838886444600065 0.019149811570466337 0 0.0041630873634805176 0.020857923353204553 0 0.002730548047035515 0.020848274515222934 0 0.002730548047035515 0.020848274515222934 0 0.0034430830741100614 0.022286849213394043 0 0.0022296024401615377 0.022472854190521321 0 0.0041630873634805176 0.020857923353204553 0 0.0034430830741100614 0.022286849213394043 0 0.0045475295572931238 0.022744199834665798 0 0.0041630873634805176 0.020857923353204553 0 0.002730548047035515 0.020848274515222934 0 0.0034430830741100614 0.022286849213394043 0 0.0054561220427864618 0.021234268621590682 0 0.0062538456604595864 0.024623161063042062 0 0.0069313185912418494 0.020092116104172556 0 0.0041630873634805176 0.020857923353204553 0 0.0054561220427864618 0.021234268621590682 0 0.0045475295572931238 0.022744199834665798 0 0.0051278378830588583 0.019372038363586523 0 0.0041630873634805176 0.020857923353204553 0 0.0054561220427864618 0.021234268621590682 0 0.0059571559229839493 0.019970069867223238 0 0.0054561220427864618 0.021234268621590682 0 0.0069313185912418494 0.020092116104172556 0 0.0051278378830588583 0.019372038363586523 0 0.0059571559229839493 0.019970069867223238 0 0.0054561220427864618 0.021234268621590682 0 0.0062538456604595864 0.024623161063042062 0 0.0045475295572931238 0.022744199834665798 0 0.0039947841549796788 0.025770776453603702 0 0.0054561220427864618 0.021234268621590682 0 0.0062538456604595864 0.024623161063042062 0 0.0045475295572931238 0.022744199834665798 0 0.0056299069754088098 0.023087710473555147 0 0.0043583517068161446 0.024912053335613259 0 0.0064016557631777797 0.021306394895614082 0 0.0058324720638177922 0.02259991710772288 0 0.006913064228806721 0.022453273375818907 0 0.0062538456604595864 0.024623161063042062 0 0.0039947841549796788 0.025770776453603702 0 0.0043461513636735508 0.029305916936065886 0 0.0026925880648950131 0.0272490560159999 0 0.0039947841549796788 0.025770776453603702 0 0.0043461513636735508 0.029305916936065886 0 0.0026925880648950131 0.0272490560159999 0 0.0039947841549796788 0.025770776453603702 0 0.0033215657901507897 0.02548363362606736 0 0.0026925880648950131 0.0272490560159999 0 0.0033215657901507897 0.02548363362606736 0 0.0020260460497898924 0.026484763471123763 0 0.0039947841549796788 0.025770776453603702 0 0.0033215657901507897 0.02548363362606736 0 0.0024846801218508081 0.024379186890590803 0 0.0034430830741100614 0.022286849213394043 0 0.0045475295572931238 0.022744199834665798 0 0.0039947841549796788 0.025770776453603702 0 0.0030875521146915305 0.02437787544347483 0 0.0024675156918430264 0.023590865714798182 0 0.0034430830741100614 0.022286849213394043 0 0.0039947841549796788 0.025770776453603702 0 0.0022296024401615377 0.022472854190521321 0 0.00094814915176648449 0.025035283729518906 0 0.0015320263649962844 0.025274550599807311 0 0.00074568571698252625 0.023360371506024047 0 0.0033215657901507897 0.02548363362606736 0 0.0011345189386684107 0.025571752442272885 0 0.0016813137762391672 0.024250351729850225 0 0.0033215657901507897 0.02548363362606736 0 0.0024846801218508081 0.024379186890590803 0 0.00074568571698252625 0.023360371506024047 0 0.0011345189386684107 0.025571752442272885 0 -0.0014335705168683581 0.024945125847480421 0 -0.0014335705168683581 0.024945125847480421 0 0.00092675744700871168 0.027598245199106707 0 -0.00060820250974187671 0.02954533069043408 0 0.00032510682528013994 0.027752513027704113 0 0.00016693979965656404 0.028483434033806255 0 -0.00040033279177318162 0.031670719828129655 0 -0.00060820250974187671 0.02954533069043408 0 0.0004532400200351453 0.030670031608232128 0 0.0011345189386684107 0.025571752442272885 0 -0.0014335705168683581 0.024945125847480421 0 0.00092675744700871168 0.027598245199106707 0 0.0011345189386684107 0.025571752442272885 0 0.0020260460497898924 0.026484763471123763 0 0.00092675744700871168 0.027598245199106707 0 0.0033215657901507897 0.02548363362606736 0 0.0011345189386684107 0.025571752442272885 0 0.0020260460497898924 0.026484763471123763 0 0.0026925880648950131 0.0272490560159999 0 0.00092675744700871168 0.027598245199106707 0 0.0019391705570850645 0.028959912591483086 0 0.0026925880648950131 0.0272490560159999 0 0.0020260460497898924 0.026484763471123763 0 0.00092675744700871168 0.027598245199106707 0 0.0019391705570850645 0.028959912591483086 0 0.00063064300580493256 0.0292487829788152 0 0.0010322416538242601 0.030059551460976795 0 0.00092675744700871168 0.027598245199106707 0 0.0019391705570850645 0.028959912591483086 0 0.00063064300580493256 0.0292487829788152 0 0.00092675744700871168 0.027598245199106707 0 0.00063064300580493256 0.0292487829788152 0 -0.00060820250974187671 0.02954533069043408 0 0.00063064300580493256 0.0292487829788152 0 3.3982620765775427e-05 0.02981305873693833 0 -0.00060820250974187671 0.02954533069043408 0 3.3982620765775427e-05 0.02981305873693833 0 0.00020074766961808934 0.030297888919660915 0 0.0010322416538242601 0.030059551460976795 0 0.00063064300580493256 0.0292487829788152 0 3.3982620765775427e-05 0.02981305873693833 0 0.0010322416538242601 0.030059551460976795 0 0.0019391705570850645 0.028959912591483086 0 0.0010322416538242601 0.030059551460976795 0 0.0023884638854320332 0.03026984955894161 0 0.0010322416538242601 0.030059551460976795 0 0.0013522958657041677 0.030997245553287495 0 0.0023884638854320332 0.03026984955894161 0 -0.00035987640702934319 0.029805512302198744 0 -0.00031679700456362358 0.029675311722059349 0 0.0004532400200351453 0.030670031608232128 0 -0.00035987640702934319 0.029805512302198744 0 -0.00060820250974187671 0.02954533069043408 0 0.0004532400200351453 0.030670031608232128 0 -0.00035987640702934319 0.029805512302198744 0 -0.00060820250974187671 0.02954533069043408 0 -0.0003718252532038909 0.029798763468006171 0 3.3982620765775427e-05 0.02981305873693833 0 -0.00060820250974187671 0.02954533069043408 0 -0.0003718252532038909 0.029798763468006171 0 3.3982620765775427e-05 0.02981305873693833 0 -0.00011457785837888517 0.030089326839288874 0 -0.0003718252532038909 0.029798763468006171 0 3.3982620765775427e-05 0.02981305873693833 0 0.00020074766961808934 0.030297888919660915 0 -0.00011457785837888517 0.030089326839288874 0 -0.00011457785837888517 0.030089326839288874 0 -0.0003718252532038909 0.029798763468006171 0 -0.0004507796308066741 0.029781261241594935 0 -0.00035987640702934319 0.029805512302198744 0 -0.0003718252532038909 0.029798763468006171 0 -0.0004507796308066741 0.029781261241594935 0 -0.00035987640702934319 0.029805512302198744 0 -0.0004507796308066741 0.029781261241594935 0 -0.00031679700456362358 0.029675311722059349 0 0.0013833259195635105 0.029484835822852572 0 0.0015116866909570114 0.028092273316666288 0 -0.0004507796308066741 0.029781261241594935 0 -0.00031679700456362358 0.029675311722059349 0 -0.00051644620931925208 0.029383298324290371 0 0.00089772081679551693 0.030980421574725352 0 0.00086750037186074543 0.031099329851224149 0 0.0010054044397002147 0.031143755808527785 0 -0.0004507796308066741 0.029781261241594935 0 -0.00067158475900216941 0.029629252078477199 0 -0.00051644620931925208 0.029383298324290371 0 0.0023388185554534474 0.027238276084568969 0 0.002555459052122198 0.027102655877691586 0 -0.00011457785837888517 0.030089326839288874 0 -0.0004507796308066741 0.029781261241594935 0 0.00022734810095036725 0.031032051535655143 0 0.002555459052122198 0.027102655877691586 0 0.0015116866909570114 0.028092273316666288 0 0.0018385189985861965 0.02408725420026268 0 0.0027815760115659735 0.024715005122607697 0 0.002081695815718322 0.024918440173506806 0 0.0013522958657041677 0.030997245553287495 0 0.00023336431728454693 0.031183107469006363 0 0.0025258146395262687 0.032839146621552337 0 0.0013522958657041677 0.030997245553287495 0 0.0023884638854320332 0.03026984955894161 0 0.0025258146395262687 0.032839146621552337 0 0.002555459052122198 0.027102655877691586 0 0.0034052485413618929 0.024246172879231611 0 0.00020074766961808934 0.030297888919660915 0 0.0010322416538242601 0.030059551460976795 0 0.00043943206556892937 0.030823664157562543 0 0.0013522958657041677 0.030997245553287495 0 0.00043943206556892937 0.030823664157562543 0 0.00023336431728454693 0.031183107469006363 0 0.0010322416538242601 0.030059551460976795 0 0.0013522958657041677 0.030997245553287495 0 0.00043943206556892937 0.030823664157562543 0 0.00020074766961808934 0.030297888919660915 0 -0.00011457785837888517 0.030089326839288874 0 0.00022734810095036725 0.031032051535655143 0 0.00020074766961808934 0.030297888919660915 0 0.00043943206556892937 0.030823664157562543 0 0.00022734810095036725 0.031032051535655143 0 0.0025293839044628723 0.027144394846787413 0 0.002555459052122198 0.027102655877691586 0 0.0018385189985861965 0.02408725420026268 0 0.002081695815718322 0.024918440173506806 0 0.0014184009220677099 0.024732802643246093 0 0.0063040597822988974 0.023448846615955199 0 0.0058324720638177922 0.02259991710772288 0 0.0052868410378648792 0.023816575152254431 0 0.0043583517068161446 0.024912053335613259 0 0.0034052485413618929 0.024246172879231611 0 0.0043461513636735508 0.029305916936065886 0 0.0023884638854320332 0.03026984955894161 0 0.0025258146395262687 0.032839146621552337 0 0.0063040597822988974 0.023448846615955199 0 0.0058324720638177922 0.02259991710772288 0 0.006913064228806721 0.022453273375818907 0 0.0026925880648950131 0.0272490560159999 0 0.0019391705570850645 0.028959912591483086 0 0.0043461513636735508 0.029305916936065886 0 0.0019391705570850645 0.028959912591483086 0 0.0043461513636735508 0.029305916936065886 0 0.0023884638854320332 0.03026984955894161 0 0.0010612447969068593 0.031168400004546577 0 0.00097437747522016293 0.031236141829569106 0 0.0010259683911390675 0.031083495470944869 0 0.00045977993573994398 0.033916378320910781 0 0.0013061106163604014 0.034486870710959197 0 0.0020448133986060322 0.032688763985691122 0 0.0012202561471876658 0.031630465897200317 0 0.0020448133986060322 0.032688763985691122 0 0.0015041887667519233 0.030902788304714008 0 0.00045977993573994398 0.033916378320910781 0 0.0012202561471876658 0.031630465897200317 0 0.0020448133986060322 0.032688763985691122 0 0.0010698290259186687 0.032597970404669836 0 0.0011895128285507449 0.032198950946371763 0 0.0010612447969068593 0.031168400004546577 0 0.0012202561471876658 0.031630465897200317 0 0.00097437747522016293 0.031236141829569106 0 0.00097437747522016293 0.031236141829569106 0 0.00084529774597790559 0.031043361359196105 0 0.00077857150037408855 0.031129850097020018 0 0.00079091160433618281 0.031031861565303211 0 0.00084529774597790559 0.031043361359196105 0 0.00077857150037408855 0.031129850097020018 0 0.00086750037186074543 0.031099329851224149 0 0.00079091160433618281 0.031031861565303211 0 0.00077857150037408855 0.031129850097020018 0 0.00089772081679551693 0.030980421574725352 0 0.00086750037186074543 0.031099329851224149 0 0.00079091160433618281 0.031031861565303211 0 0.0013833259195635105 0.029484835822852572 0 0.0013445427901428312 0.029896949384036316 0 0.00067911478063828815 0.030891860048913557 0 0.00084529774597790559 0.031043361359196105 0 0.00082799173320983034 0.030988997223810162 0 0.00089772081679551693 0.030980421574725352 0 0.00067911478063828815 0.030891860048913557 0 0.0004532400200351453 0.030670031608232128 0 0.00089772081679551693 0.030980421574725352 0 0.00079091160433618281 0.031031861565303211 0 0.00067911478063828815 0.030891860048913557 0 0.00079091160433618281 0.031031861565303211 0 0.00067911478063828815 0.030891860048913557 0 0.00084529774597790559 0.031043361359196105 0 0.00097437747522016293 0.031236141829569106 0 0.0010259683911390675 0.031083495470944869 0 0.00084529774597790559 0.031043361359196105 0 0.0010259683911390675 0.031083495470944869 0 0.00084529774597790559 0.031043361359196105 0 0.00082799173320983034 0.030988997223810162 0 0.0010259683911390675 0.031083495470944869 0 0.00082799173320983034 0.030988997223810162 0 0.0013621579607873107 0.031315853287591879 0 0.00082799173320983034 0.030988997223810162 0 0.00057167256586402758 0.031699198652080131 0 0.0013621579607873107 0.031315853287591879 0 0.00082799173320983034 0.030988997223810162 0 0.0004532400200351453 0.030670031608232128 0 0.00057167256586402758 0.031699198652080131 0 0.00067911478063828815 0.030891860048913557 0 0.00082799173320983034 0.030988997223810162 0 0.0004532400200351453 0.030670031608232128 0 -0.00040033279177318162 0.031670719828129655 0 0.0004532400200351453 0.030670031608232128 0 0.00057167256586402758 0.031699198652080131 0 -0.00040033279177318162 0.031670719828129655 0 0.00057167256586402758 0.031699198652080131 0 0.00014120535215435287 0.032155207955525414 0 0.00057167256586402758 0.031699198652080131 0 0.0013621579607873107 0.031315853287591879 0 0.0013418445352676015 0.032648701402619926 0 0.00088309792675428963 0.035475928932180663 0 0.00086825676063390523 0.035499729085796169 0 0.00077596096641508795 0.035521094913666111 0 0.00093407353398357784 0.033282180049608201 0 0.00079401588362127296 0.033955215210786392 0 0.00088309792675428963 0.035475928932180663 0 0.0005626000358855387 0.035279133513169435 0 0.0011393439561820941 0.035323084748137494 0 0.00088309792675428963 0.035475928932180663 0 0.0005626000358855387 0.035279133513169435 0 0.00077596096641508795 0.035521094913666111 0 0.00088309792675428963 0.035475928932180663 0 0.00099539139910894748 0.035541910941711573 0 0.00086825676063390523 0.035499729085796169 0 0.00045977993573994398 0.033916378320910781 0 0.0005626000358855387 0.035279133513169435 0 0.0011393439561820941 0.035323084748137494 0 0.0010698290259186687 0.032597970404669836 0 0.00093407353398357784 0.033282180049608201 0 0.0010612447969068593 0.031168400004546577 0 0.0010259683911390675 0.031083495470944869 0 0.0013621579607873107 0.031315853287591879 0 0.00045977993573994398 0.033916378320910781 0 0.0013061106163604014 0.034486870710959197 0 0.0011393439561820941 0.035323084748137494 0 0.0013061106163604014 0.034486870710959197 0 0.0011393439561820941 0.035323084748137494 0 0.0018479543398658507 0.035656810192665762 0 0.0011393439561820941 0.035323084748137494 0 0.001376878491567974 0.035491904561453583 0 0.0018479543398658507 0.035656810192665762 0 0.0011393439561820941 0.035323084748137494 0 0.001376878491567974 0.035491904561453583 0 0.0011299778268525934 0.03551406490277105 0 0.00088309792675428963 0.035475928932180663 0 0.0011393439561820941 0.035323084748137494 0 0.0011299778268525934 0.03551406490277105 0 0.0011299778268525934 0.03551406490277105 0 0.00099539139910894748 0.035541910941711573 0 0.0011398535944936747 0.035650439592851302 0 0.00088309792675428963 0.035475928932180663 0 0.0011299778268525934 0.03551406490277105 0 0.00099539139910894748 0.035541910941711573 0 0.001376878491567974 0.035491904561453583 0 0.0011299778268525934 0.03551406490277105 0 0.0011398535944936747 0.035650439592851302 0 -0.00039897539948285091 0.035981970079917491 0 0.00031379745366014612 0.035377315215863486 0 -8.0659441757770814e-05 0.035375662835519552 0 -0.00010618997503087595 0.035681035239959857 0 9.4778012580059423e-05 0.035761489576443324 0 0.00063730434149504589 0.035282970745599058 0 -0.00039897539948285091 0.035981970079917491 0 -0.00047161336255268775 0.035538249980062907 0 -8.0659441757770814e-05 0.035375662835519552 0 -0.0004548869090059263 0.035892611795193777 0 9.1056930008478543e-05 0.035662773314546765 0 -0.00039897539948285091 0.035981970079917491 0 0.00063730434149504589 0.035282970745599058 0 0.00031379745366014612 0.035377315215863486 0 0.0011398535944936747 0.035650439592851302 0 0.00086825676063390523 0.035499729085796169 0 0.00068987858492839977 0.035297242257059949 0 0.00099539139910894748 0.035541910941711573 0 0.0011398535944936747 0.035650439592851302 0 0.00086825676063390523 0.035499729085796169 0 9.4778012580059423e-05 0.035761489576443324 0 0.00063730434149504589 0.035282970745599058 0 0.00068987858492839977 0.035297242257059949 0 0.00045794309296623827 0.035684772051308225 0 0.00065624113794781084 0.035553465740237128 0 0.00086825676063390523 0.035499729085796169 0 0.00077596096641508795 0.035521094913666111 0 0.00068987858492839977 0.035297242257059949 0 0.00031379745366014612 0.035377315215863486 0 0.00031353337180054712 0.034859024473287543 0 -8.0659441757770814e-05 0.035375662835519552 0 0.00031379745366014612 0.035377315215863486 0 0.00050775951219881167 0.035093791181202476 0 0.00031353337180054712 0.034859024473287543 0 0.00063730434149504589 0.035282970745599058 0 0.00031379745366014612 0.035377315215863486 0 0.00051923586812854035 0.035225479212100314 0 0.00060811757377635253 0.035162251720447971 0 0.00050775951219881167 0.035093791181202476 0 0.00068568999239688707 0.035051827130777674 0 0.00063730434149504589 0.035282970745599058 0 0.00060811757377635253 0.035162251720447971 0 0.00068029647366615387 0.035111064016847666 0 0.00063730434149504589 0.035282970745599058 0 0.00060811757377635253 0.035162251720447971 0 0.00051923586812854035 0.035225479212100314 0 0.00031379745366014612 0.035377315215863486 0 0.00051923586812854035 0.035225479212100314 0 0.00050775951219881167 0.035093791181202476 0 0.00060811757377635253 0.035162251720447971 0 0.00051923586812854035 0.035225479212100314 0 0.00050775951219881167 0.035093791181202476 0 0.00050775951219881167 0.035093791181202476 0 0.00068568999239688707 0.035051827130777674 0 0.00064413588066000553 0.035015590510966088 0 0.00050775951219881167 0.035093791181202476 0 0.00031353337180054712 0.034859024473287543 0 0.00064413588066000553 0.035015590510966088 0 0.00031353337180054712 0.034859024473287543 0 -8.0659441757770814e-05 0.035375662835519552 0 -0.00071207584445810842 0.035150951805750716 0 -0.00017833051278684243 0.034941950629704066 0 -0.000706341286636276 0.034765479748704239 0 -0.0010515122955520309 0.035304656389160152 0 -0.00081824091823152448 0.031529567091821385 0 -0.0014149572710993445 0.033192455291473383 0 -0.00047161336255268775 0.035538249980062907 0 -8.0659441757770814e-05 0.035375662835519552 0 -0.00071207584445810842 0.035150951805750716 0 0.00057167256586402758 0.031699198652080131 0 0.00058630504659033561 0.032554486974948657 0 0.00014120535215435287 0.032155207955525414 0 0.00092928933701458033 0.03183759272287829 0 0.00098224668237246017 0.031486985969273837 0 -0.00020592539204356274 0.032662392369095239 0 0.00058630504659033561 0.032554486974948657 0 0.00014120535215435287 0.032155207955525414 0 0.00077596096641508795 0.035521094913666111 0 0.00068987858492839977 0.035297242257059949 0 0.00069275283581613314 0.034688253828913926 0 0.00040844260686347713 0.033570472614823502 0 0.0013418445352676015 0.032648701402619926 0 0.00069275283581613314 0.034688253828913926 0 0.00079401588362127296 0.033955215210786392 0 0.00069124749840837098 0.034298598892118393 0 0.00057167256586402758 0.031699198652080131 0 0.00040844260686347713 0.033570472614823502 0 0.0013418445352676015 0.032648701402619926 0 0.00040844260686347713 0.033570472614823502 0 0.00069275283581613314 0.034688253828913926 0 0.00063199147618556736 0.035342724591680086 0 0.00068029647366615387 0.035111064016847666 0 0.00068568999239688707 0.035051827130777674 0 0.00069275283581613314 0.034688253828913926 0 0.00068987858492839977 0.035297242257059949 0 0.00068029647366615387 0.035111064016847666 0 0.00069275283581613314 0.034688253828913926 0 0.00063730434149504589 0.035282970745599058 0 0.00068987858492839977 0.035297242257059949 0 0.00068029647366615387 0.035111064016847666 0 0.00060811757377635253 0.035162251720447971 0 0.00068029647366615387 0.035111064016847666 0 0.00068568999239688707 0.035051827130777674 0 0.00068568999239688707 0.035051827130777674 0 0.00064413588066000553 0.035015590510966088 0 0.00074787116852101409 0.034956468515743008 0 0.00064413588066000553 0.035015590510966088 0 0.00074787116852101409 0.034956468515743008 0 0.00073553693344930121 0.03509138103912713 0 0.00068568999239688707 0.035051827130777674 0 0.00074787116852101409 0.034956468515743008 0 0.00069275283581613314 0.034688253828913926 0 0.00074787116852101409 0.034956468515743008 0 0.00069275283581613314 0.034688253828913926 0 0.00063199147618556736 0.035342724591680086 0 0.00074787116852101409 0.034956468515743008 0 0.00063199147618556736 0.035342724591680086 0 0.00073553693344930121 0.03509138103912713 0 0.00047069798676205565 0.024646216857504694 0 0.0012754470956038405 0.026028100336702265 0 0.001937917470809744 0.025908608919220782 0 -0.00020592539204356274 0.032662392369095239 0 0.00058630504659033561 0.032554486974948657 0 0.00064757254710611737 0.033365727125668529 0 0.00098224668237246017 0.031486985969273837 0 0.0010372579730625019 0.028159256872411609 0 0.0010229000860177112 0.025979451886457176 0 0.0010372579730625019 0.028159256872411609 0 0.0012309969490287612 0.023266822765805596 0 0.0010749054092346931 0.022087535344098682 0 0.0018512495332208498 0.023027086163130119 0 0.0023942219889319912 0.021011394774623229 0 0.0019111925689271464 0.022730162995578045 0 0.0015709239658327249 0.022642586227659512 0 0.0019111925689271464 0.022730162995578045 0 0.00063032029648332115 0.025835280542211691 0 0.0013427315341467941 0.026695663159956699 0 0.0012754470956038405 0.026028100336702265 0 0.0012754470956038405 0.026028100336702265 0 0.0019783477968953571 0.026451512991758908 0 0.001937917470809744 0.025908608919220782 0 0.0013427315341467941 0.026695663159956699 0 0.0012754470956038405 0.026028100336702265 0 0.0019783477968953571 0.026451512991758908 0 0.0019111925689271464 0.022730162995578045 0 0.001268104936633326 0.025499409207127767 0 0.00033212957696408341 0.027974387807183549 0 -0.00086308082615399635 0.029747573148176023 0 0.003067296352740011 0.018915149422457363 0 0.0026113080852320902 0.019093061084911388 0 0.0025794147206335918 0.018316769364180353 0 0.001268104936633326 0.025499409207127767 0 0.00033212957696408341 0.027974387807183549 0 -0.0013562755861329207 0.030620116659546903 0 -0.0017136461767822198 0.025675586992695881 0 0.0023415284664993867 0.029187831977140862 0 0.001268104936633326 0.025499409207127767 0 0.0010372579730625019 0.028159256872411609 0 0.00063199147618556736 0.035342724591680086 0 0.00073553693344930121 0.03509138103912713 0 0.00075781631553602919 0.035049096782261709 0 0.0010372579730625019 0.028159256872411609 0 0.00033212957696408341 0.027974387807183549 0 0.00064413588066000553 0.035015590510966088 0 0.00073553693344930121 0.03509138103912713 0 0.00075781631553602919 0.035049096782261709 0 0.0026113080852320902 0.019093061084911388 0 0.0025794147206335918 0.018316769364180353 0 0.0013518418126648275 0.017965454760714768 0 0.0029772473985178426 0.017660254953287349 0 0.0025794147206335918 0.018316769364180353 0 0.0013518418126648275 0.017965454760714768 0 0.001268104936633326 0.025499409207127767 0 0.0012545388627069642 0.020556822893589045 0 0.003067296352740011 0.018915149422457363 0 0.0029772473985178426 0.017660254953287349 0 0.0025794147206335918 0.018316769364180353 0 0.0023374839737485215 0.019555129301185262 0 0.0023942219889319912 0.021011394774623229 0 0.003169368565380264 0.016293517999900628 0 0.0032481964173902878 0.016827141343567421 0 0.0030068052252662817 0.016613613227102923 0 0.0016550362251580297 0.021939221022704417 0 0.0027344329387949313 0.021522093039489716 0 0.0028712977578424143 0.023409403772828411 0 0.003169368565380264 0.016293517999900628 0 0.0026628127117019848 0.016536874964507581 0 0.0030068052252662817 0.016613613227102923 0 0.0029792374576832429 0.016922783435924422 0 0.0026628127117019848 0.016536874964507581 0 0.0030068052252662817 0.016613613227102923 0 0.0019111925689271464 0.022730162995578045 0 0.0012545388627069642 0.020556822893589045 0 0.0032481964173902878 0.016827141343567421 0 0.0029792374576832429 0.016922783435924422 0 0.0030068052252662817 0.016613613227102923 0 -0.00034749867164332116 0.034432763323818706 0 -0.00074681934507594093 0.034350992485622428 0 -0.000706341286636276 0.034765479748704239 0 -0.00074681934507594093 0.034350992485622428 0 -0.000706341286636276 0.034765479748704239 0 -0.001269141190600002 0.034805547087475186 0 -0.00017833051278684243 0.034941950629704066 0 -0.00034749867164332116 0.034432763323818706 0 -0.000706341286636276 0.034765479748704239 0 0.00031353337180054712 0.034859024473287543 0 0.00064413588066000553 0.035015590510966088 0 0.00075781631553602919 0.035049096782261709 0 0.00068379435425329016 0.034588988024709069 0 5.5758960188364891e-05 0.034492098188221423 0 7.0980016568767262e-06 0.034011797395492295 0 -0.00081824091823152448 0.031529567091821385 0 0.00033212957696408341 0.027974387807183549 0 -0.00017833051278684243 0.034941950629704066 0 0.00068379435425329016 0.034588988024709069 0 5.5758960188364891e-05 0.034492098188221423 0 -0.00017833051278684243 0.034941950629704066 0 -0.00034749867164332116 0.034432763323818706 0 5.5758960188364891e-05 0.034492098188221423 0 -0.00034749867164332116 0.034432763323818706 0 5.5758960188364891e-05 0.034492098188221423 0 7.0980016568767262e-06 0.034011797395492295 0 0.0011297206308751016 0.016949169561609717 0 0.0029772473985178426 0.017660254953287349 0 0.0013518418126648275 0.017965454760714768 0 -0.00034749867164332116 0.034432763323818706 0 7.0980016568767262e-06 0.034011797395492295 0 -0.0005222053205263254 0.034036695626720535 0 -0.0010676779169648011 0.034512462395440473 0 -0.00086308082615399635 0.029747573148176023 0 -0.0006725380315014928 0.033424345303081172 0 7.0980016568767262e-06 0.034011797395492295 0 -0.0005222053205263254 0.034036695626720535 0 -0.00034749867164332116 0.034432763323818706 0 -0.00074681934507594093 0.034350992485622428 0 -0.0005222053205263254 0.034036695626720535 0 -0.0010847428435452136 0.035894421064591009 0 -0.0010227558454806132 0.036131565595164825 0 -0.00074681934507594093 0.034350992485622428 0 -0.0005222053205263254 0.034036695626720535 0 -0.00091072975034443534 0.033971781540984819 0 -0.0006725380315014928 0.033424345303081172 0 -0.0005222053205263254 0.034036695626720535 0 -0.00091072975034443534 0.033971781540984819 0 -0.0010676779169648011 0.034512462395440473 0 -0.0010227558454806132 0.036131565595164825 0 -0.0013395241863427005 0.033036469488958366 0 -0.00092079950439615649 0.033990743532153408 0 -0.0016133169344941015 0.034135207301463862 0 -0.00074681934507594093 0.034350992485622428 0 -0.00091449795046179858 0.033969606999490982 0 -0.001269141190600002 0.034805547087475186 0 -0.0010227558454806132 0.036131565595164825 0 -0.00085528959504152752 0.035424460236697854 0 -0.00092079950439615649 0.033990743532153408 0 -0.001269141190600002 0.034805547087475186 0 -0.0016133169344941015 0.034135207301463862 0 -0.001269141190600002 0.034805547087475186 0 -0.0020989362747290429 0.0347479355161745 0 -0.0015792645872017522 0.035137137192688336 0 -0.001269141190600002 0.034805547087475186 0 -0.0020989362747290429 0.0347479355161745 0 -0.0016133169344941015 0.034135207301463862 0 -0.0020989362747290429 0.0347479355161745 0 -0.00221967453457764 0.0337158158643793 0 -0.0016133169344941015 0.034135207301463862 0 0.018400731063862533 0.071870154118590462 0 0.016391511621666591 0.071828426477532861 0 0.016546161433888765 0.073648358335737019 0 0.0056535361614209103 0.050712007333889086 0 0.0058356135237326049 0.053288353967292854 0 0.016391511621666591 0.071828426477532861 0 0.016546161433888765 0.073648358335737019 0 0.014763655689842514 0.073615160021442208 0 0.0058356135237326049 0.053288353967292854 0 0.0052877205076024289 0.055522541959949344 0 -0.0020989362747290429 0.0347479355161745 0 -0.00221967453457764 0.0337158158643793 0 -0.0031937546734491147 0.034412479543754766 0 -0.0020989362747290429 0.0347479355161745 0 -0.0031937546734491147 0.034412479543754766 0 -0.0029850920608264909 0.035267058258186386 0 -0.0020989362747290429 0.0347479355161745 0 -0.0029850920608264909 0.035267058258186386 0 -0.0019114231358041724 0.035681232756753195 0 -0.0031937546734491147 0.034412479543754766 0 -0.0029850920608264909 0.035267058258186386 0 -0.0042912857795973369 0.035185224869908875 0 -0.0029850920608264909 0.035267058258186386 0 -0.0035189356172769378 0.036024876657037914 0 -0.0042912857795973369 0.035185224869908875 0 -0.0035189356172769378 0.036024876657037914 0 -0.0027268513274736387 0.036123366845644239 0 -0.0032138333661089207 0.03711107587093046 0 -0.0029850920608264909 0.035267058258186386 0 -0.0035189356172769378 0.036024876657037914 0 -0.0027268513274736387 0.036123366845644239 0 -0.0029850920608264909 0.035267058258186386 0 -0.0027268513274736387 0.036123366845644239 0 -0.0019114231358041724 0.035681232756753195 0 -0.0019114231358041724 0.035681232756753195 0 -0.0012491226769879144 0.035985486534154468 0 -0.0018741865084374865 0.036593157560700668 0 -0.0027268513274736387 0.036123366845644239 0 -0.0019114231358041724 0.035681232756753195 0 -0.0018741865084374865 0.036593157560700668 0 -0.0019114231358041724 0.035681232756753195 0 -0.0012491226769879144 0.035985486534154468 0 -0.00085632437339346068 0.035674430243770594 0 -0.00010618997503087595 0.035681035239959857 0 9.4778012580059423e-05 0.035761489576443324 0 -0.00066630636923775775 0.0362567871344079 0 -0.00039897539948285091 0.035981970079917491 0 -0.0012491226769879144 0.035985486534154468 0 -0.0018741865084374865 0.036593157560700668 0 -0.0004548869090059263 0.035892611795193777 0 -0.0015681295531140094 0.036333650541828341 0 -0.00039897539948285091 0.035981970079917491 0 -0.00047161336255268775 0.035538249980062907 0 -0.00085632437339346068 0.035674430243770594 0 -0.00039897539948285091 0.035981970079917491 0 -0.0012491226769879144 0.035985486534154468 0 -0.00085632437339346068 0.035674430243770594 0 -0.0017655567997487626 0.033746065662150097 0 -0.0014149572710993445 0.033192455291473383 0 -0.0019114231358041724 0.035681232756753195 0 -0.0010515122955520309 0.035304656389160152 0 -0.0015792645872017522 0.035137137192688336 0 -0.0019114231358041724 0.035681232756753195 0 -0.00085632437339346068 0.035674430243770594 0 -0.00071207584445810842 0.035150951805750716 0 -0.00047161336255268775 0.035538249980062907 0 -0.00085632437339346068 0.035674430243770594 0 -0.00071207584445810842 0.035150951805750716 0 -0.000706341286636276 0.034765479748704239 0 -0.001269141190600002 0.034805547087475186 0 -0.0010515122955520309 0.035304656389160152 0 -0.001269141190600002 0.034805547087475186 0 -0.0010515122955520309 0.035304656389160152 0 -0.0015792645872017522 0.035137137192688336 0 -0.0020989362747290429 0.0347479355161745 0 -0.0019114231358041724 0.035681232756753195 0 -0.0015792645872017522 0.035137137192688336 0 -0.00027037911866229929 0.062709992963351766 0 -0.0013320861066089477 0.065316236303270478 0 -0.0042885882783143554 0.065786267519924294 0 -0.0052393957260661551 0.063190216702782492 0 -0.0013841824978235284 0.063523767146019358 0 -0.0070044700840306649 0.065277081581966795 0 -0.0013841824978235284 0.063523767146019358 0 -0.0070044700840306649 0.065277081581966795 0 -0.0071129111581365694 0.067681014566812414 0 -0.00083876221835369705 0.064054640253043832 0 -0.0048006514227485683 0.067880630930120422 0 -0.0052393957260661551 0.063190216702782492 0 -0.0031372669882458516 0.060600222756803178 0 -0.0013841824978235284 0.063523767146019358 0 -0.0052393957260661551 0.063190216702782492 0 -0.0058019659303851882 0.061769943160719501 0 -0.0031372669882458516 0.060600222756803178 0 -0.0058019659303851882 0.061769943160719501 0 -0.0061515466552760729 0.058982585240085775 0 -0.0031372669882458516 0.060600222756803178 0 -0.00210399958079186 0.056763258619605093 0 -0.0061515466552760729 0.058982585240085775 0 -0.0031372669882458516 0.060600222756803178 0 -0.0031372669882458516 0.060600222756803178 0 -0.00012904867672632679 0.059496178036676714 0 -0.0013841824978235284 0.063523767146019358 0 -0.00012904867672632679 0.059496178036676714 0 -0.0013841824978235284 0.063523767146019358 0 0.0038565124367757539 0.059396331003012857 0 -0.00210399958079186 0.056763258619605093 0 -0.0031372669882458516 0.060600222756803178 0 -0.00012904867672632679 0.059496178036676714 0 0.01308809922626011 0.073594694406061797 0 0.013118942997062906 0.075425593341251984 0 0.011556638215974862 0.075468678188412394 0 -0.00027037911866229929 0.062709992963351766 0 0.0022072620512181241 0.061925262237677095 0 -0.0013320861066089477 0.065316236303270478 0 0.0071212294585944009 0.067131832672413794 0 0.0050536092645831684 0.070157212340157621 0 0.014763655689842514 0.073615160021442208 0 0.014748649487538049 0.075450667059828253 0 0.013118942997062906 0.075425593341251984 0 0.01308809922626011 0.073594694406061797 0 0.014763655689842514 0.073615160021442208 0 0.013118942997062906 0.075425593341251984 0 -0.00083876221835369705 0.064054640253043832 0 0.0015258057240429041 0.062052594837411858 0 0.0018752884074852596 0.057587532871533981 0 -0.00012904867672632679 0.059496178036676714 0 0.0038565124367757539 0.059396331003012857 0 0.0088111822681628798 0.063775828991276512 0 0.0071212294585944009 0.067131832672413794 0 0.0057974921356922339 0.058287144872536056 0 0.0022072620512181241 0.061925262237677095 0 0.0038565124367757539 0.059396331003012857 0 -0.00027037911866229929 0.062709992963351766 0 0.0022072620512181241 0.061925262237677095 0 0.0038565124367757539 0.059396331003012857 0 0.014735205670651334 0.071737404403248176 0 0.01308809922626011 0.073594694406061797 0 0.014763655689842514 0.073615160021442208 0 0.014735205670651334 0.071737404403248176 0 0.016391511621666591 0.071828426477532861 0 0.014763655689842514 0.073615160021442208 0 0.016546161433888765 0.073648358335737019 0 0.014763655689842514 0.073615160021442208 0 0.014748649487538049 0.075450667059828253 0 -0.0035189356172769378 0.036024876657037914 0 -0.0042912857795973369 0.035185224869908875 0 -0.0043932978792096998 0.036485468601110141 0 -0.0042912857795973369 0.035185224869908875 0 -0.0054754409179026643 0.036045023370802669 0 -0.0043932978792096998 0.036485468601110141 0 0.0052877205076024289 0.055522541959949344 0 0.0047965691378986106 0.057876072294277325 0 0.014748649487538049 0.075450667059828253 0 0.013009562847615889 0.077195427552213855 0 0.013118942997062906 0.075425593341251984 0 0.013009562847615889 0.077195427552213855 0 0.013118942997062906 0.075425593341251984 0 0.011556638215974862 0.075468678188412394 0 0.013009562847615889 0.077195427552213855 0 0.011337157418296894 0.077388848545133421 0 0.011556638215974862 0.075468678188412394 0 0.013009562847615889 0.077195427552213855 0 0.011337157418296894 0.077388848545133421 0 0.01137926014259592 0.078763769134275644 0 0.011337157418296894 0.077388848545133421 0 0.011556638215974862 0.075468678188412394 0 0.010297523104431727 0.077256900438296236 0 0.011337157418296894 0.077388848545133421 0 0.010297523104431727 0.077256900438296236 0 0.010587539673438708 0.078161311010714107 0 -0.0013320861066089477 0.065316236303270478 0 -0.0042885882783143554 0.065786267519924294 0 -0.0047879996102176553 0.068508038767135043 0 0.0050536092645831684 0.070157212340157621 0 0.002894187931059727 0.073087172481680909 0 -0.0067413424081911155 0.036950412514780477 0 -0.0061884788897666665 0.03818286973065628 0 -0.0081465550579077305 0.038027680005884537 0 0.0051039897403455164 0.0609607467812723 0 0.007549736831965621 0.065847054792048082 0 0.011337157418296894 0.077388848545133421 0 0.01137926014259592 0.078763769134275644 0 0.010587539673438708 0.078161311010714107 0 0.01137926014259592 0.078763769134275644 0 0.010587539673438708 0.078161311010714107 0 0.010500805085878981 0.078927710739832041 0 0.0047965691378986106 0.057876072294277325 0 0.0051039897403455164 0.0609607467812723 0 -0.0054754409179026643 0.036045023370802669 0 -0.0067413424081911155 0.036950412514780477 0 -0.005642477708918384 0.0372398386848821 0 -0.0067413424081911155 0.036950412514780477 0 -0.005642477708918384 0.0372398386848821 0 -0.0061884788897666665 0.03818286973065628 0 -0.0042044155399346139 0.03716898186287014 0 -0.0051704612661967074 0.038575571962897015 0 -0.0061884788897666665 0.03818286973065628 0 -0.0043041765426929156 0.037370314029704324 0 -0.0051732528072887113 0.03770057392775257 0 -0.005642477708918384 0.0372398386848821 0 -0.0046412502849434685 0.037656939654160143 0 -0.0061884788897666665 0.03818286973065628 0 -0.005642477708918384 0.0372398386848821 0 -0.0043932978792096998 0.036485468601110141 0 -0.0046412502849434685 0.037656939654160143 0 -0.0054754409179026643 0.036045023370802669 0 -0.005642477708918384 0.0372398386848821 0 -0.0043932978792096998 0.036485468601110141 0 -0.0043932978792096998 0.036485468601110141 0 -0.0046412502849434685 0.037656939654160143 0 -0.0032138333661089207 0.03711107587093046 0 -0.0043041765426929156 0.037370314029704324 0 -0.0028934940042061462 0.036837616752161684 0 -0.0042044155399346139 0.03716898186287014 0 -0.0035057099557936249 0.0384026309319958 0 -0.0028558877317164141 0.037616688905134914 0 -0.0042044155399346139 0.03716898186287014 0 -0.0035057099557936249 0.0384026309319958 0 -0.004313778956117789 0.038579601881511029 0 -0.0035057099557936249 0.0384026309319958 0 -0.0039966036020744923 0.039177950628979642 0 -0.004313778956117789 0.038579601881511029 0 -0.0035057099557936249 0.0384026309319958 0 -0.0033186095698444326 0.03931767037168004 0 -0.0039966036020744923 0.039177950628979642 0 -0.0035057099557936249 0.0384026309319958 0 -0.0033186095698444326 0.03931767037168004 0 -0.002571247258557615 0.038597954543417266 0 -0.0014590239310552436 0.050582861433667289 0 -0.0018190355162597354 0.05173670265436868 0 -0.0033186095698444326 0.03931767037168004 0 -0.0037287916953885275 0.039978543326820451 0 -0.0027436726330331341 0.039834116283837102 0 -0.0035711366533878125 0.040033488253614621 0 -0.0041790082176189989 0.03993216706309706 0 -0.0039797076238526968 0.04099491521872986 0 -0.0033186095698444326 0.03931767037168004 0 -0.0035711366533878125 0.040033488253614621 0 -0.0041790082176189989 0.03993216706309706 0 -0.0033186095698444326 0.03931767037168004 0 -0.0041790082176189989 0.03993216706309706 0 -0.0039966036020744923 0.039177950628979642 0 -0.0041790082176189989 0.03993216706309706 0 -0.0039966036020744923 0.039177950628979642 0 -0.0047757067217765433 0.039572557560713893 0 -0.0041790082176189989 0.03993216706309706 0 -0.0047757067217765433 0.039572557560713893 0 -0.004854583110300981 0.040575753791138286 0 -0.0047757067217765433 0.039572557560713893 0 -0.0058307942689041171 0.040729507793696079 0 -0.004854583110300981 0.040575753791138286 0 -0.0047757067217765433 0.039572557560713893 0 -0.0051704612661967074 0.038575571962897015 0 -0.0060650993660808601 0.039433711517963238 0 -0.0042044155399346139 0.03716898186287014 0 -0.004313778956117789 0.038579601881511029 0 -0.0051704612661967074 0.038575571962897015 0 -0.0039966036020744923 0.039177950628979642 0 -0.0047757067217765433 0.039572557560713893 0 -0.004313778956117789 0.038579601881511029 0 -0.0047757067217765433 0.039572557560713893 0 -0.004313778956117789 0.038579601881511029 0 -0.0051704612661967074 0.038575571962897015 0 -0.0051704612661967074 0.038575571962897015 0 -0.0061884788897666665 0.03818286973065628 0 -0.0060650993660808601 0.039433711517963238 0 -0.0047757067217765433 0.039572557560713893 0 -0.0060650993660808601 0.039433711517963238 0 -0.0058307942689041171 0.040729507793696079 0 -0.0060650993660808601 0.039433711517963238 0 -0.0058307942689041171 0.040729507793696079 0 -0.0077358427486797542 0.039790689311949061 0 -0.0061884788897666665 0.03818286973065628 0 -0.0081465550579077305 0.038027680005884537 0 -0.0077358427486797542 0.039790689311949061 0 -0.0061884788897666665 0.03818286973065628 0 -0.0060650993660808601 0.039433711517963238 0 -0.0077358427486797542 0.039790689311949061 0 0.00067395183116085639 0.03628012857752299 0 0.0013309315544383306 0.035263044081957892 0 -0.00076310307037978458 0.036083286347011627 0 0.00067395183116085639 0.03628012857752299 0 -0.00076310307037978458 0.036083286347011627 0 -7.4051149934312646e-05 0.037572614746217814 0 0.00067395183116085639 0.03628012857752299 0 0.0018479543398658507 0.035656810192665762 0 0.0009493860799469014 0.037411807925648008 0 0.00067395183116085639 0.03628012857752299 0 0.0018479543398658507 0.035656810192665762 0 0.0013309315544383306 0.035263044081957892 0 0.001376878491567974 0.035491904561453583 0 0.0011398535944936747 0.035650439592851302 0 0.0013309315544383306 0.035263044081957892 0 0.00045794309296623827 0.035684772051308225 0 -9.9069353750527579e-05 0.035982326210648639 0 -0.00010618997503087595 0.035681035239959857 0 -0.00066630636923775775 0.0362567871344079 0 -0.0011023223786220363 0.036066190115743274 0 0.001376878491567974 0.035491904561453583 0 0.0018479543398658507 0.035656810192665762 0 0.0013309315544383306 0.035263044081957892 0 -9.9069353750527579e-05 0.035982326210648639 0 -0.0011131757994639569 0.036509031391819401 0 -0.00066630636923775775 0.0362567871344079 0 -0.0011023223786220363 0.036066190115743274 0 -0.0016359218264273853 0.03686483431598972 0 -0.0027268513274736387 0.036123366845644239 0 -0.0018741865084374865 0.036593157560700668 0 -0.0032138333661089207 0.03711107587093046 0 -0.0011023223786220363 0.036066190115743274 0 -0.0024312218944863581 0.036506542619538139 0 -0.0016359218264273853 0.03686483431598972 0 -0.0015681295531140094 0.036333650541828341 0 -0.0028934940042061462 0.036837616752161684 0 -0.0035189356172769378 0.036024876657037914 0 -0.0043932978792096998 0.036485468601110141 0 -0.0032138333661089207 0.03711107587093046 0 -0.0024312218944863581 0.036506542619538139 0 -0.0028558877317164141 0.037616688905134914 0 -0.0016359218264273853 0.03686483431598972 0 -0.0042044155399346139 0.03716898186287014 0 -0.0024312218944863581 0.036506542619538139 0 -0.0028558877317164141 0.037616688905134914 0 -0.0028558877317164141 0.037616688905134914 0 -0.00076310307037978458 0.036083286347011627 0 -0.0014841454574629561 0.038138263362261615 0 -0.0018134142687722143 0.036888087163067011 0 -0.0011131757994639569 0.036509031391819401 0 -0.00076310307037978458 0.036083286347011627 0 -0.0014841454574629561 0.038138263362261615 0 -7.4051149934312646e-05 0.037572614746217814 0 -0.0014841454574629561 0.038138263362261615 0 -0.0004916818652916608 0.038759490959384871 0 -7.4051149934312646e-05 0.037572614746217814 0 -0.0035057099557936249 0.0384026309319958 0 -0.0028558877317164141 0.037616688905134914 0 -0.002571247258557615 0.038597954543417266 0 -0.0028558877317164141 0.037616688905134914 0 -0.0014841454574629561 0.038138263362261615 0 -0.002571247258557615 0.038597954543417266 0 -0.0014841454574629561 0.038138263362261615 0 -0.002571247258557615 0.038597954543417266 0 -0.0020924771379979843 0.039337370338762202 0 -0.0033186095698444326 0.03931767037168004 0 -0.0026909305370100525 0.039284959689152223 0 -0.0027436726330331341 0.039834116283837102 0 -0.0033186095698444326 0.03931767037168004 0 -0.002571247258557615 0.038597954543417266 0 -0.0026909305370100525 0.039284959689152223 0 -0.002571247258557615 0.038597954543417266 0 -0.0026909305370100525 0.039284959689152223 0 -0.0020924771379979843 0.039337370338762202 0 -0.0026909305370100525 0.039284959689152223 0 -0.0020924771379979843 0.039337370338762202 0 -0.0027436726330331341 0.039834116283837102 0 -0.0020924771379979843 0.039337370338762202 0 -0.0020013039195868757 0.040109871431563443 0 -0.0027436726330331341 0.039834116283837102 0 -0.0020013039195868757 0.040109871431563443 0 -0.0027436726330331341 0.039834116283837102 0 -0.0025025358577792523 0.040904161557496446 0 -0.0037287916953885275 0.039978543326820451 0 -0.0027436726330331341 0.039834116283837102 0 -0.0025025358577792523 0.040904161557496446 0 -0.0014841454574629561 0.038138263362261615 0 -0.0020924771379979843 0.039337370338762202 0 -0.0011267372485605229 0.039640863455496521 0 -0.0014841454574629561 0.038138263362261615 0 -0.0004916818652916608 0.038759490959384871 0 -0.0011267372485605229 0.039640863455496521 0 -0.0004916818652916608 0.038759490959384871 0 -0.0011267372485605229 0.039640863455496521 0 -0.00027560749525998545 0.039887410987974235 0 -0.0020924771379979843 0.039337370338762202 0 -0.0020013039195868757 0.040109871431563443 0 -0.0011267372485605229 0.039640863455496521 0 -0.0020013039195868757 0.040109871431563443 0 -0.0011267372485605229 0.039640863455496521 0 -0.0012909312814633497 0.040630353981560396 0 -0.0011267372485605229 0.039640863455496521 0 -0.00027560749525998545 0.039887410987974235 0 -0.0012909312814633497 0.040630353981560396 0 -0.00027560749525998545 0.039887410987974235 0 0.00085717280244528753 0.040102140086771286 0 0.00055412701665841853 0.03880751344869076 0 -0.0004916818652916608 0.038759490959384871 0 -0.00027560749525998545 0.039887410987974235 0 0.00055412701665841853 0.03880751344869076 0 -0.0004916818652916608 0.038759490959384871 0 0.00055412701665841853 0.03880751344869076 0 -7.4051149934312646e-05 0.037572614746217814 0 0.00055412701665841853 0.03880751344869076 0 0.0009493860799469014 0.037411807925648008 0 -7.4051149934312646e-05 0.037572614746217814 0 0.00067395183116085639 0.03628012857752299 0 0.0009493860799469014 0.037411807925648008 0 -7.4051149934312646e-05 0.037572614746217814 0 0.0011525586003524164 0.03596604756289918 0 0.0008952841189689729 0.036432138011722681 0 0.0013061106163604014 0.034486870710959197 0 0.0018479543398658507 0.035656810192665762 0 0.0020448133986060322 0.032688763985691122 0 0.0018479543398658507 0.035656810192665762 0 0.0009493860799469014 0.037411807925648008 0 0.0024685517379794209 0.038903196530206498 0 0.00055412701665841853 0.03880751344869076 0 0.0009493860799469014 0.037411807925648008 0 0.0024685517379794209 0.038903196530206498 0 0.00085717280244528753 0.040102140086771286 0 0.00055412701665841853 0.03880751344869076 0 0.0024685517379794209 0.038903196530206498 0 0.00085717280244528753 0.040102140086771286 0 0.0024685517379794209 0.038903196530206498 0 0.0014502403870418916 0.041115782756363357 0 0.0024685517379794209 0.038903196530206498 0 0.0014502403870418916 0.041115782756363357 0 0.0026516240774747931 0.041670206723277599 0 0.0008952841189689729 0.036432138011722681 0 -0.00011313215274286214 0.038827778933109992 0 0.0014502403870418916 0.041115782756363357 0 0.0011517708388908371 0.042471106071899349 0 0.0026516240774747931 0.041670206723277599 0 0.0011517708388908371 0.042471106071899349 0 0.0026516240774747931 0.041670206723277599 0 0.0028391155318630737 0.044365027941572259 0 0.0011517708388908371 0.042471106071899349 0 -0.00033752336729907565 0.042615854112919266 0 0.00055409894033730167 0.043954684398434397 0 0.0011517708388908371 0.042471106071899349 0 -0.00033752336729907565 0.042615854112919266 0 -0.00010587730249747175 0.041364352419410326 0 0.00085717280244528753 0.040102140086771286 0 0.0014502403870418916 0.041115782756363357 0 -0.00010587730249747175 0.041364352419410326 0 0.0014502403870418916 0.041115782756363357 0 0.0011517708388908371 0.042471106071899349 0 -0.00010587730249747175 0.041364352419410326 0 -0.00027560749525998545 0.039887410987974235 0 0.00085717280244528753 0.040102140086771286 0 -0.00010587730249747175 0.041364352419410326 0 -0.00027560749525998545 0.039887410987974235 0 -0.00010587730249747175 0.041364352419410326 0 -0.0012909312814633497 0.040630353981560396 0 -0.00010587730249747175 0.041364352419410326 0 -0.0012909312814633497 0.040630353981560396 0 -0.0015700524882348459 0.041742295996017122 0 -0.0012909312814633497 0.040630353981560396 0 -0.0015700524882348459 0.041742295996017122 0 -0.0025025358577792523 0.040904161557496446 0 -0.0037287916953885275 0.039978543326820451 0 -0.0025025358577792523 0.040904161557496446 0 -0.002659993929260951 0.041797314213328385 0 -0.0020013039195868757 0.040109871431563443 0 -0.0012909312814633497 0.040630353981560396 0 -0.0025025358577792523 0.040904161557496446 0 -0.0015700524882348459 0.041742295996017122 0 -0.0025025358577792523 0.040904161557496446 0 -0.0027023893307602529 0.041892438185451783 0 -0.0024639055522660512 0.056309515389537761 0 -0.0028055672150383991 0.058982563430728975 0 -0.0015984464496132497 0.067355545127423436 0 -0.0025958442384708784 0.065804575731219478 0 -0.001368157994097256 0.066012167924268117 0 -0.0028055672150383991 0.058982563430728975 0 -0.0040379221179374378 0.067349983667752716 0 -0.0015700524882348459 0.041742295996017122 0 -0.0027023893307602529 0.041892438185451783 0 -0.0016992462589029084 0.04355251612343216 0 -0.0015712122656116509 0.06292514358262298 0 -0.0016881916139316333 0.063625813559780836 0 -0.0020322207464372266 0.063191596934009761 0 -0.0028055672150383991 0.058982563430728975 0 -0.0027873489880684164 0.069507105729362195 0 -0.00033752336729907565 0.042615854112919266 0 -0.0015700524882348459 0.041742295996017122 0 -0.0016992462589029084 0.04355251612343216 0 -0.00033752336729907565 0.042615854112919266 0 -0.00010587730249747175 0.041364352419410326 0 -0.0015700524882348459 0.041742295996017122 0 -0.00033752336729907565 0.042615854112919266 0 -0.0016992462589029084 0.04355251612343216 0 0.00055409894033730167 0.043954684398434397 0 -0.007652307592174252 0.082863030415908187 0 -0.0087166671148337892 0.081225882877570765 0 -0.0093265340207044668 0.082623261561605099 0 -0.0040379221179374378 0.067349983667752716 0 -0.0035366413536919226 0.059783325937635468 0 -0.0040379221179374378 0.067349983667752716 0 -0.0043403147431505104 0.077493669455411793 0 -0.0054327106699701292 0.08611129598435005 0 -0.0036596954605696264 0.086405326849614994 0 -0.0049653603404293256 0.084191555652062544 0 -0.0027873489880684164 0.069507105729362195 0 -0.0035226698382036076 0.079520214285103613 0 -0.0036596954605696264 0.086405326849614994 0 -0.0049653603404293256 0.084191555652062544 0 -0.0031647240204101721 0.083619283224133423 0 -0.0040379221179374378 0.067349983667752716 0 -0.0027873489880684164 0.069507105729362195 0 -0.0049653603404293256 0.084191555652062544 0 -0.0031647240204101721 0.083619283224133423 0 -0.0050829935041532305 0.081839716504206031 0 -0.0054327106699701292 0.08611129598435005 0 -0.0049653603404293256 0.084191555652062544 0 -0.0075205433498720395 0.082950511795520765 0 -0.0049653603404293256 0.084191555652062544 0 -0.0075205433498720395 0.082950511795520765 0 -0.0050829935041532305 0.081839716504206031 0 -0.0087166671148337892 0.081225882877570765 0 -0.010117894003875428 0.081369892721090006 0 -0.0093265340207044668 0.082623261561605099 0 -0.010117894003875428 0.081369892721090006 0 -0.011364488077442895 0.080518587222460122 0 -0.011050034182146033 0.082357672219842123 0 -0.0035366413536919226 0.059783325937635468 0 -0.002056737078281151 0.050533023128726699 0 0.0011517708388908371 0.042471106071899349 0 0.00055409894033730167 0.043954684398434397 0 0.0028391155318630737 0.044365027941572259 0 -0.010117894003875428 0.081369892721090006 0 -0.0093265340207044668 0.082623261561605099 0 -0.011050034182146033 0.082357672219842123 0 7.2068080271053044e-05 0.064122343334480039 0 -0.0014782729322111337 0.071989338919262263 0 7.2068080271053044e-05 0.064122343334480039 0 0.0024990771081924404 0.06220832497305083 0 -0.0072565853279108047 0.041855623902172276 0 -0.0058307942689041171 0.040729507793696079 0 -0.0077358427486797542 0.039790689311949061 0 -0.0072565853279108047 0.041855623902172276 0 -0.0058307942689041171 0.040729507793696079 0 -0.0056733336258680163 0.041817361510989248 0 -0.0058307942689041171 0.040729507793696079 0 -0.0056733336258680163 0.041817361510989248 0 -0.0048271168263839433 0.041551865183906571 0 -0.0072565853279108047 0.041855623902172276 0 -0.0056733336258680163 0.041817361510989248 0 -0.00663990986869392 0.04404256885113695 0 -0.0056733336258680163 0.041817361510989248 0 -0.005011981727625907 0.042573916940463592 0 -0.00663990986869392 0.04404256885113695 0 -0.0010612579168377931 0.067119918898414913 0 -0.0011391536884506786 0.055589343334734996 0 -0.004738383849197678 0.04261500383592208 0 -0.0048271168263839433 0.041551865183906571 0 -0.0039797076238526968 0.04099491521872986 0 -0.005011981727625907 0.042573916940463592 0 -0.004738383849197678 0.04261500383592208 0 -0.005104235536852679 0.04206826315060215 0 -0.001187098414309986 0.066983585846105892 0 -0.0010612579168377931 0.067119918898414913 0 -0.004738383849197678 0.04261500383592208 0 -0.005104235536852679 0.04206826315060215 0 -0.0048271168263839433 0.041551865183906571 0 -0.0056733336258680163 0.041817361510989248 0 -0.005011981727625907 0.042573916940463592 0 -0.005104235536852679 0.04206826315060215 0 -0.0056733336258680163 0.041817361510989248 0 -0.005104235536852679 0.04206826315060215 0 -0.0048271168263839433 0.041551865183906571 0 -0.0058307942689041171 0.040729507793696079 0 -0.0048271168263839433 0.041551865183906571 0 -0.004854583110300981 0.040575753791138286 0 -0.0041790082176189989 0.03993216706309706 0 -0.004854583110300981 0.040575753791138286 0 -0.0039797076238526968 0.04099491521872986 0 -0.0048271168263839433 0.041551865183906571 0 -0.004854583110300981 0.040575753791138286 0 -0.0039797076238526968 0.04099491521872986 0 -0.0021747193113174621 0.061960846930222128 0 -0.0024494582682578116 0.062494225667817024 0 -0.0020546308589917996 0.06275509018409324 0 -0.0021747193113174621 0.061960846930222128 0 -0.0015712122656116509 0.06292514358262298 0 -0.0020546308589917996 0.06275509018409324 0 -0.0018190355162597354 0.05173670265436868 0 -0.0028055672150383991 0.058982563430728975 0 -0.0018190355162597354 0.05173670265436868 0 -0.0011391536884506786 0.055589343334734996 0 -0.0016881916139316333 0.063625813559780836 0 -0.0029578801228592436 0.063411293521033515 0 -0.0020322207464372266 0.063191596934009761 0 -0.0015712122656116509 0.06292514358262298 0 -0.0020546308589917996 0.06275509018409324 0 -0.0020322207464372266 0.063191596934009761 0 -0.0029578801228592436 0.063411293521033515 0 -0.0020546308589917996 0.06275509018409324 0 -0.0020322207464372266 0.063191596934009761 0 -0.0027873489880684164 0.069507105729362195 0 -0.0010612579168377931 0.067119918898414913 0 -0.0029002355323875842 0.063386146060971899 0 -0.0024494582682578116 0.062494225667817024 0 -0.0020546308589917996 0.06275509018409324 0 -0.0010612579168377931 0.067119918898414913 0 -0.0009087152044809125 0.06601899747361753 0 -0.003501378802386742 0.088212302825272579 0 -0.0029601576885401209 0.084962138956816369 0 -0.00024463453608555261 0.086085515942119689 0 -0.003501378802386742 0.088212302825272579 0 0.00071331860245464108 0.088958383157249743 0 -0.00024463453608555261 0.086085515942119689 0 -0.0029601576885401209 0.084962138956816369 0 -7.618509788386062e-05 0.083599208728362018 0 -0.00024463453608555261 0.086085515942119689 0 -7.618509788386062e-05 0.083599208728362018 0 0.0015688503364714899 0.084465847283432052 0 -0.00024463453608555261 0.086085515942119689 0 0.0015688503364714899 0.084465847283432052 0 -0.00024463453608555261 0.086085515942119689 0 0.0022067062096081925 0.086264531412806794 0 -0.0010612579168377931 0.067119918898414913 0 -0.001129816942296922 0.077729760798089076 0 0.00071331860245464108 0.088958383157249743 0 -0.00024463453608555261 0.086085515942119689 0 0.0022067062096081925 0.086264531412806794 0 -0.0010612579168377931 0.067119918898414913 0 -0.0014782729322111337 0.071989338919262263 0 0.0027358522305717527 0.086500338856517478 0 0.0037417459559130504 0.084763251220776992 0 0.0052676291375444639 0.08486616884338076 0 -0.005011981727625907 0.042573916940463592 0 -0.0047348286351116499 0.042617082493035967 0 -0.00663990986869392 0.04404256885113695 0 0.0037417459559130504 0.084763251220776992 0 0.0051508207996053745 0.084444675320992937 0 0.0052676291375444639 0.08486616884338076 0 0.0015688503364714899 0.084465847283432052 0 0.0022067062096081925 0.086264531412806794 0 0.0037845209291129472 0.083591650824768701 0 0.0037417459559130504 0.084763251220776992 0 0.0047385610441540542 0.082804437159586464 0 0.0051508207996053745 0.084444675320992937 0 -0.001129816942296922 0.077729760798089076 0 0.0004415246372456183 0.079917345001625242 0 -0.0014782729322111337 0.071989338919262263 0 0.0016056197520464622 0.074726575734858997 0 0.0061259109896758439 0.083359322533192268 0 0.0053023212495449468 0.084992349438241063 0 0.0084226236768536692 0.082854074010633411 0 0.0051508207996053745 0.084444675320992937 0 0.0061259109896758439 0.083359322533192268 0 0.0053023212495449468 0.084992349438241063 0 0.0047385610441540542 0.082804437159586464 0 0.0051508207996053745 0.084444675320992937 0 0.0061259109896758439 0.083359322533192268 0 0.0091576173336256877 0.082967190631845378 0 0.0088990271026111803 0.082984252368142677 0 0.0089087085831140288 0.083011227327873166 0 -0.0013327435324134588 0.072388088170224504 0 -0.0014782729322111337 0.071989338919262263 0 0.0055910209819175624 0.080774267431946503 0 0.0038818131729568888 0.077656058379924564 0 0.0071908165458525741 0.079381336077361045 0 0.0055910209819175624 0.080774267431946503 0 0.0070115879551506128 0.080848240790147158 0 0.0071908165458525741 0.079381336077361045 0 0.0055910209819175624 0.080774267431946503 0 0.0070115879551506128 0.080848240790147158 0 0.0069600353148201689 0.081898722525063875 0 0.0047385610441540542 0.082804437159586464 0 0.0061259109896758439 0.083359322533192268 0 0.0069600353148201689 0.081898722525063875 0 0.0004415246372456183 0.079917345001625242 0 0.0012770252890329469 0.079896500856084851 0 0.0061259109896758439 0.083359322533192268 0 0.0069600353148201689 0.081898722525063875 0 0.0084226236768536692 0.082854074010633411 0 0.0047385610441540542 0.082804437159586464 0 0.0055910209819175624 0.080774267431946503 0 0.0069600353148201689 0.081898722525063875 0 0.0037845209291129472 0.083591650824768701 0 0.0055910209819175624 0.080774267431946503 0 0.0033446622546078977 0.081414054751166545 0 0.0015688503364714899 0.084465847283432052 0 0.0037845209291129472 0.083591650824768701 0 0.0016760925894907729 0.082487599701885184 0 0.0037845209291129472 0.083591650824768701 0 0.0033446622546078977 0.081414054751166545 0 0.0016760925894907729 0.082487599701885184 0 0.0033446622546078977 0.081414054751166545 0 0.0017634534966413699 0.080171622628615838 0 0.0016760925894907729 0.082487599701885184 0 0.0055910209819175624 0.080774267431946503 0 0.0034579405762460327 0.079728089425854867 0 0.0038818131729568888 0.077656058379924564 0 0.0033446622546078977 0.081414054751166545 0 0.0034579405762460327 0.079728089425854867 0 0.0017634534966413699 0.080171622628615838 0 0.0055910209819175624 0.080774267431946503 0 0.0033446622546078977 0.081414054751166545 0 0.0034579405762460327 0.079728089425854867 0 0.0034579405762460327 0.079728089425854867 0 0.0017634534966413699 0.080171622628615838 0 0.0026720829506543843 0.078132514554140289 0 -0.00030816617331583344 0.079707765012860698 0 0.0017634534966413699 0.080171622628615838 0 0.0010046758949169262 0.07772099555002146 0 0.0017634534966413699 0.080171622628615838 0 0.0010046758949169262 0.07772099555002146 0 0.0026720829506543843 0.078132514554140289 0 -0.00030816617331583344 0.079707765012860698 0 0.0017634534966413699 0.080171622628615838 0 -0.00014240477576036209 0.081556361327153298 0 0.0017634534966413699 0.080171622628615838 0 0.0016760925894907729 0.082487599701885184 0 -0.00014240477576036209 0.081556361327153298 0 -7.618509788386062e-05 0.083599208728362018 0 0.0015688503364714899 0.084465847283432052 0 0.0016760925894907729 0.082487599701885184 0 -7.618509788386062e-05 0.083599208728362018 0 0.0016760925894907729 0.082487599701885184 0 -0.00014240477576036209 0.081556361327153298 0 -7.618509788386062e-05 0.083599208728362018 0 -0.00014240477576036209 0.081556361327153298 0 -0.0024652192379370831 0.0816449788009454 0 -0.0035226698382036076 0.079520214285103613 0 -0.0031938675697080823 0.080327406807628718 0 -0.0029601576885401209 0.084962138956816369 0 -7.618509788386062e-05 0.083599208728362018 0 -0.0024652192379370831 0.0816449788009454 0 -0.00030816617331583344 0.079707765012860698 0 -0.0024652192379370831 0.0816449788009454 0 -0.0019687099818803244 0.078123647974434857 0 -0.0031938675697080823 0.080327406807628718 0 -0.002939095064702186 0.079655580749717805 0 -0.00030816617331583344 0.079707765012860698 0 -0.00014240477576036209 0.081556361327153298 0 -0.0024652192379370831 0.0816449788009454 0 -0.0019687099818803244 0.078123647974434857 0 -0.0022398437496028308 0.075016592835146223 0 -0.00032741777647594418 0.076519852805363886 0 -0.0019687099818803244 0.078123647974434857 0 -0.0022398437496028308 0.075016592835146223 0 -0.0042271394692078431 0.076763338723154897 0 -0.0024740300239427253 0.075235755670087917 0 -0.00061008213248913952 0.075267122056320912 0 -0.0019635860283832881 0.07545551373537622 0 0.0018588204514164734 0.075271265842575902 0 -0.00063897212454639644 0.073598266831175013 0 -0.0022398437496028308 0.075016592835146223 0 0.0018588204514164734 0.075271265842575902 0 -0.00032741777647594418 0.076519852805363886 0 0.0018588204514164734 0.075271265842575902 0 0.0014301835739960361 0.073641999562448962 0 -0.00063897212454639644 0.073598266831175013 0 0.0018588204514164734 0.075271265842575902 0 0.0010046758949169262 0.07772099555002146 0 0.0024120083234944589 0.076823080773428254 0 -0.00030816617331583344 0.079707765012860698 0 -0.0019687099818803244 0.078123647974434857 0 0.0010046758949169262 0.07772099555002146 0 -0.0019687099818803244 0.078123647974434857 0 -0.00032741777647594418 0.076519852805363886 0 0.0010046758949169262 0.07772099555002146 0 0.0018588204514164734 0.075271265842575902 0 -0.00032741777647594418 0.076519852805363886 0 0.0010046758949169262 0.07772099555002146 0 0.0010046758949169262 0.07772099555002146 0 0.0026720829506543843 0.078132514554140289 0 0.0024120083234944589 0.076823080773428254 0 0.0026720829506543843 0.078132514554140289 0 0.0038818131729568888 0.077656058379924564 0 0.0035046707996024915 0.076831641502951978 0 0.0034579405762460327 0.079728089425854867 0 0.0026720829506543843 0.078132514554140289 0 0.0038818131729568888 0.077656058379924564 0 0.0035046707996024915 0.076831641502951978 0 0.0041760825379501855 0.076231457254944915 0 0.0026784306125677212 0.075735575197234367 0 0.0035046707996024915 0.076831641502951978 0 0.0041760825379501855 0.076231457254944915 0 0.004591177705918284 0.077466015262659824 0 0.0038818131729568888 0.077656058379924564 0 0.0035046707996024915 0.076831641502951978 0 0.004591177705918284 0.077466015262659824 0 0.0035046707996024915 0.076831641502951978 0 0.0024120083234944589 0.076823080773428254 0 0.0026784306125677212 0.075735575197234367 0 0.0026720829506543843 0.078132514554140289 0 0.0035046707996024915 0.076831641502951978 0 0.0024120083234944589 0.076823080773428254 0 0.0018588204514164734 0.075271265842575902 0 0.0024120083234944589 0.076823080773428254 0 0.0026784306125677212 0.075735575197234367 0 0.0018588204514164734 0.075271265842575902 0 0.0026784306125677212 0.075735575197234367 0 0.0014301835739960361 0.073641999562448962 0 0.0034434757681089893 0.077660276950909463 0 0.0031068053467100524 0.075688977299184459 0 0.0013219058623610363 0.074920245634644542 0 0.0041760825379501855 0.076231457254944915 0 0.0026784306125677212 0.075735575197234367 0 0.0014301835739960361 0.073641999562448962 0 0.0039051498992992047 0.076919913225243927 0 0.0018404740019415332 0.074622781221396262 0 0.0031068053467100524 0.075688977299184459 0 0.0036785842783347749 0.076992649513122652 0 0.0037513152918082398 0.075952578005438046 0 0.0034434757681089893 0.077660276950909463 0 0.0031068053467100524 0.075688977299184459 0 0.0036785842783347749 0.076992649513122652 0 0.0034434757681089893 0.077660276950909463 0 0.0036795590307295086 0.077456690013164978 0 0.0036610073973053262 0.077691893099579981 0 0.0036795590307295086 0.077456690013164978 0 0.0042516215693999158 0.077388106121297276 0 0.0036610073973053262 0.077691893099579981 0 0.0042516215693999158 0.077388106121297276 0 0.0036785842783347749 0.076992649513122652 0 0.0044378090927031611 0.076269916314799069 0 0.0036795590307295086 0.077456690013164978 0 0.0042516215693999158 0.077388106121297276 0 0.0036785842783347749 0.076992649513122652 0 0.0034434757681089893 0.077660276950909463 0 0.0036795590307295086 0.077456690013164978 0 0.0036785842783347749 0.076992649513122652 0 0.0044378090927031611 0.076269916314799069 0 0.0037513152918082398 0.075952578005438046 0 0.0040341523506781307 0.074947894563058254 0 0.0036785842783347749 0.076992649513122652 0 0.0044378090927031611 0.076269916314799069 0 0.0037513152918082398 0.075952578005438046 0 0.0044378090927031611 0.076269916314799069 0 0.0052620282480848671 0.077046690125649048 0 0.0056207677546272058 0.075227097589185096 0 0.0042516215693999158 0.077388106121297276 0 0.0044378090927031611 0.076269916314799069 0 0.0052620282480848671 0.077046690125649048 0 0.0042516215693999158 0.077388106121297276 0 0.0055456643961705066 0.078085987943405516 0 0.0052620282480848671 0.077046690125649048 0 0.0036610073973053262 0.077691893099579981 0 0.0060405527257993939 0.079325042326569437 0 0.0051356321557078323 0.079563139884500311 0 0.0034434757681089893 0.077660276950909463 0 0.0036610073973053262 0.077691893099579981 0 0.0051356321557078323 0.079563139884500311 0 0.0039051498992992047 0.076919913225243927 0 0.0060929580445146575 0.079271149342682423 0 0.0054334387204150302 0.078852468684669191 0 0.0060929580445146575 0.079271149342682423 0 0.0041760825379501855 0.076231457254944915 0 0.004591177705918284 0.077466015262659824 0 0.0067649972200664972 0.0791496893134917 0 0.0036610073973053262 0.077691893099579981 0 0.0060010230383202856 0.079801661144085517 0 0.0055456643961705066 0.078085987943405516 0 0.0042516215693999158 0.077388106121297276 0 0.0036610073973053262 0.077691893099579981 0 0.0055456643961705066 0.078085987943405516 0 0.0049479825548418279 0.078799147697502292 0 0.0061737942733898696 0.079698829198767446 0 0.0038818131729568888 0.077656058379924564 0 0.004591177705918284 0.077466015262659824 0 0.0067649972200664972 0.0791496893134917 0 -0.0096853538505702989 0.079469159283012597 0 -0.0071880208304567692 0.08015107531060256 0 -0.0079404706784076112 0.076977794587156576 0 -0.0096853538505702989 0.079469159283012597 0 -0.010444571699273325 0.076997725342288215 0 -0.011951458902820759 0.077977812113958461 0 -0.0096853538505702989 0.079469159283012597 0 -0.011951458902820759 0.077977812113958461 0 -0.011364488077442895 0.080518587222460122 0 -0.010117894003875428 0.081369892721090006 0 -0.0096853538505702989 0.079469159283012597 0 -0.011364488077442895 0.080518587222460122 0 -0.0043403147431505104 0.077493669455411793 0 -0.0056892972191055317 0.078189493418529224 0 -0.0087166671148337892 0.081225882877570765 0 -0.010117894003875428 0.081369892721090006 0 -0.0096853538505702989 0.079469159283012597 0 -0.0075205433498720395 0.082950511795520765 0 -0.0096853538505702989 0.079469159283012597 0 -0.0071880208304567692 0.08015107531060256 0 -0.0075205433498720395 0.082950511795520765 0 -0.0050829935041532305 0.081839716504206031 0 -0.0071880208304567692 0.08015107531060256 0 -0.0050829935041532305 0.081839716504206031 0 -0.005352181007683198 0.078992902404792162 0 -0.0071880208304567692 0.08015107531060256 0 -0.0026226384846188863 0.080841187716970853 0 -0.0050829935041532305 0.081839716504206031 0 -0.005352181007683198 0.078992902404792162 0 -0.0031647240204101721 0.083619283224133423 0 -0.0026226384846188863 0.080841187716970853 0 -0.0050829935041532305 0.081839716504206031 0 -0.0026226384846188863 0.080841187716970853 0 -0.0019687099818803244 0.078123647974434857 0 -0.005352181007683198 0.078992902404792162 0 -0.005352181007683198 0.078992902404792162 0 -0.0071880208304567692 0.08015107531060256 0 -0.0079404706784076112 0.076977794587156576 0 -0.0042271394692078431 0.076763338723154897 0 -0.0060781291902702031 0.075003211965156219 0 -0.0079404706784076112 0.076977794587156576 0 -0.005352181007683198 0.078992902404792162 0 -0.0042271394692078431 0.076763338723154897 0 -0.0079404706784076112 0.076977794587156576 0 -0.0019687099818803244 0.078123647974434857 0 -0.005352181007683198 0.078992902404792162 0 -0.0042271394692078431 0.076763338723154897 0 -0.0024740300239427253 0.075235755670087917 0 -0.0055492711834872581 0.075183459408810785 0 -0.0019635860283832881 0.07545551373537622 0 -0.0059069773531962785 0.075378784983872058 0 -0.003239133387799401 0.0728462695265093 0 -0.0022398437496028308 0.075016592835146223 0 -0.0042271394692078431 0.076763338723154897 0 -0.0060781291902702031 0.075003211965156219 0 -0.0055492711834872581 0.075183459408810785 0 -0.0073501688846593551 0.075150867322525808 0 -0.0059069773531962785 0.075378784983872058 0 -0.009677137561972346 0.075131050174517475 0 -0.0079171163427599993 0.073510786304042133 0 -0.0079404706784076112 0.076977794587156576 0 -0.01022137718633026 0.075950846346478321 0 -0.009677137561972346 0.075131050174517475 0 -0.0060781291902702031 0.075003211965156219 0 -0.0079404706784076112 0.076977794587156576 0 -0.009677137561972346 0.075131050174517475 0 -0.0096853538505702989 0.079469159283012597 0 -0.0079404706784076112 0.076977794587156576 0 -0.010444571699273325 0.076997725342288215 0 -0.010444571699273325 0.076997725342288215 0 -0.011000167390836727 0.074986096491765589 0 -0.011951458902820759 0.077977812113958461 0 -0.0079404706784076112 0.076977794587156576 0 -0.010444571699273325 0.076997725342288215 0 -0.01022137718633026 0.075950846346478321 0 -0.010444571699273325 0.076997725342288215 0 -0.01022137718633026 0.075950846346478321 0 -0.011000167390836727 0.074986096491765589 0 -0.01022137718633026 0.075950846346478321 0 -0.009677137561972346 0.075131050174517475 0 -0.011000167390836727 0.074986096491765589 0 -0.0081252853001437704 0.054438697745307407 0 -0.008160956816523764 0.054372241521061633 0 -0.0081692291322762074 0.054510467893112327 0 -0.011491715941383814 0.074123951269818161 0 -0.012572333748072784 0.074641490081104947 0 -0.012764486242913169 0.073006945720008973 0 -0.0099318878840417377 0.062418058057768705 0 -0.011322810252133711 0.058195441151165955 0 -0.008160956816523764 0.054372241521061633 0 -0.008110047060876785 0.054390904451835871 0 -0.0080863478932148205 0.054347671127431524 0 -0.0081252853001437704 0.054438697745307407 0 -0.008160956816523764 0.054372241521061633 0 -0.008110047060876785 0.054390904451835871 0 -0.0058796812944817934 0.045859692181460139 0 -0.0066297423779581345 0.04774973466994846 0 -0.0077061753676740362 0.04507381846025129 0 -0.0060554393731068867 0.045762115270289394 0 -0.0066610198460145429 0.042575757885800716 0 -0.0058796812944817934 0.045859692181460139 0 -0.0077061753676740362 0.04507381846025129 0 -0.00689191798829658 0.044067775618627202 0 -0.008011888195632132 0.049731860391291495 0 -0.0085087504313490266 0.047488673973185069 0 -0.0081252853001437704 0.054438697745307407 0 -0.008063795455740215 0.054397685722813963 0 -0.0081192477963204588 0.054520088566297427 0 -0.008011888195632132 0.049731860391291495 0 -0.010653666735503779 0.05589049959825091 0 -0.0081252853001437704 0.054438697745307407 0 -0.008110047060876785 0.054390904451835871 0 -0.008063795455740215 0.054397685722813963 0 -0.0080863478932148205 0.054347671127431524 0 -0.0080681322793596365 0.054379307773662358 0 -0.0080263015462761819 0.054297863550448022 0 -0.008110047060876785 0.054390904451835871 0 -0.0080863478932148205 0.054347671127431524 0 -0.008063795455740215 0.054397685722813963 0 -0.0078967725304741661 0.050036574944809419 0 -0.008011888195632132 0.049731860391291495 0 -0.008011888195632132 0.049731860391291495 0 -0.0060554393731068867 0.045762115270289394 0 -0.0080863478932148205 0.054347671127431524 0 -0.0080263015462761819 0.054297863550448022 0 -0.0080954868986315744 0.054280907329283382 0 -0.0099318878840417377 0.062418058057768705 0 -0.0085737720449101055 0.064248693773993823 0 -0.008160956816523764 0.054372241521061633 0 -0.0081444259849456704 0.054260755267964582 0 -0.0080954868986315744 0.054280907329283382 0 -0.011491715941383814 0.074123951269818161 0 -0.012572333748072784 0.074641490081104947 0 -0.012454749858621814 0.076059955851892042 0 -0.011121830278325426 0.071853381898979801 0 -0.0085737720449101055 0.064248693773993823 0 -0.008160956816523764 0.054372241521061633 0 -0.0080863478932148205 0.054347671127431524 0 -0.0080954868986315744 0.054280907329283382 0 -0.0051769000185802614 0.05991974223360496 0 -0.0038848709876988076 0.057177679100079905 0 -0.0054138721933392276 0.056271182675922106 0 -0.0085737720449101055 0.064248693773993823 0 -0.0046533852121230174 0.050573546355279025 0 -0.0085737720449101055 0.064248693773993823 0 -0.0057154016882181857 0.064292935228562845 0 -0.0081444259849456704 0.054260755267964582 0 -0.0080954868986315744 0.054280907329283382 0 -0.0080655375144131364 0.054129380084655482 0 -0.0080263015462761819 0.054297863550448022 0 -0.0080954868986315744 0.054280907329283382 0 -0.0080655375144131364 0.054129380084655482 0 -0.0042164749397892009 0.046833515658805426 0 -0.0060068794458620432 0.042303474969223584 0 -0.002468420847792906 0.04250181282761311 0 -0.0060554393731068867 0.045762115270289394 0 -0.0046533852121230174 0.050573546355279025 0 -0.0041368092436913067 0.046583496492303235 0 -0.0041574690076313561 0.046504711058500701 0 -0.0041010830611061403 0.046508650628425838 0 -0.0060068794458620432 0.042303474969223584 0 -0.002468420847792906 0.04250181282761311 0 -0.0049265400638840492 0.03996388628499592 0 -0.0046533852121230174 0.050573546355279025 0 -0.0027816869594673517 0.04461640312021966 0 -0.0038848709876988076 0.057177679100079905 0 -0.0054138721933392276 0.056271182675922106 0 -0.004737054461997221 0.054969955595039609 0 -0.0046533852121230174 0.050573546355279025 0 -0.0035452419765322671 0.050510037199895413 0 -0.0026788713186500506 0.032140375861192144 0 -0.00552145280905743 0.033650783925997158 0 -0.003178398636640357 0.037463557741180278 0 -0.0026788713186500506 0.032140375861192144 0 -0.003178398636640357 0.037463557741180278 0 -0.00035730454058032239 0.033965617168362737 0 -0.0026788713186500506 0.032140375861192144 0 -0.00552145280905743 0.033650783925997158 0 -0.0038214295329873395 0.029418489363626177 0 -0.003343720804052873 0.038698291858882933 0 -0.00064245657410774292 0.033312870851047276 0 -0.002468420847792906 0.04250181282761311 0 -0.0049265400638840492 0.03996388628499592 0 -0.0022372694697969241 0.03888885928463344 0 -0.0072269684804169279 0.037898753138474288 0 -0.00552145280905743 0.033650783925997158 0 -0.003178398636640357 0.037463557741180278 0 -0.0060554393731068867 0.045762115270289394 0 -0.003343720804052873 0.038698291858882933 0 -0.0035859903263536562 0.034470392147797291 0 -0.0017513943742857871 0.029120946988847443 0 -0.0072269684804169279 0.037898753138474288 0 -0.003178398636640357 0.037463557741180278 0 -0.0060128971386774173 0.040965038574126311 0 -0.0035859903263536562 0.034470392147797291 0 -0.0066610198460145429 0.042575757885800716 0 -0.0048517654560415527 0.029062026072458894 0 -0.0074211846792417695 0.032251370335976956 0 -0.0047284706913057186 0.032436249082006929 0 -0.0048517654560415527 0.029062026072458894 0 -0.0047284706913057186 0.032436249082006929 0 -0.0019836663049333605 0.032068365834884469 0 -0.0033681453898529948 0.02424679090040786 0 -0.0021034306537367872 0.022110917884285066 0 -0.0037415225297991318 0.014822077515625753 0 -0.003576471584648432 0.01484517904482603 0 -0.0035773315508408213 0.014596692093184043 0 -0.0015471205549596884 0.017615726673473973 0 -0.0020088139970459227 0.015697480651096645 0 -0.003576471584648432 0.01484517904482603 0 -0.0035773315508408213 0.014596692093184043 0 -0.0034967512379171918 0.014532797220865794 0 -0.0035773315508408213 0.014596692093184043 0 -0.0034967512379171918 0.014532797220865794 0 -0.0035533944894820973 0.014646630125334185 0 -0.0048517654560415527 0.029062026072458894 0 -0.0019836663049333605 0.032068365834884469 0 -0.00072379745078916813 0.029022836560251425 0 -0.0042238095435666173 0.012572060673989882 0 -0.0046777735254843822 0.011306077460687233 0 -0.0059592416965539314 0.011849066354866072 0 -0.0042238095435666173 0.012572060673989882 0 -0.0036024175935856911 0.011218773816535877 0 -0.0046777735254843822 0.011306077460687233 0 -0.0015766411414992283 0.011652804920964141 0 -0.0027917596168893942 0.011735847711693646 0 -0.0028657095568503095 0.013183943468086099 0 -0.0042238095435666173 0.012572060673989882 0 -0.0027917596168893942 0.011735847711693646 0 -0.0036024175935856911 0.011218773816535877 0 -0.0042238095435666173 0.012572060673989882 0 -0.0027917596168893942 0.011735847711693646 0 -0.0028657095568503095 0.013183943468086099 0 -0.0034967512379171918 0.014532797220865794 0 -0.003598002687628324 0.014753805541298719 0 -0.0035533944894820973 0.014646630125334185 0 -0.0020088139970459227 0.015697480651096645 0 -0.0025168225023521969 0.015562249586350054 0 -0.0028657095568503095 0.013183943468086099 0 -0.0044072133901342332 0.013626777781423445 0 -0.0042943693511528613 0.014733659411327841 0 -0.0042238095435666173 0.012572060673989882 0 -0.0044072133901342332 0.013626777781423445 0 -0.0055500270089838943 0.01320169851865389 0 -0.0042238095435666173 0.012572060673989882 0 -0.0028657095568503095 0.013183943468086099 0 -0.0044072133901342332 0.013626777781423445 0 -0.0042943693511528613 0.014733659411327841 0 -0.003598002687628324 0.014753805541298719 0 -0.0053555409262714708 0.015115343088322238 0 -0.003598002687628324 0.014753805541298719 0 -0.0034064479737359941 0.014602499358467236 0 -0.0031548212770871652 0.014686157912416918 0 -0.0044178558877520698 0.010958634578914639 0 -0.0042680604951786782 0.0094656286612446114 0 -0.0044072133901342332 0.013626777781423445 0 -0.0042943693511528613 0.014733659411327841 0 -0.0052480419186774849 0.014147870063682988 0 -0.0034967512379171918 0.014532797220865794 0 -0.0042943693511528613 0.014733659411327841 0 -0.003598002687628324 0.014753805541298719 0 -0.003598002687628324 0.014753805541298719 0 -0.0035620093248856415 0.0146270046048039 0 -0.0034064479737359941 0.014602499358467236 0 -0.003598002687628324 0.014753805541298719 0 -0.0035533944894820973 0.014646630125334185 0 -0.0035986927445951981 0.014679797891117449 0 -0.003598002687628324 0.014753805541298719 0 -0.0035620093248856415 0.0146270046048039 0 -0.0035986927445951981 0.014679797891117449 0 -0.0035620093248856415 0.0146270046048039 0 -0.0035986927445951981 0.014679797891117449 0 -0.0035991846727801823 0.014458875750535902 0 -0.0035620093248856415 0.0146270046048039 0 -0.0034064479737359941 0.014602499358467236 0 -0.0035991846727801823 0.014458875750535902 0 -0.0034064479737359941 0.014602499358467236 0 -0.0031548212770871652 0.014686157912416918 0 -0.0032280194798636592 0.01442570360131626 0 -0.0034064479737359941 0.014602499358467236 0 -0.0035991846727801823 0.014458875750535902 0 -0.0032280194798636592 0.01442570360131626 0 -0.0048517654560415527 0.029062026072458894 0 -0.00072379745078916813 0.029022836560251425 0 -0.0022705502213203289 0.025859836654397544 0 -0.0021034306537367872 0.022110917884285066 0 -0.0009624298723751541 0.020463178928378956 0 -0.0035773315508408213 0.014596692093184043 0 -0.0035533944894820973 0.014646630125334185 0 -0.0035986927445951981 0.014679797891117449 0 -0.00072379745078916813 0.029022836560251425 0 -0.0022705502213203289 0.025859836654397544 0 0.00053743230232749996 0.025966985335816893 0 0.00053743230232749996 0.025966985335816893 0 0.00031846185946333348 0.022654024232107956 0 0.0017957775309336639 0.0229050589758223 0 -0.0022705502213203289 0.025859836654397544 0 0.00053743230232749996 0.025966985335816893 0 0.00031846185946333348 0.022654024232107956 0 -0.0017513943742857871 0.029120946988847443 0 0.00056048092168018131 0.022243210728081213 0 -0.0009624298723751541 0.020463178928378956 0 0.00046076284519621611 0.018805176112573804 0 -0.00035730454058032239 0.033965617168362737 0 -0.0006845891819347832 0.029949844952110095 0 0.0024522010455057495 0.03047606389317924 0 -0.0026788713186500506 0.032140375861192144 0 -0.00035730454058032239 0.033965617168362737 0 -0.0006845891819347832 0.029949844952110095 0 0.00015107856127543674 0.027956030168348626 0 0.00056048092168018131 0.022243210728081213 0 0.0012246177382726467 0.027705438864002493 0 0.0022757812762254173 0.027885516763481114 0 0.0022933486451392955 0.026887479777988978 0 0.00056048092168018131 0.022243210728081213 0 0.00046076284519621611 0.018805176112573804 0 0.0022757812762254173 0.027885516763481114 0 0.0022933486451392955 0.026887479777988978 0 0.0032036623768993597 0.026778444661913241 0 0.0012246177382726467 0.027705438864002493 0 0.0022933486451392955 0.026887479777988978 0 0.0014322967221673342 0.026703298929058455 0 0.0012246177382726467 0.027705438864002493 0 0.0014322967221673342 0.026703298929058455 0 0.00077343231517972672 0.027077064164549264 0 0.0014322967221673342 0.026703298929058455 0 0.00069815891845793226 0.0262345299011464 0 0.00077343231517972672 0.027077064164549264 0 0.0029152837370622353 0.0094374609206109277 0 0.0038354905910176372 0.0096325225796475081 0 0.0038226929856852282 0.01052798075746829 0 0.00046076284519621611 0.018805176112573804 0 0.00064576537978665934 0.01152135439519323 0 0.0018890109473365029 0.010261096538129731 0 0.0029152837370622353 0.0094374609206109277 0 0.0038226929856852282 0.01052798075746829 0 0.0011420516469581958 0.010210462594874988 0 0.0021771946678405618 0.0095604048209810642 0 0.0022973125606146195 0.0087889435718554679 0 0.00056048092168018131 0.022243210728081213 0 0.0028347363006850867 0.01860324152797363 0 0.0021771946678405618 0.0095604048209810642 0 0.0018890109473365029 0.010261096538129731 0 0.0029152837370622353 0.0094374609206109277 0 0.00099463507157016994 0.017251485900518986 0 0.00046076284519621611 0.018805176112573804 0 0.0011420516469581958 0.010210462594874988 0 0.0021771946678405618 0.0095604048209810642 0 0.0018676233542201501 0.010337419656529907 0 0.0022933486451392955 0.026887479777988978 0 0.0032036623768993597 0.026778444661913241 0 0.0026192914568886208 0.026089846038003885 0 0.0021771946678405618 0.0095604048209810642 0 0.0022973125606146195 0.0087889435718554679 0 0.0029152837370622353 0.0094374609206109277 0 0.0022973125606146195 0.0087889435718554679 0 0.0029152837370622353 0.0094374609206109277 0 0.0030065156657515324 0.0085682626008087362 0 0.0029152837370622353 0.0094374609206109277 0 0.0030065156657515324 0.0085682626008087362 0 0.0035963384875260002 0.0088305445583503513 0 0.0030065156657515324 0.0085682626008087362 0 0.0035963384875260002 0.0088305445583503513 0 0.0034859557342124159 0.0082901186141092001 0 0.0029152837370622353 0.0094374609206109277 0 0.0035963384875260002 0.0088305445583503513 0 0.0038354905910176372 0.0096325225796475081 0 0.0028347363006850867 0.01860324152797363 0 0.0041938474912119935 0.016621163729533903 0 0.0030065156657515324 0.0085682626008087362 0 0.0033766620722789566 0.0074870137474621372 0 0.0034859557342124159 0.0082901186141092001 0 0.0033766620722789566 0.0074870137474621372 0 0.0034859557342124159 0.0082901186141092001 0 0.0040973623162854451 0.0085396882555215381 0 0.0022973125606146195 0.0087889435718554679 0 0.0030065156657515324 0.0085682626008087362 0 0.0033766620722789566 0.0074870137474621372 0 0.0032036623768993597 0.026778444661913241 0 0.004170329672097222 0.025588229872389588 0 0.003131911319372049 0.025665248831815323 0 0.0032036623768993597 0.026778444661913241 0 0.003131911319372049 0.025665248831815323 0 0.0026192914568886208 0.026089846038003885 0 0.003131911319372049 0.025665248831815323 0 0.0026192914568886208 0.026089846038003885 0 0.002520101509632648 0.025283082012522051 0 0.003131911319372049 0.025665248831815323 0 0.0027957837521326231 0.024680335042094027 0 0.002520101509632648 0.025283082012522051 0 0.004170329672097222 0.025588229872389588 0 0.003131911319372049 0.025665248831815323 0 0.0027957837521326231 0.024680335042094027 0 0.0063603865871109362 0.024506299613482878 0 0.0052868410378648792 0.023816575152254431 0 0.0059004335666629814 0.024071040422247544 0 0.0041938474912119935 0.016621163729533903 0 0.0034052485413618929 0.024246172879231611 0 0.0063040597822988974 0.023448846615955199 0 0.0052868410378648792 0.023816575152254431 0 0.0059004335666629814 0.024071040422247544 0 0.0034052485413618929 0.024246172879231611 0 0.0033094359007107528 0.024411558066060511 0 0.0063040597822988974 0.023448846615955199 0 0.0059004335666629814 0.024071040422247544 0 0.0065688158946392529 0.024319183590837047 0 0.005876582803801449 0.016234495642608853 0 0.0050176969951250643 0.015223130762761048 0 0.0063603865871109362 0.024506299613482878 0 0.0059004335666629814 0.024071040422247544 0 0.0065369264681228775 0.024282365887028898 0 0.0041938474912119935 0.016621163729533903 0 0.0050176969951250643 0.015223130762761048 0 0.0014322967221673342 0.026703298929058455 0 0.0018823196200646445 0.025963701592570731 0 0.00069815891845793226 0.0262345299011464 0 0.0018823196200646445 0.025963701592570731 0 0.0014907297742685038 0.02502494236770136 0 0.00069815891845793226 0.0262345299011464 0 0.0022933486451392955 0.026887479777988978 0 0.0026192914568886208 0.026089846038003885 0 0.0018423160613390878 0.025788368865341981 0 0.0022933486451392955 0.026887479777988978 0 0.0014322967221673342 0.026703298929058455 0 0.0018823196200646445 0.025963701592570731 0 0.0015210432541027513 0.026818970794271639 0 0.0014147943989238731 0.026861847691663897 0 0.0026192914568886208 0.026089846038003885 0 0.0018423160613390878 0.025788368865341981 0 0.002520101509632648 0.025283082012522051 0 0.0018423160613390878 0.025788368865341981 0 0.002081695815718322 0.024918440173506806 0 0.0014184009220677099 0.024732802643246093 0 0.0018423160613390878 0.025788368865341981 0 0.002520101509632648 0.025283082012522051 0 0.002081695815718322 0.024918440173506806 0 0.0027815760115659735 0.024715005122607697 0 0.002520101509632648 0.025283082012522051 0 0.002081695815718322 0.024918440173506806 0 0.0010054044397002147 0.031143755808527785 0 0.00087786792528144906 0.031199047672565646 0 0.00086439553936057379 0.031446263509852107 0 0.0014147943989238731 0.026861847691663897 0 0.0015116866909570114 0.028092273316666288 0 0.0015116866909570114 0.028092273316666288 0 0.00098127544593056199 0.02983192542811916 0 0.00086750037186074543 0.031099329851224149 0 0.0010054044397002147 0.031143755808527785 0 0.00087786792528144906 0.031199047672565646 0 0.00087786792528144906 0.031199047672565646 0 0.00077857150037408855 0.031129850097020018 0 0.00086439553936057379 0.031446263509852107 0 0.00086750037186074543 0.031099329851224149 0 0.00087786792528144906 0.031199047672565646 0 0.00077857150037408855 0.031129850097020018 0 0.00077857150037408855 0.031129850097020018 0 0.00086439553936057379 0.031446263509852107 0 0.00059955837200109522 0.031441474498381437 0 0.00097437747522016293 0.031236141829569106 0 0.00077857150037408855 0.031129850097020018 0 0.00090821970173975532 0.031086843662680518 0 0.000839807066868313 0.030904992632191913 0 0.00090821970173975532 0.031086843662680518 0 0.00103628737677344 0.031064179152411088 0 0.0013003260773813831 0.032198418280931645 0 0.0010797130334146779 0.033271449886746435 0 0.00077857150037408855 0.031129850097020018 0 0.000839807066868313 0.030904992632191913 0 0.00090821970173975532 0.031086843662680518 0 0.0012202561471876658 0.031630465897200317 0 0.00097437747522016293 0.031236141829569106 0 0.00103628737677344 0.031064179152411088 0 0.00097437747522016293 0.031236141829569106 0 0.00090821970173975532 0.031086843662680518 0 0.00103628737677344 0.031064179152411088 0 0.0012202561471876658 0.031630465897200317 0 0.00103628737677344 0.031064179152411088 0 0.0015041887667519233 0.030902788304714008 0 0.0015041887667519233 0.030902788304714008 0 0.00125110057374701 0.03082555135596024 0 0.001364343636629043 0.030635310479881665 0 -0.00011313215274286214 0.038827778933109992 0 -0.002056737078281151 0.050533023128726699 0 0.00103628737677344 0.031064179152411088 0 0.0015041887667519233 0.030902788304714008 0 0.00125110057374701 0.03082555135596024 0 0.000839807066868313 0.030904992632191913 0 0.00103628737677344 0.031064179152411088 0 0.0010524342193538286 0.030785319693426925 0 0.00103628737677344 0.031064179152411088 0 0.00125110057374701 0.03082555135596024 0 0.0010524342193538286 0.030785319693426925 0 0.0010524342193538286 0.030785319693426925 0 0.00097615492198720026 0.030571325909428015 0 0.001364343636629043 0.030635310479881665 0 -0.00071135820891872665 0.039280248344286194 0 -0.002056737078281151 0.050533023128726699 0 0.000839807066868313 0.030904992632191913 0 0.0010524342193538286 0.030785319693426925 0 0.00097615492198720026 0.030571325909428015 0 0.00125110057374701 0.03082555135596024 0 0.0010524342193538286 0.030785319693426925 0 0.001364343636629043 0.030635310479881665 0 -0.002056737078281151 0.050533023128726699 0 -0.0035452419765322671 0.050510037199895413 0 -0.004069691366344867 0.046439202193706175 0 -0.0041809024680627381 0.046434815457118861 0 -0.0041574690076313561 0.046504711058500701 0 -0.0057154016882181857 0.064292935228562845 0 -0.002056737078281151 0.050533023128726699 0 -0.0054138721933392276 0.056271182675922106 0 -0.0056371209289371145 0.052633807595773886 0 -0.004737054461997221 0.054969955595039609 0 -0.004069691366344867 0.046439202193706175 0 -0.0041574690076313561 0.046504711058500701 0 -0.0041010830611061403 0.046508650628425838 0 -0.0038450317154243201 0.037623630997275705 0 -0.0049265400638840492 0.03996388628499592 0 -0.0022372694697969241 0.03888885928463344 0 -0.00071135820891872665 0.039280248344286194 0 -0.0027816869594673517 0.04461640312021966 0 -0.002468420847792906 0.04250181282761311 0 -0.0022372694697969241 0.03888885928463344 0 -0.00071960858415260796 0.038150309089402722 0 -0.00071135820891872665 0.039280248344286194 0 -0.0007831756399874465 0.034408242163746883 0 -0.0038450317154243201 0.037623630997275705 0 -0.0022372694697969241 0.03888885928463344 0 -0.0016615789746288526 0.037995093424543006 0 -0.0022372694697969241 0.03888885928463344 0 -0.0016607601066642571 0.037988247827323726 0 -0.00071960858415260796 0.038150309089402722 0 -0.0007831756399874465 0.034408242163746883 0 -0.00064245657410774292 0.033312870851047276 0 -0.00091344019253085005 0.034647738504196446 0 -0.0007831756399874465 0.034408242163746883 0 0.00015107856127543674 0.027956030168348626 0 -0.00064245657410774292 0.033312870851047276 0 -0.0026788713186500506 0.032140375861192144 0 -0.0006845891819347832 0.029949844952110095 0 -0.0038214295329873395 0.029418489363626177 0 0.0012246177382726467 0.027705438864002493 0 0.00018820985631830619 0.02754304940551754 0 0.00077343231517972672 0.027077064164549264 0 -0.0001224121818983886 0.027499848456330998 0 0.00018654271677904391 0.027554932396380481 0 0.00032780090115516806 0.027194910029446656 0 0.00069815891845793226 0.0262345299011464 0 0.00032780090115516806 0.027194910029446656 0 0.00077343231517972672 0.027077064164549264 0 0.00018820985631830619 0.02754304940551754 0 0.00032780090115516806 0.027194910029446656 0 0.00077343231517972672 0.027077064164549264 0 0.00069815891845793226 0.0262345299011464 0 -0.0001224121818983886 0.027499848456330998 0 0.00032780090115516806 0.027194910029446656 0 -0.00064245657410774292 0.033312870851047276 0 -0.00049921717123665185 0.032881144812590454 0 0.00098127544593056199 0.02983192542811916 0 -0.0007831756399874465 0.034408242163746883 0 0.0010797130334146779 0.033271449886746435 0 -0.00071135820891872665 0.039280248344286194 0 0.00059955837200109522 0.031441474498381437 0 0.00042585985638606254 0.031814721787630743 0 0.00064032342374890916 0.031843412052630513 0 0.00086439553936057379 0.031446263509852107 0 0.00059955837200109522 0.031441474498381437 0 0.00064032342374890916 0.031843412052630513 0 -2.2533158045068897e-05 0.094936092009812706 0 -1.3018308059710585e-08 0.094999942827145245 0 -1.6038860978214126e-05 0.09496743090310325 0 -1.3018308059710585e-08 0.094999942827145245 0 -1.6038860978214126e-05 0.09496743090310325 0 -6.1470070147411544e-09 0.094999965195975256 0 -0.00031897593689446244 0.093310488958280799 0 -0.00051451738535089695 0.091755015428001935 0 -2.2533158045068897e-05 0.094936092009812706 0 -1.6038860978214126e-05 0.09496743090310325 0 -4.3606697228883001e-06 0.094939926523417595 0 -0.00031897593689446244 0.093310488958280799 0 -2.6751578385795813e-05 0.090894420545316948 0 -0.0012862777286666966 0.090209732317858213 0 -0.00055301126629908896 0.089869910185540483 0 -0.00032910193098994073 0.090040327059492872 0 -0.00051451738535089695 0.091755015428001935 0 -0.00074522170508390859 0.089857550064470021 0 -0.00055301126629908896 0.089869910185540483 0 -0.00032910193098994073 0.090040327059492872 0 0.00018220416770351171 0.089535996878039883 0 -4.3606697228883001e-06 0.094939926523417595 0 2.1563238252687055e-07 0.094901359153463677 0 3.6350510672454759e-05 0.094904710305669812 0 -2.2533158045068897e-05 0.094936092009812706 0 -4.3606697228883001e-06 0.094939926523417595 0 2.1563238252687055e-07 0.094901359153463677 0 -2.2533158045068897e-05 0.094936092009812706 0 -1.4648488042711553e-05 0.094841030044603147 0 -2.6631829791592131e-05 0.094876871798066892 0 -2.2533158045068897e-05 0.094936092009812706 0 2.1563238252687055e-07 0.094901359153463677 0 -1.4648488042711553e-05 0.094841030044603147 0 2.1563238252687055e-07 0.094901359153463677 0 -1.4648488042711553e-05 0.094841030044603147 0 5.0523563397253218e-05 0.094851134045463151 0 0.00047869017566458649 0.091966518359694716 0 9.521964848773878e-05 0.090987443416278332 0 -1.4648488042711553e-05 0.094841030044603147 0 -1.0500251630715252e-05 0.094701406421036777 0 4.3126109042017962e-05 0.09471851470574523 0 -1.4648488042711553e-05 0.094841030044603147 0 -2.6631829791592131e-05 0.094876871798066892 0 -2.9965732497986561e-05 0.09475747973230543 0 -2.2533158045068897e-05 0.094936092009812706 0 -2.6631829791592131e-05 0.094876871798066892 0 -5.0576500910367602e-08 0.09499986847261406 0 -2.2533158045068897e-05 0.094936092009812706 0 -1.3018308059710585e-08 0.094999942827145245 0 -5.0576500910367602e-08 0.09499986847261406 0 -5.0576500910367602e-08 0.09499986847261406 0 -2.6917321506448475e-05 0.094849925693132248 0 -1.539402393124395e-08 0.094999824061543003 0 -2.6631829791592131e-05 0.094876871798066892 0 -5.0576500910367602e-08 0.09499986847261406 0 -2.6917321506448475e-05 0.094849925693132248 0 -1.539402393124395e-08 0.094999824061543003 0 -1.1199585429138004e-06 0.094842322837296683 0 -9.5070458106204714e-09 0.094999757545042043 0 -2.6917321506448475e-05 0.094849925693132248 0 -1.539402393124395e-08 0.094999824061543003 0 -1.1199585429138004e-06 0.094842322837296683 0 -2.6917321506448475e-05 0.094849925693132248 0 -1.1199585429138004e-06 0.094842322837296683 0 -2.773634227384202e-05 0.094676954551367765 0 -2.8198600960666051e-06 0.094438789456529351 0 -6.5994260217441669e-06 0.094602197406889688 0 -7.9618630642781417e-06 0.094361041282543121 0 -6.5994260217441669e-06 0.094602197406889688 0 -2.2406856462846846e-05 0.094514537380399055 0 -7.9618630642781417e-06 0.094361041282543121 0 1.2875227244114333e-05 0.094766143349503437 0 -1.1199585429138004e-06 0.094842322837296683 0 -6.5994260217441669e-06 0.094602197406889688 0 -1.1199585429138004e-06 0.094842322837296683 0 -6.5994260217441669e-06 0.094602197406889688 0 -2.773634227384202e-05 0.094676954551367765 0 -2.773634227384202e-05 0.094676954551367765 0 -2.2406856462846846e-05 0.094514537380399055 0 -2.5423119070161165e-05 0.094605916035001791 0 -6.5994260217441669e-06 0.094602197406889688 0 -2.773634227384202e-05 0.094676954551367765 0 -2.2406856462846846e-05 0.094514537380399055 0 -2.773634227384202e-05 0.094676954551367765 0 -2.5423119070161165e-05 0.094605916035001791 0 -2.9965732497986561e-05 0.09475747973230543 0 -2.6917321506448475e-05 0.094849925693132248 0 -2.773634227384202e-05 0.094676954551367765 0 -2.9965732497986561e-05 0.09475747973230543 0 -2.6631829791592131e-05 0.094876871798066892 0 -2.6917321506448475e-05 0.094849925693132248 0 -2.9965732497986561e-05 0.09475747973230543 0 -2.5423119070161165e-05 0.094605916035001791 0 -2.9965732497986561e-05 0.09475747973230543 0 -1.0500251630715252e-05 0.094701406421036777 0 -1.4648488042711553e-05 0.094841030044603147 0 -2.9965732497986561e-05 0.09475747973230543 0 -1.0500251630715252e-05 0.094701406421036777 0 -1.0500251630715252e-05 0.094701406421036777 0 1.3768332836077282e-05 0.094547383796866627 0 4.3126109042017962e-05 0.09471851470574523 0 0.00010105683862219698 0.09459803864947583 0 0.00016116755723201315 0.094686470645064358 0 4.3126109042017962e-05 0.09471851470574523 0 0.00010105683862219698 0.09459803864947583 0 1.3768332836077282e-05 0.094547383796866627 0 0.00012698047621257559 0.094452489562370678 0 0.00010105683862219698 0.09459803864947583 0 1.3768332836077282e-05 0.094547383796866627 0 4.3126109042017962e-05 0.09471851470574523 0 0.00010105683862219698 0.09459803864947583 0 0.00018599649955787994 0.094565172713196644 0 0.00016116755723201315 0.094686470645064358 0 0.00010105683862219698 0.09459803864947583 0 0.00012698047621257559 0.094452489562370678 0 0.00018599649955787994 0.094565172713196644 0 3.5768587807014096e-05 0.094310784419563629 0 1.3768332836077282e-05 0.094547383796866627 0 0.00012698047621257559 0.094452489562370678 0 3.5768587807014096e-05 0.094310784419563629 0 1.3768332836077282e-05 0.094547383796866627 0 -4.6526243723694724e-06 0.094416199680070173 0 -2.5423119070161165e-05 0.094605916035001791 0 -1.0500251630715252e-05 0.094701406421036777 0 1.3768332836077282e-05 0.094547383796866627 0 -2.5423119070161165e-05 0.094605916035001791 0 1.3768332836077282e-05 0.094547383796866627 0 -4.6526243723694724e-06 0.094416199680070173 0 -2.2406856462846846e-05 0.094514537380399055 0 -2.5423119070161165e-05 0.094605916035001791 0 -4.6526243723694724e-06 0.094416199680070173 0 -2.2406856462846846e-05 0.094514537380399055 0 -4.6526243723694724e-06 0.094416199680070173 0 -7.9618630642781417e-06 0.094361041282543121 0 -4.6526243723694724e-06 0.094416199680070173 0 3.0963578709374951e-05 0.094213201314804609 0 -7.9618630642781417e-06 0.094361041282543121 0 3.5768587807014096e-05 0.094310784419563629 0 -4.6526243723694724e-06 0.094416199680070173 0 3.0963578709374951e-05 0.094213201314804609 0 3.5768587807014096e-05 0.094310784419563629 0 3.0963578709374951e-05 0.094213201314804609 0 3.7498991050886985e-05 0.094010742471791989 0 3.0963578709374951e-05 0.094213201314804609 0 9.7082044876097253e-05 0.093998482163082639 0 3.7498991050886985e-05 0.094010742471791989 0 3.0963578709374951e-05 0.094213201314804609 0 9.7082044876097253e-05 0.093998482163082639 0 -7.9618630642781417e-06 0.094361041282543121 0 -2.8198600960666051e-06 0.094438789456529351 0 9.7082044876097253e-05 0.093998482163082639 0 -7.9618630642781417e-06 0.094361041282543121 0 -0.00020463094028269014 0.094101860912995522 0 -0.0016364191949348613 0.092859158034250197 0 1.1869344774268233e-05 0.093327436296804886 0 -0.0016364191949348613 0.092859158034250197 0 1.1869344774268233e-05 0.093327436296804886 0 -0.0015233592306301024 0.091585989964968556 0 -0.0016364191949348613 0.092859158034250197 0 -0.0015233592306301024 0.091585989964968556 0 -0.0025333279703798803 0.091585969116834087 0 -0.00020463094028269014 0.094101860912995522 0 9.7082044876097253e-05 0.093998482163082639 0 1.1869344774268233e-05 0.093327436296804886 0 9.7082044876097253e-05 0.093998482163082639 0 1.1869344774268233e-05 0.093327436296804886 0 3.7498991050886985e-05 0.094010742471791989 0 1.1869344774268233e-05 0.093327436296804886 0 3.7498991050886985e-05 0.094010742471791989 0 0.00023418341883350358 0.094108831049504321 0 3.5768587807014096e-05 0.094310784419563629 0 3.7498991050886985e-05 0.094010742471791989 0 0.00019562790480769221 0.094312949936834312 0 3.7498991050886985e-05 0.094010742471791989 0 0.00023418341883350358 0.094108831049504321 0 0.00019562790480769221 0.094312949936834312 0 1.1869344774268233e-05 0.093327436296804886 0 0.00023418341883350358 0.094108831049504321 0 0.00056681288341750222 0.094332165023952974 0 -0.0015233592306301024 0.091585989964968556 0 -0.00062258224284180797 0.089283407244264007 0 -0.0024439208825222125 0.090548411066345397 0 1.1869344774268233e-05 0.093327436296804886 0 -0.0015233592306301024 0.091585989964968556 0 -0.00062258224284180797 0.089283407244264007 0 -0.0020501690168795565 0.092618650616522816 0 -0.0032647427635331869 0.091351728188339462 0 0.00023418341883350358 0.094108831049504321 0 0.00046065219544325303 0.094307510156957763 0 0.00056681288341750222 0.094332165023952974 0 0.00023418341883350358 0.094108831049504321 0 0.00046065219544325303 0.094307510156957763 0 0.0003019702753795689 0.094275664476596854 0 0.00046142043435608402 0.094316003211690258 0 0.00036605623065525859 0.094411094135790408 0 0.00046335558905562891 0.094571337993691884 0 -0.0032647427635331869 0.091351728188339462 0 -0.0045964480843691509 0.090285180646784688 0 -0.0032198774343194748 0.091367451080229145 0 -0.0032647427635331869 0.091351728188339462 0 0.00046065219544325303 0.094307510156957763 0 0.00036605623065525859 0.094411094135790408 0 0.0003019702753795689 0.094275664476596854 0 0.00046065219544325303 0.094307510156957763 0 0.00046142043435608402 0.094316003211690258 0 0.00036605623065525859 0.094411094135790408 0 3.5768587807014096e-05 0.094310784419563629 0 0.00019562790480769221 0.094312949936834312 0 0.00012698047621257559 0.094452489562370678 0 0.00036605623065525859 0.094411094135790408 0 0.00019562790480769221 0.094312949936834312 0 0.0003019702753795689 0.094275664476596854 0 0.00023418341883350358 0.094108831049504321 0 0.00019562790480769221 0.094312949936834312 0 0.0003019702753795689 0.094275664476596854 0 0.00036605623065525859 0.094411094135790408 0 0.00019562790480769221 0.094312949936834312 0 0.00023461919810938356 0.094465515902016808 0 0.00036605623065525859 0.094411094135790408 0 0.00023461919810938356 0.094465515902016808 0 0.00031839470369788133 0.094540607719556108 0 0.00023461919810938356 0.094465515902016808 0 0.00012698047621257559 0.094452489562370678 0 0.00018599649955787994 0.094565172713196644 0 0.00019562790480769221 0.094312949936834312 0 0.00023461919810938356 0.094465515902016808 0 0.00012698047621257559 0.094452489562370678 0 0.00018599649955787994 0.094565172713196644 0 0.00031924154580247153 0.094672504147519612 0 0.00016116755723201315 0.094686470645064358 0 0.00023461919810938356 0.094465515902016808 0 0.00018599649955787994 0.094565172713196644 0 0.00031839470369788133 0.094540607719556108 0 0.00018599649955787994 0.094565172713196644 0 0.00031839470369788133 0.094540607719556108 0 0.00031924154580247153 0.094672504147519612 0 0.00031839470369788133 0.094540607719556108 0 0.00031924154580247153 0.094672504147519612 0 0.00046335558905562891 0.094571337993691884 0 0.00036605623065525859 0.094411094135790408 0 0.00031839470369788133 0.094540607719556108 0 0.00046335558905562891 0.094571337993691884 0 0.00031924154580247153 0.094672504147519612 0 0.00041091514613522017 0.094703305458183396 0 0.00046335558905562891 0.094571337993691884 0 0.00031924154580247153 0.094672504147519612 0 0.00041091514613522017 0.094703305458183396 0 0.00035405383577129528 0.09481947402086692 0 0.00031924154580247153 0.094672504147519612 0 0.00035405383577129528 0.09481947402086692 0 0.00023482714205026427 0.094772795191879242 0 -0.0088165706026054093 0.079697729093136008 0 -0.00659188140845441 0.078753770822544422 0 -0.0098352954691624823 0.077698661280181755 0 -0.0088165706026054093 0.079697729093136008 0 -0.0098352954691624823 0.077698661280181755 0 -0.010374918309082517 0.079077904759175047 0 -0.0050493588264657581 0.086523160810100447 0 -0.0030702700167116207 0.086926024604624119 0 0.00035405383577129528 0.09481947402086692 0 0.00019284169636833942 0.094877847887890776 0 0.00023482714205026427 0.094772795191879242 0 0.00019284169636833942 0.094877847887890776 0 0.00023482714205026427 0.094772795191879242 0 0.00013041941071930752 0.094775224618131454 0 0.00031924154580247153 0.094672504147519612 0 0.00023482714205026427 0.094772795191879242 0 0.00016116755723201315 0.094686470645064358 0 0.00023482714205026427 0.094772795191879242 0 0.00016116755723201315 0.094686470645064358 0 0.00013041941071930752 0.094775224618131454 0 0.00016116755723201315 0.094686470645064358 0 0.00013041941071930752 0.094775224618131454 0 4.3126109042017962e-05 0.09471851470574523 0 0.00013041941071930752 0.094775224618131454 0 4.3126109042017962e-05 0.09471851470574523 0 4.0880374193663368e-05 0.094816762108112712 0 -1.4648488042711553e-05 0.094841030044603147 0 4.3126109042017962e-05 0.09471851470574523 0 4.0880374193663368e-05 0.094816762108112712 0 -0.0030702700167116207 0.086926024604624119 0 9.521964848773878e-05 0.090987443416278332 0 0.00019284169636833942 0.094877847887890776 0 0.00013041941071930752 0.094775224618131454 0 4.0880374193663368e-05 0.094816762108112712 0 9.2956864968873052e-05 0.094844958676833638 0 5.0523563397253218e-05 0.094851134045463151 0 7.8877875213587812e-05 0.094860351916597252 0 -0.0010384062211904949 0.086693865297418959 0 -0.00074522170508390859 0.089857550064470021 0 8.6382741626937908e-05 0.084942246620742665 0 0.000257596383933078 0.084546961005421445 0 -0.00016923659745068459 0.084607984735042704 0 0.00091589340531567109 0.089203301094978163 0 0.00018220416770351171 0.089535996878039883 0 0.00063177209642578886 0.08987991926119672 0 -0.0010384062211904949 0.086693865297418959 0 0.0013360127970561057 0.087351852740134503 0 5.0523563397253218e-05 0.094851134045463151 0 7.8877875213587812e-05 0.094860351916597252 0 3.6350510672454759e-05 0.094904710305669812 0 2.1563238252687055e-07 0.094901359153463677 0 5.0523563397253218e-05 0.094851134045463151 0 3.6350510672454759e-05 0.094904710305669812 0 -2.6751578385795813e-05 0.090894420545316948 0 0.0013360127970561057 0.087351852740134503 0 -0.00032910193098994073 0.090040327059492872 0 0.00018220416770351171 0.089535996878039883 0 0.00063177209642578886 0.08987991926119672 0 0.0013360127970561057 0.087351852740134503 0 0.002545720129198114 0.084886486200122818 0 0.0068981166911410707 0.081242765250646401 0 0.0081969025185902582 0.082237581111285527 0 0.0070348397608453427 0.082293200138435496 0 0.0049831140092766787 0.081214285082290436 0 0.0068981166911410707 0.081242765250646401 0 0.0070348397608453427 0.082293200138435496 0 0.002545720129198114 0.084886486200122818 0 0.002083220271634397 0.083377947636557245 0 0.0068981166911410707 0.081242765250646401 0 0.0084295146175309265 0.081579921075462025 0 0.0081969025185902582 0.082237581111285527 0 -0.0065248069774330036 0.078759982244447052 0 -0.0088308111692206436 0.077702146346830175 0 -0.0098352954691624823 0.077698661280181755 0 -0.00016923659745068459 0.084607984735042704 0 -0.00060065802509107278 0.084671856876004051 0 -0.00047399466370483836 0.084838747952265481 0 -0.0030702700167116207 0.086926024604624119 0 -0.0079135394065876653 0.08348025271117962 0 -0.0065248069774330036 0.078759982244447052 0 -0.0054677756864298741 0.078324680693223264 0 -0.0088308111692206436 0.077702146346830175 0 -0.0010384062211904949 0.086693865297418959 0 -0.0037441906882758392 0.083382232295015526 0 8.6382741626937908e-05 0.084942246620742665 0 -0.00016923659745068459 0.084607984735042704 0 -0.00047399466370483836 0.084838747952265481 0 -0.0030702700167116207 0.086926024604624119 0 -0.0010384062211904949 0.086693865297418959 0 -0.0014756774549482727 0.082333822052099395 0 -0.0031482628972739233 0.081978179024667031 0 -0.012102393001894968 0.077191581144991375 0 -0.01278691745095719 0.078303513593179982 0 -0.011820382523889589 0.078911438967636915 0 -0.0013436723066988904 0.081956675446510877 0 -0.0015477864991007304 0.08192362001146121 0 -0.0017289869976364147 0.082023169799977216 0 -0.012102393001894968 0.077191581144991375 0 -0.01278691745095719 0.078303513593179982 0 -0.013682891570751287 0.077583737104368472 0 -0.0014756774549482727 0.082333822052099395 0 -0.00069421292836637969 0.081821706384427303 0 -0.00069421292836637969 0.081821706384427303 0 -0.000342114045775722 0.081698144036684614 0 0.009392980460808659 0.081985604183718058 0 0.0097476629454542173 0.08213931892490639 0 0.0095430160543615548 0.082243098479986981 0 -0.012102393001894968 0.077191581144991375 0 -0.011042198475475502 0.078211104284674426 0 -0.011820382523889589 0.078911438967636915 0 0.002083220271634397 0.083377947636557245 0 -0.0014756774549482727 0.082333822052099395 0 -0.00060065802509107278 0.084671856876004051 0 -0.00047399466370483836 0.084838747952265481 0 -0.001035714679026598 0.084741156097652523 0 -0.012102393001894968 0.077191581144991375 0 -0.011042198475475502 0.078211104284674426 0 -0.0098352954691624823 0.077698661280181755 0 -0.0037441906882758392 0.083382232295015526 0 -0.0014756774549482727 0.082333822052099395 0 -0.0088308111692206436 0.077702146346830175 0 -0.012102393001894968 0.077191581144991375 0 -0.0098352954691624823 0.077698661280181755 0 -0.011042198475475502 0.078211104284674426 0 -0.0098352954691624823 0.077698661280181755 0 -0.010374918309082517 0.079077904759175047 0 0.0081969025185902582 0.082237581111285527 0 0.0091279684136014918 0.082261274482301958 0 0.0091167810607792419 0.08288245844370612 0 0.0084295146175309265 0.081579921075462025 0 0.009392980460808659 0.081985604183718058 0 0.0091279684136014918 0.082261274482301958 0 0.0084295146175309265 0.081579921075462025 0 0.0081969025185902582 0.082237581111285527 0 0.0091279684136014918 0.082261274482301958 0 0.0091279684136014918 0.082261274482301958 0 0.0095243992635107681 0.082639115979669026 0 0.0091167810607792419 0.08288245844370612 0 0.009392980460808659 0.081985604183718058 0 0.0091279684136014918 0.082261274482301958 0 0.0095430160543615548 0.082243098479986981 0 0.0091279684136014918 0.082261274482301958 0 0.0095243992635107681 0.082639115979669026 0 0.0095430160543615548 0.082243098479986981 0 0.0096384800233571231 0.082352456205731242 0 0.0095430160543615548 0.082243098479986981 0 0.0096629636387663091 0.082563487690691245 0 0.0095243992635107681 0.082639115979669026 0 0.0095430160543615548 0.082243098479986981 0 0.0096629636387663091 0.082563487690691245 0 0.0095243992635107681 0.082639115979669026 0 0.0096629636387663091 0.082563487690691245 0 0.0097604241256444516 0.08285439738584742 0 0.0096384800233571231 0.082352456205731242 0 0.0097456832559540268 0.082729819849494235 0 0.0097796730072530202 0.082880902503467885 0 -0.00069421292836637969 0.081821706384427303 0 0.0017636033524741626 0.082121672867358789 0 0.0096629636387663091 0.082563487690691245 0 0.0097456832559540268 0.082729819849494235 0 0.0097604241256444516 0.08285439738584742 0 0.0097456832559540268 0.082729819849494235 0 0.0097599234385484443 0.082921064084534563 0 0.0097604241256444516 0.08285439738584742 0 0.0097456832559540268 0.082729819849494235 0 0.0097599234385484443 0.082921064084534563 0 0.0097796730072530202 0.082880902503467885 0 0.0096384800233571231 0.082352456205731242 0 0.0096629636387663091 0.082563487690691245 0 0.0097456832559540268 0.082729819849494235 0 0.0017636033524741626 0.082121672867358789 0 0.0014845715428933165 0.082240498812411245 0 -0.0023317702877844542 0.080246747555751535 0 -0.0022681688843132252 0.080235326173202948 0 -0.0021629696553043592 0.080291854200151266 0 0.0095432272886460893 0.082985965880437523 0 0.0097796730072530202 0.082880902503467885 0 0.0093617307254252099 0.083128175457795175 0 0.0095432272886460893 0.082985965880437523 0 0.0097599234385484443 0.082921064084534563 0 0.0096276582148457322 0.083001964321412866 0 0.0095432272886460893 0.082985965880437523 0 0.0097599234385484443 0.082921064084534563 0 0.0097796730072530202 0.082880902503467885 0 -0.0031482628972739233 0.081978179024667031 0 -0.007007087950083318 0.080867258841467379 0 -0.0023788611429506126 0.080208446625664884 0 -0.0023355840449672065 0.080205612031370097 0 -0.0022658381377753832 0.08016293137062068 0 -0.0022919367749302095 0.080205258940486149 0 -0.0023355840449672065 0.080205612031370097 0 -0.0022658381377753832 0.08016293137062068 0 -0.0022681688843132252 0.080235326173202948 0 -0.0022919367749302095 0.080205258940486149 0 -0.0022697397835072099 0.080194534888195307 0 -0.0022681688843132252 0.080235326173202948 0 -0.0022697397835072099 0.080194534888195307 0 -0.0022491584494014677 0.080179450805501803 0 -0.0023317702877844542 0.080246747555751535 0 -0.0022681688843132252 0.080235326173202948 0 -0.0022919367749302095 0.080205258940486149 0 -0.0023317702877844542 0.080246747555751535 0 -0.0022919367749302095 0.080205258940486149 0 -0.0023355840449672065 0.080205612031370097 0 -0.0022919367749302095 0.080205258940486149 0 -0.0022697397835072099 0.080194534888195307 0 -0.0022658381377753832 0.08016293137062068 0 -0.01278691745095719 0.078303513593179982 0 -0.013682891570751287 0.077583737104368472 0 -0.013555683911793138 0.079256002174435708 0 -0.0023962588635050549 0.080222985515652365 0 -0.0023317702877844542 0.080246747555751535 0 -0.0023724667796362888 0.080212676075529676 0 -0.00069421292836637969 0.081821706384427303 0 -0.0031482628972739233 0.081978179024667031 0 -0.0023317702877844542 0.080246747555751535 0 -0.0023724667796362888 0.080212676075529676 0 -0.0023355840449672065 0.080205612031370097 0 -0.0031482628972739233 0.081978179024667031 0 -0.0030061997127002137 0.081892190814404783 0 -0.013682891570751287 0.077583737104368472 0 -0.013555683911793138 0.079256002174435708 0 -0.016010807072500535 0.078994727311399143 0 -0.013555683911793138 0.079256002174435708 0 -0.016010807072500535 0.078994727311399143 0 -0.014860648017503279 0.080222165896846317 0 -0.014860648017503279 0.080222165896846317 0 -0.015016957472611088 0.081414170285478593 0 -0.016358351641765159 0.08066502200622809 0 -0.016010807072500535 0.078994727311399143 0 -0.014860648017503279 0.080222165896846317 0 -0.016358351641765159 0.08066502200622809 0 -0.010210810560860309 0.085511343147455496 0 -0.012178567242540354 0.085639836457452156 0 -0.013555683911793138 0.079256002174435708 0 -0.014860648017503279 0.080222165896846317 0 -0.013227757871621251 0.080831038019752791 0 -0.014860648017503279 0.080222165896846317 0 -0.013227757871621251 0.080831038019752791 0 -0.015016957472611088 0.081414170285478593 0 -0.013227757871621251 0.080831038019752791 0 -0.012517777008201343 0.079671718267634334 0 -0.011357682634553164 0.080132589045665906 0 -0.010210810560860309 0.085511343147455496 0 -0.0078809740816490597 0.08610865907508769 0 -0.0089048629523186609 0.086616421135157176 0 -0.0071631760268225843 0.085861104157718651 0 -0.0077612480671185851 0.087412262036012461 0 -0.013555683911793138 0.079256002174435708 0 -0.013227757871621251 0.080831038019752791 0 -0.012517777008201343 0.079671718267634334 0 -0.012517777008201343 0.079671718267634334 0 -0.011820382523889589 0.078911438967636915 0 -0.011357682634553164 0.080132589045665906 0 -0.01278691745095719 0.078303513593179982 0 -0.012517777008201343 0.079671718267634334 0 -0.011820382523889589 0.078911438967636915 0 -0.01278691745095719 0.078303513593179982 0 -0.013555683911793138 0.079256002174435708 0 -0.012517777008201343 0.079671718267634334 0 -0.0088165706026054093 0.079697729093136008 0 -0.010374918309082517 0.079077904759175047 0 -0.011072229651921513 0.080681033116115519 0 -0.0050493588264657581 0.086523160810100447 0 -0.0078809740816490597 0.08610865907508769 0 -0.011042198475475502 0.078211104284674426 0 -0.011820382523889589 0.078911438967636915 0 -0.010374918309082517 0.079077904759175047 0 -0.011820382523889589 0.078911438967636915 0 -0.010374918309082517 0.079077904759175047 0 -0.011072229651921513 0.080681033116115519 0 -0.0088363194452764256 0.084057894058997121 0 -0.0078809740816490597 0.08610865907508769 0 -0.0071631760268225843 0.085861104157718651 0 -0.0063467199071995687 0.087746492042926352 0 -0.0077612480671185851 0.087412262036012461 0 0.00041091514613522017 0.094703305458183396 0 0.00035405383577129528 0.09481947402086692 0 0.00050655838189670431 0.094743272590673069 0 0.00041091514613522017 0.094703305458183396 0 0.00050655838189670431 0.094743272590673069 0 0.00046335558905562891 0.094571337993691884 0 -0.0078809740816490597 0.08610865907508769 0 -0.0045964480843691509 0.090285180646784688 0 -0.0063467199071995687 0.087746492042926352 0 -0.0077612480671185851 0.087412262036012461 0 -0.0078212695668557555 0.089133233500899911 0 -0.0089048629523186609 0.086616421135157176 0 -0.0077612480671185851 0.087412262036012461 0 -0.0087862112728425007 0.088053436651474401 0 -0.0077612480671185851 0.087412262036012461 0 -0.0087862112728425007 0.088053436651474401 0 -0.0078212695668557555 0.089133233500899911 0 -0.0046992746287564773 0.087698677564255159 0 -0.0034675074037461865 0.089380407940245668 0 -0.0088747291980503032 0.089419110264292889 0 -0.0087862112728425007 0.088053436651474401 0 -0.0078212695668557555 0.089133233500899911 0 -0.010110957918020767 0.088628634307523671 0 -0.00062258224284180797 0.089283407244264007 0 -0.0046992746287564773 0.087698677564255159 0 -0.0034675074037461865 0.089380407940245668 0 -0.0055272618327368104 0.089638041254140557 0 -0.0063467199071995687 0.087746492042926352 0 -0.0078212695668557555 0.089133233500899911 0 -0.0032647427635331869 0.091351728188339462 0 -0.0067293517674834715 0.089160305856180982 0 -0.00062258224284180797 0.089283407244264007 0 -0.0034675074037461865 0.089380407940245668 0 -0.0024439208825222125 0.090548411066345397 0 -0.0015233592306301024 0.091585989964968556 0 -0.0024439208825222125 0.090548411066345397 0 -0.0025333279703798803 0.091585969116834087 0 -0.0024439208825222125 0.090548411066345397 0 -0.0033201310842269458 0.090982659165790611 0 -0.0025333279703798803 0.091585969116834087 0 -0.0034675074037461865 0.089380407940245668 0 -0.0033201310842269458 0.090982659165790611 0 -0.0041116636188687165 0.090951861155550956 0 -0.0034675074037461865 0.089380407940245668 0 -0.0024439208825222125 0.090548411066345397 0 -0.0033201310842269458 0.090982659165790611 0 -0.0051583278413573613 0.088732675008560663 0 -0.0073828653356908689 0.088780070439000242 0 -0.0034675074037461865 0.089380407940245668 0 -0.0041116636188687165 0.090951861155550956 0 -0.0048232139074137256 0.090883365389744591 0 -0.0033201310842269458 0.090982659165790611 0 -0.0041116636188687165 0.090951861155550956 0 -0.003924044030072937 0.091575643690441702 0 -0.003924044030072937 0.091575643690441702 0 -0.0039920572815583324 0.092064647215003431 0 -0.0034033939099878908 0.09212765055069036 0 -0.0043720718531567882 0.091839706166356019 0 -0.0043877182713551949 0.091640253153279949 0 -0.0039920572815583324 0.092064647215003431 0 -0.003924044030072937 0.091575643690441702 0 -0.0043877182713551949 0.091640253153279949 0 -0.0039920572815583324 0.092064647215003431 0 -0.0041116636188687165 0.090951861155550956 0 -0.003924044030072937 0.091575643690441702 0 -0.0043877182713551949 0.091640253153279949 0 -0.0033796551510506664 0.092598698850534303 0 -0.0039920572815583324 0.092064647215003431 0 -0.0034033939099878908 0.09212765055069036 0 -0.0015198700097384156 0.094258179104848294 0 -0.0016364191949348613 0.092859158034250197 0 -0.0034033939099878908 0.09212765055069036 0 -0.0016364191949348613 0.092859158034250197 0 -0.0034033939099878908 0.09212765055069036 0 -0.0025333279703798803 0.091585969116834087 0 -0.0033201310842269458 0.090982659165790611 0 -0.0034033939099878908 0.09212765055069036 0 -0.0025333279703798803 0.091585969116834087 0 -0.0033201310842269458 0.090982659165790611 0 -0.003924044030072937 0.091575643690441702 0 -0.0034033939099878908 0.09212765055069036 0 -0.0054810979404542378 0.092037876957068776 0 -0.0049492215954662555 0.091414926927238738 0 -0.0054932656527904525 0.091091991059337851 0 -0.0043183445763507597 0.091884164427516207 0 -0.0043877182713551949 0.091640253153279949 0 -0.0049492215954662555 0.091414926927238738 0 -0.0043877182713551949 0.091640253153279949 0 -0.0049492215954662555 0.091414926927238738 0 -0.0048232139074137256 0.090883365389744591 0 -0.0041116636188687165 0.090951861155550956 0 -0.0043877182713551949 0.091640253153279949 0 -0.0048232139074137256 0.090883365389744591 0 -0.0073828653356908689 0.088780070439000242 0 -0.01264578011950305 0.088317639170673715 0 -0.0088747291980503032 0.089419110264292889 0 -0.012938968578898596 0.087133052380816978 0 -0.014999238829092605 0.090148757330561186 0 -0.0049492215954662555 0.091414926927238738 0 -0.0048232139074137256 0.090883365389744591 0 -0.0054932656527904525 0.091091991059337851 0 -0.012938968578898596 0.087133052380816978 0 -0.0098160153399151004 0.0854097064589463 0 -0.015347046474079683 0.083494098048604554 0 -0.0088747291980503032 0.089419110264292889 0 -0.012938968578898596 0.087133052380816978 0 -0.0098160153399151004 0.0854097064589463 0 -0.0046992746287564773 0.087698677564255159 0 -0.0088747291980503032 0.089419110264292889 0 -0.0098160153399151004 0.0854097064589463 0 -0.0067293517674834715 0.089160305856180982 0 -0.010280248929022967 0.087514992203928041 0 -0.0089048629523186609 0.086616421135157176 0 -0.0087862112728425007 0.088053436651474401 0 -0.010652562794702919 0.087369806208139639 0 -0.0087862112728425007 0.088053436651474401 0 -0.010110957918020767 0.088628634307523671 0 -0.010652562794702919 0.087369806208139639 0 -0.010280248929022967 0.087514992203928041 0 -0.013767109061036731 0.086218915988565445 0 -0.010110957918020767 0.088628634307523671 0 -0.010652562794702919 0.087369806208139639 0 -0.012402689861522377 0.088123868201202452 0 -0.012178567242540354 0.085639836457452156 0 -0.013767109061036731 0.086218915988565445 0 -0.015016957472611088 0.081414170285478593 0 -0.016616587702558385 0.082191527962960365 0 -0.016358351641765159 0.08066502200622809 0 -0.016886956483805053 0.081254464154367198 0 -0.016616587702558385 0.082191527962960365 0 -0.016358351641765159 0.08066502200622809 0 -0.016749742316887018 0.0839104020401652 0 -0.014947376200721488 0.083129149139723343 0 -0.017458194706342817 0.082554704504769261 0 -0.016886956483805053 0.081254464154367198 0 -0.016616587702558385 0.082191527962960365 0 -0.017458194706342817 0.082554704504769261 0 -0.013767109061036731 0.086218915988565445 0 -0.014288457979744748 0.086001092401075632 0 -0.013894331984434575 0.086201235201501886 0 -0.013767109061036731 0.086218915988565445 0 -0.017458194706342817 0.082554704504769261 0 -0.019844153340396131 0.086371786682763227 0 -0.01781331497744881 0.080244992525054168 0 -0.017393495527664986 0.072305891104027548 0 -0.015945496850309038 0.075926836735434849 0 -0.01781331497744881 0.080244992525054168 0 -0.01649317960773955 0.078659196741963311 0 -0.017018888744533167 0.07929836754517873 0 -0.015945496850309038 0.075926836735434849 0 -0.015251907819591251 0.078075469052537594 0 -0.01781331497744881 0.080244992525054168 0 -0.016886956483805053 0.081254464154367198 0 -0.017458194706342817 0.082554704504769261 0 -0.01781331497744881 0.080244992525054168 0 -0.016749742316887018 0.0839104020401652 0 -0.017129352282710363 0.086535729251024734 0 -0.019844153340396131 0.086371786682763227 0 -0.016749742316887018 0.0839104020401652 0 -0.017458194706342817 0.082554704504769261 0 -0.019844153340396131 0.086371786682763227 0 -0.017129352282710363 0.086535729251024734 0 -0.019844153340396131 0.086371786682763227 0 -0.017043637559048856 0.088239361331143643 0 -0.012938968578898596 0.087133052380816978 0 -0.015347046474079683 0.083494098048604554 0 -0.015376312676434054 0.085852044994685892 0 -0.016749742316887018 0.0839104020401652 0 -0.015347046474079683 0.083494098048604554 0 -0.015376312676434054 0.085852044994685892 0 -0.016749742316887018 0.0839104020401652 0 -0.017129352282710363 0.086535729251024734 0 -0.015376312676434054 0.085852044994685892 0 -0.017129352282710363 0.086535729251024734 0 -0.015376312676434054 0.085852044994685892 0 -0.015155265089060682 0.088221382811859678 0 -0.012938968578898596 0.087133052380816978 0 -0.015376312676434054 0.085852044994685892 0 -0.015155265089060682 0.088221382811859678 0 -0.012938968578898596 0.087133052380816978 0 -0.015155265089060682 0.088221382811859678 0 -0.014999238829092605 0.090148757330561186 0 -0.012719676467947945 0.088352645371825453 0 -0.01264578011950305 0.088317639170673715 0 -0.015110988285551919 0.089798296172352424 0 -0.017043637559048856 0.088239361331143643 0 -0.018071910588479644 0.090184255729674964 0 -0.01264578011950305 0.088317639170673715 0 -0.016048561583107447 0.089147016227607165 0 -0.017129352282710363 0.086535729251024734 0 -0.015155265089060682 0.088221382811859678 0 -0.017043637559048856 0.088239361331143643 0 -0.015155265089060682 0.088221382811859678 0 -0.015110988285551919 0.089798296172352424 0 -0.017043637559048856 0.088239361331143643 0 -0.019844153340396131 0.086371786682763227 0 -0.018071910588479644 0.090184255729674964 0 -0.020717036508311717 0.090498165545340389 0 -0.019844153340396131 0.086371786682763227 0 -0.017043637559048856 0.088239361331143643 0 -0.018071910588479644 0.090184255729674964 0 -0.019160123232205999 0.090230710878664439 0 -0.020358886927018014 0.091245907056645217 0 -0.020717036508311717 0.090498165545340389 0 -0.016048561583107447 0.089147016227607165 0 -0.017245916501558909 0.089428118641781976 0 -0.019160123232205999 0.090230710878664439 0 -0.019715707545167729 0.091740900211744775 0 -0.020358886927018014 0.091245907056645217 0 -0.019160123232205999 0.090230710878664439 0 -0.019715707545167729 0.091740900211744775 0 -0.018586359319128186 0.091575657742612671 0 -0.017611343135344931 0.08991489423115627 0 -0.019160123232205999 0.090230710878664439 0 -0.018586359319128186 0.091575657742612671 0 -0.011027929565273414 0.082155915387293499 0 -0.01264578011950305 0.088317639170673715 0 -0.017423528846316712 0.092899924588876401 0 -0.017611343135344931 0.08991489423115627 0 -0.018586359319128186 0.091575657742612671 0 -0.0058019659303851882 0.061769943160719501 0 -0.0061515466552760729 0.058982585240085775 0 -0.009388094018472239 0.065400884853366828 0 -0.0061515466552760729 0.058982585240085775 0 -0.010275583567936184 0.062673481085010974 0 -0.0096490959719503847 0.06819050438628195 0 -0.0066890449998230064 0.064052635563010593 0 -0.0080029876404279238 0.067863808649001184 0 -0.010275583567936184 0.062673481085010974 0 -0.01125797949940871 0.06061723851723412 0 -0.012186696574521335 0.062961315447396984 0 -0.0061515466552760729 0.058982585240085775 0 -0.010275583567936184 0.062673481085010974 0 -0.0094009453379911394 0.059131873695077081 0 -0.010275583567936184 0.062673481085010974 0 -0.0094009453379911394 0.059131873695077081 0 -0.01125797949940871 0.06061723851723412 0 -0.010625800628242884 0.058356925822086132 0 -0.0094009453379911394 0.059131873695077081 0 -0.01125797949940871 0.06061723851723412 0 -0.010625800628242884 0.058356925822086132 0 -0.01125797949940871 0.06061723851723412 0 -0.014159966374843885 0.061953755705454222 0 -0.020583258599864551 0.092121266312203048 0 -0.020358886927018014 0.091245907056645217 0 -0.021125304460167443 0.090993065111204183 0 -0.020583258599864551 0.092121266312203048 0 -0.019715707545167729 0.091740900211744775 0 -0.020358886927018014 0.091245907056645217 0 -0.020358886927018014 0.091245907056645217 0 -0.020717036508311717 0.090498165545340389 0 -0.021125304460167443 0.090993065111204183 0 -0.014159966374843885 0.061953755705454222 0 -0.012186696574521335 0.062961315447396984 0 -0.012756279994204405 0.066397581592457594 0 -0.01125797949940871 0.06061723851723412 0 -0.014159966374843885 0.061953755705454222 0 -0.012186696574521335 0.062961315447396984 0 -0.017393495527664986 0.072305891104027548 0 -0.014159966374843885 0.061953755705454222 0 -0.012756279994204405 0.066397581592457594 0 -0.010275583567936184 0.062673481085010974 0 -0.012186696574521335 0.062961315447396984 0 -0.012756279994204405 0.066397581592457594 0 -0.019844153340396131 0.086371786682763227 0 -0.020717036508311717 0.090498165545340389 0 -0.021125304460167443 0.090993065111204183 0 -0.01649317960773955 0.078659196741963311 0 -0.014116141614467581 0.076231487574652146 0 -0.017393495527664986 0.072305891104027548 0 -0.012756279994204405 0.066397581592457594 0 -0.013567467364612564 0.070247153272722754 0 -0.012756279994204405 0.066397581592457594 0 -0.0096490959719503847 0.06819050438628195 0 -0.013567467364612564 0.070247153272722754 0 -0.0052393957260661551 0.063190216702782492 0 -0.0058019659303851882 0.061769943160719501 0 -0.009388094018472239 0.065400884853366828 0 -0.0052393957260661551 0.063190216702782492 0 -0.009388094018472239 0.065400884853366828 0 -0.0070044700840306649 0.065277081581966795 0 -0.010275583567936184 0.062673481085010974 0 -0.012756279994204405 0.066397581592457594 0 -0.0096490959719503847 0.06819050438628195 0 -0.009388094018472239 0.065400884853366828 0 -0.0070044700840306649 0.065277081581966795 0 -0.0071129111581365694 0.067681014566812414 0 -0.009388094018472239 0.065400884853366828 0 -0.0071129111581365694 0.067681014566812414 0 -0.012708510576360077 0.071717728326012295 0 -0.0048006514227485683 0.067880630930120422 0 -0.0081293148276919379 0.072505445777013386 0 -0.0096490959719503847 0.06819050438628195 0 -0.014193086616837103 0.072861179796042438 0 -0.01426299236592723 0.077540198582811692 0 -0.0080029876404279238 0.067863808649001184 0 -0.0081293148276919379 0.072505445777013386 0 -0.017393495527664986 0.072305891104027548 0 -0.013567467364612564 0.070247153272722754 0 -0.014193086616837103 0.072861179796042438 0 -0.0096490959719503847 0.06819050438628195 0 -0.013567467364612564 0.070247153272722754 0 -0.014193086616837103 0.072861179796042438 0 -0.014193086616837103 0.072861179796042438 0 -0.015945496850309038 0.075926836735434849 0 -0.01426299236592723 0.077540198582811692 0 -0.017393495527664986 0.072305891104027548 0 -0.014193086616837103 0.072861179796042438 0 -0.015945496850309038 0.075926836735434849 0 -0.0082207547334094324 0.068703659831706607 0 -0.0047879996102176553 0.068508038767135043 0 -0.0081802796507669008 0.071607308881086129 0 -0.014735736402758146 0.077863772181418406 0 -0.015251907819591251 0.078075469052537594 0 -0.01767406752380386 0.080529066429825852 0 -0.015945496850309038 0.075926836735434849 0 -0.01426299236592723 0.077540198582811692 0 -0.015251907819591251 0.078075469052537594 0 -0.0081293148276919379 0.072505445777013386 0 -0.0082559751858438321 0.072598902619123495 0 0.002894187931059727 0.073087172481680909 0 0.00041547660610083718 0.076513872743232694 0 -0.0042885882783143554 0.065786267519924294 0 -0.0082207547334094324 0.068703659831706607 0 -0.0047879996102176553 0.068508038767135043 0 0.010297523104431727 0.077256900438296236 0 0.010002663071143085 0.078195772873776076 0 0.009173841642109954 0.078850127708904483 0 0.010297523104431727 0.077256900438296236 0 0.010002663071143085 0.078195772873776076 0 0.010587539673438708 0.078161311010714107 0 0.010150122391931245 0.078808842382161751 0 0.010077100147103585 0.079734526936395128 0 0.0097433094742082685 0.078750969283819944 0 0.010587539673438708 0.078161311010714107 0 0.010150122391931245 0.078808842382161751 0 0.010500805085878981 0.078927710739832041 0 0.010002663071143085 0.078195772873776076 0 0.010587539673438708 0.078161311010714107 0 0.010150122391931245 0.078808842382161751 0 0.010002663071143085 0.078195772873776076 0 0.010150122391931245 0.078808842382161751 0 0.0097433094742082685 0.078750969283819944 0 0.010150122391931245 0.078808842382161751 0 0.010500805085878981 0.078927710739832041 0 0.010077100147103585 0.079734526936395128 0 0.01137926014259592 0.078763769134275644 0 0.010500805085878981 0.078927710739832041 0 0.010077100147103585 0.079734526936395128 0 0.007549736831965621 0.065847054792048082 0 0.0095398494884171813 0.073351464896299151 0 0.010797310121753795 0.081243907262449469 0 0.0094141749007195623 0.080793701906581736 0 0.0097433094742082685 0.078750969283819944 0 0.0094141749007195623 0.080793701906581736 0 0.0093016231123279509 0.079200480820037056 0 0.0083557834541590371 0.081068207494027475 0 0.0094141749007195623 0.080793701906581736 0 0.008899688439560554 0.081842991493101841 0 0.0095162609397026997 0.082197391343192469 0 0.010797310121753795 0.081243907262449469 0 0.0094141749007195623 0.080793701906581736 0 0.0095162609397026997 0.082197391343192469 0 0.0094141749007195623 0.080793701906581736 0 0.0097433094742082685 0.078750969283819944 0 0.0093016231123279509 0.079200480820037056 0 -0.0082207547334094324 0.068703659831706607 0 -0.0081802796507669008 0.071607308881086129 0 -0.010343666140673436 0.072772490974001819 0 -0.0081293148276919379 0.072505445777013386 0 -0.004536213430304574 0.078307648137435598 0 0.00041547660610083718 0.076513872743232694 0 -0.004536213430304574 0.078307648137435598 0 0.002550825614599616 0.075958427421864469 0 0.00041547660610083718 0.076513872743232694 0 0.010002663071143085 0.078195772873776076 0 0.0097433094742082685 0.078750969283819944 0 0.0093016231123279509 0.079200480820037056 0 0.00041547660610083718 0.076513872743232694 0 -0.0018035532651592377 0.078480627492341568 0 -0.0007927495391770057 0.07774241777560692 0 -0.0018640770353653836 0.078300949186964564 0 -0.002272849918115992 0.079055411321061753 0 -0.01781331497744881 0.080244992525054168 0 -0.01767406752380386 0.080529066429825852 0 -0.016358351641765159 0.08066502200622809 0 -0.015251907819591251 0.078075469052537594 0 -0.01781331497744881 0.080244992525054168 0 -0.01767406752380386 0.080529066429825852 0 -0.016010807072500535 0.078994727311399143 0 -0.01767406752380386 0.080529066429825852 0 -0.016358351641765159 0.08066502200622809 0 -0.016886956483805053 0.081254464154367198 0 -0.01781331497744881 0.080244992525054168 0 -0.016358351641765159 0.08066502200622809 0 -0.0022658381377753832 0.08016293137062068 0 -0.0022243126597485639 0.08014419110387358 0 -0.0022308253132370852 0.080156617041306999 0 -0.007007087950083318 0.080867258841467379 0 -0.004536213430304574 0.078307648137435598 0 -0.0022658381377753832 0.08016293137062068 0 -0.0022308253132370852 0.080156617041306999 0 -0.0022491584494014677 0.080179450805501803 0 -0.0018035532651592377 0.078480627492341568 0 -0.0022759257447977502 0.07928420955212527 0 0.0094141749007195623 0.080793701906581736 0 0.0083557834541590371 0.081068207494027475 0 0.008899688439560554 0.081842991493101841 0 -0.004536213430304574 0.078307648137435598 0 -0.0018035532651592377 0.078480627492341568 0 0.0083557834541590371 0.081068207494027475 0 0.008899688439560554 0.081842991493101841 0 0.0084923584027612239 0.082154203496165729 0 -0.0018035532651592377 0.078480627492341568 0 0.00034795148962977058 0.080175283681744064 0 0.008899688439560554 0.081842991493101841 0 0.0090563961250555054 0.082500960638196133 0 0.0084923584027612239 0.082154203496165729 0 0.0090563961250555054 0.082500960638196133 0 0.0084923584027612239 0.082154203496165729 0 0.0087924201084930657 0.082583202163263467 0 -0.0022697397835072099 0.080194534888195307 0 -0.0022658381377753832 0.08016293137062068 0 -0.0022491584494014677 0.080179450805501803 0 -0.0019417269463250072 0.079912404266500328 0 -0.0021288264427816407 0.080087684848117929 0 -0.002055412016480386 0.0801246642219271 0 -0.0021288264427816407 0.080087684848117929 0 -0.002055412016480386 0.0801246642219271 0 -0.0021562211849483434 0.080185495264339962 0 0.0084923584027612239 0.082154203496165729 0 0.0086260506394308586 0.082862525661279801 0 0.0087924201084930657 0.082583202163263467 0 0.00034795148962977058 0.080175283681744064 0 0.0014845715428933165 0.082240498812411245 0 -0.0022681688843132252 0.080235326173202948 0 -0.0021288264427816407 0.080087684848117929 0 -0.0021562211849483434 0.080185495264339962 0 -0.002055412016480386 0.0801246642219271 0 -0.0021562211849483434 0.080185495264339962 0 -0.0021629696553043592 0.080291854200151266 0 -0.0023916243093446365 0.079504997288793802 0 -0.0022759257447977502 0.07928420955212527 0 -0.0022681688843132252 0.080235326173202948 0 -0.0021562211849483434 0.080185495264339962 0 -0.0021629696553043592 0.080291854200151266 0 0.0093617307254252099 0.083128175457795175 0 0.0089128698653178282 0.082925956671352621 0 0.0092616083339281986 0.083003794909687068 0 0.0086260506394308586 0.082862525661279801 0 0.0087924201084930657 0.082583202163263467 0 0.0089128698653178282 0.082925956671352621 0 0.0087924201084930657 0.082583202163263467 0 0.0089128698653178282 0.082925956671352621 0 0.0090278163109164568 0.082805704199083258 0 0.0014845715428933165 0.082240498812411245 0 0.0019122666853478971 0.082308624044515666 0 0.0089128698653178282 0.082925956671352621 0 0.0090973319032939762 0.082951074663362448 0 0.0090278163109164568 0.082805704199083258 0 0.0090973319032939762 0.082951074663362448 0 0.0091642927166358818 0.082951757013100286 0 0.0092766139422825536 0.082970297587139724 0 0.0089128698653178282 0.082925956671352621 0 0.0090973319032939762 0.082951074663362448 0 0.0091642927166358818 0.082951757013100286 0 0.0089128698653178282 0.082925956671352621 0 0.0091642927166358818 0.082951757013100286 0 0.0092616083339281986 0.083003794909687068 0 0.0091642927166358818 0.082951757013100286 0 0.0092616083339281986 0.083003794909687068 0 0.0093480900496210381 0.082985357461040868 0 0.0093617307254252099 0.083128175457795175 0 0.0092616083339281986 0.083003794909687068 0 0.0093888966545142716 0.083018700956927149 0 0.0092616083339281986 0.083003794909687068 0 0.0093480900496210381 0.082985357461040868 0 0.0093888966545142716 0.083018700956927149 0 0.0092766139422825536 0.082970297587139724 0 0.0093480900496210381 0.082985357461040868 0 0.0094069113422832092 0.08298574938952627 0 0.0091642927166358818 0.082951757013100286 0 0.0092766139422825536 0.082970297587139724 0 0.0093480900496210381 0.082985357461040868 0 0.0095432272886460893 0.082985965880437523 0 0.0094069113422832092 0.08298574938952627 0 0.0094615575902510778 0.082999631762699103 0 0.0095432272886460893 0.082985965880437523 0 0.0093480900496210381 0.082985357461040868 0 0.0094069113422832092 0.08298574938952627 0 0.0095432272886460893 0.082985965880437523 0 0.0093617307254252099 0.083128175457795175 0 0.0093888966545142716 0.083018700956927149 0 0.0095432272886460893 0.082985965880437523 0 0.0093480900496210381 0.082985357461040868 0 0.0093888966545142716 0.083018700956927149 0 0.0090563961250555054 0.082500960638196133 0 0.0090278163109164568 0.082805704199083258 0 0.0092185187164364225 0.082838663379192101 0 0.0090563961250555054 0.082500960638196133 0 0.0087924201084930657 0.082583202163263467 0 0.0090278163109164568 0.082805704199083258 0 0.0090973319032939762 0.082951074663362448 0 0.0090278163109164568 0.082805704199083258 0 0.0091726597169502298 0.08295576053981725 0 0.0090278163109164568 0.082805704199083258 0 0.0092185187164364225 0.082838663379192101 0 0.0091726597169502298 0.08295576053981725 0 0.0090563961250555054 0.082500960638196133 0 0.0092185187164364225 0.082838663379192101 0 0.0093844499796410189 0.082647867819484674 0 0.0092185187164364225 0.082838663379192101 0 0.0093844499796410189 0.082647867819484674 0 0.0093293882280412136 0.082888306128616751 0 0.0093844499796410189 0.082647867819484674 0 0.0095561355304331335 0.082666137010536322 0 0.0095162609397026997 0.082197391343192469 0 0.0093844499796410189 0.082647867819484674 0 0.0095561355304331335 0.082666137010536322 0 0.0093293882280412136 0.082888306128616751 0 0.007549736831965621 0.065847054792048082 0 0.0024990771081924404 0.06220832497305083 0 0.0096550745918855905 0.08205358692534892 0 0.0095561355304331335 0.082666137010536322 0 0.0095162609397026997 0.082197391343192469 0 0.007549736831965621 0.065847054792048082 0 0.0062884077497408824 0.068593610899816346 0 0.008899688439560554 0.081842991493101841 0 0.0090563961250555054 0.082500960638196133 0 0.0095162609397026997 0.082197391343192469 0 0.0090563961250555054 0.082500960638196133 0 0.0093844499796410189 0.082647867819484674 0 0.0095162609397026997 0.082197391343192469 0 0.0091763513822400496 0.083051371364233378 0 0.0092484798518783877 0.083066347522008852 0 0.009243292162846313 0.082998639050042095 0 0.0091763513822400496 0.083051371364233378 0 0.0092484798518783877 0.083066347522008852 0 0.009234400683355657 0.083095818342507746 0 0.0091763513822400496 0.083051371364233378 0 0.009234400683355657 0.083095818342507746 0 0.0090998416860348028 0.083051475594889818 0 0.0091576173336256877 0.082967190631845378 0 0.0091763513822400496 0.083051371364233378 0 0.0089087085831140288 0.083011227327873166 0 0.0091576173336256877 0.082967190631845378 0 0.0095561355304331335 0.082666137010536322 0 0.0093293882280412136 0.082888306128616751 0 0.0091576173336256877 0.082967190631845378 0 0.0091763513822400496 0.083051371364233378 0 0.0093293882280412136 0.082888306128616751 0 0.0091763513822400496 0.083051371364233378 0 0.0093293882280412136 0.082888306128616751 0 0.009243292162846313 0.082998639050042095 0 0.0092185187164364225 0.082838663379192101 0 0.0093293882280412136 0.082888306128616751 0 0.009243292162846313 0.082998639050042095 0 0.009243292162846313 0.082998639050042095 0 0.0091726597169502298 0.08295576053981725 0 0.0092527164323672022 0.08304002436467682 0 0.0092185187164364225 0.082838663379192101 0 0.009243292162846313 0.082998639050042095 0 0.0091726597169502298 0.08295576053981725 0 0.0090973319032939762 0.082951074663362448 0 0.0091726597169502298 0.08295576053981725 0 0.0092213406274860524 0.083002661270089692 0 0.0091726597169502298 0.08295576053981725 0 0.0092213406274860524 0.083002661270089692 0 0.0092527164323672022 0.08304002436467682 0 0.0092527164323672022 0.08304002436467682 0 0.009330223867170969 0.083051810167152837 0 0.0093580834656279699 0.083094288804725344 0 0.0092213406274860524 0.083002661270089692 0 0.0092527164323672022 0.08304002436467682 0 0.009330223867170969 0.083051810167152837 0 0.0092484798518783877 0.083066347522008852 0 0.009243292162846313 0.082998639050042095 0 0.0092527164323672022 0.08304002436467682 0 0.0092766139422825536 0.082970297587139724 0 0.0094069113422832092 0.08298574938952627 0 0.0094615575902510778 0.082999631762699103 0 0.0092766139422825536 0.082970297587139724 0 0.0094615575902510778 0.082999631762699103 0 0.009292439890624617 0.08299904005616475 0 0.0094615575902510778 0.082999631762699103 0 0.009292439890624617 0.08299904005616475 0 0.0094089958906442023 0.083041561314734336 0 0.0090973319032939762 0.082951074663362448 0 0.0092766139422825536 0.082970297587139724 0 0.009292439890624617 0.08299904005616475 0 0.0090973319032939762 0.082951074663362448 0 0.0092213406274860524 0.083002661270089692 0 0.009292439890624617 0.08299904005616475 0 0.0092213406274860524 0.083002661270089692 0 0.009292439890624617 0.08299904005616475 0 0.009330223867170969 0.083051810167152837 0 0.009330223867170969 0.083051810167152837 0 0.0094721198995939854 0.083111798666427969 0 0.0093580834656279699 0.083094288804725344 0 0.009330223867170969 0.083051810167152837 0 0.0094089958906442023 0.083041561314734336 0 0.0094721198995939854 0.083111798666427969 0 0.009292439890624617 0.08299904005616475 0 0.009330223867170969 0.083051810167152837 0 0.0094089958906442023 0.083041561314734336 0 0.0095268526675124782 0.083067539691962011 0 0.0095993450672529883 0.083131623235329757 0 0.0094721198995939854 0.083111798666427969 0 0.0094615575902510778 0.082999631762699103 0 0.0094089958906442023 0.083041561314734336 0 0.0095268526675124782 0.083067539691962011 0 0.0094089958906442023 0.083041561314734336 0 0.0095268526675124782 0.083067539691962011 0 0.0094721198995939854 0.083111798666427969 0 0.0095268526675124782 0.083067539691962011 0 0.0095993450672529883 0.083131623235329757 0 0.0096310453733552837 0.083068345748971914 0 0.0094615575902510778 0.082999631762699103 0 0.0095268526675124782 0.083067539691962011 0 0.0096310453733552837 0.083068345748971914 0 0.0096459365820293266 0.083204973850474248 0 0.0095993450672529883 0.083131623235329757 0 0.0094721198995939854 0.083111798666427969 0 0.0096459365820293266 0.083204973850474248 0 0.0094721198995939854 0.083111798666427969 0 0.0095537337152872392 0.083186801950490163 0 0.0094721198995939854 0.083111798666427969 0 0.0094347908620228908 0.083143941262660823 0 0.0095537337152872392 0.083186801950490163 0 0.0094721198995939854 0.083111798666427969 0 0.0094347908620228908 0.083143941262660823 0 0.0093580834656279699 0.083094288804725344 0 0.0095537337152872392 0.083186801950490163 0 0.0096682615423467032 0.083263023735552583 0 0.0095206014874472146 0.083182860350764345 0 0.0094347908620228908 0.083143941262660823 0 0.0095537337152872392 0.083186801950490163 0 0.0095206014874472146 0.083182860350764345 0 0.0096459365820293266 0.083204973850474248 0 0.0095537337152872392 0.083186801950490163 0 0.0096682615423467032 0.083263023735552583 0 0.0096459365820293266 0.083204973850474248 0 0.0096682615423467032 0.083263023735552583 0 0.0097689783581924403 0.083299390567430728 0 0.0092484798518783877 0.083066347522008852 0 0.009234400683355657 0.083095818342507746 0 0.0093236894113329482 0.083111182541775366 0 0.0092484798518783877 0.083066347522008852 0 0.0092527164323672022 0.08304002436467682 0 0.0093236894113329482 0.083111182541775366 0 0.0094347908620228908 0.083143941262660823 0 0.0093236894113329482 0.083111182541775366 0 0.0093580834656279699 0.083094288804725344 0 0.0092527164323672022 0.08304002436467682 0 0.0093236894113329482 0.083111182541775366 0 0.0093580834656279699 0.083094288804725344 0 0.0094347908620228908 0.083143941262660823 0 0.0093921902964691269 0.083133555170450846 0 0.0095206014874472146 0.083182860350764345 0 0.0094347908620228908 0.083143941262660823 0 0.0093236894113329482 0.083111182541775366 0 0.0093921902964691269 0.083133555170450846 0 0.009234400683355657 0.083095818342507746 0 0.0093236894113329482 0.083111182541775366 0 0.0093921902964691269 0.083133555170450846 0 0.009234400683355657 0.083095818342507746 0 0.0093921902964691269 0.083133555170450846 0 0.009238459783906687 0.083060988206932487 0 0.0093921902964691269 0.083133555170450846 0 0.0093993487042231399 0.083058499561859941 0 0.009238459783906687 0.083060988206932487 0 0.0093921902964691269 0.083133555170450846 0 0.0093993487042231399 0.083058499561859941 0 0.0095528080795201989 0.083151453353731697 0 0.0093993487042231399 0.083058499561859941 0 0.0095528080795201989 0.083151453353731697 0 0.0094862881365362604 0.082929190911656916 0 0.0093993487042231399 0.083058499561859941 0 0.0092944261817193181 0.082948110250922913 0 0.009238459783906687 0.083060988206932487 0 0.0093921902964691269 0.083133555170450846 0 0.0095206014874472146 0.083182860350764345 0 0.0095528080795201989 0.083151453353731697 0 0.0096682615423467032 0.083263023735552583 0 0.0095206014874472146 0.083182860350764345 0 0.0095528080795201989 0.083151453353731697 0 0.0095528080795201989 0.083151453353731697 0 0.0095906674606183653 0.08306575893048751 0 0.0097524362023141669 0.0833076206416032 0 0.0096682615423467032 0.083263023735552583 0 0.0095528080795201989 0.083151453353731697 0 0.0097524362023141669 0.0833076206416032 0 0.0095906674606183653 0.08306575893048751 0 0.009594170047467071 0.083086209980822764 0 0.0097524362023141669 0.0833076206416032 0 0.0095528080795201989 0.083151453353731697 0 0.0095906674606183653 0.08306575893048751 0 0.0094862881365362604 0.082929190911656916 0 0.0095906674606183653 0.08306575893048751 0 0.009594170047467071 0.083086209980822764 0 0.0096654563047158162 0.082782387944333957 0 0.0089395869167270148 0.081690677995259545 0 0.0087957669410296119 0.081548471491528704 0 0.0095906674606183653 0.08306575893048751 0 0.0094862881365362604 0.082929190911656916 0 0.0096654563047158162 0.082782387944333957 0 0.0092944261817193181 0.082948110250922913 0 0.0094862881365362604 0.082929190911656916 0 0.0092778533567284011 0.082667854394592996 0 0.0093993487042231399 0.083058499561859941 0 0.0092944261817193181 0.082948110250922913 0 0.0094862881365362604 0.082929190911656916 0 0.0094862881365362604 0.082929190911656916 0 0.00943330086790449 0.082669838043128441 0 0.0096654563047158162 0.082782387944333957 0 0.0094862881365362604 0.082929190911656916 0 0.00943330086790449 0.082669838043128441 0 0.0092778533567284011 0.082667854394592996 0 0.0092778533567284011 0.082667854394592996 0 0.0089969300283972466 0.082959839809026159 0 0.0089827825809778994 0.082419879969429288 0 0.0089969300283972466 0.082959839809026159 0 0.0084226236768536692 0.082854074010633411 0 0.0089827825809778994 0.082419879969429288 0 0.0092944261817193181 0.082948110250922913 0 0.0092778533567284011 0.082667854394592996 0 0.0089969300283972466 0.082959839809026159 0 0.0089969300283972466 0.082959839809026159 0 0.009238459783906687 0.083060988206932487 0 0.0090998416860348028 0.083051475594889818 0 0.0092944261817193181 0.082948110250922913 0 0.0089969300283972466 0.082959839809026159 0 0.009238459783906687 0.083060988206932487 0 0.0089969300283972466 0.082959839809026159 0 0.0090998416860348028 0.083051475594889818 0 0.0089087085831140288 0.083011227327873166 0 0.009234400683355657 0.083095818342507746 0 0.009238459783906687 0.083060988206932487 0 0.0090998416860348028 0.083051475594889818 0 0.0091763513822400496 0.083051371364233378 0 0.0090998416860348028 0.083051475594889818 0 0.0089087085831140288 0.083011227327873166 0 0.0088990271026111803 0.082984252368142677 0 0.0089087085831140288 0.083011227327873166 0 0.0084226236768536692 0.082854074010633411 0 0.0089969300283972466 0.082959839809026159 0 0.0089087085831140288 0.083011227327873166 0 0.0084226236768536692 0.082854074010633411 0 0.0069600353148201689 0.081898722525063875 0 0.0084226236768536692 0.082854074010633411 0 0.0082083831435712309 0.081134624544310766 0 0.0084226236768536692 0.082854074010633411 0 0.0089827825809778994 0.082419879969429288 0 0.0082083831435712309 0.081134624544310766 0 0.0070115879551506128 0.080848240790147158 0 0.0069600353148201689 0.081898722525063875 0 0.0082083831435712309 0.081134624544310766 0 0.0089827825809778994 0.082419879969429288 0 0.00921020865332026 0.081691567205221985 0 0.0093171823426398698 0.082379625436307155 0 0.0092778533567284011 0.082667854394592996 0 0.0089827825809778994 0.082419879969429288 0 0.0093171823426398698 0.082379625436307155 0 0.0089827825809778994 0.082419879969429288 0 0.00921020865332026 0.081691567205221985 0 0.0082083831435712309 0.081134624544310766 0 0.0073756005532359956 0.08015334577899548 0 0.0060010230383202856 0.079801661144085517 0 0.0067862808613959151 0.079333151821814635 0 0.0074795141772549647 0.080761118737284004 0 0.0060405527257993939 0.079325042326569437 0 0.0083620260167855502 0.080929798613601001 0 0.0061737942733898696 0.079698829198767446 0 0.0080095815703479251 0.081032188545572592 0 0.0073756005532359956 0.08015334577899548 0 0.0060010230383202856 0.079801661144085517 0 0.007879146866634084 0.081743587050919067 0 0.00921020865332026 0.081691567205221985 0 0.0082083831435712309 0.081134624544310766 0 0.0076565161311531686 0.080210008464207477 0 0.0074795141772549647 0.080761118737284004 0 0.0060405527257993939 0.079325042326569437 0 0.0051356321557078323 0.079563139884500311 0 0.0079455742742391353 0.080760389930647783 0 0.0060929580445146575 0.079271149342682423 0 0.0070115879551506128 0.080848240790147158 0 0.0082083831435712309 0.081134624544310766 0 0.0071908165458525741 0.079381336077361045 0 0.0064530927819167931 0.079638139240659572 0 0.0060929580445146575 0.079271149342682423 0 0.0055456643961705066 0.078085987943405516 0 0.0067502664501484094 0.078533914331363669 0 0.0064789506623645432 0.077107433468133632 0 0.0055456643961705066 0.078085987943405516 0 0.0062616682450792579 0.07896604461129994 0 0.0067502664501484094 0.078533914331363669 0 0.0060010230383202856 0.079801661144085517 0 0.0062616682450792579 0.07896604461129994 0 0.0067862808613959151 0.079333151821814635 0 0.0060010230383202856 0.079801661144085517 0 0.0055456643961705066 0.078085987943405516 0 0.0062616682450792579 0.07896604461129994 0 0.0067862808613959151 0.079333151821814635 0 0.0075403959328089578 0.079138215477930707 0 0.0067502664501484094 0.078533914331363669 0 0.0062616682450792579 0.07896604461129994 0 0.0067862808613959151 0.079333151821814635 0 0.0067502664501484094 0.078533914331363669 0 0.0073756005532359956 0.08015334577899548 0 0.0075403959328089578 0.079138215477930707 0 0.0083731991782853461 0.079958927596172791 0 0.0073756005532359956 0.08015334577899548 0 0.0067862808613959151 0.079333151821814635 0 0.0075403959328089578 0.079138215477930707 0 0.0075403959328089578 0.079138215477930707 0 0.0076584388389968113 0.077937098662047288 0 0.0083588432706282641 0.078760807773646274 0 0.0075403959328089578 0.079138215477930707 0 0.0067502664501484094 0.078533914331363669 0 0.0076584388389968113 0.077937098662047288 0 0.0076584388389968113 0.077937098662047288 0 0.0076534461420912931 0.07643234204188043 0 0.0064789506623645432 0.077107433468133632 0 0.0067502664501484094 0.078533914331363669 0 0.0076584388389968113 0.077937098662047288 0 0.0064789506623645432 0.077107433468133632 0 0.0076534461420912931 0.07643234204188043 0 0.0064789506623645432 0.077107433468133632 0 0.0070253316860005291 0.075308757443509913 0 0.0052620282480848671 0.077046690125649048 0 0.0064789506623645432 0.077107433468133632 0 0.0056207677546272058 0.075227097589185096 0 0.0055456643961705066 0.078085987943405516 0 0.0052620282480848671 0.077046690125649048 0 0.0064789506623645432 0.077107433468133632 0 0.0097777878675892379 0.078662205637155896 0 0.0089232004059640428 0.07725311746628262 0 0.0099729157037089823 0.077247833999850066 0 0.0097777878675892379 0.078662205637155896 0 0.0089232004059640428 0.07725311746628262 0 0.0092149593267439149 0.079396179481260709 0 0.0089232004059640428 0.07725311746628262 0 0.0083588432706282641 0.078760807773646274 0 0.0092149593267439149 0.079396179481260709 0 0.0076584388389968113 0.077937098662047288 0 0.0076534461420912931 0.07643234204188043 0 0.0089232004059640428 0.07725311746628262 0 0.0076584388389968113 0.077937098662047288 0 0.0089232004059640428 0.07725311746628262 0 0.0083588432706282641 0.078760807773646274 0 0.0075403959328089578 0.079138215477930707 0 0.0083588432706282641 0.078760807773646274 0 0.0083731991782853461 0.079958927596172791 0 0.0083588432706282641 0.078760807773646274 0 0.0083731991782853461 0.079958927596172791 0 0.0092149593267439149 0.079396179481260709 0 0.0092149593267439149 0.079396179481260709 0 0.0096233205221327184 0.080705290313480629 0 0.010108476395266561 0.079983818098806669 0 0.0083731991782853461 0.079958927596172791 0 0.0092149593267439149 0.079396179481260709 0 0.0091199700598582571 0.080570135885504685 0 0.0097777878675892379 0.078662205637155896 0 0.0092149593267439149 0.079396179481260709 0 0.010108476395266561 0.079983818098806669 0 0.0092149593267439149 0.079396179481260709 0 0.0096233205221327184 0.080705290313480629 0 0.0091199700598582571 0.080570135885504685 0 0.0096233205221327184 0.080705290313480629 0 0.0091199700598582571 0.080570135885504685 0 0.0093386693606447892 0.081615001999918446 0 0.0091199700598582571 0.080570135885504685 0 0.0093386693606447892 0.081615001999918446 0 0.0086230182717494316 0.080879569842141383 0 0.0093386693606447892 0.081615001999918446 0 0.0086230182717494316 0.080879569842141383 0 0.0085541519802203037 0.081511739233410374 0 0.0073756005532359956 0.08015334577899548 0 0.0083731991782853461 0.079958927596172791 0 0.0081125179803638436 0.080829006483633906 0 0.0083731991782853461 0.079958927596172791 0 0.0086230182717494316 0.080879569842141383 0 0.0081125179803638436 0.080829006483633906 0 0.0083731991782853461 0.079958927596172791 0 0.0091199700598582571 0.080570135885504685 0 0.0086230182717494316 0.080879569842141383 0 0.0086230182717494316 0.080879569842141383 0 0.0085541519802203037 0.081511739233410374 0 0.0081125179803638436 0.080829006483633906 0 0.0085541519802203037 0.081511739233410374 0 0.0081125179803638436 0.080829006483633906 0 0.007879146866634084 0.081743587050919067 0 0.0073756005532359956 0.08015334577899548 0 0.0081125179803638436 0.080829006483633906 0 0.007879146866634084 0.081743587050919067 0 0.0074795141772549647 0.080761118737284004 0 0.0083620260167855502 0.080929798613601001 0 0.0098183446786821796 0.08193646331795805 0 0.00943330086790449 0.082669838043128441 0 0.0093171823426398698 0.082379625436307155 0 0.0096654563047158162 0.082782387944333957 0 0.007879146866634084 0.081743587050919067 0 0.008987269036402153 0.082164360221620047 0 0.0089369275868610935 0.082695684228989152 0 0.0085541519802203037 0.081511739233410374 0 0.007879146866634084 0.081743587050919067 0 0.008987269036402153 0.082164360221620047 0 0.0079455742742391353 0.080760389930647783 0 0.0087957669410296119 0.081548471491528704 0 0.00921020865332026 0.081691567205221985 0 0.0093171823426398698 0.082379625436307155 0 0.0096654563047158162 0.082782387944333957 0 0.0080095815703479251 0.081032188545572592 0 0.0087957669410296119 0.081548471491528704 0 0.00943330086790449 0.082669838043128441 0 0.0092778533567284011 0.082667854394592996 0 0.0093171823426398698 0.082379625436307155 0 0.0093386693606447892 0.081615001999918446 0 0.0094969654572077417 0.082558656659097174 0 0.0098871608798459087 0.08272075535880366 0 0.0093386693606447892 0.081615001999918446 0 0.008987269036402153 0.082164360221620047 0 0.0094969654572077417 0.082558656659097174 0 0.0093386693606447892 0.081615001999918446 0 0.0085541519802203037 0.081511739233410374 0 0.008987269036402153 0.082164360221620047 0 0.009594170047467071 0.083086209980822764 0 0.008987269036402153 0.082164360221620047 0 0.0089369275868610935 0.082695684228989152 0 0.009594170047467071 0.083086209980822764 0 0.0094969654572077417 0.082558656659097174 0 0.0098871608798459087 0.08272075535880366 0 0.009594170047467071 0.083086209980822764 0 0.008987269036402153 0.082164360221620047 0 0.0094969654572077417 0.082558656659097174 0 0.0098871608798459087 0.08272075535880366 0 0.010350901518988292 0.083443349680774062 0 0.0101417664126287 0.081842920175786274 0 0.0098871608798459087 0.08272075535880366 0 0.010350901518988292 0.083443349680774062 0 0.010006294975822509 0.083420275367365126 0 0.010350901518988292 0.083443349680774062 0 0.010817098051408604 0.083196555340869643 0 0.010748308720079706 0.084625028114196685 0 0.010350901518988292 0.083443349680774062 0 0.0101417664126287 0.081842920175786274 0 0.010817098051408604 0.083196555340869643 0 0.0101417664126287 0.081842920175786274 0 0.010845115950281252 0.080609869595273817 0 0.010817098051408604 0.083196555340869643 0 0.0093386693606447892 0.081615001999918446 0 0.0098871608798459087 0.08272075535880366 0 0.0101417664126287 0.081842920175786274 0 0.0096233205221327184 0.080705290313480629 0 0.0093386693606447892 0.081615001999918446 0 0.0101417664126287 0.081842920175786274 0 0.0101417664126287 0.081842920175786274 0 0.010108476395266561 0.079983818098806669 0 0.010845115950281252 0.080609869595273817 0 0.0096233205221327184 0.080705290313480629 0 0.0101417664126287 0.081842920175786274 0 0.010108476395266561 0.079983818098806669 0 0.010108476395266561 0.079983818098806669 0 0.010845115950281252 0.080609869595273817 0 0.010672309642712045 0.078418384429699825 0 0.010845115950281252 0.080609869595273817 0 0.010672309642712045 0.078418384429699825 0 0.01191404735822133 0.078787837257760909 0 0.0097777878675892379 0.078662205637155896 0 0.010108476395266561 0.079983818098806669 0 0.010672309642712045 0.078418384429699825 0 0.0097777878675892379 0.078662205637155896 0 0.010672309642712045 0.078418384429699825 0 0.0099729157037089823 0.077247833999850066 0 0.013450476457088585 0.079126966084364009 0 0.01191404735822133 0.078787837257760909 0 0.011952020284434225 0.081254239121882982 0 0.010845115950281252 0.080609869595273817 0 0.01191404735822133 0.078787837257760909 0 0.011952020284434225 0.081254239121882982 0 0.010845115950281252 0.080609869595273817 0 0.011952020284434225 0.081254239121882982 0 0.010817098051408604 0.083196555340869643 0 0.011952020284434225 0.081254239121882982 0 0.011411599031875094 0.085703742621454942 0 0.014910460411296999 0.080941464054494927 0 0.013450476457088585 0.079126966084364009 0 0.011952020284434225 0.081254239121882982 0 0.014910460411296999 0.080941464054494927 0 0.010434504267461031 0.085594025913673835 0 0.0098048039186915178 0.085735752658606279 0 0.011952020284434225 0.081254239121882982 0 0.010817098051408604 0.083196555340869643 0 0.011411599031875094 0.085703742621454942 0 0.010817098051408604 0.083196555340869643 0 0.010748308720079706 0.084625028114196685 0 0.011411599031875094 0.085703742621454942 0 0.010748308720079706 0.084625028114196685 0 0.011411599031875094 0.085703742621454942 0 0.0093178213748777352 0.08513293298409183 0 0.010748308720079706 0.084625028114196685 0 0.0093178213748777352 0.08513293298409183 0 0.01006421264435918 0.084234277805107338 0 0.0092271895258273819 0.084163709978258769 0 0.01006421264435918 0.084234277805107338 0 0.0094757852833390922 0.083619294380025674 0 0.0093178213748777352 0.08513293298409183 0 0.0092271895258273819 0.084163709978258769 0 0.01006421264435918 0.084234277805107338 0 0.01006421264435918 0.084234277805107338 0 0.010319815289036428 0.083953152163819517 0 0.010065208150746177 0.083753293139079449 0 0.01006421264435918 0.084234277805107338 0 0.0094757852833390922 0.083619294380025674 0 0.009866656713435798 0.083662867157620349 0 0.01006421264435918 0.084234277805107338 0 0.010065208150746177 0.083753293139079449 0 0.009866656713435798 0.083662867157620349 0 0.010748308720079706 0.084625028114196685 0 0.01006421264435918 0.084234277805107338 0 0.010319815289036428 0.083953152163819517 0 0.010350901518988292 0.083443349680774062 0 0.010319815289036428 0.083953152163819517 0 0.010006294975822509 0.083420275367365126 0 0.010350901518988292 0.083443349680774062 0 0.010748308720079706 0.084625028114196685 0 0.010319815289036428 0.083953152163819517 0 0.010319815289036428 0.083953152163819517 0 0.010006294975822509 0.083420275367365126 0 0.0099993244824360793 0.083563964885836062 0 0.010006294975822509 0.083420275367365126 0 0.0097524362023141669 0.0833076206416032 0 0.0099993244824360793 0.083563964885836062 0 0.009594170047467071 0.083086209980822764 0 0.0098871608798459087 0.08272075535880366 0 0.010006294975822509 0.083420275367365126 0 0.009594170047467071 0.083086209980822764 0 0.010006294975822509 0.083420275367365126 0 0.0097524362023141669 0.0833076206416032 0 0.0097524362023141669 0.0833076206416032 0 0.0099993244824360793 0.083563964885836062 0 0.0098220409187418298 0.083380737745200009 0 0.0099993244824360793 0.083563964885836062 0 0.0098781842329919919 0.083401514961477033 0 0.0098220409187418298 0.083380737745200009 0 0.0099993244824360793 0.083563964885836062 0 0.0098781842329919919 0.083401514961477033 0 0.0099384304932864584 0.083452348121234574 0 0.0096682615423467032 0.083263023735552583 0 0.0097524362023141669 0.0833076206416032 0 0.0098220409187418298 0.083380737745200009 0 0.0096682615423467032 0.083263023735552583 0 0.0098220409187418298 0.083380737745200009 0 0.0097689783581924403 0.083299390567430728 0 0.0098781842329919919 0.083401514961477033 0 0.0098220409187418298 0.083380737745200009 0 0.0097689783581924403 0.083299390567430728 0 0.010319815289036428 0.083953152163819517 0 0.0099993244824360793 0.083563964885836062 0 0.010065208150746177 0.083753293139079449 0 0.0099993244824360793 0.083563964885836062 0 0.010065208150746177 0.083753293139079449 0 0.0099384304932864584 0.083452348121234574 0 0.010065208150746177 0.083753293139079449 0 0.0098632216941004231 0.08334738018214792 0 0.009866656713435798 0.083662867157620349 0 0.010065208150746177 0.083753293139079449 0 0.0099384304932864584 0.083452348121234574 0 0.0098632216941004231 0.08334738018214792 0 0.0099384304932864584 0.083452348121234574 0 0.0098518544758451343 0.08323527720007165 0 0.0098324683629134046 0.083294760717546878 0 0.0099384304932864584 0.083452348121234574 0 0.0098518544758451343 0.08323527720007165 0 0.0098632216941004231 0.08334738018214792 0 0.0098518544758451343 0.08323527720007165 0 0.0098632216941004231 0.08334738018214792 0 0.0098061471749708307 0.083112083245861029 0 0.0096459365820293266 0.083204973850474248 0 0.0097689783581924403 0.083299390567430728 0 0.0097137345657356839 0.083198226933504177 0 0.0097689783581924403 0.083299390567430728 0 0.0098324683629134046 0.083294760717546878 0 0.0097137345657356839 0.083198226933504177 0 0.0098781842329919919 0.083401514961477033 0 0.0099384304932864584 0.083452348121234574 0 0.0098324683629134046 0.083294760717546878 0 0.0098781842329919919 0.083401514961477033 0 0.0097689783581924403 0.083299390567430728 0 0.0098324683629134046 0.083294760717546878 0 0.0098518544758451343 0.08323527720007165 0 0.0098324683629134046 0.083294760717546878 0 0.0097676099362280847 0.083157155071794081 0 0.0098324683629134046 0.083294760717546878 0 0.0097137345657356839 0.083198226933504177 0 0.0097676099362280847 0.083157155071794081 0 0.0096459365820293266 0.083204973850474248 0 0.0095993450672529883 0.083131623235329757 0 0.0097137345657356839 0.083198226933504177 0 0.0095993450672529883 0.083131623235329757 0 0.0097137345657356839 0.083198226933504177 0 0.0096310453733552837 0.083068345748971914 0 0.0097137345657356839 0.083198226933504177 0 0.0096310453733552837 0.083068345748971914 0 0.0097676099362280847 0.083157155071794081 0 0.0096310453733552837 0.083068345748971914 0 0.0097259157186559194 0.083049370913978154 0 0.0097676099362280847 0.083157155071794081 0 0.0097259157186559194 0.083049370913978154 0 0.0097676099362280847 0.083157155071794081 0 0.0097991972723477285 0.083046946476803551 0 0.0097599234385484443 0.082921064084534563 0 0.0097259157186559194 0.083049370913978154 0 0.0097991972723477285 0.083046946476803551 0 0.0097599234385484443 0.082921064084534563 0 0.0097259157186559194 0.083049370913978154 0 0.0096276582148457322 0.083001964321412866 0 0.0096310453733552837 0.083068345748971914 0 0.0097259157186559194 0.083049370913978154 0 0.0096276582148457322 0.083001964321412866 0 0.0095432272886460893 0.082985965880437523 0 0.0094615575902510778 0.082999631762699103 0 0.0096276582148457322 0.083001964321412866 0 0.0094615575902510778 0.082999631762699103 0 0.0096310453733552837 0.083068345748971914 0 0.0096276582148457322 0.083001964321412866 0 0.0098632216941004231 0.08334738018214792 0 0.0098061471749708307 0.083112083245861029 0 0.0096693822039909047 0.083104560609459935 0 0.0098061471749708307 0.083112083245861029 0 0.0097604241256444516 0.08285439738584742 0 0.0096693822039909047 0.083104560609459935 0 0.0098518544758451343 0.08323527720007165 0 0.0098061471749708307 0.083112083245861029 0 0.0097991972723477285 0.083046946476803551 0 0.0098518544758451343 0.08323527720007165 0 0.0097676099362280847 0.083157155071794081 0 0.0097991972723477285 0.083046946476803551 0 0.0097599234385484443 0.082921064084534563 0 0.0097991972723477285 0.083046946476803551 0 0.0097604241256444516 0.08285439738584742 0 0.0098061471749708307 0.083112083245861029 0 0.0097991972723477285 0.083046946476803551 0 0.0097604241256444516 0.08285439738584742 0 0.0095243992635107681 0.082639115979669026 0 0.0096693822039909047 0.083104560609459935 0 0.0091167810607792419 0.08288245844370612 0 0.0095243992635107681 0.082639115979669026 0 0.0097604241256444516 0.08285439738584742 0 0.0096693822039909047 0.083104560609459935 0 0.0096693822039909047 0.083104560609459935 0 0.0091167810607792419 0.08288245844370612 0 0.0094757852833390922 0.083619294380025674 0 0.0091167810607792419 0.08288245844370612 0 0.0088026133142176232 0.083574709489295615 0 0.0079518248870624128 0.083093265111818207 0 0.0091167810607792419 0.08288245844370612 0 0.0088026133142176232 0.083574709489295615 0 0.0094757852833390922 0.083619294380025674 0 0.0092271895258273819 0.084163709978258769 0 0.0088026133142176232 0.083574709489295615 0 0.0094757852833390922 0.083619294380025674 0 0.0098632216941004231 0.08334738018214792 0 0.0096693822039909047 0.083104560609459935 0 0.009866656713435798 0.083662867157620349 0 0.0096693822039909047 0.083104560609459935 0 0.0094757852833390922 0.083619294380025674 0 0.009866656713435798 0.083662867157620349 0 0.0070349594738107878 0.084113256819349336 0 0.006079912756673125 0.08323268783136728 0 0.0059742898719312553 0.085108307134463712 0 0.0070349594738107878 0.084113256819349336 0 0.0079518248870624128 0.083093265111818207 0 0.006079912756673125 0.08323268783136728 0 0.0070349594738107878 0.084113256819349336 0 0.0081496629436137967 0.08421082372551543 0 0.0079518248870624128 0.083093265111818207 0 0.0088026133142176232 0.083574709489295615 0 0.0081496629436137967 0.08421082372551543 0 0.0079518248870624128 0.083093265111818207 0 0.0092271895258273819 0.084163709978258769 0 0.0088026133142176232 0.083574709489295615 0 0.0081496629436137967 0.08421082372551543 0 0.0081969025185902582 0.082237581111285527 0 0.0091167810607792419 0.08288245844370612 0 0.0079518248870624128 0.083093265111818207 0 0.0081969025185902582 0.082237581111285527 0 0.0079518248870624128 0.083093265111818207 0 0.0070348397608453427 0.082293200138435496 0 0.0079518248870624128 0.083093265111818207 0 0.0070348397608453427 0.082293200138435496 0 0.006079912756673125 0.08323268783136728 0 0.0049831140092766787 0.081214285082290436 0 0.0070348397608453427 0.082293200138435496 0 0.006079912756673125 0.08323268783136728 0 0.0049831140092766787 0.081214285082290436 0 0.006079912756673125 0.08323268783136728 0 0.0034406899956712787 0.083532330878120759 0 0.0013360127970561057 0.087351852740134503 0 0.0013375056540957302 0.089135629551528067 0 0.00013988112286970569 0.09444050661575927 0 0.00069273205687169013 0.094351974211120307 0 0.00036568694717431348 0.094812466175053164 0 0.00069273205687169013 0.094351974211120307 0 0.00036568694717431348 0.094812466175053164 0 0.00042901457515885866 0.094882578961793376 0 0.006079912756673125 0.08323268783136728 0 0.0059742898719312553 0.085108307134463712 0 0.0042302607615809888 0.085094413291019647 0 0.006079912756673125 0.08323268783136728 0 0.0034406899956712787 0.083532330878120759 0 0.0042302607615809888 0.085094413291019647 0 0.0059742898719312553 0.085108307134463712 0 0.003715716289802661 0.087405187949848681 0 0.0058361377009341431 0.086704646391951676 0 0.0059742898719312553 0.085108307134463712 0 0.0042302607615809888 0.085094413291019647 0 0.003715716289802661 0.087405187949848681 0 0.0042302607615809888 0.085094413291019647 0 0.003715716289802661 0.087405187949848681 0 0.0015677815030118644 0.086809515461130082 0 0.0013375056540957302 0.089135629551528067 0 0.00082883387631450681 0.090890310459805473 0 0.0034406899956712787 0.083532330878120759 0 0.0042302607615809888 0.085094413291019647 0 0.0015677815030118644 0.086809515461130082 0 0.003715716289802661 0.087405187949848681 0 0.0019267014949907102 0.089663937206400909 0 0.0011058545216733669 0.088120739584733737 0 0.0016206926577303524 0.090583433514137293 0 0.00082883387631450681 0.090890310459805473 0 0.003715716289802661 0.087405187949848681 0 0.0047968765494226873 0.088550541219525394 0 0.0027669851318351509 0.089883672973059256 0 0.003715716289802661 0.087405187949848681 0 0.0019267014949907102 0.089663937206400909 0 0.0027669851318351509 0.089883672973059256 0 0.003715716289802661 0.087405187949848681 0 0.0058361377009341431 0.086704646391951676 0 0.0047968765494226873 0.088550541219525394 0 0.0058361377009341431 0.086704646391951676 0 0.0073501785342529853 0.08543195327953633 0 0.0071534746480917373 0.087062929779530784 0 0.0058361377009341431 0.086704646391951676 0 0.0071534746480917373 0.087062929779530784 0 0.0047968765494226873 0.088550541219525394 0 0.0070349594738107878 0.084113256819349336 0 0.0081496629436137967 0.08421082372551543 0 0.0073501785342529853 0.08543195327953633 0 0.0070349594738107878 0.084113256819349336 0 0.0059742898719312553 0.085108307134463712 0 0.0073501785342529853 0.08543195327953633 0 0.0059742898719312553 0.085108307134463712 0 0.0058361377009341431 0.086704646391951676 0 0.0073501785342529853 0.08543195327953633 0 0.0093178213748777352 0.08513293298409183 0 0.0092271895258273819 0.084163709978258769 0 0.0081496629436137967 0.08421082372551543 0 0.0093178213748777352 0.08513293298409183 0 0.0081496629436137967 0.08421082372551543 0 0.0073501785342529853 0.08543195327953633 0 0.0093178213748777352 0.08513293298409183 0 0.0073501785342529853 0.08543195327953633 0 0.0071534746480917373 0.087062929779530784 0 0.011411599031875094 0.085703742621454942 0 0.0071534746480917373 0.087062929779530784 0 0.0073006106930410047 0.08936402934966993 0 0.011411599031875094 0.085703742621454942 0 0.0093178213748777352 0.08513293298409183 0 0.0071534746480917373 0.087062929779530784 0 0.0071534746480917373 0.087062929779530784 0 0.0073006106930410047 0.08936402934966993 0 0.0052773913443204899 0.089785925799597627 0 0.0071534746480917373 0.087062929779530784 0 0.0052773913443204899 0.089785925799597627 0 0.0047968765494226873 0.088550541219525394 0 0.0073006106930410047 0.08936402934966993 0 0.0049778737698045715 0.09212076381025977 0 0.0052773913443204899 0.089785925799597627 0 0.011411599031875094 0.085703742621454942 0 0.0073006106930410047 0.08936402934966993 0 0.0090681018460817345 0.092404221626205527 0 0.0073006106930410047 0.08936402934966993 0 0.0090681018460817345 0.092404221626205527 0 0.0049778737698045715 0.09212076381025977 0 0.0049778737698045715 0.09212076381025977 0 0.003115234787905991 0.094790689134113648 0 0.0066592171876061887 0.095991016052315636 0 0.0090681018460817345 0.092404221626205527 0 0.0049778737698045715 0.09212076381025977 0 0.0066592171876061887 0.095991016052315636 0 0.0098048039186915178 0.085735752658606279 0 0.0070883228847130018 0.086162562814702248 0 0.013450476457088585 0.079126966084364009 0 0.014910460411296999 0.080941464054494927 0 0.016316098807481971 0.077821481416224678 0 0.003115234787905991 0.094790689134113648 0 0.0027078448359598088 0.093208368184476684 0 0.0016225585057712179 0.094328128755438959 0 0.0049778737698045715 0.09212076381025977 0 0.003115234787905991 0.094790689134113648 0 0.0027078448359598088 0.093208368184476684 0 0.0049778737698045715 0.09212076381025977 0 0.0027078448359598088 0.093208368184476684 0 0.0028142521545661513 0.09133304707764725 0 0.0027078448359598088 0.093208368184476684 0 0.0028142521545661513 0.09133304707764725 0 0.0016730881569009134 0.093050069318629275 0 0.0027078448359598088 0.093208368184476684 0 0.0016730881569009134 0.093050069318629275 0 0.0016225585057712179 0.094328128755438959 0 0.0049778737698045715 0.09212076381025977 0 0.0028142521545661513 0.09133304707764725 0 0.0052773913443204899 0.089785925799597627 0 0.0028142521545661513 0.09133304707764725 0 0.0052773913443204899 0.089785925799597627 0 0.0047968765494226873 0.088550541219525394 0 0.0028142521545661513 0.09133304707764725 0 0.0027669851318351509 0.089883672973059256 0 0.0013033981211366334 0.091309281864581607 0 0.0028142521545661513 0.09133304707764725 0 0.0047968765494226873 0.088550541219525394 0 0.0027669851318351509 0.089883672973059256 0 0.0019267014949907102 0.089663937206400909 0 0.0027669851318351509 0.089883672973059256 0 0.0013033981211366334 0.091309281864581607 0 0.0013033981211366334 0.091309281864581607 0 0.00059410991435107543 0.092195524775578672 0 0.000600746169946603 0.091037610487145149 0 0.0013033981211366334 0.091309281864581607 0 0.00059410991435107543 0.092195524775578672 0 0.00099226875184499244 0.092530267395281321 0 0.00059410991435107543 0.092195524775578672 0 0.00099226875184499244 0.092530267395281321 0 0.00023120584322282097 0.093486044920615199 0 0.00059410991435107543 0.092195524775578672 0 0.00023120584322282097 0.093486044920615199 0 0.00036618585206657441 0.092930080742689353 0 0.00059410991435107543 0.092195524775578672 0 0.00036618585206657441 0.092930080742689353 0 0.000600746169946603 0.091037610487145149 0 0.00099226875184499244 0.092530267395281321 0 0.00070817773030583213 0.093804213408888684 0 0.00023120584322282097 0.093486044920615199 0 0.0028142521545661513 0.09133304707764725 0 0.0013033981211366334 0.091309281864581607 0 0.00099226875184499244 0.092530267395281321 0 0.0028142521545661513 0.09133304707764725 0 0.00099226875184499244 0.092530267395281321 0 0.0016730881569009134 0.093050069318629275 0 0.0016730881569009134 0.093050069318629275 0 0.00070817773030583213 0.093804213408888684 0 0.0016225585057712179 0.094328128755438959 0 0.00099226875184499244 0.092530267395281321 0 0.0016730881569009134 0.093050069318629275 0 0.00070817773030583213 0.093804213408888684 0 0.00070817773030583213 0.093804213408888684 0 0.00091546842482590645 0.094485844394865307 0 0.00035609494692868764 0.094685466769897184 0 0.00070817773030583213 0.093804213408888684 0 0.00091546842482590645 0.094485844394865307 0 0.0016225585057712179 0.094328128755438959 0 -3.057133376005352e-09 0.094999621686704061 0 0.00017679525190185429 0.094358525494393636 0 0.00035609494692868764 0.094685466769897184 0 0.00070817773030583213 0.093804213408888684 0 0.00017679525190185429 0.094358525494393636 0 0.00035609494692868764 0.094685466769897184 0 0.00070817773030583213 0.093804213408888684 0 0.00017679525190185429 0.094358525494393636 0 0.00023120584322282097 0.093486044920615199 0 -3.057133376005352e-09 0.094999621686704061 0 0.00017679525190185429 0.094358525494393636 0 -7.5331574328186442e-08 0.094998859010928333 0 0.00023120584322282097 0.093486044920615199 0 1.6055710497237967e-07 0.094998054245496219 0 0.00036618585206657441 0.092930080742689353 0 -7.5331574328186442e-08 0.094998859010928333 0 0.00023120584322282097 0.093486044920615199 0 1.6055710497237967e-07 0.094998054245496219 0 0.00017679525190185429 0.094358525494393636 0 -7.5331574328186442e-08 0.094998859010928333 0 0.00023120584322282097 0.093486044920615199 0 1.6055710497237967e-07 0.094998054245496219 0 0.00045306913770371021 0.093326182401045787 0 0.00036618585206657441 0.092930080742689353 0 1.6055710497237967e-07 0.094998054245496219 0 1.9585861899176176e-07 0.094998596986808112 0 0.00045306913770371021 0.093326182401045787 0 1.1639762842801527e-06 0.094997351406198277 0 0.00064563963410092285 0.093343305766361268 0 -1.6839238675676659e-08 0.095000141156640336 0 9.4220570743562359e-05 0.095047642519029155 0 6.4926038523254094e-05 0.09497028646348811 0 0.00045306913770371021 0.093326182401045787 0 0.00036618585206657441 0.092930080742689353 0 0.000600746169946603 0.091037610487145149 0 0.00045306913770371021 0.093326182401045787 0 0.000600746169946603 0.091037610487145149 0 0.00030074483513697529 0.091638441937057821 0 0.0019267014949907102 0.089663937206400909 0 0.0013033981211366334 0.091309281864581607 0 0.000600746169946603 0.091037610487145149 0 0.00085456641983121826 0.090792307208352074 0 0.00082883387631450681 0.090890310459805473 0 0.0019267014949907102 0.089663937206400909 0 0.000600746169946603 0.091037610487145149 0 0.0011058545216733669 0.088120739584733737 0 0.00064563963410092285 0.093343305766361268 0 0.00082883387631450681 0.090890310459805473 0 9.4220570743562359e-05 0.095047642519029155 0 0.0002973769526074658 0.095103905392990601 0 0.00022939185532399898 0.094952508651684461 0 9.4220570743562359e-05 0.095047642519029155 0 0.00013076950447006862 0.094962777391035577 0 0.00022939185532399898 0.094952508651684461 0 0.00013076950447006862 0.094962777391035577 0 0.00022939185532399898 0.094952508651684461 0 0.00014209346134300501 0.094876521194693753 0 0.00036568694717431348 0.094812466175053164 0 0.00042901457515885866 0.094882578961793376 0 0.00022939185532399898 0.094952508651684461 0 0.00042901457515885866 0.094882578961793376 0 0.0002973769526074658 0.095103905392990601 0 0.00022939185532399898 0.094952508651684461 0 0.00036568694717431348 0.094812466175053164 0 0.00022939185532399898 0.094952508651684461 0 0.00014209346134300501 0.094876521194693753 0 0.00018806751354300989 0.094768842507268802 0 2.4647361126132703e-05 0.094735027065540989 0 0.00013988112286970569 0.09444050661575927 0 0.00036568694717431348 0.094812466175053164 0 -0.00017015132961904775 0.094728889307711062 0 -0.00039932359568307674 0.09452568702234268 0 0.00013988112286970569 0.09444050661575927 0 -0.00017015132961904775 0.094728889307711062 0 2.4647361126132703e-05 0.094735027065540989 0 -0.00014032981877664752 0.09465098554307512 0 -0.00039932359568307674 0.09452568702234268 0 -0.00017015132961904775 0.094728889307711062 0 -0.00069400654913877432 0.094653846715615012 0 0.00014209346134300501 0.094876521194693753 0 2.0797856932478367e-05 0.094944949463398681 0 6.4926038523254094e-05 0.09497028646348811 0 -0.00031897593689446244 0.093310488958280799 0 -0.00014032981877664752 0.09465098554307512 0 -0.00031897593689446244 0.093310488958280799 0 -5.1136943058704524e-07 0.094996972033409788 0 -1.1360670119643725e-05 0.094987327696102311 0 -4.3089465015590582e-06 0.094993940463641763 0 2.5292041006712354e-10 0.095000003827121232 0 -0.00014032981877664752 0.09465098554307512 0 -2.2503803821491053e-07 0.094998318000298482 0 -3.5217934749892722e-07 0.094999315350618535 0 -1.4072613545443849e-10 0.094999999618318218 0 -4.4500884182925166e-13 0.094999999695973059 0 -4.3089465015590582e-06 0.094993940463641763 0 2.5292041006712354e-10 0.095000003827121232 0 -1.159239506187609e-09 0.094999992414110238 0 2.0797856932478367e-05 0.094944949463398681 0 3.268491759238318e-08 0.094999781599163752 0 2.1574137841798706e-05 0.094981661109828086 0 -0.00014032981877664752 0.09465098554307512 0 -6.6121864354161805e-07 0.094998390509049263 0 -1.6839238675676659e-08 0.095000141156640336 0 3.268491759238318e-08 0.094999781599163752 0 2.1574137841798706e-05 0.094981661109828086 0 -1.6839238675676659e-08 0.095000141156640336 0 2.1574137841798706e-05 0.094981661109828086 0 6.4926038523254094e-05 0.09497028646348811 0 2.0797856932478367e-05 0.094944949463398681 0 2.1574137841798706e-05 0.094981661109828086 0 6.4926038523254094e-05 0.09497028646348811 0 9.4220570743562359e-05 0.095047642519029155 0 0.00013076950447006862 0.094962777391035577 0 6.4926038523254094e-05 0.09497028646348811 0 0.00013076950447006862 0.094962777391035577 0 0.00014209346134300501 0.094876521194693753 0 6.4926038523254094e-05 0.09497028646348811 0 7.3286294490991044e-05 0.095009710339631265 0 0.00015489277709405315 0.094684508512644552 0 -0.00016640677128211437 0.094569182902383253 0 7.3286294490991044e-05 0.095009710339631265 0 0.00011924574683666861 0.094985571731578122 0 0.00015489277709405315 0.094684508512644552 0 0.00011924574683666861 0.094985571731578122 0 -1.1503749402110316e-07 0.095000151767259094 0 0.00015489277709405315 0.094684508512644552 0 0.00011924574683666861 0.094985571731578122 0 -1.1503749402110316e-07 0.095000151767259094 0 2.7174722646841539e-07 0.095000118303676079 0 -1.1503749402110316e-07 0.095000151767259094 0 0.00015489277709405315 0.094684508512644552 0 0.00025969572480860978 0.094413613161208026 0 0.00015489277709405315 0.094684508512644552 0 -1.2816544475190119e-05 0.094017032415805654 0 0.00025969572480860978 0.094413613161208026 0 0.00015489277709405315 0.094684508512644552 0 -0.00016640677128211437 0.094569182902383253 0 -1.2816544475190119e-05 0.094017032415805654 0 -0.00016640677128211437 0.094569182902383253 0 -0.00081997811437873908 0.093564328888477877 0 -1.2816544475190119e-05 0.094017032415805654 0 -0.00016640677128211437 0.094569182902383253 0 -0.0007776109174777758 0.094865951865832937 0 -0.00081997811437873908 0.093564328888477877 0 -0.0007776109174777758 0.094865951865832937 0 -0.0017837646943566034 0.09425371351523 0 -0.00081997811437873908 0.093564328888477877 0 -0.00064498189029150814 0.093409317823464802 0 -0.00019513687481089972 0.092306103952968732 0 -0.0007776109174777758 0.094865951865832937 0 -0.00029106690882711158 0.09523894545333407 0 -0.00066743053163359207 0.095293287784028236 0 -0.00016640677128211437 0.094569182902383253 0 -0.0007776109174777758 0.094865951865832937 0 -0.00021825055515093585 0.095007293675880622 0 -0.0007776109174777758 0.094865951865832937 0 -0.00021825055515093585 0.095007293675880622 0 -0.00029106690882711158 0.09523894545333407 0 7.3286294490991044e-05 0.095009710339631265 0 -0.00016640677128211437 0.094569182902383253 0 -0.00021825055515093585 0.095007293675880622 0 7.3286294490991044e-05 0.095009710339631265 0 -0.00021825055515093585 0.095007293675880622 0 3.2667561921045716e-05 0.095263376277506404 0 3.2667561921045716e-05 0.095263376277506404 0 0.00023201878440199723 0.095586759260573334 0 0.00017256553877393658 0.095293772613275221 0 7.3286294490991044e-05 0.095009710339631265 0 3.2667561921045716e-05 0.095263376277506404 0 0.00017256553877393658 0.095293772613275221 0 -0.00029106690882711158 0.09523894545333407 0 0.00023201878440199723 0.095586759260573334 0 -0.00065220361960480818 0.095380230010505107 0 0.00042531010301759514 0.092906110611506734 0 2.8030439879796756e-05 0.092266337717210892 0 -0.00029106690882711158 0.09523894545333407 0 -0.00065220361960480818 0.095380230010505107 0 -0.00066743053163359207 0.095293287784028236 0 -0.00021825055515093585 0.095007293675880622 0 3.2667561921045716e-05 0.095263376277506404 0 -0.00029106690882711158 0.09523894545333407 0 3.2667561921045716e-05 0.095263376277506404 0 -0.00029106690882711158 0.09523894545333407 0 0.00023201878440199723 0.095586759260573334 0 0.00023201878440199723 0.095586759260573334 0 0.00096335147337174359 0.095617819802696694 0 0.0004828564144351574 0.095729140317376366 0 0.00023201878440199723 0.095586759260573334 0 0.00046335134058808793 0.095488320134207605 0 0.00096335147337174359 0.095617819802696694 0 0.00023201878440199723 0.095586759260573334 0 0.00017256553877393658 0.095293772613275221 0 0.00046335134058808793 0.095488320134207605 0 0.00017256553877393658 0.095293772613275221 0 0.00030974765720582982 0.095286841999647057 0 0.00013392615353502698 0.095177389456901226 0 7.3286294490991044e-05 0.095009710339631265 0 0.00011924574683666861 0.094985571731578122 0 0.00017256553877393658 0.095293772613275221 0 0.00011924574683666861 0.094985571731578122 0 0.00017256553877393658 0.095293772613275221 0 2.7174722646841539e-07 0.095000118303676079 0 0.00017256553877393658 0.095293772613275221 0 2.7174722646841539e-07 0.095000118303676079 0 0.00013392615353502698 0.095177389456901226 0 2.7174722646841539e-07 0.095000118303676079 0 7.0774530272775472e-08 0.095000363555929127 0 0.00013392615353502698 0.095177389456901226 0 7.0774530272775472e-08 0.095000363555929127 0 0.00013392615353502698 0.095177389456901226 0 0.00013175295237442212 0.095102905352436068 0 0.00030974765720582982 0.095286841999647057 0 0.00013392615353502698 0.095177389456901226 0 0.00013175295237442212 0.095102905352436068 0 0.00030974765720582982 0.095286841999647057 0 0.00013175295237442212 0.095102905352436068 0 0.00031437570748142049 0.095061769415274971 0 7.0774530272775472e-08 0.095000363555929127 0 0.00013175295237442212 0.095102905352436068 0 1.1174030759099448e-07 0.095000053457999264 0 1.1174030759099448e-07 0.095000053457999264 0 0.00031437570748142049 0.095061769415274971 0 0.00013221799935087832 0.094930662517516376 0 0.00013175295237442212 0.095102905352436068 0 1.1174030759099448e-07 0.095000053457999264 0 0.00031437570748142049 0.095061769415274971 0 0.00031437570748142049 0.095061769415274971 0 0.00035609494692868764 0.094685466769897184 0 0.00013221799935087832 0.094930662517516376 0 -3.057133376005352e-09 0.094999621686704061 0 0.00035609494692868764 0.094685466769897184 0 0.00013221799935087832 0.094930662517516376 0 -3.057133376005352e-09 0.094999621686704061 0 1.1174030759099448e-07 0.095000053457999264 0 0.00013221799935087832 0.094930662517516376 0 0.00091546842482590645 0.094485844394865307 0 0.0016225585057712179 0.094328128755438959 0 0.0010033219522058916 0.0949792237743909 0 0.0016225585057712179 0.094328128755438959 0 0.0010033219522058916 0.0949792237743909 0 0.0020438918158181859 0.09501905232261447 0 0.00091546842482590645 0.094485844394865307 0 0.00035609494692868764 0.094685466769897184 0 0.0010033219522058916 0.0949792237743909 0 0.00031437570748142049 0.095061769415274971 0 0.00035609494692868764 0.094685466769897184 0 0.0010033219522058916 0.0949792237743909 0 0.00031437570748142049 0.095061769415274971 0 0.0010033219522058916 0.0949792237743909 0 0.00077325129451489161 0.095299394078941779 0 0.0010033219522058916 0.0949792237743909 0 0.00077325129451489161 0.095299394078941779 0 0.0015543051199406758 0.095296111158965108 0 0.00077325129451489161 0.095299394078941779 0 0.00096335147337174359 0.095617819802696694 0 0.0015543051199406758 0.095296111158965108 0 0.00030974765720582982 0.095286841999647057 0 0.00031437570748142049 0.095061769415274971 0 0.00077325129451489161 0.095299394078941779 0 0.00017256553877393658 0.095293772613275221 0 0.00030974765720582982 0.095286841999647057 0 0.00046335134058808793 0.095488320134207605 0 0.00030974765720582982 0.095286841999647057 0 0.00077325129451489161 0.095299394078941779 0 0.00046335134058808793 0.095488320134207605 0 0.00077325129451489161 0.095299394078941779 0 0.00046335134058808793 0.095488320134207605 0 0.00096335147337174359 0.095617819802696694 0 0.00096335147337174359 0.095617819802696694 0 0.0018399359181319476 0.0958097728352197 0 0.0015543051199406758 0.095296111158965108 0 0.0041430253985904443 0.081904353843219119 0 0.0035586636250679168 0.081985263585599225 0 0.0042989243181248563 0.08163506297513913 0 0.0039506492455748691 0.082087305766225332 0 0.0041430253985904443 0.081904353843219119 0 0.0044146346711729139 0.082042957148555709 0 0.0039506492455748691 0.082087305766225332 0 0.0041430253985904443 0.081904353843219119 0 0.0035586636250679168 0.081985263585599225 0 0.0035586636250679168 0.081985263585599225 0 0.0042604375946454437 0.081295307745359424 0 0.0042989243181248563 0.08163506297513913 0 0.0025210070701481026 0.089117738576155556 0 0.0042640076907321297 0.087990348782194985 0 0.0035586636250679168 0.081985263585599225 0 0.0042679301949414506 0.080514788078929228 0 0.0042604375946454437 0.081295307745359424 0 0.0018399359181319476 0.0958097728352197 0 0.0015543051199406758 0.095296111158965108 0 0.0026110379616603066 0.095231768075238504 0 0.003115234787905991 0.094790689134113648 0 0.0020438918158181859 0.09501905232261447 0 0.0026110379616603066 0.095231768075238504 0 0.0010033219522058916 0.0949792237743909 0 0.0015543051199406758 0.095296111158965108 0 0.0020438918158181859 0.09501905232261447 0 0.0015543051199406758 0.095296111158965108 0 0.0020438918158181859 0.09501905232261447 0 0.0026110379616603066 0.095231768075238504 0 0.003115234787905991 0.094790689134113648 0 0.0016225585057712179 0.094328128755438959 0 0.0020438918158181859 0.09501905232261447 0 0.003115234787905991 0.094790689134113648 0 0.0031188226047031732 0.094880745669415276 0 0.0026110379616603066 0.095231768075238504 0 0.0070883228847130018 0.086162562814702248 0 0.0089280297577935177 0.081766156130231388 0 0.0050692661457229912 0.078921288488056851 0 0.0055224488417546739 0.080029756589993201 0 0.0065366285047343438 0.079292846874111561 0 0.013450476457088585 0.079126966084364009 0 0.016316098807481971 0.077821481416224678 0 0.013571617525563955 0.0771699654142039 0 0.0061230170227705915 0.08777758509749202 0 0.0070883228847130018 0.086162562814702248 0 0.0055224488417546739 0.080029756589993201 0 0.0042679301949414506 0.080514788078929228 0 0.005090244716289224 0.080825904542010066 0 0.0070883228847130018 0.086162562814702248 0 0.0042640076907321297 0.087990348782194985 0 0.0050692661457229912 0.078921288488056851 0 0.0055224488417546739 0.080029756589993201 0 0.0042679301949414506 0.080514788078929228 0 0.0055224488417546739 0.080029756589993201 0 0.0060417627635825991 0.080613441544637746 0 0.0061699634446118227 0.080003496192089116 0 0.0055224488417546739 0.080029756589993201 0 0.0060417627635825991 0.080613441544637746 0 0.005090244716289224 0.080825904542010066 0 0.0058552687884560386 0.081206218430967633 0 0.005090244716289224 0.080825904542010066 0 0.0046402361218254055 0.0815550270858732 0 0.0060417627635825991 0.080613441544637746 0 0.0058552687884560386 0.081206218430967633 0 0.005090244716289224 0.080825904542010066 0 0.0042679301949414506 0.080514788078929228 0 0.005090244716289224 0.080825904542010066 0 0.0045617643929445305 0.081138234351224719 0 0.005090244716289224 0.080825904542010066 0 0.0045617643929445305 0.081138234351224719 0 0.0046402361218254055 0.0815550270858732 0 0.0042679301949414506 0.080514788078929228 0 0.0045617643929445305 0.081138234351224719 0 0.0042604375946454437 0.081295307745359424 0 0.0045617643929445305 0.081138234351224719 0 0.0042604375946454437 0.081295307745359424 0 0.0045423381877907005 0.081545227862700673 0 0.0042604375946454437 0.081295307745359424 0 0.0042989243181248563 0.08163506297513913 0 0.0045423381877907005 0.081545227862700673 0 0.0045617643929445305 0.081138234351224719 0 0.0045423381877907005 0.081545227862700673 0 0.0046402361218254055 0.0815550270858732 0 0.0055092696717474595 0.079622511743412436 0 0.005513089672884562 0.079620522873297073 0 0.0054326436574853561 0.079669665326230488 0 0.005513089672884562 0.079620522873297073 0 0.0042989243181248563 0.08163506297513913 0 0.0045901858023054158 0.081533755836667873 0 0.0045161281830156542 0.081734200748110164 0 0.0042989243181248563 0.08163506297513913 0 0.0045423381877907005 0.081545227862700673 0 0.0046394768595383711 0.081555309386251204 0 0.005513089672884562 0.079620522873297073 0 0.0057893267077179181 0.079428428404219431 0 0.0045901858023054158 0.081533755836667873 0 0.0045161281830156542 0.081734200748110164 0 0.0051534670453606737 0.081555852511236093 0 0.0048744916556623073 0.081582070257097086 0 0.0049890721622297537 0.081586484519377306 0 0.00443044359638588 0.082124091464182952 0 0.0046566099808869393 0.080583699088620064 0 0.0057893267077179181 0.079428428404219431 0 0.0059695737384865702 0.079194272371885893 0 0.0047905395293036442 0.080676822018372341 0 0.0045161281830156542 0.081734200748110164 0 0.0044146346711729139 0.082042957148555709 0 0.0051534670453606737 0.081555852511236093 0 0.0042465500343400854 0.082016783177901911 0 0.0048744916556623073 0.081582070257097086 0 0.00443044359638588 0.082124091464182952 0 0.0041430253985904443 0.081904353843219119 0 0.0042989243181248563 0.08163506297513913 0 0.0045161281830156542 0.081734200748110164 0 0.0041430253985904443 0.081904353843219119 0 0.0045161281830156542 0.081734200748110164 0 0.0044146346711729139 0.082042957148555709 0 0.0061912082392099098 0.07943640481762812 0 0.005513089672884562 0.079620522873297073 0 0.0060186267791981409 0.079493710285001226 0 0.0056896671682467792 0.079597341946357633 0 0.0058595275035844951 0.079604961760470119 0 0.0059695737384865702 0.079194272371885893 0 0.0078666024317436238 0.076361180324714228 0 0.0050256899148379726 0.081455388037890014 0 0.0050180865447520869 0.081959916802453209 0 0.0058247370316697536 0.081480279910335532 0 0.0072725422309425202 0.077865506627071535 0 0.0067483038824242931 0.078361992728483085 0 0.007782511948241512 0.078409241018596171 0 0.0061912082392099098 0.07943640481762812 0 0.0059695737384865702 0.079194272371885893 0 0.0061246929107340742 0.079514204891218659 0 0.0061992288413672486 0.079460218229148533 0 0.006180437877382359 0.079459471432518344 0 0.0061912082392099098 0.07943640481762812 0 0.0057893267077179181 0.079428428404219431 0 0.0057893267077179181 0.079428428404219431 0 0.0059695737384865702 0.079194272371885893 0 0.0050256899148379726 0.081455388037890014 0 0.0050180865447520869 0.081959916802453209 0 0.0044017620835140612 0.082079438109636263 0 0.0056857068709290255 0.076829818137554809 0 0.0078666024317436238 0.076361180324714228 0 0.0023918407524493408 0.068589199006427418 0 0.0036175452332021458 0.069130269486695484 0 0.0035977901665680771 0.067850622430834825 0 0.0056857068709290255 0.076829818137554809 0 0.0030331062083146869 0.077908941406705429 0 0.0023918407524493408 0.068589199006427418 0 0.0032002231656220528 0.070810216467117312 0 0.0036175452332021458 0.069130269486695484 0 0.0048262235403074344 0.082057274006526487 0 0.0051575995912741595 0.083097233267193191 0 0.0043803314111803644 0.08301264268262934 0 0.0051575995912741595 0.083097233267193191 0 0.0043803314111803644 0.08301264268262934 0 0.0047295316132462953 0.083515111256359478 0 0.0043803314111803644 0.08301264268262934 0 0.0038505528236648387 0.083080580249087571 0 0.0039769601164096969 0.083575538723547643 0 0.0043803314111803644 0.08301264268262934 0 0.0039043306632056307 0.082608713692219254 0 0.0038505528236648387 0.083080580249087571 0 0.0043803314111803644 0.08301264268262934 0 0.0042848905570636638 0.082385405922839605 0 0.0039043306632056307 0.082608713692219254 0 0.0048262235403074344 0.082057274006526487 0 0.0043803314111803644 0.08301264268262934 0 0.0042848905570636638 0.082385405922839605 0 0.0056857068709290255 0.076829818137554809 0 0.0047625546866946911 0.077879361545876588 0 0.0050180865447520869 0.081959916802453209 0 0.0044017620835140612 0.082079438109636263 0 0.0042848905570636638 0.082385405922839605 0 0.0047905395293036442 0.080676822018372341 0 0.0044188014329276087 0.081143063377785804 0 0.0042465500343400854 0.082016783177901911 0 0.00443044359638588 0.082124091464182952 0 0.0039043306632056307 0.082608713692219254 0 0.0044017620835140612 0.082079438109636263 0 0.0042848905570636638 0.082385405922839605 0 0.0039043306632056307 0.082608713692219254 0 0.0042465500343400854 0.082016783177901911 0 0.0036859397006358411 0.082422823614606247 0 0.0039043306632056307 0.082608713692219254 0 0.0039506492455748691 0.082087305766225332 0 0.0044146346711729139 0.082042957148555709 0 0.0036859397006358411 0.082422823614606247 0 0.0035586636250679168 0.081985263585599225 0 0.0036859397006358411 0.082422823614606247 0 0.0035158696056685379 0.082806780116366288 0 0.0046566099808869393 0.080583699088620064 0 0.0042808141853837257 0.080956977146697501 0 0.0039506492455748691 0.082087305766225332 0 0.0035586636250679168 0.081985263585599225 0 0.0036859397006358411 0.082422823614606247 0 0.0036859397006358411 0.082422823614606247 0 0.0039043306632056307 0.082608713692219254 0 0.0035158696056685379 0.082806780116366288 0 0.0018399359181319476 0.0958097728352197 0 0.0011514575739685038 0.096910736273153525 0 0.0012137593833913202 0.096947191730428733 0 0.0025210070701481026 0.089117738576155556 0 -0.00011018607871777804 0.091842035487853385 0 0.00096335147337174359 0.095617819802696694 0 0.0018399359181319476 0.0958097728352197 0 0.0011514575739685038 0.096910736273153525 0 0.0035586636250679168 0.081985263585599225 0 0.0030387540664264406 0.083067728045822561 0 0.0035158696056685379 0.082806780116366288 0 0.0004887408677578507 0.094737062296119154 0 2.8030439879796756e-05 0.092266337717210892 0 -0.00075766186785644249 0.091021826157546629 0 -0.00060781544195088273 0.091111301379287551 0 -0.00071429018141024199 0.091322010390819289 0 2.8030439879796756e-05 0.092266337717210892 0 -0.00011018607871777804 0.091842035487853385 0 -0.0021947761052697533 0.093387805321064749 0 -0.0021596067394994206 0.093317987353258788 0 -0.0025021132815683197 0.092886829737896387 0 -0.00011018607871777804 0.091842035487853385 0 -0.00019513687481089972 0.092306103952968732 0 2.8030439879796756e-05 0.092266337717210892 0 -0.00019513687481089972 0.092306103952968732 0 0.0030387540664264406 0.083067728045822561 0 0.0038505528236648387 0.083080580249087571 0 0.0039769601164096969 0.083575538723547643 0 0.0030387540664264406 0.083067728045822561 0 0.0035158696056685379 0.082806780116366288 0 0.0038505528236648387 0.083080580249087571 0 -0.00011018607871777804 0.091842035487853385 0 -1.6416376138283162e-05 0.088827255605469085 0 0.0039043306632056307 0.082608713692219254 0 0.0035158696056685379 0.082806780116366288 0 0.0038505528236648387 0.083080580249087571 0 -0.0021947761052697533 0.093387805321064749 0 -0.0030510397700795108 0.092909580438528025 0 -0.0025021132815683197 0.092886829737896387 0 -0.0030510397700795108 0.092909580438528025 0 -0.002776398052653898 0.092491716006203192 0 -0.003480450469238278 0.092407367360763812 0 -0.0030510397700795108 0.092909580438528025 0 -0.0025021132815683197 0.092886829737896387 0 -0.002776398052653898 0.092491716006203192 0 -0.0007776109174777758 0.094865951865832937 0 -0.0013546734659933063 0.096031902998948676 0 -0.0017837646943566034 0.09425371351523 0 -0.0021596067394994206 0.093317987353258788 0 -0.0025021132815683197 0.092886829737896387 0 -0.0023392875453505943 0.092346724429733962 0 -0.00019513687481089972 0.092306103952968732 0 -0.0011027975459404157 0.092888663293188484 0 -0.0025021132815683197 0.092886829737896387 0 -0.0023392875453505943 0.092346724429733962 0 -0.002776398052653898 0.092491716006203192 0 -0.0023392875453505943 0.092346724429733962 0 -0.002776398052653898 0.092491716006203192 0 -0.0028048652107753647 0.09198786188229903 0 -0.002776398052653898 0.092491716006203192 0 -0.003480450469238278 0.092407367360763812 0 -0.0028048652107753647 0.09198786188229903 0 -0.003480450469238278 0.092407367360763812 0 -0.0038586586566781143 0.091530722372932 0 -0.0028048652107753647 0.09198786188229903 0 -0.0030510397700795108 0.092909580438528025 0 -0.003480450469238278 0.092407367360763812 0 -0.003967709510508329 0.09239717292255592 0 -0.0042272025032225186 0.092386489323204507 0 -0.0047590185787768358 0.091516827572443782 0 -0.0038586586566781143 0.091530722372932 0 -0.0042272025032225186 0.092386489323204507 0 -0.005387161267023554 0.092384432635898586 0 -0.0047590185787768358 0.091516827572443782 0 -0.003480450469238278 0.092407367360763812 0 -0.0042272025032225186 0.092386489323204507 0 -0.0038586586566781143 0.091530722372932 0 -0.00053271274170762692 0.086067206164087626 0 0.00025941104941382392 0.081764455259783195 0 -0.0012598461635729508 0.086483375781127012 0 -0.00053271274170762692 0.086067206164087626 0 0.0051575995912741595 0.083097233267193191 0 0.0047295316132462953 0.083515111256359478 0 0.0054816977762004145 0.08408886430487085 0 0.0048639815479409399 0.084078471859636655 0 0.0047295316132462953 0.083515111256359478 0 0.0054816977762004145 0.08408886430487085 0 0.0043803314111803644 0.08301264268262934 0 0.0039769601164096969 0.083575538723547643 0 0.0047295316132462953 0.083515111256359478 0 -1.6416376138283162e-05 0.088827255605469085 0 -0.00053271274170762692 0.086067206164087626 0 0.0039769601164096969 0.083575538723547643 0 0.0048639815479409399 0.084078471859636655 0 0.0047295316132462953 0.083515111256359478 0 0.0048414746250402506 0.071545181092589338 0 0.0039752653586180506 0.072915005815775535 0 0.0055851892960997714 0.072907901487004101 0 0.0048414746250402506 0.071545181092589338 0 0.0055851892960997714 0.072907901487004101 0 0.0059346484548901367 0.071625708903957419 0 0.0032002231656220528 0.070810216467117312 0 0.0048414746250402506 0.071545181092589338 0 0.0039752653586180506 0.072915005815775535 0 0.0030331062083146869 0.077908941406705429 0 0.00025941104941382392 0.081764455259783195 0 0.00025941104941382392 0.081764455259783195 0 0.0014185315263488785 0.078177892467459528 0 -0.010713113552867748 0.073323356115041149 0 -0.0039273951956686542 0.073470063235576727 0 -0.0084686054432427122 0.079836339353350758 0 0.0014185315263488785 0.078177892467459528 0 0.0040576399856375057 0.076559275662001672 0 0.0055851892960997714 0.072907901487004101 0 0.0069549118521062252 0.073029654658916934 0 0.0059346484548901367 0.071625708903957419 0 -0.0039273951956686542 0.073470063235576727 0 0.0023589688650174482 0.073832552264125176 0 0.0011166371458532093 0.078282333898370041 0 0.0023589688650174482 0.073832552264125176 0 0.0080110594935426417 0.073971572515454581 0 0.0048347146725041092 0.078356983842629555 0 0.0040576399856375057 0.076559275662001672 0 0.0055666638783506642 0.076127423267122837 0 0.0069549118521062252 0.073029654658916934 0 0.0071514279497305357 0.071125175300669433 0 0.0078007078387074668 0.071977633947411301 0 0.0069549118521062252 0.073029654658916934 0 0.0059346484548901367 0.071625708903957419 0 0.0071514279497305357 0.071125175300669433 0 0.0059346484548901367 0.071625708903957419 0 0.0059367752713344575 0.070261377426904442 0 0.0071514279497305357 0.071125175300669433 0 0.0059367752713344575 0.070261377426904442 0 0.0071514279497305357 0.071125175300669433 0 0.0079556658741704641 0.069413288486938257 0 0.0071514279497305357 0.071125175300669433 0 0.0083565734419186084 0.070323042762439267 0 0.0078007078387074668 0.071977633947411301 0 0.0071514279497305357 0.071125175300669433 0 0.0079556658741704641 0.069413288486938257 0 0.0083565734419186084 0.070323042762439267 0 0.0079556658741704641 0.069413288486938257 0 0.0063805341362089835 0.06886341435187765 0 0.0073584433954024331 0.067929172164185772 0 0.0059367752713344575 0.070261377426904442 0 0.0079556658741704641 0.069413288486938257 0 0.0063805341362089835 0.06886341435187765 0 0.0059367752713344575 0.070261377426904442 0 0.0063805341362089835 0.06886341435187765 0 0.0053089196144649499 0.069011310166657888 0 0.0059367752713344575 0.070261377426904442 0 0.0053089196144649499 0.069011310166657888 0 0.0044850601313742595 0.069731841620744278 0 0.0053089196144649499 0.069011310166657888 0 0.0044850601313742595 0.069731841620744278 0 0.0044281780846145225 0.068648855141334925 0 0.0048414746250402506 0.071545181092589338 0 0.0059346484548901367 0.071625708903957419 0 0.0059367752713344575 0.070261377426904442 0 0.0048414746250402506 0.071545181092589338 0 0.0059367752713344575 0.070261377426904442 0 0.0044850601313742595 0.069731841620744278 0 0.0032002231656220528 0.070810216467117312 0 0.0048414746250402506 0.071545181092589338 0 0.0044850601313742595 0.069731841620744278 0 0.0032002231656220528 0.070810216467117312 0 0.0044850601313742595 0.069731841620744278 0 0.0036175452332021458 0.069130269486695484 0 0.0044850601313742595 0.069731841620744278 0 0.0036175452332021458 0.069130269486695484 0 0.0044281780846145225 0.068648855141334925 0 0.0078666024317436238 0.076361180324714228 0 0.0096446480959443085 0.073055584576462371 0 0.0036175452332021458 0.069130269486695484 0 0.0044281780846145225 0.068648855141334925 0 0.0035977901665680771 0.067850622430834825 0 0.0044281780846145225 0.068648855141334925 0 0.0035977901665680771 0.067850622430834825 0 0.0053718491728394014 0.067862294940823964 0 0.018124488778578678 0.069243203147942425 0 0.015857147332215053 0.069094595365938094 0 0.016194129734070879 0.070402665171872311 0 0.0063805341362089835 0.06886341435187765 0 0.0053089196144649499 0.069011310166657888 0 0.0053718491728394014 0.067862294940823964 0 0.0053089196144649499 0.069011310166657888 0 0.0044281780846145225 0.068648855141334925 0 0.0053718491728394014 0.067862294940823964 0 0.0090657082581085194 0.077658501798747129 0 0.0088457921878605066 0.077375534562024201 0 0.010347605264679238 0.076917602957475295 0 0.0080569469284548188 0.078387356051524915 0 0.010162023124601183 0.077018076765823937 0 0.0072272269024586337 0.080648062401298501 0 0.0080153316928742741 0.080080421180524025 0 0.0084048144065121833 0.080294813469829585 0 0.010815694235984717 0.075543141485531567 0 0.010162023124601183 0.077018076765823937 0 0.015857147332215053 0.069094595365938094 0 0.016194129734070879 0.070402665171872311 0 0.014616013697551925 0.070104558392798971 0 0.0072272269024586337 0.080648062401298501 0 0.0068328262011047034 0.080514496185602344 0 0.0075648900645618432 0.080025963656469967 0 0.0060603000756086177 0.080992764962561317 0 0.0072272269024586337 0.080648062401298501 0 0.0068328262011047034 0.080514496185602344 0 0.0061912082392099098 0.07943640481762812 0 0.0080569469284548188 0.078387356051524915 0 0.0078666024317436238 0.076361180324714228 0 0.010815694235984717 0.075543141485531567 0 0.0072725422309425202 0.077865506627071535 0 0.007782511948241512 0.078409241018596171 0 0.0088457921878605066 0.077375534562024201 0 0.007782511948241512 0.078409241018596171 0 0.0090657082581085194 0.077658501798747129 0 0.0088457921878605066 0.077375534562024201 0 0.0061912082392099098 0.07943640481762812 0 0.0064172416035421899 0.079678927540623154 0 0.0060417627635825991 0.080613441544637746 0 0.0066547371593644851 0.080464286226739762 0 0.0063379879870998235 0.080312318479993733 0 0.0061912082392099098 0.07943640481762812 0 0.0063399518110470263 0.079708560588541075 0 0.0060417627635825991 0.080613441544637746 0 0.0058552687884560386 0.081206218430967633 0 0.0066547371593644851 0.080464286226739762 0 0.0061103114575745887 0.080953386096461674 0 0.0068447221495769569 0.080491377833742925 0 0.0067667369264426958 0.080335450421983784 0 0.0060417627635825991 0.080613441544637746 0 0.0063379879870998235 0.080312318479993733 0 0.0061699634446118227 0.080003496192089116 0 0.0064883732233095336 0.080170420792061714 0 0.0061699634446118227 0.080003496192089116 0 0.0068238513803438932 0.079840098195182133 0 0.0055224488417546739 0.080029756589993201 0 0.0061699634446118227 0.080003496192089116 0 0.0065366285047343438 0.079292846874111561 0 0.0066547371593644851 0.080464286226739762 0 0.0063379879870998235 0.080312318479993733 0 0.0064883732233095336 0.080170420792061714 0 0.0063379879870998235 0.080312318479993733 0 0.0064883732233095336 0.080170420792061714 0 0.0061699634446118227 0.080003496192089116 0 0.0061699634446118227 0.080003496192089116 0 0.0068238513803438932 0.079840098195182133 0 0.0065366285047343438 0.079292846874111561 0 0.0068238513803438932 0.079840098195182133 0 0.0074417329892036326 0.079683426798789272 0 0.0065366285047343438 0.079292846874111561 0 0.0066547371593644851 0.080464286226739762 0 0.0068238513803438932 0.079840098195182133 0 0.0074417329892036326 0.079683426798789272 0 0.0066547371593644851 0.080464286226739762 0 0.0064883732233095336 0.080170420792061714 0 0.0068238513803438932 0.079840098195182133 0 0.0068447221495769569 0.080491377833742925 0 0.0067667369264426958 0.080335450421983784 0 0.0075648900645618432 0.080025963656469967 0 0.0063399518110470263 0.079708560588541075 0 0.0065357712847173644 0.079647786686035768 0 0.0064172416035421899 0.079678927540623154 0 0.0066036405590652941 0.07966749109486973 0 0.0074417329892036326 0.079683426798789272 0 0.0065366285047343438 0.079292846874111561 0 0.0079790867818181951 0.079641219256908299 0 0.0067667369264426958 0.080335450421983784 0 0.0075648900645618432 0.080025963656469967 0 0.0074417329892036326 0.079683426798789272 0 0.0072272269024586337 0.080648062401298501 0 0.0075648900645618432 0.080025963656469967 0 0.0080153316928742741 0.080080421180524025 0 0.0075648900645618432 0.080025963656469967 0 0.0079790867818181951 0.079641219256908299 0 0.0080153316928742741 0.080080421180524025 0 0.0075648900645618432 0.080025963656469967 0 0.0074417329892036326 0.079683426798789272 0 0.0079790867818181951 0.079641219256908299 0 0.0089280297577935177 0.081766156130231388 0 0.0095197965305298445 0.07921403737197999 0 0.01191404735822133 0.078787837257760909 0 0.013571617525563955 0.0771699654142039 0 0.011499868573494646 0.076549983400984775 0 0.013450476457088585 0.079126966084364009 0 0.01191404735822133 0.078787837257760909 0 0.013571617525563955 0.0771699654142039 0 0.010672309642712045 0.078418384429699825 0 0.01048411286992873 0.076828896397924631 0 0.0099729157037089823 0.077247833999850066 0 0.01048411286992873 0.076828896397924631 0 0.0099729157037089823 0.077247833999850066 0 0.010049158735472777 0.076082457466573328 0 0.010672309642712045 0.078418384429699825 0 0.01048411286992873 0.076828896397924631 0 0.011499868573494646 0.076549983400984775 0 0.010672309642712045 0.078418384429699825 0 0.01191404735822133 0.078787837257760909 0 0.011499868573494646 0.076549983400984775 0 0.01048411286992873 0.076828896397924631 0 0.011499868573494646 0.076549983400984775 0 0.010251394476257251 0.07592622989461173 0 0.0095197965305298445 0.07921403737197999 0 0.010109255576423348 0.077337427107077819 0 0.0079790867818181951 0.079641219256908299 0 0.0086415442441183481 0.080153276726158379 0 0.0093344344054948052 0.079994563989908951 0 0.0079790867818181951 0.079641219256908299 0 0.0080153316928742741 0.080080421180524025 0 0.0086415442441183481 0.080153276726158379 0 0.0080153316928742741 0.080080421180524025 0 0.0084048144065121833 0.080294813469829585 0 0.0086415442441183481 0.080153276726158379 0 0.010162023124601183 0.077018076765823937 0 0.010075223531976438 0.077090615704665633 0 0.0084095103754129059 0.08029164342142274 0 0.0086415442441183481 0.080153276726158379 0 0.0093344344054948052 0.079994563989908951 0 0.010162023124601183 0.077018076765823937 0 0.010109255576423348 0.077337427107077819 0 0.01048411286992873 0.076828896397924631 0 0.010251394476257251 0.07592622989461173 0 0.010049158735472777 0.076082457466573328 0 0.011955852834117884 0.072275691969665309 0 0.012214050910665027 0.07236469797244667 0 0.011578092435585717 0.071334756675570238 0 0.010124259127745309 0.077322464466214283 0 0.010109255576423348 0.077337427107077819 0 0.014081196670992585 0.071728801996069486 0 0.012214050910665027 0.07236469797244667 0 0.012809050866561643 0.070753305554514048 0 0.012214050910665027 0.07236469797244667 0 0.011578092435585717 0.071334756675570238 0 0.012809050866561643 0.070753305554514048 0 0.011578092435585717 0.071334756675570238 0 0.012809050866561643 0.070753305554514048 0 0.011558831099205439 0.070056706393387513 0 0.012809050866561643 0.070753305554514048 0 0.011558831099205439 0.070056706393387513 0 0.013418230852989113 0.068813207475707072 0 0.016194129734070879 0.070402665171872311 0 0.014081196670992585 0.071728801996069486 0 0.014616013697551925 0.070104558392798971 0 0.014081196670992585 0.071728801996069486 0 0.012809050866561643 0.070753305554514048 0 0.014616013697551925 0.070104558392798971 0 0.012809050866561643 0.070753305554514048 0 0.014616013697551925 0.070104558392798971 0 0.013418230852989113 0.068813207475707072 0 0.015857147332215053 0.069094595365938094 0 0.014616013697551925 0.070104558392798971 0 0.013418230852989113 0.068813207475707072 0 0.0063805341362089835 0.06886341435187765 0 0.0053718491728394014 0.067862294940823964 0 0.0073584433954024331 0.067929172164185772 0 0.0096446480959443085 0.073055584576462371 0 0.009945960659389276 0.071442506844042866 0 0.011558831099205439 0.070056706393387513 0 0.013418230852989113 0.068813207475707072 0 0.0099677647743495277 0.068569579562030247 0 0.0079556658741704641 0.069413288486938257 0 0.0073584433954024331 0.067929172164185772 0 0.0099677647743495277 0.068569579562030247 0 0.009945960659389276 0.071442506844042866 0 0.0098940411890548908 0.070969251335300812 0 0.0099677647743495277 0.068569579562030247 0 0.0097798685874987031 0.069328085907616063 0 0.0098195636273813187 0.068378304756567171 0 0.0099677647743495277 0.068569579562030247 0 0.0097798685874987031 0.069328085907616063 0 0.010465105334135484 0.070407905737463458 0 0.0097798685874987031 0.069328085907616063 0 0.0093277430583933261 0.06927238757910012 0 0.0098195636273813187 0.068378304756567171 0 0.0097798685874987031 0.069328085907616063 0 0.0093649048646072489 0.0717090180794554 0 0.0093277430583933261 0.06927238757910012 0 0.0097798685874987031 0.069328085907616063 0 0.0093649048646072489 0.0717090180794554 0 0.010465105334135484 0.070407905737463458 0 0.011558831099205439 0.070056706393387513 0 0.0099677647743495277 0.068569579562030247 0 0.010465105334135484 0.070407905737463458 0 0.011578092435585717 0.071334756675570238 0 0.011558831099205439 0.070056706393387513 0 0.010465105334135484 0.070407905737463458 0 0.0093649048646072489 0.0717090180794554 0 0.010465105334135484 0.070407905737463458 0 0.010608435446041059 0.07193167493409397 0 0.011578092435585717 0.071334756675570238 0 0.010465105334135484 0.070407905737463458 0 0.010608435446041059 0.07193167493409397 0 0.011955852834117884 0.072275691969665309 0 0.011578092435585717 0.071334756675570238 0 0.010608435446041059 0.07193167493409397 0 0.011955852834117884 0.072275691969665309 0 0.010608435446041059 0.07193167493409397 0 0.0094205181420517915 0.074439287312833474 0 0.010109255576423348 0.077337427107077819 0 0.010003058817341898 0.076628839175564831 0 0.010251394476257251 0.07592622989461173 0 0.0094205181420517915 0.074439287312833474 0 0.010049158735472777 0.076082457466573328 0 0.011955852834117884 0.072275691969665309 0 0.012278295263787622 0.072275305616437413 0 0.0094205181420517915 0.074439287312833474 0 0.0093649048646072489 0.0717090180794554 0 0.0094205181420517915 0.074439287312833474 0 0.0081727682181461925 0.074729541576028416 0 0.0093649048646072489 0.0717090180794554 0 0.010608435446041059 0.07193167493409397 0 0.0094205181420517915 0.074439287312833474 0 0.0089232004059640428 0.07725311746628262 0 0.0094205181420517915 0.074439287312833474 0 0.0081727682181461925 0.074729541576028416 0 0.0076534461420912931 0.07643234204188043 0 0.0089232004059640428 0.07725311746628262 0 0.0081727682181461925 0.074729541576028416 0 0.0094205181420517915 0.074439287312833474 0 0.0099729157037089823 0.077247833999850066 0 0.010049158735472777 0.076082457466573328 0 0.0089232004059640428 0.07725311746628262 0 0.0094205181420517915 0.074439287312833474 0 0.0099729157037089823 0.077247833999850066 0 0.0056207677546272058 0.075227097589185096 0 0.0070253316860005291 0.075308757443509913 0 0.0071672471625876446 0.073013567446893454 0 0.0064789506623645432 0.077107433468133632 0 0.0056207677546272058 0.075227097589185096 0 0.0070253316860005291 0.075308757443509913 0 0.0070253316860005291 0.075308757443509913 0 0.0081727682181461925 0.074729541576028416 0 0.0071672471625876446 0.073013567446893454 0 0.0076534461420912931 0.07643234204188043 0 0.0070253316860005291 0.075308757443509913 0 0.0081727682181461925 0.074729541576028416 0 0.0093649048646072489 0.0717090180794554 0 0.0081727682181461925 0.074729541576028416 0 0.0071672471625876446 0.073013567446893454 0 0.0056207677546272058 0.075227097589185096 0 0.0071672471625876446 0.073013567446893454 0 0.0050994446363811863 0.07232801998143383 0 0.0071672471625876446 0.073013567446893454 0 0.007233890769502524 0.069221797659406475 0 0.0050994446363811863 0.07232801998143383 0 0.0071672471625876446 0.073013567446893454 0 0.0093277430583933261 0.06927238757910012 0 0.007233890769502524 0.069221797659406475 0 0.0093649048646072489 0.0717090180794554 0 0.0071672471625876446 0.073013567446893454 0 0.0093277430583933261 0.06927238757910012 0 0.0093277430583933261 0.06927238757910012 0 0.007233890769502524 0.069221797659406475 0 0.010612815719770108 0.066674636303307139 0 0.007233890769502524 0.069221797659406475 0 0.010612815719770108 0.066674636303307139 0 0.0061772511675675145 0.064423893459923179 0 0.010679549991916518 0.059226730875707248 0 0.0061772511675675145 0.064423893459923179 0 0.0064110987359100998 0.058395058137910259 0 0.010612815719770108 0.066674636303307139 0 0.010679549991916518 0.059226730875707248 0 0.0061772511675675145 0.064423893459923179 0 0.010612815719770108 0.066674636303307139 0 0.0097306526531185464 0.070806635814759211 0 0.013315768257968229 0.071197570174873173 0 0.011305962786052457 0.066183001366996994 0 0.011323215418124425 0.065757811746918679 0 0.0093277430583933261 0.06927238757910012 0 0.010612815719770108 0.066674636303307139 0 0.0098195636273813187 0.068378304756567171 0 0.0079556658741704641 0.069413288486938257 0 0.0099677647743495277 0.068569579562030247 0 0.0098195636273813187 0.068378304756567171 0 0.0079556658741704641 0.069413288486938257 0 0.0098195636273813187 0.068378304756567171 0 0.0083565734419186084 0.070323042762439267 0 0.0098195636273813187 0.068378304756567171 0 0.0083565734419186084 0.070323042762439267 0 0.0097306526531185464 0.070806635814759211 0 0.010612815719770108 0.066674636303307139 0 0.0098195636273813187 0.068378304756567171 0 0.0097306526531185464 0.070806635814759211 0 0.0097306526531185464 0.070806635814759211 0 0.0078007078387074668 0.071977633947411301 0 0.0080110594935426417 0.073971572515454581 0 0.0083565734419186084 0.070323042762439267 0 0.0097306526531185464 0.070806635814759211 0 0.0078007078387074668 0.071977633947411301 0 0.0069549118521062252 0.073029654658916934 0 0.0078007078387074668 0.071977633947411301 0 0.0080110594935426417 0.073971572515454581 0 0.0080110594935426417 0.073971572515454581 0 0.011093525120400259 0.075684854967091167 0 0.0081623044695371839 0.078172135210939506 0 0.0097306526531185464 0.070806635814759211 0 0.0080110594935426417 0.073971572515454581 0 0.011093525120400259 0.075684854967091167 0 0.011093525120400259 0.075684854967091167 0 0.01493818258468026 0.076210981549673429 0 0.013315768257968229 0.071197570174873173 0 0.011015118601898273 0.065422851880178226 0 0.011323215418124425 0.065757811746918679 0 0.0097738820952854664 0.053645375547873075 0 0.010679549991916518 0.059226730875707248 0 0.0064110987359100998 0.058395058137910259 0 0.0097306526531185464 0.070806635814759211 0 0.011093525120400259 0.075684854967091167 0 0.013315768257968229 0.071197570174873173 0 0.012299470970599195 0.082131680524164738 0 0.015707494442305386 0.081832040288836352 0 0.012655409408306197 0.079056848044817954 0 0.012299470970599195 0.082131680524164738 0 0.012655409408306197 0.079056848044817954 0 0.010065501511992885 0.080148338332566793 0 0.011015118601898273 0.065422851880178226 0 0.0099255501902518438 0.065265369642188223 0 0.01493818258468026 0.076210981549673429 0 0.015707494442305386 0.081832040288836352 0 0.012655409408306197 0.079056848044817954 0 0.0097738820952854664 0.053645375547873075 0 0.0087451716311007423 0.048856757548965665 0 0.0055729891286415423 0.050249742547495334 0 0.011093525120400259 0.075684854967091167 0 0.01493818258468026 0.076210981549673429 0 0.012655409408306197 0.079056848044817954 0 0.011093525120400259 0.075684854967091167 0 0.012655409408306197 0.079056848044817954 0 0.010065501511992885 0.080148338332566793 0 0.011093525120400259 0.075684854967091167 0 0.0081623044695371839 0.078172135210939506 0 0.010065501511992885 0.080148338332566793 0 0.0081623044695371839 0.078172135210939506 0 0.0062446848428359533 0.08273351906984594 0 0.0048347146725041092 0.078356983842629555 0 0.0080110594935426417 0.073971572515454581 0 0.0081623044695371839 0.078172135210939506 0 0.0048347146725041092 0.078356983842629555 0 0.0081623044695371839 0.078172135210939506 0 0.0062446848428359533 0.08273351906984594 0 0.010065501511992885 0.080148338332566793 0 0.0062446848428359533 0.08273351906984594 0 0.010065501511992885 0.080148338332566793 0 0.0093546562416221748 0.083580421950991607 0 0.012299470970599195 0.082131680524164738 0 0.010065501511992885 0.080148338332566793 0 0.0093546562416221748 0.083580421950991607 0 0.0093546562416221748 0.083580421950991607 0 0.0076819479569141622 0.086502240777739769 0 0.012926350119914724 0.085046927483599988 0 0.0078080154926385634 0.085839722785638006 0 0.0099263700867168892 0.085571460059105209 0 0.0076819479569141622 0.086502240777739769 0 0.0050771598695199789 0.085316445098767499 0 0.0024156286144312194 0.087340176752817161 0 0.0062446848428359533 0.08273351906984594 0 0.0069873178208197193 0.084605568890506619 0 0.0050771598695199789 0.085316445098767499 0 0.0093546562416221748 0.083580421950991607 0 0.0069873178208197193 0.084605568890506619 0 0.0076819479569141622 0.086502240777739769 0 0.0062446848428359533 0.08273351906984594 0 0.0093546562416221748 0.083580421950991607 0 0.0069873178208197193 0.084605568890506619 0 0.0069873178208197193 0.084605568890506619 0 0.0076819479569141622 0.086502240777739769 0 0.0050771598695199789 0.085316445098767499 0 0.0078080154926385634 0.085839722785638006 0 0.0039543608282139155 0.086233205889173187 0 0.0092254843930962664 0.085400357914431554 0 0.0090116254016023856 0.086562779739272497 0 0.0074709772886084195 0.086703243939107194 0 0.0040397228331809929 0.076735886840644266 0 0.0047472990197191638 0.073970585864418292 0 0.0090116254016023856 0.086562779739272497 0 0.0078578984221666526 0.088080002349713457 0 0.0074709772886084195 0.086703243939107194 0 0.0092254843930962664 0.085400357914431554 0 0.011238776565234896 0.086410550583918833 0 0.012926350119914724 0.085046927483599988 0 0.0090116254016023856 0.086562779739272497 0 0.011238776565234896 0.086410550583918833 0 0.011956536058058522 0.089318723880529416 0 0.0092254843930962664 0.085400357914431554 0 0.0090116254016023856 0.086562779739272497 0 0.011238776565234896 0.086410550583918833 0 0.013630015068731748 0.08745697828633775 0 0.012926350119914724 0.085046927483599988 0 0.015823431320325588 0.086352108162274913 0 0.011238776565234896 0.086410550583918833 0 0.013630015068731748 0.08745697828633775 0 0.011956536058058522 0.089318723880529416 0 0.011238776565234896 0.086410550583918833 0 0.013630015068731748 0.08745697828633775 0 0.012926350119914724 0.085046927483599988 0 0.012299470970599195 0.082131680524164738 0 0.0093546562416221748 0.083580421950991607 0 0.012926350119914724 0.085046927483599988 0 0.012299470970599195 0.082131680524164738 0 0.015707494442305386 0.081832040288836352 0 0.012926350119914724 0.085046927483599988 0 0.0099255501902518438 0.065265369642188223 0 0.0073480841953758513 0.064038579985783731 0 0.015707494442305386 0.081832040288836352 0 0.012926350119914724 0.085046927483599988 0 0.015823431320325588 0.086352108162274913 0 0.0087451716311007423 0.048856757548965665 0 0.0070730849791215316 0.043668067304969721 0 0.0062723474315036221 0.04655175651310977 0 0.0073480841953758513 0.064038579985783731 0 0.0016266021008587762 0.057218143625398191 0 0.0070730849791215316 0.043668067304969721 0 0.0048758651762736806 0.038817429184415636 0 0.004716789302693346 0.040771160458728084 0 0.013630015068731748 0.08745697828633775 0 0.015823431320325588 0.086352108162274913 0 0.016158099625983635 0.090076197418259646 0 0.0053889483379196213 0.066918348976051256 0 0.0016266021008587762 0.057218143625398191 0 0.013630015068731748 0.08745697828633775 0 0.011956536058058522 0.089318723880529416 0 0.016158099625983635 0.090076197418259646 0 0.00073319581208056248 0.049575356686755181 0 0.00057515639165646481 0.049077381970118114 0 0.00058414498932386012 0.05019442483732809 0 0.00073319581208056248 0.049575356686755181 0 -0.00012125682722138606 0.050241241355775131 0 0.00057515639165646481 0.049077381970118114 0 -0.00012125682722138606 0.050241241355775131 0 0.00057515639165646481 0.049077381970118114 0 -0.00022878230742537156 0.046199991486256912 0 0.0016266021008587762 0.057218143625398191 0 0.00044354211621486412 0.049096240323502488 0 0.00057515639165646481 0.049077381970118114 0 0.00036353075110827392 0.048769915993873598 0 -0.00022878230742537156 0.046199991486256912 0 0.00057515639165646481 0.049077381970118114 0 0.00036353075110827392 0.048769915993873598 0 0.00058414498932386012 0.05019442483732809 0 0.00036353075110827392 0.048769915993873598 0 0.00058414498932386012 0.05019442483732809 0 0.00036232416775324112 0.051203648298950133 0 0.00036232416775324112 0.051203648298950133 0 1.1429146565746952e-07 0.048997719556756282 0 3.5890290161732127e-07 0.054687231805542226 0 0.00036353075110827392 0.048769915993873598 0 1.1429146565746952e-07 0.048997719556756282 0 -0.00022878230742537156 0.046199991486256912 0 0.00036353075110827392 0.048769915993873598 0 0.00036232416775324112 0.051203648298950133 0 1.1429146565746952e-07 0.048997719556756282 0 -0.00031449122624805861 0.057502873357664158 0 3.5890290161732127e-07 0.054687231805542226 0 -1.359050582237311e-06 0.060383263997417669 0 -0.0016624500137935004 0.053902209591716418 0 -0.00031449122624805861 0.057502873357664158 0 3.0349590605728549e-05 0.053174981237302667 0 -0.0016624500137935004 0.053902209591716418 0 -0.00031449122624805861 0.057502873357664158 0 -0.0040199162918938859 0.054763167243440214 0 0.00036232416775324112 0.051203648298950133 0 3.5890290161732127e-07 0.054687231805542226 0 3.0349590605728549e-05 0.053174981237302667 0 -0.00031449122624805861 0.057502873357664158 0 3.5890290161732127e-07 0.054687231805542226 0 3.0349590605728549e-05 0.053174981237302667 0 0.00058414498932386012 0.05019442483732809 0 0.00036232416775324112 0.051203648298950133 0 3.0349590605728549e-05 0.053174981237302667 0 0.00058414498932386012 0.05019442483732809 0 3.0349590605728549e-05 0.053174981237302667 0 3.0015378622324695e-05 0.050688887458977185 0 3.0349590605728549e-05 0.053174981237302667 0 -0.0014083282368274469 0.051684205897066807 0 3.0015378622324695e-05 0.050688887458977185 0 -0.0016624500137935004 0.053902209591716418 0 3.0349590605728549e-05 0.053174981237302667 0 -0.0014083282368274469 0.051684205897066807 0 -0.0016624500137935004 0.053902209591716418 0 -0.0014083282368274469 0.051684205897066807 0 -0.0034615155609770505 0.052512871779051722 0 -0.0014083282368274469 0.051684205897066807 0 -0.0010187424102725046 0.050077424602483898 0 -0.0038517450437969372 0.050383457511088456 0 -0.0010187424102725046 0.050077424602483898 0 -0.0019108055518992936 0.0484277251464817 0 -0.0038517450437969372 0.050383457511088456 0 -0.0014083282368274469 0.051684205897066807 0 -0.0010187424102725046 0.050077424602483898 0 3.0015378622324695e-05 0.050688887458977185 0 0.00073319581208056248 0.049575356686755181 0 -0.0010187424102725046 0.050077424602483898 0 3.0015378622324695e-05 0.050688887458977185 0 0.00073319581208056248 0.049575356686755181 0 0.00058414498932386012 0.05019442483732809 0 3.0015378622324695e-05 0.050688887458977185 0 0.0053889483379196213 0.066918348976051256 0 0.0047472990197191638 0.073970585864418292 0 0.0090116254016023856 0.086562779739272497 0 0.011956536058058522 0.089318723880529416 0 0.0077064098056803029 0.088458216955607877 0 0.00073319581208056248 0.049575356686755181 0 -0.0010187424102725046 0.050077424602483898 0 -0.0019108055518992936 0.0484277251464817 0 0.0047472990197191638 0.073970585864418292 0 0.0029221450599845595 0.067150555750006183 0 0.0026921179037646048 0.073954298500240892 0 0.0031702573509804002 0.074049077919738221 0 0.0030071225728397072 0.073471182522919565 0 0.0047472990197191638 0.073970585864418292 0 0.0048979709010478056 0.077078136983737736 0 0.0078578984221666526 0.088080002349713457 0 0.0054620613549106996 0.087527160034467047 0 0.0074709772886084195 0.086703243939107194 0 0.0031702573509804002 0.074049077919738221 0 0.0033312234339514211 0.073725407299347817 0 0.0036578067823810237 0.074149562922552079 0 0.0031702573509804002 0.074049077919738221 0 0.0033312234339514211 0.073725407299347817 0 0.0030071225728397072 0.073471182522919565 0 0.0033312234339514211 0.073725407299347817 0 0.0033778599498049586 0.073392730422459126 0 0.0036443043522272774 0.073649641306503172 0 0.0033312234339514211 0.073725407299347817 0 0.0033778599498049586 0.073392730422459126 0 0.0030071225728397072 0.073471182522919565 0 -0.0034615155609770505 0.052512871779051722 0 -0.0062664764504443667 0.053297822291590809 0 -0.0040199162918938859 0.054763167243440214 0 -0.0038517450437969372 0.050383457511088456 0 -0.0034615155609770505 0.052512871779051722 0 -0.0062664764504443667 0.053297822291590809 0 -0.0014083282368274469 0.051684205897066807 0 -0.0038517450437969372 0.050383457511088456 0 -0.0034615155609770505 0.052512871779051722 0 -0.0016624500137935004 0.053902209591716418 0 -0.0034615155609770505 0.052512871779051722 0 -0.0040199162918938859 0.054763167243440214 0 0.0029221450599845595 0.067150555750006183 0 0.00023776931666880815 0.066302080970885163 0 0.0033778599498049586 0.073392730422459126 0 0.0033211082081903371 0.072984038925300185 0 0.0036285982569922198 0.073149716337226126 0 0.0033778599498049586 0.073392730422459126 0 0.0030071225728397072 0.073471182522919565 0 0.0033211082081903371 0.072984038925300185 0 0.00023776931666880815 0.066302080970885163 0 0.0010182252718830291 0.07216333562534176 0 0.00023776931666880815 0.066302080970885163 0 -0.0012853307746770294 0.063572007225912802 0 0.00023776931666880815 0.066302080970885163 0 6.0548625874331261e-05 0.066373534490115113 0 -1.359050582237311e-06 0.060383263997417669 0 0.00016071329850648124 0.061610574190281944 0 -7.5632015152929764e-06 0.065728394429294554 0 -1.359050582237311e-06 0.060383263997417669 0 -7.5632015152929764e-06 0.065728394429294554 0 1.8996846368311511e-07 0.066067002570280448 0 -0.00013020319143465154 0.062654715482446791 0 0.00016071329850648124 0.061610574190281944 0 -7.5632015152929764e-06 0.065728394429294554 0 -0.0012738220134359689 0.062919225893212513 0 -0.0012853307746770294 0.063572007225912802 0 -0.00031449122624805861 0.057502873357664158 0 -1.359050582237311e-06 0.060383263997417669 0 0.00016071329850648124 0.061610574190281944 0 2.2852193362029114e-06 0.070633029434209113 0 0.00024053243276168351 0.069888865980218887 0 -3.831884896129795e-06 0.066081027176164903 0 2.2852193362029114e-06 0.070633029434209113 0 0.00024053243276168351 0.069888865980218887 0 0.00057972373478613003 0.071752347907832068 0 -0.00040899893659976941 0.067295808701543211 0 -0.00081180928920497684 0.067881818291388396 0 -0.00082075057518523925 0.067083690633968143 0 0.00024053243276168351 0.069888865980218887 0 -0.00025911650696167738 0.066608195165176784 0 -0.0011706638449573206 0.071269751538390463 0 0.00024053243276168351 0.069888865980218887 0 -0.00025911650696167738 0.066608195165176784 0 -3.831884896129795e-06 0.066081027176164903 0 6.0548625874331261e-05 0.066373534490115113 0 0.0010182252718830291 0.07216333562534176 0 6.0548625874331261e-05 0.066373534490115113 0 1.864624295038046e-06 0.066078230092103729 0 0.00024053243276168351 0.069888865980218887 0 -0.0011706638449573206 0.071269751538390463 0 0.00039595663123079316 0.071782374268055532 0 0.0010182252718830291 0.07216333562534176 0 0.00092451884782208764 0.077605550393219674 0 0.00039595663123079316 0.071782374268055532 0 0.00046362910385246988 0.071643574391346401 0 0.00057972373478613003 0.071752347907832068 0 0.00024053243276168351 0.069888865980218887 0 0.00039595663123079316 0.071782374268055532 0 0.00057972373478613003 0.071752347907832068 0 0.00092451884782208764 0.077605550393219674 0 -0.00031171179402538499 0.082175979621622097 0 0.0031034108710877926 0.086402631469835123 0 0.0030948971711756445 0.086460362306579372 0 0.0031560755603785785 0.086436358512949701 0 0.0033778599498049586 0.073392730422459126 0 0.0036285982569922198 0.073149716337226126 0 0.0036443043522272774 0.073649641306503172 0 0.0010182252718830291 0.07216333562534176 0 0.0030886478517216215 0.077504417307057899 0 0.0030440208804650777 0.086343190122096181 0 0.0031034108710877926 0.086402631469835123 0 0.0030679782268736564 0.086456340113256563 0 0.0031034108710877926 0.086402631469835123 0 0.0030948971711756445 0.086460362306579372 0 0.0030679782268736564 0.086456340113256563 0 0.0033312234339514211 0.073725407299347817 0 0.0036443043522272774 0.073649641306503172 0 0.0036578067823810237 0.074149562922552079 0 0.0030679782268736564 0.086456340113256563 0 0.0031099009708115189 0.086482612275597434 0 0.0031629254080140752 0.086466379454793379 0 0.0030886478517216215 0.077504417307057899 0 0.0050182383641348572 0.078915823897067694 0 0.0030948971711756445 0.086460362306579372 0 0.0030679782268736564 0.086456340113256563 0 0.0031099009708115189 0.086482612275597434 0 0.0031099009708115189 0.086482612275597434 0 0.0030784860356431166 0.086514688695308498 0 0.0031666863333229601 0.086463326070988653 0 0.0031099009708115189 0.086482612275597434 0 0.0031629254080140752 0.086466379454793379 0 0.0031666863333229601 0.086463326070988653 0 0.0030948971711756445 0.086460362306579372 0 0.0030784860356431166 0.086514688695308498 0 0.0031560755603785785 0.086436358512949701 0 -0.0012401051453087477 0.085457467945835822 0 -0.00031171179402538499 0.082175979621622097 0 0.0030948971711756445 0.086460362306579372 0 0.0031099009708115189 0.086482612275597434 0 0.0030784860356431166 0.086514688695308498 0 -0.0055160824890087374 0.089075948125024743 0 -0.0050692637488058403 0.089174262401397628 0 -0.0048801370851221521 0.088621453100591593 0 -0.0055366390140305071 0.088339736496311494 0 -0.0055160824890087374 0.089075948125024743 0 -0.0048801370851221521 0.088621453100591593 0 -0.0055366390140305071 0.088339736496311494 0 -0.0055160824890087374 0.089075948125024743 0 -0.0061884046523486324 0.089157639976980937 0 -0.0055160824890087374 0.089075948125024743 0 -0.0055589076678672538 0.088886359306638699 0 -0.0050692637488058403 0.089174262401397628 0 -0.0055589076678672538 0.088886359306638699 0 -0.0050474541822587808 0.089400326234062813 0 -0.0050692637488058403 0.089174262401397628 0 -0.0055589076678672538 0.088886359306638699 0 -0.0050474541822587808 0.089400326234062813 0 -0.0053694628015474918 0.089055655702731287 0 -0.0057610978076781342 0.087653389007466859 0 -0.0048695678983258486 0.088825666143450152 0 -0.0022229539848519831 0.088721443410396242 0 -0.0055589076678672538 0.088886359306638699 0 -0.0057610978076781342 0.087653389007466859 0 -0.0053694628015474918 0.089055655702731287 0 -0.0055589076678672538 0.088886359306638699 0 -0.0057610978076781342 0.087653389007466859 0 -0.0048695678983258486 0.088825666143450152 0 -0.0055589076678672538 0.088886359306638699 0 -0.0048695678983258486 0.088825666143450152 0 -0.0050807116344503004 0.089779519805603572 0 -0.00081735425668760103 0.086533881593590711 0 -0.00054567102458556542 0.086256809721642277 0 -0.0048695678983258486 0.088825666143450152 0 -0.0050807116344503004 0.089779519805603572 0 -0.0022229539848519831 0.088721443410396242 0 -0.0055160824890087374 0.089075948125024743 0 -0.0055589076678672538 0.088886359306638699 0 -0.0050807116344503004 0.089779519805603572 0 -0.0019371946115738629 0.086815941819589348 0 -0.00081735425668760103 0.086533881593590711 0 0.0030784860356431166 0.086514688695308498 0 0.0031030870495517707 0.086241011044140739 0 0.0031666863333229601 0.086463326070988653 0 -0.0012401051453087477 0.085457467945835822 0 -0.00081735425668760103 0.086533881593590711 0 0.0050083862330232059 0.079124985547462764 0 0.0050182383641348572 0.078915823897067694 0 0.0031030870495517707 0.086241011044140739 0 0.0032599395919611978 0.086501271068358643 0 0.0031666863333229601 0.086463326070988653 0 0.0032599395919611978 0.086501271068358643 0 0.0031881462354380104 0.086471201828741573 0 0.0031666863333229601 0.086463326070988653 0 0.0050182383641348572 0.078915823897067694 0 0.0050118652609675756 0.078930859151577409 0 -0.00081735425668760103 0.086533881593590711 0 0.0039543608282139155 0.086233205889173187 0 0.0048979709010478056 0.077078136983737736 0 0.0050182383641348572 0.078915823897067694 0 0.0054620613549106996 0.087527160034467047 0 0.0032599395919611978 0.086501271068358643 0 0.0032648919782202004 0.086991734970764109 0 0.0031030870495517707 0.086241011044140739 0 0.0032599395919611978 0.086501271068358643 0 0.0059281417655644777 0.085802616895378298 0 0.0054620613549106996 0.087527160034467047 0 0.0032599395919611978 0.086501271068358643 0 0.0059281417655644777 0.085802616895378298 0 0.0054620613549106996 0.087527160034467047 0 0.0074709772886084195 0.086703243939107194 0 0.0059281417655644777 0.085802616895378298 0 0.0092254843930962664 0.085400357914431554 0 0.0074709772886084195 0.086703243939107194 0 0.0059281417655644777 0.085802616895378298 0 0.0062446848428359533 0.08273351906984594 0 0.0050771598695199789 0.085316445098767499 0 0.0026638511722211606 0.084992086020143853 0 0.0050771598695199789 0.085316445098767499 0 0.0024156286144312194 0.087340176752817161 0 0.0026638511722211606 0.084992086020143853 0 -0.0020857015923408388 0.087832359406996713 0 0.0024156286144312194 0.087340176752817161 0 0.00018543644165297022 0.085370982032327875 0 0.0024156286144312194 0.087340176752817161 0 0.0026638511722211606 0.084992086020143853 0 0.00018543644165297022 0.085370982032327875 0 0.0026638511722211606 0.084992086020143853 0 0.00018543644165297022 0.085370982032327875 0 0.0022578096147775188 0.083126409528808634 0 -0.00054567102458556542 0.086256809721642277 0 0.00011228644293852356 0.085546993826752821 0 -0.0057610978076781342 0.087653389007466859 0 -0.0022229539848519831 0.088721443410396242 0 -0.0027099815129113759 0.081511909234083718 0 -0.0022229539848519831 0.088721443410396242 0 -0.0027099815129113759 0.081511909234083718 0 0.0022578096147775188 0.083126409528808634 0 0.0062446848428359533 0.08273351906984594 0 0.0026638511722211606 0.084992086020143853 0 0.0022578096147775188 0.083126409528808634 0 0.0062446848428359533 0.08273351906984594 0 0.0022578096147775188 0.083126409528808634 0 0.0048347146725041092 0.078356983842629555 0 0.0023589688650174482 0.073832552264125176 0 0.0048347146725041092 0.078356983842629555 0 0.0011166371458532093 0.078282333898370041 0 0.0022578096147775188 0.083126409528808634 0 0.0048347146725041092 0.078356983842629555 0 0.0011166371458532093 0.078282333898370041 0 -0.0027099815129113759 0.081511909234083718 0 0.0022578096147775188 0.083126409528808634 0 0.0011166371458532093 0.078282333898370041 0 -0.0039273951956686542 0.073470063235576727 0 -0.0027099815129113759 0.081511909234083718 0 0.0011166371458532093 0.078282333898370041 0 -0.0039273951956686542 0.073470063235576727 0 -0.0027099815129113759 0.081511909234083718 0 -0.0084686054432427122 0.079836339353350758 0 0.00025941104941382392 0.081764455259783195 0 -0.0022085504436423378 0.083737580719267721 0 -0.0059268827010538535 0.090765950845366108 0 -0.0047779078529889586 0.09035876924606788 0 -0.0047590185787768358 0.091516827572443782 0 -0.005387161267023554 0.092384432635898586 0 -0.0059268827010538535 0.090765950845366108 0 -0.0047590185787768358 0.091516827572443782 0 -0.0050474541822587808 0.089400326234062813 0 -0.0047779078529889586 0.09035876924606788 0 -0.0053694628015474918 0.089055655702731287 0 -0.0059268827010538535 0.090765950845366108 0 -0.0047779078529889586 0.09035876924606788 0 -0.0053694628015474918 0.089055655702731287 0 -0.0057610978076781342 0.087653389007466859 0 -0.0027099815129113759 0.081511909234083718 0 -0.0084686054432427122 0.079836339353350758 0 -0.0026615136518595042 0.084967705807600352 0 -0.0022085504436423378 0.083737580719267721 0 -0.0057610978076781342 0.087653389007466859 0 -0.0059268827010538535 0.090765950845366108 0 -0.0053694628015474918 0.089055655702731287 0 -0.0031986000331945589 0.091280599052756858 0 -0.004068070801446143 0.090466500233984198 0 -0.0031606150241065222 0.090462889903646954 0 -0.0050474541822587808 0.089400326234062813 0 -0.0047779078529889586 0.09035876924606788 0 -0.004068070801446143 0.090466500233984198 0 -0.0047779078529889586 0.09035876924606788 0 -0.004068070801446143 0.090466500233984198 0 -0.0038586586566781143 0.091530722372932 0 -0.0047779078529889586 0.09035876924606788 0 -0.0047590185787768358 0.091516827572443782 0 -0.0038586586566781143 0.091530722372932 0 -0.0031986000331945589 0.091280599052756858 0 -0.004068070801446143 0.090466500233984198 0 -0.0038586586566781143 0.091530722372932 0 -0.0031986000331945589 0.091280599052756858 0 -0.0038586586566781143 0.091530722372932 0 -0.0028048652107753647 0.09198786188229903 0 -0.0031986000331945589 0.091280599052756858 0 -0.0028048652107753647 0.09198786188229903 0 -0.0022727113349791292 0.091861830813082468 0 -0.0017837646943566034 0.09425371351523 0 -0.0022727113349791292 0.091861830813082468 0 -0.00081997811437873908 0.093564328888477877 0 -0.0023392875453505943 0.092346724429733962 0 -0.0028048652107753647 0.09198786188229903 0 -0.0022727113349791292 0.091861830813082468 0 -0.0011027975459404157 0.092888663293188484 0 -0.0014440052915586407 0.092405455278649587 0 -0.0022727113349791292 0.091861830813082468 0 -0.0020877408570475647 0.090879483114727516 0 -0.0012281255081496481 0.091853386853988875 0 -0.0022727113349791292 0.091861830813082468 0 -0.0012281255081496481 0.091853386853988875 0 -0.00081997811437873908 0.093564328888477877 0 -0.0022727113349791292 0.091861830813082468 0 -0.0031606150241065222 0.090462889903646954 0 -0.0020877408570475647 0.090879483114727516 0 -0.0031986000331945589 0.091280599052756858 0 -0.0022727113349791292 0.091861830813082468 0 -0.0031606150241065222 0.090462889903646954 0 -0.0031606150241065222 0.090462889903646954 0 -0.0020877408570475647 0.090879483114727516 0 -0.0022529834809224495 0.089778000634241947 0 -0.0020877408570475647 0.090879483114727516 0 -0.0013114568495866288 0.090377179047619535 0 -0.0022529834809224495 0.089778000634241947 0 -0.0020877408570475647 0.090879483114727516 0 -0.0013114568495866288 0.090377179047619535 0 -0.0012281255081496481 0.091853386853988875 0 -0.0011504158442046972 0.08936341718620637 0 -0.0022529834809224495 0.089778000634241947 0 -0.0017765400389726039 0.088416737980281462 0 -0.0013114568495866288 0.090377179047619535 0 -0.0011504158442046972 0.08936341718620637 0 -0.0022529834809224495 0.089778000634241947 0 -0.0013114568495866288 0.090377179047619535 0 -0.0011504158442046972 0.08936341718620637 0 -0.00073721696261596194 0.089881253044396772 0 -0.0031606150241065222 0.090462889903646954 0 -0.0022529834809224495 0.089778000634241947 0 -0.0034827159364495906 0.088968783476337521 0 -0.0022529834809224495 0.089778000634241947 0 -0.0034827159364495906 0.088968783476337521 0 -0.0017765400389726039 0.088416737980281462 0 -0.0034827159364495906 0.088968783476337521 0 -0.0043996230280811842 0.089467407158797196 0 -0.0048801370851221521 0.088621453100591593 0 -0.0031606150241065222 0.090462889903646954 0 -0.0034827159364495906 0.088968783476337521 0 -0.0043996230280811842 0.089467407158797196 0 -0.004068070801446143 0.090466500233984198 0 -0.0031606150241065222 0.090462889903646954 0 -0.0043996230280811842 0.089467407158797196 0 -0.0050474541822587808 0.089400326234062813 0 -0.004068070801446143 0.090466500233984198 0 -0.0043996230280811842 0.089467407158797196 0 -0.0050474541822587808 0.089400326234062813 0 -0.0043996230280811842 0.089467407158797196 0 -0.0050692637488058403 0.089174262401397628 0 -0.0043996230280811842 0.089467407158797196 0 -0.0050692637488058403 0.089174262401397628 0 -0.0048801370851221521 0.088621453100591593 0 -0.0055366390140305071 0.088339736496311494 0 -0.0048801370851221521 0.088621453100591593 0 -0.0049578030002023861 0.087520920283927356 0 -0.0048801370851221521 0.088621453100591593 0 -0.0042421072067707864 0.087772458762404665 0 -0.0049578030002023861 0.087520920283927356 0 -0.0034827159364495906 0.088968783476337521 0 -0.0048801370851221521 0.088621453100591593 0 -0.0042421072067707864 0.087772458762404665 0 -0.0034827159364495906 0.088968783476337521 0 -0.0042421072067707864 0.087772458762404665 0 -0.0022388175068455136 0.086677452031202001 0 -0.0042421072067707864 0.087772458762404665 0 -0.0044070589111296606 0.083655590169457561 0 -0.0022388175068455136 0.086677452031202001 0 -0.0042421072067707864 0.087772458762404665 0 -0.0067100719991311786 0.086512804594700718 0 -0.0044070589111296606 0.083655590169457561 0 -0.00031171179402538499 0.082175979621622097 0 -0.00031741913341527426 0.079801954337004238 0 -0.0013173271260256832 0.082728475291872272 0 -0.00031171179402538499 0.082175979621622097 0 0.00046362910385246988 0.071643574391346401 0 0.00057972373478613003 0.071752347907832068 0 -0.00024686234229309679 0.072745049425916489 0 -0.00024686234229309679 0.072745049425916489 0 1.0396271218197765e-06 0.074996741543761611 0 -2.8090090222833105e-06 0.079351778224115516 0 0.00057972373478613003 0.071752347907832068 0 -0.00024686234229309679 0.072745049425916489 0 1.0396271218197765e-06 0.074996741543761611 0 2.2852193362029114e-06 0.070633029434209113 0 0.00057972373478613003 0.071752347907832068 0 1.0396271218197765e-06 0.074996741543761611 0 0.00032862624495191909 0.082586669696291901 0 -5.8086471352397749e-06 0.079370436315370538 0 -0.00014899554094927842 0.08358029933071949 0 0.00032862624495191909 0.082586669696291901 0 -5.8086471352397749e-06 0.079370436315370538 0 4.1674646808966099e-06 0.083992498406991661 0 -5.8086471352397749e-06 0.079370436315370538 0 -0.0014669951016762224 0.083994036028451305 0 -0.00014899554094927842 0.08358029933071949 0 -0.0044070589111296606 0.083655590169457561 0 -5.8086471352397749e-06 0.079370436315370538 0 -0.0014669951016762224 0.083994036028451305 0 -0.00031741913341527426 0.079801954337004238 0 9.3003535550708011e-08 0.079357720281999555 0 -0.0044070589111296606 0.083655590169457561 0 -0.0014669951016762224 0.083994036028451305 0 -0.0022388175068455136 0.086677452031202001 0 -0.0014669951016762224 0.083994036028451305 0 -0.00056957228104129707 0.084945500500791138 0 -0.00014899554094927842 0.08358029933071949 0 0.00032862624495191909 0.082586669696291901 0 -0.00014899554094927842 0.08358029933071949 0 0.00077048776761444459 0.083298435515403946 0 -0.00056957228104129707 0.084945500500791138 0 -0.00014899554094927842 0.08358029933071949 0 0.00077048776761444459 0.083298435515403946 0 -0.00056957228104129707 0.084945500500791138 0 -0.00016410112308446617 0.086920906031578621 0 -0.0022388175068455136 0.086677452031202001 0 -0.00056957228104129707 0.084945500500791138 0 -0.00016410112308446617 0.086920906031578621 0 0.00077048776761444459 0.083298435515403946 0 -0.0014669951016762224 0.083994036028451305 0 -0.00056957228104129707 0.084945500500791138 0 -0.0022388175068455136 0.086677452031202001 0 -0.0034827159364495906 0.088968783476337521 0 -0.0022388175068455136 0.086677452031202001 0 -0.0017765400389726039 0.088416737980281462 0 -0.00016410112308446617 0.086920906031578621 0 -0.0022388175068455136 0.086677452031202001 0 -0.0017765400389726039 0.088416737980281462 0 -0.00016410112308446617 0.086920906031578621 0 -0.0017765400389726039 0.088416737980281462 0 -0.00064160705442435151 0.088398058427227241 0 -0.0011504158442046972 0.08936341718620637 0 -0.0017765400389726039 0.088416737980281462 0 -0.00064160705442435151 0.088398058427227241 0 -0.00064160705442435151 0.088398058427227241 0 -0.00025296724633070984 0.089234749307602806 0 0.00054126727998794733 0.088401726197589986 0 -0.0011504158442046972 0.08936341718620637 0 -0.00064160705442435151 0.088398058427227241 0 -0.00025296724633070984 0.089234749307602806 0 -0.00068086387719298543 0.089871178776283825 0 -0.00042239495040114969 0.090130505640672001 0 -0.00050699426488943719 0.089791933667473872 0 -0.00025296724633070984 0.089234749307602806 0 -0.00058270444746704798 0.089700436673433429 0 -0.00050699426488943719 0.089791933667473872 0 -0.00058270444746704798 0.089700436673433429 0 -0.00068086387719298543 0.089871178776283825 0 -0.00050699426488943719 0.089791933667473872 0 0.00019069135296928552 0.089413690887831562 0 0.00022171113507314628 0.089397247270300545 0 -0.00058270444746704798 0.089700436673433429 0 -0.00074690539238805105 0.089883791624837936 0 -0.00068086387719298543 0.089871178776283825 0 -0.00025296724633070984 0.089234749307602806 0 -0.00058270444746704798 0.089700436673433429 0 -0.00074690539238805105 0.089883791624837936 0 -0.00016410112308446617 0.086920906031578621 0 -0.00064160705442435151 0.088398058427227241 0 0.00054126727998794733 0.088401726197589986 0 -0.00068086387719298543 0.089871178776283825 0 -0.00014827140099863198 0.090623497217024479 0 -0.00020730670300421908 0.089693024348539846 0 0.00022171113507314628 0.089397247270300545 0 0.00034274035988687466 0.090603941073333111 0 -0.00068086387719298543 0.089871178776283825 0 -0.00014827140099863198 0.090623497217024479 0 -0.00048393358095880963 0.092482615151883801 0 -0.00074690539238805105 0.089883791624837936 0 -0.00068086387719298543 0.089871178776283825 0 -0.00020730670300421908 0.089693024348539846 0 -0.00022815308000935546 0.089609578130690939 0 0.00014683587933931943 0.089314902917532885 0 -0.0003720311803356115 0.089275553913740077 0 0.00022171113507314628 0.089397247270300545 0 0.00010464750937463789 0.087563384872997155 0 2.6268225025853689e-06 0.085331398393801272 0 4.6846084473352377e-05 0.084701106937213971 0 -0.00016410112308446617 0.086920906031578621 0 0.00054126727998794733 0.088401726197589986 0 0.0005516401767897913 0.085728391191271514 0 0.0005516401767897913 0.085728391191271514 0 0.00017877514644919787 0.085511094677235847 0 3.0139081072660386e-06 0.085785063336731401 0 -0.00016410112308446617 0.086920906031578621 0 0.0005516401767897913 0.085728391191271514 0 0.00017877514644919787 0.085511094677235847 0 -0.0003720311803356115 0.089275553913740077 0 0.00052487335222021884 0.08911104522155977 0 -1.9593888572872957e-06 0.085806050530673861 0 0.00014683587933931943 0.089314902917532885 0 -0.0003720311803356115 0.089275553913740077 0 0.00052487335222021884 0.08911104522155977 0 0.00052487335222021884 0.08911104522155977 0 1.9581698539855258e-06 0.089002659218826372 0 -1.9593888572872957e-06 0.085806050530673861 0 4.6846084473352377e-05 0.084701106937213971 0 2.5339085414356996e-07 0.084003919684256717 0 0.00017877514644919787 0.085511094677235847 0 3.0139081072660386e-06 0.085785063336731401 0 -2.7977836890106601e-06 0.084016543280285905 0 0.00010464750937463789 0.087563384872997155 0 2.6693204282103922e-07 0.085800088661416959 0 0.00032862624495191909 0.082586669696291901 0 0.00077048776761444459 0.083298435515403946 0 4.1674646808966099e-06 0.083992498406991661 0 -2.4234899803497136e-05 0.094329010771513316 0 -2.4910298620371674e-06 0.092216260976182379 0 -0.0013157747988257939 0.096506027569580044 0 -2.4234899803497136e-05 0.094329010771513316 0 5.4784521067239229e-07 0.094996278677600993 0 1.4035443709962575e-06 0.094999959895272934 0 2.1001791915596555e-07 0.092209350679232291 0 0.00022948910108097696 0.092604060235998625 0 -2.4234899803497136e-05 0.094329010771513316 0 5.4784521067239229e-07 0.094996278677600993 0 -2.4910298620371674e-06 0.092216260976182379 0 -1.9471972286085291e-06 0.092202913060562011 0 0.00035967068657521517 0.089994672617034505 0 -0.00012769036018642666 0.088678684377104813 0 0.00052487335222021884 0.08911104522155977 0 1.9581698539855258e-06 0.089002659218826372 0 0.00035967068657521517 0.089994672617034505 0 1.9581698539855258e-06 0.089002659218826372 0 -1.9471972286085291e-06 0.092202913060562011 0 0.00035967068657521517 0.089994672617034505 0 0.00014683587933931943 0.089314902917532885 0 0.00052487335222021884 0.08911104522155977 0 -0.00012769036018642666 0.088678684377104813 0 0.00052487335222021884 0.08911104522155977 0 0.00035967068657521517 0.089994672617034505 0 -0.00012769036018642666 0.088678684377104813 0 1.7095840296696369e-05 0.095005963143517183 0 -4.9463995079342788e-08 0.094999952291690101 0 1.1551496012106492e-07 0.095000126989014971 0 -2.4234899803497136e-05 0.094329010771513316 0 -0.0013157747988257939 0.096506027569580044 0 1.4035443709962575e-06 0.094999959895272934 0 0.00022948910108097696 0.092604060235998625 0 -1.5192404486658636e-06 0.094995874214359038 0 1.7095840296696369e-05 0.095005963143517183 0 1.1551496012106492e-07 0.095000126989014971 0 0.00011971814237854376 0.095069818738240094 0 0.00034274035988687466 0.090603941073333111 0 0.00022948910108097696 0.092604060235998625 0 0.00022948910108097696 0.092604060235998625 0 0.00037934093093048335 0.092925207015991204 0 -0.00020730670300421908 0.089693024348539846 0 0.001189221351773743 0.088662876951438097 0 0.0011509684027909471 0.090787967215062326 0 -0.00014827140099863198 0.090623497217024479 0 0.0011509684027909471 0.090787967215062326 0 -0.00048393358095880963 0.092482615151883801 0 -0.00014827140099863198 0.090623497217024479 0 -0.00020730670300421908 0.089693024348539846 0 0.0011509684027909471 0.090787967215062326 0 1.1551496012106492e-07 0.095000126989014971 0 0.00011971814237854376 0.095069818738240094 0 -1.0554360396580531e-07 0.094999927680678373 0 0.00011971814237854376 0.095069818738240094 0 0.00010595873312834576 0.09481776394102423 0 0.00031596751922652696 0.094358359407889697 0 -1.0554360396580531e-07 0.094999927680678373 0 0.00010595873312834576 0.09481776394102423 0 0.00014275146435379721 0.094781258622014128 0 0.00011971814237854376 0.095069818738240094 0 -1.0554360396580531e-07 0.094999927680678373 0 0.00010595873312834576 0.09481776394102423 0 -1.0554360396580531e-07 0.094999927680678373 0 4.3353131287747413e-07 0.094999525779311034 0 0.00014275146435379721 0.094781258622014128 0 4.3353131287747413e-07 0.094999525779311034 0 0.00014275146435379721 0.094781258622014128 0 0.00035478196970587374 0.094925640199900782 0 0.00010595873312834576 0.09481776394102423 0 0.00014275146435379721 0.094781258622014128 0 0.00031596751922652696 0.094358359407889697 0 0.00014275146435379721 0.094781258622014128 0 0.00035478196970587374 0.094925640199900782 0 0.00031596751922652696 0.094358359407889697 0 0.00011325562101307584 0.09220133537569046 0 0.00077945465632949722 0.092553532554004628 0 0.00013447713898328718 0.090471304383122342 0 -0.00010281060609989854 0.093640441001806629 0 -0.00039231577284861428 0.092373957048866098 0 0.00035478196970587374 0.094925640199900782 0 0.00031596751922652696 0.094358359407889697 0 -0.00048393358095880963 0.092482615151883801 0 0.00011325562101307584 0.09220133537569046 0 0.00077945465632949722 0.092553532554004628 0 0.00035076402376240604 0.092957225783880021 0 0.00037934093093048335 0.092925207015991204 0 0.00037848617886548881 0.093452287337129583 0 0.0011509684027909471 0.090787967215062326 0 0.00031596751922652696 0.094358359407889697 0 -0.00048393358095880963 0.092482615151883801 0 -0.00062841004971986737 0.091728907747735594 0 -0.00039231577284861428 0.092373957048866098 0 -0.00068086387719298543 0.089871178776283825 0 -0.00042239495040114969 0.090130505640672001 0 0.00013447713898328718 0.090471304383122342 0 -0.00042239495040114969 0.090130505640672001 0 0.00013447713898328718 0.090471304383122342 0 -0.00026454087571816103 0.091233983744206493 0 -0.00025296724633070984 0.089234749307602806 0 -0.00073721696261596194 0.089881253044396772 0 -0.00050699426488943719 0.089791933667473872 0 -0.0011504158442046972 0.08936341718620637 0 -0.00025296724633070984 0.089234749307602806 0 -0.00073721696261596194 0.089881253044396772 0 -0.00042239495040114969 0.090130505640672001 0 -0.00073721696261596194 0.089881253044396772 0 -0.00050699426488943719 0.089791933667473872 0 -0.00042239495040114969 0.090130505640672001 0 -0.00073721696261596194 0.089881253044396772 0 -0.00071650976488005181 0.091002460475585731 0 -0.0013114568495866288 0.090377179047619535 0 -0.00073721696261596194 0.089881253044396772 0 -0.00071650976488005181 0.091002460475585731 0 -0.00071650976488005181 0.091002460475585731 0 -0.00038651178029144769 0.092246797992827118 0 -0.0012281255081496481 0.091853386853988875 0 -0.0013114568495866288 0.090377179047619535 0 -0.00071650976488005181 0.091002460475585731 0 -0.0012281255081496481 0.091853386853988875 0 0.00011325562101307584 0.09220133537569046 0 0.00013447713898328718 0.090471304383122342 0 -0.00026454087571816103 0.091233983744206493 0 -0.00042239495040114969 0.090130505640672001 0 -0.00071650976488005181 0.091002460475585731 0 -0.00026454087571816103 0.091233983744206493 0 -0.00071650976488005181 0.091002460475585731 0 -0.00026454087571816103 0.091233983744206493 0 -0.00038651178029144769 0.092246797992827118 0 0.00011325562101307584 0.09220133537569046 0 -0.00026454087571816103 0.091233983744206493 0 -0.00038651178029144769 0.092246797992827118 0 0.00011325562101307584 0.09220133537569046 0 -0.00038651178029144769 0.092246797992827118 0 0.00014134473561130162 0.093370542632516623 0 -0.00038651178029144769 0.092246797992827118 0 -0.00043799363462965429 0.093105975762857382 0 0.00014134473561130162 0.093370542632516623 0 -0.00038651178029144769 0.092246797992827118 0 -0.0012281255081496481 0.091853386853988875 0 -0.00043799363462965429 0.093105975762857382 0 -0.0012281255081496481 0.091853386853988875 0 -0.00081997811437873908 0.093564328888477877 0 -0.00043799363462965429 0.093105975762857382 0 -0.00081997811437873908 0.093564328888477877 0 -0.00043799363462965429 0.093105975762857382 0 -1.2816544475190119e-05 0.094017032415805654 0 -0.00043799363462965429 0.093105975762857382 0 -1.2816544475190119e-05 0.094017032415805654 0 0.00014134473561130162 0.093370542632516623 0 -1.2816544475190119e-05 0.094017032415805654 0 0.00025969572480860978 0.094413613161208026 0 0.00014134473561130162 0.093370542632516623 0 0.00025969572480860978 0.094413613161208026 0 0.00014134473561130162 0.093370542632516623 0 0.00034457281952696519 0.093749041566982189 0 -1.1503749402110316e-07 0.095000151767259094 0 0.00025969572480860978 0.094413613161208026 0 1.9825009005281428e-06 0.094996652363007125 0 0.00025969572480860978 0.094413613161208026 0 1.9825009005281428e-06 0.094996652363007125 0 0.00034457281952696519 0.093749041566982189 0 -0.00010281060609989854 0.093640441001806629 0 3.7539398475521296e-07 0.094997781487848043 0 0.00077945465632949722 0.092553532554004628 0 1.9825009005281428e-06 0.094996652363007125 0 0.00034457281952696519 0.093749041566982189 0 4.3353131287747413e-07 0.094999525779311034 0 0.00035478196970587374 0.094925640199900782 0 -1.3969351119858445e-07 0.094999937226163234 0 0.00077945465632949722 0.092553532554004628 0 0.00035076402376240604 0.092957225783880021 0 0.00034457281952696519 0.093749041566982189 0 0.00011325562101307584 0.09220133537569046 0 0.00035076402376240604 0.092957225783880021 0 0.00014134473561130162 0.093370542632516623 0 0.00035076402376240604 0.092957225783880021 0 0.00014134473561130162 0.093370542632516623 0 0.00034457281952696519 0.093749041566982189 0 -0.013515575113693671 0.040411249550336016 0 -0.012447193242814557 0.038562359499818115 0 -0.019442637457246018 0.057304685517723976 0 -0.019389797032441793 0.057689165098429987 0 -0.020215040198397163 0.060183159914153635 0 -0.019389797032441793 0.057689165098429987 0 -0.020215040198397163 0.060183159914153635 0 -0.019050920903053232 0.058719775170079133 0 -0.010927057056797225 0.020983242425703701 0 -0.0053466562320877032 0.019221359310800275 0 -0.0083708337843687291 0.014962120104798639 0 -0.0053466562320877032 0.019221359310800275 0 -0.0054168204610508756 0.024907067671128449 0 -0.00017715690182009683 0.020047436631573084 0 -0.0083708337843687291 0.014962120104798639 0 -0.0026623989111415965 0.014656939223039067 0 -0.0045179886551861403 0.011514031696473446 0 -0.0053466562320877032 0.019221359310800275 0 -0.0022547065454374304 0.017491389976720423 0 -0.0026623989111415965 0.014656939223039067 0 -0.0053466562320877032 0.019221359310800275 0 -0.0083708337843687291 0.014962120104798639 0 -0.0026623989111415965 0.014656939223039067 0 -0.020215040198397163 0.060183159914153635 0 -0.018643580545510862 0.05935968677627837 0 -0.019050920903053232 0.058719775170079133 0 -0.020215040198397163 0.060183159914153635 0 -0.018643580545510862 0.05935968677627837 0 -0.019069275495292515 0.060924033693994038 0 -0.018643580545510862 0.05935968677627837 0 -0.016544181159487234 0.058711359806494785 0 -0.019069275495292515 0.060924033693994038 0 -0.017216126332674185 0.057790182710358864 0 -0.018858707642096045 0.057150941440071601 0 -0.016240069341352269 0.060255778576898449 0 -0.015543013780680334 0.064194407747357976 0 -0.019255576300342987 0.064259853174965867 0 -0.016240069341352269 0.060255778576898449 0 -0.015543013780680334 0.064194407747357976 0 -0.012776032115726229 0.061935753612737003 0 -0.016240069341352269 0.060255778576898449 0 -0.012776032115726229 0.061935753612737003 0 -0.012840453043854011 0.055640361579332942 0 -0.017216126332674185 0.057790182710358864 0 -0.015540018520768433 0.0565529565389504 0 -0.016544181159487234 0.058711359806494785 0 -0.017914287614983395 0.057014142443551075 0 -0.016355150406413003 0.055620287814296919 0 -0.019389797032441793 0.057689165098429987 0 -0.019050920903053232 0.058719775170079133 0 -0.018653295111766499 0.057952045624321748 0 -0.018643580545510862 0.05935968677627837 0 -0.018178516041034296 0.058379113543162484 0 -0.019050920903053232 0.058719775170079133 0 -0.018178516041034296 0.058379113543162484 0 -0.019050920903053232 0.058719775170079133 0 -0.018653295111766499 0.057952045624321748 0 -0.018643580545510862 0.05935968677627837 0 -0.016544181159487234 0.058711359806494785 0 -0.018178516041034296 0.058379113543162484 0 -0.016544181159487234 0.058711359806494785 0 -0.018178516041034296 0.058379113543162484 0 -0.017914287614983395 0.057014142443551075 0 -0.018178516041034296 0.058379113543162484 0 -0.017914287614983395 0.057014142443551075 0 -0.018653295111766499 0.057952045624321748 0 -0.019389797032441793 0.057689165098429987 0 -0.017914287614983395 0.057014142443551075 0 -0.018653295111766499 0.057952045624321748 0 -0.017914287614983395 0.057014142443551075 0 -0.016355150406413003 0.055620287814296919 0 -0.018520917626121007 0.053256112618848057 0 -0.019389797032441793 0.057689165098429987 0 -0.017914287614983395 0.057014142443551075 0 -0.018520917626121007 0.053256112618848057 0 -0.019442637457246018 0.057304685517723976 0 -0.019389797032441793 0.057689165098429987 0 -0.018305641481259908 0.054029723916215987 0 -0.017263399798966766 0.052326698159930456 0 -0.014293305740135459 0.044365912133062096 0 -0.013515575113693671 0.040411249550336016 0 -0.014293305740135459 0.044365912133062096 0 -0.016544181159487234 0.058711359806494785 0 -0.016355150406413003 0.055620287814296919 0 -0.012840453043854011 0.055640361579332942 0 -0.016355150406413003 0.055620287814296919 0 -0.015353832010135874 0.052743429443511541 0 -0.012840453043854011 0.055640361579332942 0 -0.016355150406413003 0.055620287814296919 0 -0.015353832010135874 0.052743429443511541 0 -0.018520917626121007 0.053256112618848057 0 -0.015353832010135874 0.052743429443511541 0 -0.012125353385896093 0.05212696711777217 0 -0.014117895763001221 0.04934911215651145 0 -0.015353832010135874 0.052743429443511541 0 -0.018520917626121007 0.053256112618848057 0 -0.017787331131808342 0.049842486293635767 0 -0.014293305740135459 0.044365912133062096 0 -0.010987873654385886 0.03910005325966142 0 -0.013474868995775865 0.027109449471756496 0 -0.010763588523476633 0.029769179823427774 0 -0.014937268524569822 0.031204873951632944 0 -0.010763588523476633 0.029769179823427774 0 -0.0098508578730070427 0.025291940364979535 0 -0.0054168204610508756 0.024907067671128449 0 -0.013474868995775865 0.027109449471756496 0 -0.010763588523476633 0.029769179823427774 0 -0.0098508578730070427 0.025291940364979535 0 -0.007136481424210867 0.031609004836380107 0 -0.0055299011836213241 0.02714728353009855 0 -0.010927057056797225 0.020983242425703701 0 -0.0098508578730070427 0.025291940364979535 0 -0.0054168204610508756 0.024907067671128449 0 -0.010927057056797225 0.020983242425703701 0 -0.013474868995775865 0.027109449471756496 0 -0.0098508578730070427 0.025291940364979535 0 -0.010927057056797225 0.020983242425703701 0 -0.0053466562320877032 0.019221359310800275 0 -0.0054168204610508756 0.024907067671128449 0 -0.0032125050497255852 0.034417810978793262 0 -0.0042909429255383168 0.035108550595593493 0 -0.004283813266022762 0.034270281212658453 0 -0.0042909429255383168 0.035108550595593493 0 -0.0050010887518347176 0.034622407156090065 0 -0.004283813266022762 0.034270281212658453 0 -0.0051440974882070297 0.033713973759987019 0 -0.0053401162377042736 0.034005764088045842 0 -0.0052388396067284829 0.031196660769824785 0 0.00053928242897223705 0.00046593418849365546 0 0.0007061984201858296 0.00087567826910683974 0 0.00045759168537989669 0.0010496334540126522 0 0.0007061984201858296 0.00087567826910683974 0 0.00061228745490230678 0.0004780779420520177 0 0.0010255048927055158 0.0012380931590497686 0 0.00061228745490230678 0.0004780779420520177 0 -0.0013992924139669286 -0.00088038451397994769 0 -0.00095089887728387374 -0.0042706364495809909 0 0.00061228745490230678 0.0004780779420520177 0 -0.00067665940982222436 -0.0045917190533670349 0 -0.00095089887728387374 -0.0042706364495809909 0 0.00046884174847882715 -0.00094156290356759592 0 0.000255798626172544 -0.0015759114681362912 0 0.0007061984201858296 0.00087567826910683974 0 0.0006145534192187914 0.001134659207685861 0 0.00045759168537989669 0.0010496334540126522 0 0.0007061984201858296 0.00087567826910683974 0 0.00077675720142467619 0.0011306760209434364 0 0.0006145534192187914 0.001134659207685861 0 0.00053928242897223705 0.00046593418849365546 0 0.0007061984201858296 0.00087567826910683974 0 0.00061228745490230678 0.0004780779420520177 0 0.00061228745490230678 0.0004780779420520177 0 -0.0013992924139669286 -0.00088038451397994769 0 -0.00080759470321298266 0.0020909409162026462 0 0.00061228745490230678 0.0004780779420520177 0 0.00075502393693987135 0.0014634193920340531 0 -0.00080759470321298266 0.0020909409162026462 0 -0.0042909429255383168 0.035108550595593493 0 -0.0051173763679941177 0.035706695419026616 0 -0.0053584681604214217 0.036068846506804551 0 -0.0053401162377042736 0.034005764088045842 0 -0.0051173763679941177 0.035706695419026616 0 -0.0053584681604214217 0.036068846506804551 0 -0.0038344490837972987 0.030267896290985499 0 -0.0041637878301468301 0.033014496183343414 0 -0.0055299011836213241 0.02714728353009855 0 -0.0010176048963726888 0.017849759898243538 0 -0.0042909429255383168 0.035108550595593493 0 -0.0050010887518347176 0.034622407156090065 0 -0.0051173763679941177 0.035706695419026616 0 -0.0019101653344051866 0.017716343420824506 0 -0.0010176048963726888 0.017849759898243538 0 0.00053928242897223705 0.00046593418849365546 0 0.00075502393693987135 0.0014634193920340531 0 0.0013447294106219631 0.0020839514482207523 0 0.00053928242897223705 0.00046593418849365546 0 0.00061228745490230678 0.0004780779420520177 0 0.00075502393693987135 0.0014634193920340531 0 -0.0051440974882070297 0.033713973759987019 0 -0.0053401162377042736 0.034005764088045842 0 -0.0051173763679941177 0.035706695419026616 0 -0.0013639605532967116 -0.0044723603173151922 0 -0.0012197131815745383 -0.0046444145162873249 0 -0.0016587869196599281 -0.0047622147075038583 0 -0.0028871956729131744 -0.0025876005712227729 0 -0.002046222502230893 -0.0034592513277293922 0 -0.0013992924139669286 -0.00088038451397994769 0 -0.0039116096695599603 -5.01615336931529e-05 0 -0.00095089887728387374 -0.0042706364495809909 0 -0.0013639605532967116 -0.0044723603173151922 0 -0.0012197131815745383 -0.0046444145162873249 0 -0.00095089887728387374 -0.0042706364495809909 0 -0.0013992924139669286 -0.00088038451397994769 0 -0.0039116096695599603 -5.01615336931529e-05 0 -0.0030294809059951502 0.0020712720248724156 0 -0.0013992924139669286 -0.00088038451397994769 0 -0.0030294809059951502 0.0020712720248724156 0 -0.00080759470321298266 0.0020909409162026462 0 -0.0039116096695599603 -5.01615336931529e-05 0 -0.0030294809059951502 0.0020712720248724156 0 -0.0056932729236977815 0.00293285302869293 0 -0.0028871956729131744 -0.0025876005712227729 0 -0.0043323237688643341 -0.0014187990205765642 0 -0.0030294809059951502 0.0020712720248724156 0 -0.0023088914058837819 0.004208868104293698 0 -0.0056932729236977815 0.00293285302869293 0 -0.0030294809059951502 0.0020712720248724156 0 -0.0023088914058837819 0.004208868104293698 0 -0.00080759470321298266 0.0020909409162026462 0 -0.0023088914058837819 0.004208868104293698 0 -0.00080759470321298266 0.0020909409162026462 0 -0.0004079911677306922 0.0037060030618360656 0 -0.0023088914058837819 0.004208868104293698 0 -0.00053657540190501455 0.0054826547973556095 0 -0.0017383733988298113 0.0066186969549995702 0 -0.0023088914058837819 0.004208868104293698 0 -0.0040028977824404779 0.0059811388030288808 0 -0.0017383733988298113 0.0066186969549995702 0 -0.0023088914058837819 0.004208868104293698 0 -0.0004079911677306922 0.0037060030618360656 0 -0.00053657540190501455 0.0054826547973556095 0 -0.0023088914058837819 0.004208868104293698 0 -0.0040028977824404779 0.0059811388030288808 0 -0.0056932729236977815 0.00293285302869293 0 -0.0053466562320877032 0.019221359310800275 0 -0.0022547065454374304 0.017491389976720423 0 -0.00017715690182009683 0.020047436631573084 0 0.0014842989666650965 0.0021543257409591459 0 0.0011756125105036579 0.0024319013977352577 0 0.001098173324938622 0.0055478201079930903 0 0.00075502393693987135 0.0014634193920340531 0 0.0013447294106219631 0.0020839514482207523 0 0.0011756125105036579 0.0024319013977352577 0 -0.0010176048963726888 0.017849759898243538 0 -0.00092115638169055006 0.01771709265529103 0 0.00075502393693987135 0.0014634193920340531 0 0.00026761417625530506 0.0026005142966838046 0 -0.00080759470321298266 0.0020909409162026462 0 0.00075502393693987135 0.0014634193920340531 0 0.0011756125105036579 0.0024319013977352577 0 0.00026761417625530506 0.0026005142966838046 0 0.00026761417625530506 0.0026005142966838046 0 -0.00080759470321298266 0.0020909409162026462 0 -0.0004079911677306922 0.0037060030618360656 0 0.0011756125105036579 0.0024319013977352577 0 0.00026761417625530506 0.0026005142966838046 0 0.00039326593640889515 0.0033143811693673278 0 0.0011756125105036579 0.0024319013977352577 0 0.00039326593640889515 0.0033143811693673278 0 0.00044348686857842152 0.0043175247596202709 0 0.00026761417625530506 0.0026005142966838046 0 0.00039326593640889515 0.0033143811693673278 0 -0.0004079911677306922 0.0037060030618360656 0 0.0011756125105036579 0.0024319013977352577 0 0.00044348686857842152 0.0043175247596202709 0 0.001098173324938622 0.0055478201079930903 0 0.00039326593640889515 0.0033143811693673278 0 0.00044348686857842152 0.0043175247596202709 0 -0.0004079911677306922 0.0037060030618360656 0 0.00044348686857842152 0.0043175247596202709 0 -0.0004079911677306922 0.0037060030618360656 0 -0.00053657540190501455 0.0054826547973556095 0 0.00044348686857842152 0.0043175247596202709 0 -0.00053657540190501455 0.0054826547973556095 0 0.001098173324938622 0.0055478201079930903 0 -0.0010176048963726888 0.017849759898243538 0 -3.042598443416303e-05 0.01167780095266018 0 -0.0022547065454374304 0.017491389976720423 0 -0.00017715690182009683 0.020047436631573084 0 0.00031446771004827058 0.013901068715213771 0 -0.0022547065454374304 0.017491389976720423 0 0.00031446771004827058 0.013901068715213771 0 -0.0026623989111415965 0.014656939223039067 0 0.00031446771004827058 0.013901068715213771 0 -0.0026623989111415965 0.014656939223039067 0 -0.00169156201098929 0.011627517721519747 0 -0.0026623989111415965 0.014656939223039067 0 -0.00169156201098929 0.011627517721519747 0 -0.0036562216543568134 0.011883734628325099 0 0.00031446771004827058 0.013901068715213771 0 -0.00169156201098929 0.011627517721519747 0 6.7100263627076174e-05 0.0088870671841311064 0 -0.00169156201098929 0.011627517721519747 0 -0.0017655694559284645 0.0097678606719640605 0 -0.0028986807035643234 0.01043976454359769 0 0.001098173324938622 0.0055478201079930903 0 -0.00049127238858645691 0.0071818423725270968 0 6.7100263627076174e-05 0.0088870671841311064 0 -3.042598443416303e-05 0.01167780095266018 0 0.00014621397152659677 0.010294865533670674 0 -0.00049127238858645691 0.0071818423725270968 0 -0.00090850262613694031 0.0086863964227941754 0 -0.0017383733988298113 0.0066186969549995702 0 -0.00053657540190501455 0.0054826547973556095 0 0.001098173324938622 0.0055478201079930903 0 -0.00049127238858645691 0.0071818423725270968 0 -0.00053657540190501455 0.0054826547973556095 0 -0.00049127238858645691 0.0071818423725270968 0 -0.0017383733988298113 0.0066186969549995702 0 -0.00090850262613694031 0.0086863964227941754 0 -0.0021329305187662204 0.0091153514687582812 0 -0.00018679794959488547 0.008741397153401954 0 -0.00049127238858645691 0.0071818423725270968 0 6.7100263627076174e-05 0.0088870671841311064 0 -0.00090850262613694031 0.0086863964227941754 0 -0.00090850262613694031 0.0086863964227941754 0 -0.00023232966338623554 0.0087985097800952379 0 -0.00018679794959488547 0.008741397153401954 0 6.7100263627076174e-05 0.0088870671841311064 0 -0.00090850262613694031 0.0086863964227941754 0 -0.00023232966338623554 0.0087985097800952379 0 -0.00023232966338623554 0.0087985097800952379 0 -0.0011980756420357421 0.0085210255712408322 0 -0.00018679794959488547 0.008741397153401954 0 6.7100263627076174e-05 0.0088870671841311064 0 -0.00023232966338623554 0.0087985097800952379 0 -0.0011980756420357421 0.0085210255712408322 0 6.7100263627076174e-05 0.0088870671841311064 0 -0.0011980756420357421 0.0085210255712408322 0 -0.0017655694559284645 0.0097678606719640605 0 -0.0011980756420357421 0.0085210255712408322 0 -0.0023739048641353054 0.0090673325395275398 0 -0.0017655694559284645 0.0097678606719640605 0 -0.0011980756420357421 0.0085210255712408322 0 -0.0023739048641353054 0.0090673325395275398 0 -0.0020244583442423913 0.0082201358280154114 0 -0.0023739048641353054 0.0090673325395275398 0 -0.0017655694559284645 0.0097678606719640605 0 -0.0028986807035643234 0.01043976454359769 0 -0.00169156201098929 0.011627517721519747 0 6.7100263627076174e-05 0.0088870671841311064 0 -0.0017655694559284645 0.0097678606719640605 0 -0.0040028977824404779 0.0059811388030288808 0 -0.002834739704019418 0.0076130607921129096 0 -0.0046871687592665605 0.0082874607991084166 0 -0.0040028977824404779 0.0059811388030288808 0 -0.0017383733988298113 0.0066186969549995702 0 -0.002834739704019418 0.0076130607921129096 0 -0.00090850262613694031 0.0086863964227941754 0 -0.002834739704019418 0.0076130607921129096 0 -0.0021329305187662204 0.0091153514687582812 0 -0.00090850262613694031 0.0086863964227941754 0 -0.0017383733988298113 0.0066186969549995702 0 -0.002834739704019418 0.0076130607921129096 0 -0.002834739704019418 0.0076130607921129096 0 -0.0021329305187662204 0.0091153514687582812 0 -0.0046871687592665605 0.0082874607991084166 0 -0.0031975575552710858 0.0088784487830184215 0 -0.0046871687592665605 0.0082874607991084166 0 -0.004144252110904436 0.0094311874059614959 0 -0.00471882125690331 0.015980132401923405 0 -0.0050727174068335859 0.014700830375426901 0 -0.0046871687592665605 0.0082874607991084166 0 -0.004144252110904436 0.0094311874059614959 0 -0.0052364725710532852 0.010096857967899121 0 -0.004144252110904436 0.0094311874059614959 0 -0.0041823620475901612 0.010413460856236581 0 -0.0052364725710532852 0.010096857967899121 0 -0.004144252110904436 0.0094311874059614959 0 -0.0032828471616160215 0.010010989164149312 0 -0.0041823620475901612 0.010413460856236581 0 -0.00471882125690331 0.015980132401923405 0 -0.0046210532211973824 0.019956640210204747 0 -0.0031975575552710858 0.0088784487830184215 0 -0.004144252110904436 0.0094311874059614959 0 -0.0032828471616160215 0.010010989164149312 0 -0.0031975575552710858 0.0088784487830184215 0 -0.0032828471616160215 0.010010989164149312 0 -0.0022064618179601513 0.0097454640684183635 0 -0.0032828471616160215 0.010010989164149312 0 -0.0025810681930898572 0.010252288601069078 0 -0.0022064618179601513 0.0097454640684183635 0 -0.0032828471616160215 0.010010989164149312 0 -0.0025810681930898572 0.010252288601069078 0 -0.0026823610080013399 0.010800229980913964 0 -0.0025810681930898572 0.010252288601069078 0 -0.0026823610080013399 0.010800229980913964 0 -0.0021551078197457958 0.010458215212031658 0 -0.0027917596168893942 0.011735847711693646 0 -0.0026823610080013399 0.010800229980913964 0 -0.0036024175935856911 0.011218773816535877 0 -0.0027917596168893942 0.011735847711693646 0 -0.0026823610080013399 0.010800229980913964 0 -0.0020381212042243878 0.011030504225552148 0 -0.0032828471616160215 0.010010989164149312 0 -0.0026823610080013399 0.010800229980913964 0 -0.0036024175935856911 0.011218773816535877 0 -0.0032828471616160215 0.010010989164149312 0 -0.0036024175935856911 0.011218773816535877 0 -0.0041823620475901612 0.010413460856236581 0 -0.0036024175935856911 0.011218773816535877 0 -0.0041823620475901612 0.010413460856236581 0 -0.0046777735254843822 0.011306077460687233 0 -0.0041823620475901612 0.010413460856236581 0 -0.0046777735254843822 0.011306077460687233 0 -0.0052364725710532852 0.010096857967899121 0 -0.0011980756420357421 0.0085210255712408322 0 -0.0018967717852885889 0.007406774274683595 0 -0.00018679794959488547 0.008741397153401954 0 -0.00036154458755606619 0.01026762123023953 0 -0.0001288342449283164 0.0099998677541543856 0 -0.0016570560394305899 0.0094413261404099769 0 -0.0053514455803625929 0.028000305307313927 0 -0.0046210532211973824 0.019956640210204747 0 -0.009136910720591267 0.029142085344005253 0 -0.0042664627721017189 0.030224399560159331 0 -0.0053833959141775618 0.024728830945237517 0 -0.0044824412222609156 0.026478221517996951 0 -0.0054787676437048766 0.02824573933692013 0 -0.0054787676437048766 0.02824573933692013 0 -0.0059163602674396814 0.029312183431734352 0 -0.0042664627721017189 0.030224399560159331 0 -0.0053833959141775618 0.024728830945237517 0 -0.0023810505885846827 0.02564192668603011 0 -0.0053514455803625929 0.028000305307313927 0 -0.0059163602674396814 0.029312183431734352 0 -0.0044824412222609156 0.026478221517996951 0 -0.0053514455803625929 0.028000305307313927 0 -0.0018967717852885889 0.007406774274683595 0 -0.0020244583442423913 0.0082201358280154114 0 -0.0026550301076243882 0.0079653039736213727 0 -0.0011980756420357421 0.0085210255712408322 0 -0.0018967717852885889 0.007406774274683595 0 -0.0020244583442423913 0.0082201358280154114 0 -0.0031975575552710858 0.0088784487830184215 0 -0.0016570560394305899 0.0094413261404099769 0 -0.0022064618179601513 0.0097454640684183635 0 -0.00036154458755606619 0.01026762123023953 0 -0.0016570560394305899 0.0094413261404099769 0 -0.0022064618179601513 0.0097454640684183635 0 -0.00033665674679222258 0.010201372352764904 0 -0.0022064618179601513 0.0097454640684183635 0 -0.0013952369777741763 0.010544782202519892 0 -0.0044824412222609156 0.026478221517996951 0 -0.0041589759345056262 0.023015264898674403 0 -0.0025810681930898572 0.010252288601069078 0 -0.0022064618179601513 0.0097454640684183635 0 -0.0021551078197457958 0.010458215212031658 0 -0.0022064618179601513 0.0097454640684183635 0 -0.0013952369777741763 0.010544782202519892 0 -0.0021551078197457958 0.010458215212031658 0 -0.0026823610080013399 0.010800229980913964 0 -0.0021551078197457958 0.010458215212031658 0 -0.0020381212042243878 0.011030504225552148 0 -0.0013952369777741763 0.010544782202519892 0 -0.0021551078197457958 0.010458215212031658 0 -0.0020381212042243878 0.011030504225552148 0 -0.0015766411414992283 0.011652804920964141 0 -0.0027917596168893942 0.011735847711693646 0 -0.0020381212042243878 0.011030504225552148 0 -0.0015766411414992283 0.011652804920964141 0 -0.0013952369777741763 0.010544782202519892 0 -0.0020381212042243878 0.011030504225552148 0 -0.0015766411414992283 0.011652804920964141 0 -0.00033665674679222258 0.010201372352764904 0 -0.0013952369777741763 0.010544782202519892 0 -0.0015471205549596884 0.017615726673473973 0 -0.0044824412222609156 0.026478221517996951 0 -0.0037415225297991318 0.014822077515625753 0 -0.003576471584648432 0.01484517904482603 0 -0.0038415798822985093 0.015250244829472062 0 -0.0047284706913057186 0.032436249082006929 0 -0.0019836663049333605 0.032068365834884469 0 -0.0032395376449431087 0.035100375133829409 0 -0.0033681453898529948 0.02424679090040786 0 -0.0054787676437048766 0.02824573933692013 0 -0.0037415225297991318 0.014822077515625753 0 -0.0038415798822985093 0.015250244829472062 0 -0.0039174473829962295 0.015237564571612258 0 -0.0047284706913057186 0.032436249082006929 0 -0.0032395376449431087 0.035100375133829409 0 -0.0065720342863647401 0.034377324452299067 0 -0.0054787676437048766 0.02824573933692013 0 -0.0078539013062487225 0.04130417020171976 0 -0.0080400602837913636 0.034806385369414251 0 -0.006179851757700452 0.035050642753221221 0 -0.0060949048699934097 0.035266597368372309 0 -0.0074211846792417695 0.032251370335976956 0 -0.0047284706913057186 0.032436249082006929 0 -0.0065720342863647401 0.034377324452299067 0 -0.0066610198460145429 0.042575757885800716 0 -0.0078539013062487225 0.04130417020171976 0 -0.005835581348546128 0.046832416075614898 0 -0.0051958566015744157 0.04383585379608685 0 -0.0044628672162176659 0.045140093477637637 0 -0.005835581348546128 0.046832416075614898 0 -0.0072117621368205601 0.043385811895266899 0 -0.0051958566015744157 0.04383585379608685 0 -0.0066610198460145429 0.042575757885800716 0 -0.0085087504313490266 0.047488673973185069 0 -0.0080959111174444768 0.041114673935587397 0 -0.0078539013062487225 0.04130417020171976 0 -0.0078539013062487225 0.04130417020171976 0 -0.0086679462490704996 0.046674950832154352 0 -0.0080959111174444768 0.041114673935587397 0 -0.0086840800551844146 0.046563629338284673 0 -0.0084046327639768718 0.044311733402013116 0 -0.0084468178590216356 0.044314475352033776 0 -0.0084524917117314961 0.044304885546699181 0 -0.0083990938917912813 0.044325153752736414 0 -0.0084046327639768718 0.044311733402013116 0 -0.0084468178590216356 0.044314475352033776 0 -0.0086840800551844146 0.046563629338284673 0 -0.0086679462490704996 0.046674950832154352 0 -0.0080959111174444768 0.041114673935587397 0 -0.0096736180592153706 0.038736556523886946 0 -0.010158059567310921 0.044951799203070381 0 -0.01002716900798087 0.042776148907097404 0 -0.011923134608008229 0.040553567551794942 0 -0.019469381073653435 0.07265288903271408 0 -0.020841130526910549 0.070285984716907057 0 -0.019185674050035156 0.070311101335870846 0 -0.0086840800551844146 0.046563629338284673 0 -0.0095718503860533245 0.047066870689421759 0 -0.010158059567310921 0.044951799203070381 0 -0.0085188555943323252 0.045450284375683971 0 -0.01002716900798087 0.042776148907097404 0 -0.020841130526910549 0.070285984716907057 0 -0.019253201625158207 0.068733812326393709 0 -0.019185674050035156 0.070311101335870846 0 -0.0080959111174444768 0.041114673935587397 0 -0.0059163602674396814 0.029312183431734352 0 -0.0080400602837913636 0.034806385369414251 0 -0.006179851757700452 0.035050642753221221 0 -0.007912982322272815 0.034497833590321138 0 -0.0084002468658297986 0.036477954542179489 0 -0.011230382130652061 0.035605882040837637 0 -0.010843704981774258 0.034661618897803198 0 -0.0084002468658297986 0.036477954542179489 0 -0.010843704981774258 0.034661618897803198 0 -0.0096754539369476988 0.033288285907972684 0 -0.0074600279007618325 0.028798685959698429 0 -0.0071644567175865453 0.028889045490957797 0 -0.0068179564116476968 0.02804422781898697 0 -0.0059163602674396814 0.029312183431734352 0 -0.0065971645955702684 0.030785343824335221 0 -0.0053514455803625929 0.028000305307313927 0 -0.0065971645955702684 0.030785343824335221 0 -0.0065971645955702684 0.030785343824335221 0 -0.0096736180592153706 0.038736556523886946 0 -0.0065971645955702684 0.030785343824335221 0 -0.01000974424895896 0.035738341963795009 0 -0.0023739048641353054 0.0090673325395275398 0 -0.0020244583442423913 0.0082201358280154114 0 -0.0026550301076243882 0.0079653039736213727 0 -0.0023739048641353054 0.0090673325395275398 0 -0.0026550301076243882 0.0079653039736213727 0 -0.0039231460106304147 0.0098737647333419776 0 -0.0023739048641353054 0.0090673325395275398 0 -0.0039231460106304147 0.0098737647333419776 0 -0.0028986807035643234 0.01043976454359769 0 -0.010680130158881893 0.037967521701573914 0 -0.01000974424895896 0.035738341963795009 0 -0.011162711855691692 0.035407549285167372 0 -0.012395520806690022 0.038410623763347279 0 -0.0074637971937138491 0.041985787942690596 0 -0.01000974424895896 0.035738341963795009 0 -0.0096736180592153706 0.038736556523886946 0 -0.012395520806690022 0.038410623763347279 0 -0.0074637971937138491 0.041985787942690596 0 -0.0098476976906658534 0.044791245184117021 0 -0.010680130158881893 0.037967521701573914 0 -0.011164913923963312 0.042047511417829107 0 -0.0078344393094943073 0.033452336460290694 0 -0.0098917700020269526 0.038411367844147323 0 -0.010580815196624349 0.036669581746289141 0 -0.011164913923963312 0.042047511417829107 0 -0.0096736180592153706 0.038736556523886946 0 -0.0095718503860533245 0.047066870689421759 0 -0.011164913923963312 0.042047511417829107 0 -0.01002716900798087 0.042776148907097404 0 -0.011538485001587948 0.040100211245688605 0 -0.011923134608008229 0.040553567551794942 0 -0.020841130526910549 0.070285984716907057 0 -0.022200948125081995 0.067887018297104487 0 -0.020510067679386554 0.068128437314761911 0 -0.020841130526910549 0.070285984716907057 0 -0.020510067679386554 0.068128437314761911 0 -0.019253201625158207 0.068733812326393709 0 -0.020510067679386554 0.068128437314761911 0 -0.019253201625158207 0.068733812326393709 0 -0.018893168543939708 0.067507652244931021 0 -0.020510067679386554 0.068128437314761911 0 -0.019916095534458212 0.066708487330977048 0 -0.018893168543939708 0.067507652244931021 0 -0.022200948125081995 0.067887018297104487 0 -0.020510067679386554 0.068128437314761911 0 -0.019916095534458212 0.066708487330977048 0 -0.020932245075579302 0.062181449935912396 0 -0.0206570354592155 0.062650587557407378 0 -0.019069275495292515 0.060924033693994038 0 -0.011164913923963312 0.042047511417829107 0 -0.018858707642096045 0.057150941440071601 0 -0.022200948125081995 0.067887018297104487 0 -0.019916095534458212 0.066708487330977048 0 -0.019255576300342987 0.064259853174965867 0 -0.020215040198397163 0.060183159914153635 0 -0.020932245075579302 0.062181449935912396 0 -0.019069275495292515 0.060924033693994038 0 -0.012447193242814557 0.038562359499818115 0 -0.010680130158881893 0.037967521701573914 0 -0.0083708337843687291 0.014962120104798639 0 -0.0058770018589521609 0.0091212064844582216 0 -0.0045179886551861403 0.011514031696473446 0 -0.011845479415389644 0.028586297914074833 0 -0.011413260736661851 0.031903984185069838 0 -0.0039231460106304147 0.0098737647333419776 0 -0.0036562216543568134 0.011883734628325099 0 -0.0028986807035643234 0.01043976454359769 0 -0.00169156201098929 0.011627517721519747 0 -0.0036562216543568134 0.011883734628325099 0 -0.0028986807035643234 0.01043976454359769 0 -0.01000974424895896 0.035738341963795009 0 -0.011413260736661851 0.031903984185069838 0 -0.010680130158881893 0.037967521701573914 0 -0.011413260736661851 0.031903984185069838 0 -0.0088217326373464557 0.037421801141144601 0 -0.0093465522012972247 0.038704227588105412 0 -0.011505662788880204 0.032664057110498503 0 -0.015543013780680334 0.064194407747357976 0 -0.016936175316033433 0.065791167776959245 0 -0.015118174584173385 0.067813310812340169 0 -0.015543013780680334 0.064194407747357976 0 -0.012797367379946446 0.067053150022062719 0 -0.012776032115726229 0.061935753612737003 0 -0.015543013780680334 0.064194407747357976 0 -0.015118174584173385 0.067813310812340169 0 -0.012797367379946446 0.067053150022062719 0 -0.015543013780680334 0.064194407747357976 0 -0.019255576300342987 0.064259853174965867 0 -0.016936175316033433 0.065791167776959245 0 -0.019255576300342987 0.064259853174965867 0 -0.01851786467697927 0.065982517167280264 0 -0.016936175316033433 0.065791167776959245 0 -0.019916095534458212 0.066708487330977048 0 -0.01851786467697927 0.065982517167280264 0 -0.018893168543939708 0.067507652244931021 0 -0.019916095534458212 0.066708487330977048 0 -0.019255576300342987 0.064259853174965867 0 -0.01851786467697927 0.065982517167280264 0 -0.01851786467697927 0.065982517167280264 0 -0.016936175316033433 0.065791167776959245 0 -0.017225164573653348 0.067518911400755166 0 -0.017225164573653348 0.067518911400755166 0 -0.018893168543939708 0.067507652244931021 0 -0.018127678155424626 0.068456097939218696 0 -0.01851786467697927 0.065982517167280264 0 -0.017225164573653348 0.067518911400755166 0 -0.018893168543939708 0.067507652244931021 0 -0.019253201625158207 0.068733812326393709 0 -0.018893168543939708 0.067507652244931021 0 -0.018127678155424626 0.068456097939218696 0 -0.019253201625158207 0.068733812326393709 0 -0.018127678155424626 0.068456097939218696 0 -0.018156111428146084 0.06946609735458853 0 -0.017225164573653348 0.067518911400755166 0 -0.017097461563808303 0.069070850087212643 0 -0.016174015730682161 0.068571262551833864 0 -0.017225164573653348 0.067518911400755166 0 -0.018127678155424626 0.068456097939218696 0 -0.017097461563808303 0.069070850087212643 0 -0.018127678155424626 0.068456097939218696 0 -0.017097461563808303 0.069070850087212643 0 -0.018156111428146084 0.06946609735458853 0 -0.017097461563808303 0.069070850087212643 0 -0.016429517856758637 0.069437694349973614 0 -0.016174015730682161 0.068571262551833864 0 -0.014927132693877536 0.06337003384957339 0 -0.013745681878620337 0.06475857393465824 0 -0.016174015730682161 0.068571262551833864 0 -0.015118174584173385 0.067813310812340169 0 -0.015565238931157367 0.070053844373509574 0 -0.013396625321791917 0.070003744856400693 0 -0.011498043178372122 0.069771244746537869 0 -0.011667921205100389 0.067223667162004244 0 -0.015118174584173385 0.067813310812340169 0 -0.015565238931157367 0.070053844373509574 0 -0.012797367379946446 0.067053150022062719 0 -0.016429517856758637 0.069437694349973614 0 -0.016174015730682161 0.068571262551833864 0 -0.015565238931157367 0.070053844373509574 0 -0.016936175316033433 0.065791167776959245 0 -0.017225164573653348 0.067518911400755166 0 -0.015118174584173385 0.067813310812340169 0 -0.017225164573653348 0.067518911400755166 0 -0.016174015730682161 0.068571262551833864 0 -0.015118174584173385 0.067813310812340169 0 -0.013243852387932025 0.070325274491661718 0 -0.013583261108301338 0.07067203771755394 0 -0.013651727290034239 0.071133848844823475 0 -0.013396625321791917 0.070003744856400693 0 -0.013243852387932025 0.070325274491661718 0 -0.011498043178372122 0.069771244746537869 0 -0.013243852387932025 0.070325274491661718 0 -0.011689178229321345 0.070682861804070282 0 -0.011498043178372122 0.069771244746537869 0 -0.016429517856758637 0.069437694349973614 0 -0.015565238931157367 0.070053844373509574 0 -0.016946335068160106 0.07017181256269639 0 -0.013396625321791917 0.070003744856400693 0 -0.013243852387932025 0.070325274491661718 0 -0.013583261108301338 0.07067203771755394 0 -0.013243852387932025 0.070325274491661718 0 -0.012748672210009072 0.071099574464821388 0 -0.013407123999454663 0.07163014610728155 0 -0.013243852387932025 0.070325274491661718 0 -0.012748672210009072 0.071099574464821388 0 -0.011689178229321345 0.070682861804070282 0 -0.012748672210009072 0.071099574464821388 0 -0.012866938041814263 0.071605137991052822 0 -0.013407123999454663 0.07163014610728155 0 -0.012748672210009072 0.071099574464821388 0 -0.012005702783776202 0.071590897361057865 0 -0.011689178229321345 0.070682861804070282 0 -0.012748672210009072 0.071099574464821388 0 -0.012866938041814263 0.071605137991052822 0 -0.012005702783776202 0.071590897361057865 0 -0.013396625321791917 0.070003744856400693 0 -0.013583261108301338 0.07067203771755394 0 -0.014112798871084296 0.07107033481599774 0 -0.014927132693877536 0.06337003384957339 0 -0.0097499529588358693 0.050273934527260832 0 -0.015565238931157367 0.070053844373509574 0 -0.017424629768036565 0.071084156564186721 0 -0.018207884861753142 0.073190843826249297 0 -0.019253201625158207 0.068733812326393709 0 -0.019185674050035156 0.070311101335870846 0 -0.018156111428146084 0.06946609735458853 0 -0.019185674050035156 0.070311101335870846 0 -0.018156111428146084 0.06946609735458853 0 -0.018079131249049456 0.070555486401969902 0 -0.015565238931157367 0.070053844373509574 0 -0.016946335068160106 0.07017181256269639 0 -0.017424629768036565 0.071084156564186721 0 -0.018079131249049456 0.070555486401969902 0 -0.016946335068160106 0.07017181256269639 0 -0.017424629768036565 0.071084156564186721 0 -0.017097461563808303 0.069070850087212643 0 -0.018156111428146084 0.06946609735458853 0 -0.016946335068160106 0.07017181256269639 0 -0.018156111428146084 0.06946609735458853 0 -0.018079131249049456 0.070555486401969902 0 -0.016946335068160106 0.07017181256269639 0 -0.017097461563808303 0.069070850087212643 0 -0.016429517856758637 0.069437694349973614 0 -0.016946335068160106 0.07017181256269639 0 -0.019469381073653435 0.07265288903271408 0 -0.019185674050035156 0.070311101335870846 0 -0.018436982931986624 0.071572718044911166 0 -0.017424629768036565 0.071084156564186721 0 -0.018436982931986624 0.071572718044911166 0 -0.018207884861753142 0.073190843826249297 0 -0.018079131249049456 0.070555486401969902 0 -0.017424629768036565 0.071084156564186721 0 -0.018436982931986624 0.071572718044911166 0 -0.019185674050035156 0.070311101335870846 0 -0.018079131249049456 0.070555486401969902 0 -0.018436982931986624 0.071572718044911166 0 -0.019469381073653435 0.07265288903271408 0 -0.018436982931986624 0.071572718044911166 0 -0.018207884861753142 0.073190843826249297 0 -0.0096004220378145041 0.048977085949997119 0 -0.0095625836249305408 0.049045691323781906 0 -0.0093231762024382353 0.049102427991393249 0 -0.0086840800551844146 0.046563629338284673 0 -0.0097499529588358693 0.050273934527260832 0 -0.0086679462490704996 0.046674950832154352 0 -0.0097499529588358693 0.050273934527260832 0 -0.0087034537557424043 0.047503055400044777 0 -0.0040921530071753474 0.048529139441944535 0 -0.0064770724124148873 0.051468578161072497 0 -0.013583261108301338 0.07067203771755394 0 -0.014112798871084296 0.07107033481599774 0 -0.013755175578669655 0.070954959963263911 0 -0.013583261108301338 0.07067203771755394 0 -0.013755175578669655 0.070954959963263911 0 -0.013651727290034239 0.071133848844823475 0 -0.014112798871084296 0.07107033481599774 0 -0.013844438400072965 0.071068602934046696 0 -0.013755175578669655 0.070954959963263911 0 -0.0097499529588358693 0.050273934527260832 0 -0.0098577466807793293 0.050518411775303959 0 -0.013844438400072965 0.071068602934046696 0 -0.013755175578669655 0.070954959963263911 0 -0.013651727290034239 0.071133848844823475 0 -0.0097499529588358693 0.050273934527260832 0 -0.010653666735503779 0.05589049959825091 0 -0.0078827531865212803 0.049530381073042223 0 -0.0060428861196916393 0.049943157939009372 0 -0.0085104982565201801 0.050304170769273016 0 -0.0071501213034624068 0.052717560668505484 0 -0.0060428861196916393 0.049943157939009372 0 -0.0085104982565201801 0.050304170769273016 0 -0.014087833672446363 0.071033462787792906 0 -0.013844438400072965 0.071068602934046696 0 -0.013651727290034239 0.071133848844823475 0 -0.0097499529588358693 0.050273934527260832 0 -0.0085087504313490266 0.047488673973185069 0 -0.0086679462490704996 0.046674950832154352 0 -0.0085087504313490266 0.047488673973185069 0 -0.013243852387932025 0.070325274491661718 0 -0.014152972660670216 0.072783631340369262 0 -0.013407123999454663 0.07163014610728155 0 -0.012599702259743221 0.061801530047786074 0 -0.010653666735503779 0.05589049959825091 0 -0.012725036563032407 0.072120616929724365 0 -0.013018967887620981 0.072544764879823795 0 -0.011947453183487238 0.07255264495523428 0 -0.012725036563032407 0.072120616929724365 0 -0.013018967887620981 0.072544764879823795 0 -0.013170317599515811 0.072218773543104547 0 -0.012725036563032407 0.072120616929724365 0 -0.013140278190080032 0.071891635664077524 0 -0.013170317599515811 0.072218773543104547 0 -0.012725036563032407 0.072120616929724365 0 -0.011947453183487238 0.07255264495523428 0 -0.012005702783776202 0.071590897361057865 0 -0.012725036563032407 0.072120616929724365 0 -0.012866938041814263 0.071605137991052822 0 -0.012005702783776202 0.071590897361057865 0 -0.012725036563032407 0.072120616929724365 0 -0.012866938041814263 0.071605137991052822 0 -0.013140278190080032 0.071891635664077524 0 -0.013407123999454663 0.07163014610728155 0 -0.013401606518142655 0.072054013473285758 0 -0.01375258874801063 0.072448840445306292 0 -0.014152972660670216 0.072783631340369262 0 -0.013407123999454663 0.07163014610728155 0 -0.01375258874801063 0.072448840445306292 0 -0.012866938041814263 0.071605137991052822 0 -0.013407123999454663 0.07163014610728155 0 -0.013140278190080032 0.071891635664077524 0 -0.013407123999454663 0.07163014610728155 0 -0.013401606518142655 0.072054013473285758 0 -0.013140278190080032 0.071891635664077524 0 -0.013401606518142655 0.072054013473285758 0 -0.013140278190080032 0.071891635664077524 0 -0.013170317599515811 0.072218773543104547 0 -0.013401606518142655 0.072054013473285758 0 -0.013170317599515811 0.072218773543104547 0 -0.013423201143668071 0.072285286090694983 0 -0.013401606518142655 0.072054013473285758 0 -0.01375258874801063 0.072448840445306292 0 -0.013423201143668071 0.072285286090694983 0 -0.01375258874801063 0.072448840445306292 0 -0.013423201143668071 0.072285286090694983 0 -0.013398837093217913 0.072609529175227797 0 -0.013018967887620981 0.072544764879823795 0 -0.013423201143668071 0.072285286090694983 0 -0.013398837093217913 0.072609529175227797 0 -0.013018967887620981 0.072544764879823795 0 -0.013170317599515811 0.072218773543104547 0 -0.013423201143668071 0.072285286090694983 0 -0.0081252853001437704 0.054438697745307407 0 -0.0081192477963204588 0.054520088566297427 0 -0.0081692291322762074 0.054510467893112327 0 -0.013018967887620981 0.072544764879823795 0 -0.013398837093217913 0.072609529175227797 0 -0.013303314178679438 0.072960746207653263 0 -0.01375258874801063 0.072448840445306292 0 -0.013398837093217913 0.072609529175227797 0 -0.013303314178679438 0.072960746207653263 0 -0.010653666735503779 0.05589049959825091 0 -0.011322810252133711 0.058195441151165955 0 -0.014152972660670216 0.072783631340369262 0 -0.01375258874801063 0.072448840445306292 0 -0.013303314178679438 0.072960746207653263 0 -0.011322810252133711 0.058195441151165955 0 -0.010975843044663369 0.059239876186999378 0 -0.011491715941383814 0.074123951269818161 0 -0.012764486242913169 0.073006945720008973 0 -0.011568787734828544 0.073251665423100423 0 -0.013303314178679438 0.072960746207653263 0 -0.011568787734828544 0.073251665423100423 0 -0.011947453183487238 0.07255264495523428 0 -0.013018967887620981 0.072544764879823795 0 -0.013303314178679438 0.072960746207653263 0 -0.011947453183487238 0.07255264495523428 0 -0.011568787734828544 0.073251665423100423 0 -0.011947453183487238 0.07255264495523428 0 -0.0098691285940631906 0.071464163291238531 0 -0.011121830278325426 0.071853381898979801 0 -0.01092615107825652 0.071984898182695142 0 -0.009677137561972346 0.075131050174517475 0 -0.011000167390836727 0.074986096491765589 0 -0.0098691285940631906 0.071464163291238531 0 -0.011491715941383814 0.074123951269818161 0 -0.011568787734828544 0.073251665423100423 0 -0.0098691285940631906 0.071464163291238531 0 -0.011947453183487238 0.07255264495523428 0 -0.012005702783776202 0.071590897361057865 0 -0.0098691285940631906 0.071464163291238531 0 -0.011689178229321345 0.070682861804070282 0 -0.0098691285940631906 0.071464163291238531 0 -0.011498043178372122 0.069771244746537869 0 -0.012005702783776202 0.071590897361057865 0 -0.011689178229321345 0.070682861804070282 0 -0.0098691285940631906 0.071464163291238531 0 -0.0098691285940631906 0.071464163291238531 0 -0.011498043178372122 0.069771244746537869 0 -0.0087619853709012645 0.069093538493042658 0 -0.0098691285940631906 0.071464163291238531 0 -0.0062411825465209982 0.071969096855531378 0 -0.0087619853709012645 0.069093538493042658 0 -0.0098691285940631906 0.071464163291238531 0 -0.0079171163427599993 0.073510786304042133 0 -0.0062411825465209982 0.071969096855531378 0 -0.009677137561972346 0.075131050174517475 0 -0.0098691285940631906 0.071464163291238531 0 -0.0079171163427599993 0.073510786304042133 0 -0.0059069773531962785 0.075378784983872058 0 -0.0079171163427599993 0.073510786304042133 0 -0.0062411825465209982 0.071969096855531378 0 -0.0059069773531962785 0.075378784983872058 0 -0.003239133387799401 0.0728462695265093 0 -0.0062411825465209982 0.071969096855531378 0 -0.003239133387799401 0.0728462695265093 0 -0.0036386005887917437 0.070448791810747077 0 -0.0062411825465209982 0.071969096855531378 0 -0.0036386005887917437 0.070448791810747077 0 -0.0062411825465209982 0.071969096855531378 0 -0.0056271466356241726 0.068359804750349543 0 -0.0062411825465209982 0.071969096855531378 0 -0.0056271466356241726 0.068359804750349543 0 -0.0087619853709012645 0.069093538493042658 0 -0.0036386005887917437 0.070448791810747077 0 -0.0056271466356241726 0.068359804750349543 0 -0.0027438932392197741 0.067752646024315258 0 -0.0056271466356241726 0.068359804750349543 0 -0.0027438932392197741 0.067752646024315258 0 -0.0057040422227472871 0.064392201405489249 0 -0.0027438932392197741 0.067752646024315258 0 -0.0015597627666399201 0.063864905828322494 0 -0.0057040422227472871 0.064392201405489249 0 -0.0056271466356241726 0.068359804750349543 0 -0.00834930296749712 0.066633798335644367 0 -0.0057040422227472871 0.064392201405489249 0 -0.00834930296749712 0.066633798335644367 0 -0.0097216186127575422 0.063853931260617489 0 -0.0057040422227472871 0.064392201405489249 0 -0.00834930296749712 0.066633798335644367 0 -0.011667921205100389 0.067223667162004244 0 -0.0097216186127575422 0.063853931260617489 0 -0.013745681878620337 0.06475857393465824 0 -0.012605507810994334 0.064154193768880249 0 -0.012797367379946446 0.067053150022062719 0 -0.012776032115726229 0.061935753612737003 0 -0.0097216186127575422 0.063853931260617489 0 -0.011498043178372122 0.069771244746537869 0 -0.011667921205100389 0.067223667162004244 0 -0.0087619853709012645 0.069093538493042658 0 -0.00834930296749712 0.066633798335644367 0 -0.011667921205100389 0.067223667162004244 0 -0.0087619853709012645 0.069093538493042658 0 -0.0056271466356241726 0.068359804750349543 0 -0.00834930296749712 0.066633798335644367 0 -0.0087619853709012645 0.069093538493042658 0 0.0050994446363811863 0.07232801998143383 0 0.0040341523506781307 0.074947894563058254 0 0.0025743801262323178 0.073366849123208511 0 0.0056207677546272058 0.075227097589185096 0 0.0050994446363811863 0.07232801998143383 0 0.0040341523506781307 0.074947894563058254 0 0.0044378090927031611 0.076269916314799069 0 0.0056207677546272058 0.075227097589185096 0 0.0040341523506781307 0.074947894563058254 0 0.0031068053467100524 0.075688977299184459 0 0.0037513152918082398 0.075952578005438046 0 0.0040341523506781307 0.074947894563058254 0 0.0031068053467100524 0.075688977299184459 0 0.0040341523506781307 0.074947894563058254 0 0.0025743801262323178 0.073366849123208511 0 0.0031068053467100524 0.075688977299184459 0 0.0025743801262323178 0.073366849123208511 0 0.0013219058623610363 0.074920245634644542 0 0.0050994446363811863 0.07232801998143383 0 0.0025743801262323178 0.073366849123208511 0 0.0023020629279117779 0.070657930684023915 0 0.0025743801262323178 0.073366849123208511 0 0.0023020629279117779 0.070657930684023915 0 -0.00093682393994019451 0.071359727181866589 0 0.0025743801262323178 0.073366849123208511 0 0.0013219058623610363 0.074920245634644542 0 -0.00093682393994019451 0.071359727181866589 0 0.0014301835739960361 0.073641999562448962 0 -0.00063897212454639644 0.073598266831175013 0 -0.00093682393994019451 0.071359727181866589 0 0.0018404740019415332 0.074622781221396262 0 0.00068439906232579506 0.073296904775680308 0 -0.0019635860283832881 0.07545551373537622 0 -0.003239133387799401 0.0728462695265093 0 -0.00063897212454639644 0.073598266831175013 0 -0.003239133387799401 0.0728462695265093 0 -0.00063897212454639644 0.073598266831175013 0 -0.00093682393994019451 0.071359727181866589 0 -0.003239133387799401 0.0728462695265093 0 -0.0036386005887917437 0.070448791810747077 0 -0.00093682393994019451 0.071359727181866589 0 -0.0027438932392197741 0.067752646024315258 0 -0.00093682393994019451 0.071359727181866589 0 0.00050371008753761386 0.067644730103483722 0 -0.0036386005887917437 0.070448791810747077 0 -0.0027438932392197741 0.067752646024315258 0 -0.00093682393994019451 0.071359727181866589 0 -0.0027438932392197741 0.067752646024315258 0 0.00050371008753761386 0.067644730103483722 0 -0.0015597627666399201 0.063864905828322494 0 0.00050371008753761386 0.067644730103483722 0 0.0020744222217183631 0.064135049279042206 0 -0.0015597627666399201 0.063864905828322494 0 0.0023020629279117779 0.070657930684023915 0 -0.00093682393994019451 0.071359727181866589 0 0.00050371008753761386 0.067644730103483722 0 0.0023020629279117779 0.070657930684023915 0 0.00050371008753761386 0.067644730103483722 0 0.0040550678100906906 0.068528506702964273 0 0.0050994446363811863 0.07232801998143383 0 0.0023020629279117779 0.070657930684023915 0 0.0040550678100906906 0.068528506702964273 0 0.00050371008753761386 0.067644730103483722 0 0.0040550678100906906 0.068528506702964273 0 0.0020744222217183631 0.064135049279042206 0 0.007233890769502524 0.069221797659406475 0 0.0040550678100906906 0.068528506702964273 0 0.0061772511675675145 0.064423893459923179 0 0.007233890769502524 0.069221797659406475 0 0.0050994446363811863 0.07232801998143383 0 0.0040550678100906906 0.068528506702964273 0 0.0061772511675675145 0.064423893459923179 0 0.003746119825060673 0.060853434205238366 0 0.0064110987359100998 0.058395058137910259 0 0.0061772511675675145 0.064423893459923179 0 0.003746119825060673 0.060853434205238366 0 0.0020744222217183631 0.064135049279042206 0 0.0040550678100906906 0.068528506702964273 0 0.0061772511675675145 0.064423893459923179 0 0.0020744222217183631 0.064135049279042206 0 0.003746119825060673 0.060853434205238366 0 0.0020744222217183631 0.064135049279042206 0 0.0002073241585180368 0.059434454919381423 0 0.0020744222217183631 0.064135049279042206 0 -0.0015597627666399201 0.063864905828322494 0 0.0002073241585180368 0.059434454919381423 0 -0.0015597627666399201 0.063864905828322494 0 0.0002073241585180368 0.059434454919381423 0 -0.0038997246091410512 0.06043484676883179 0 0.0002073241585180368 0.059434454919381423 0 -0.0038997246091410512 0.06043484676883179 0 -0.0023476029491034142 0.056196938303571586 0 0.0002073241585180368 0.059434454919381423 0 0.00083817324880960508 0.053085338523742719 0 -0.0023476029491034142 0.056196938303571586 0 0.00083817324880960508 0.053085338523742719 0 0.0027465688391892585 0.056899503028029458 0 0.0043206086428049491 0.054304164891466694 0 0.0002073241585180368 0.059434454919381423 0 0.00083817324880960508 0.053085338523742719 0 0.0027465688391892585 0.056899503028029458 0 0.003746119825060673 0.060853434205238366 0 0.0002073241585180368 0.059434454919381423 0 0.0027465688391892585 0.056899503028029458 0 0.003746119825060673 0.060853434205238366 0 0.0027465688391892585 0.056899503028029458 0 0.0064110987359100998 0.058395058137910259 0 0.0027465688391892585 0.056899503028029458 0 0.0043206086428049491 0.054304164891466694 0 0.0064110987359100998 0.058395058137910259 0 0.0097738820952854664 0.053645375547873075 0 0.0043206086428049491 0.054304164891466694 0 0.0064110987359100998 0.058395058137910259 0 -0.0083744952291772718 0.059800862914894448 0 -0.012776032115726229 0.061935753612737003 0 -0.012840453043854011 0.055640361579332942 0 -0.0083744952291772718 0.059800862914894448 0 -0.0097216186127575422 0.063853931260617489 0 -0.0057040422227472871 0.064392201405489249 0 -0.0083744952291772718 0.059800862914894448 0 -0.012776032115726229 0.061935753612737003 0 -0.0097216186127575422 0.063853931260617489 0 -0.0083744952291772718 0.059800862914894448 0 -0.0057040422227472871 0.064392201405489249 0 -0.0038997246091410512 0.06043484676883179 0 -0.0015597627666399201 0.063864905828322494 0 -0.0057040422227472871 0.064392201405489249 0 -0.0038997246091410512 0.06043484676883179 0 -0.0083744952291772718 0.059800862914894448 0 -0.0038997246091410512 0.06043484676883179 0 -0.005784634785226673 0.056921912283445585 0 -0.005784634785226673 0.056921912283445585 0 -0.0023476029491034142 0.056196938303571586 0 -0.0036402542445240545 0.05147873482582882 0 -0.0038997246091410512 0.06043484676883179 0 -0.005784634785226673 0.056921912283445585 0 -0.0023476029491034142 0.056196938303571586 0 0.00083817324880960508 0.053085338523742719 0 -0.0023476029491034142 0.056196938303571586 0 -0.0036402542445240545 0.05147873482582882 0 -0.0036402542445240545 0.05147873482582882 0 -0.0084489557442226065 0.053669970897583012 0 -0.0061147732043590189 0.048518061076398895 0 -0.005784634785226673 0.056921912283445585 0 -0.0036402542445240545 0.05147873482582882 0 -0.0084489557442226065 0.053669970897583012 0 -0.0084489557442226065 0.053669970897583012 0 -0.012125353385896093 0.05212696711777217 0 -0.0099269086015523356 0.049090729821469496 0 -0.0083744952291772718 0.059800862914894448 0 -0.0084489557442226065 0.053669970897583012 0 -0.012840453043854011 0.055640361579332942 0 -0.0083744952291772718 0.059800862914894448 0 -0.005784634785226673 0.056921912283445585 0 -0.0084489557442226065 0.053669970897583012 0 -0.015353832010135874 0.052743429443511541 0 -0.012840453043854011 0.055640361579332942 0 -0.012125353385896093 0.05212696711777217 0 -0.0084489557442226065 0.053669970897583012 0 -0.012840453043854011 0.055640361579332942 0 -0.012125353385896093 0.05212696711777217 0 -0.011936422866751036 0.046106610548902957 0 -0.0099269086015523356 0.049090729821469496 0 -0.014117895763001221 0.04934911215651145 0 -0.012125353385896093 0.05212696711777217 0 -0.0099269086015523356 0.049090729821469496 0 -0.014117895763001221 0.04934911215651145 0 -0.011936422866751036 0.046106610548902957 0 -0.011608755638532394 0.041143261514127116 0 -0.016531655619823029 0.046210776113922582 0 -0.011936422866751036 0.046106610548902957 0 -0.0068826772125704693 0.044303526226810878 0 -0.011608755638532394 0.041143261514127116 0 -0.011936422866751036 0.046106610548902957 0 -0.0068826772125704693 0.044303526226810878 0 -0.0099269086015523356 0.049090729821469496 0 -0.0084489557442226065 0.053669970897583012 0 -0.0099269086015523356 0.049090729821469496 0 -0.0061147732043590189 0.048518061076398895 0 -0.0068826772125704693 0.044303526226810878 0 -0.0099269086015523356 0.049090729821469496 0 -0.0061147732043590189 0.048518061076398895 0 -0.0036402542445240545 0.05147873482582882 0 -0.0061147732043590189 0.048518061076398895 0 -0.0018544298829202559 0.044532603391454761 0 -0.0036402542445240545 0.05147873482582882 0 -0.0018544298829202559 0.044532603391454761 0 0.00055999616366155176 0.046885944841739899 0 -0.0068826772125704693 0.044303526226810878 0 -0.0018544298829202559 0.044532603391454761 0 -0.0027799408764698592 0.040597483649408218 0 -0.0068826772125704693 0.044303526226810878 0 -0.0061147732043590189 0.048518061076398895 0 -0.0018544298829202559 0.044532603391454761 0 -0.0068826772125704693 0.044303526226810878 0 -0.0027799408764698592 0.040597483649408218 0 -0.0031837013772690551 0.035335042894902288 0 -0.0018544298829202559 0.044532603391454761 0 -0.0027799408764698592 0.040597483649408218 0 -0.00010118255045878338 0.038846936004050626 0 -0.00010118255045878338 0.038846936004050626 0 -0.0031837013772690551 0.035335042894902288 0 -7.1000806998044538e-05 0.034865150926691645 0 -0.0027799408764698592 0.040597483649408218 0 -0.00010118255045878338 0.038846936004050626 0 -0.0031837013772690551 0.035335042894902288 0 -0.0031837013772690551 0.035335042894902288 0 -0.0013390000634952988 0.032226311095627284 0 -0.0015855198944296374 0.032377679126552678 0 -0.0031837013772690551 0.035335042894902288 0 -0.0013390000634952988 0.032226311095627284 0 -0.0017655030240203242 0.032093328287048133 0 -0.0013390000634952988 0.032226311095627284 0 -0.0017655030240203242 0.032093328287048133 0 -0.0015753446549731879 0.032085107954411031 0 -0.0068826772125704693 0.044303526226810878 0 -0.0031837013772690551 0.035335042894902288 0 -0.011608755638532394 0.041143261514127116 0 -0.0057596547953569534 0.035314834361888162 0 -0.0070988474091262452 0.035979648981762785 0 0.0087451716311007423 0.048856757548965665 0 0.0055729891286415423 0.050249742547495334 0 0.0062723474315036221 0.04655175651310977 0 0.0097738820952854664 0.053645375547873075 0 0.0043206086428049491 0.054304164891466694 0 0.0055729891286415423 0.050249742547495334 0 0.0043206086428049491 0.054304164891466694 0 0.0055729891286415423 0.050249742547495334 0 0.001951182561541608 0.050418840442450465 0 0.0025724488387941472 0.047848431600546741 0 0.0040996332148973752 0.044422778786773733 0 0.0055729891286415423 0.050249742547495334 0 0.001951182561541608 0.050418840442450465 0 0.0035796456300968824 0.045893598626292956 0 0.0043570471428770949 0.045507792020132325 0 0.00055999616366155176 0.046885944841739899 0 0.0022885676151319766 0.041530003753340178 0 0.0014206677535909032 0.050147960175544182 0 0.0025724488387941472 0.047848431600546741 0 0.00083817324880960508 0.053085338523742719 0 0.0043570471428770949 0.045507792020132325 0 0.00055999616366155176 0.046885944841739899 0 0.00083817324880960508 0.053085338523742719 0 0.0043206086428049491 0.054304164891466694 0 0.001951182561541608 0.050418840442450465 0 0.00083817324880960508 0.053085338523742719 0 -0.0036402542445240545 0.05147873482582882 0 0.00055999616366155176 0.046885944841739899 0 -0.0018544298829202559 0.044532603391454761 0 0.00055999616366155176 0.046885944841739899 0 0.0022885676151319766 0.041530003753340178 0 -0.0018544298829202559 0.044532603391454761 0 -0.00010118255045878338 0.038846936004050626 0 0.0022885676151319766 0.041530003753340178 0 -0.00010118255045878338 0.038846936004050626 0 0.0017158297311858923 0.038766219866591269 0 0.0005980801598121021 0.037300364213849947 0 -0.00010118255045878338 0.038846936004050626 0 0.0022885676151319766 0.041530003753340178 0 0.0017158297311858923 0.038766219866591269 0 0.0022885676151319766 0.041530003753340178 0 0.0030670764435437501 0.04002898240308507 0 0.0017158297311858923 0.038766219866591269 0 0.0043570471428770949 0.045507792020132325 0 0.0022885676151319766 0.041530003753340178 0 0.0042447798400968321 0.041618050305226237 0 0.0022885676151319766 0.041530003753340178 0 0.0042447798400968321 0.041618050305226237 0 0.0030670764435437501 0.04002898240308507 0 0.0070730849791215316 0.043668067304969721 0 0.0035796456300968824 0.045893598626292956 0 0.004716789302693346 0.040771160458728084 0 0.0040996332148973752 0.044422778786773733 0 0.0049227858651414149 0.042604399426387649 0 0.0042447798400968321 0.041618050305226237 0 0.004716789302693346 0.040771160458728084 0 0.0030670764435437501 0.04002898240308507 0 0.0055729891286415423 0.050249742547495334 0 0.0035796456300968824 0.045893598626292956 0 0.0062723474315036221 0.04655175651310977 0 0.0070730849791215316 0.043668067304969721 0 0.0035796456300968824 0.045893598626292956 0 0.0062723474315036221 0.04655175651310977 0 -0.0013814377382525525 0.038737095145435954 0 0.0022777217394404021 0.039393825034061518 0 -0.00022878230742537156 0.046199991486256912 0 0.0016266021008587762 0.057218143625398191 0 0.001244569049097639 0.055713651724370594 0 0.004716789302693346 0.040771160458728084 0 0.0030797797278074813 0.039915426250541064 0 0.0030670764435437501 0.04002898240308507 0 0.0048758651762736806 0.038817429184415636 0 0.004716789302693346 0.040771160458728084 0 0.0030797797278074813 0.039915426250541064 0 0.0048758651762736806 0.038817429184415636 0 0.0022777217394404021 0.039393825034061518 0 0.0030797797278074813 0.039915426250541064 0 0.0022777217394404021 0.039393825034061518 0 0.0030797797278074813 0.039915426250541064 0 0.0021642892789721941 0.039212290591029098 0 0.0030797797278074813 0.039915426250541064 0 0.0030670764435437501 0.04002898240308507 0 0.0021642892789721941 0.039212290591029098 0 0.0022777217394404021 0.039393825034061518 0 0.0021642892789721941 0.039212290591029098 0 0.001465433249799399 0.041790486767437358 0 0.0021642892789721941 0.039212290591029098 0 0.0007443344715879096 0.037524072798698203 0 0.0011690798965895688 0.039401445104304558 0 0.0021642892789721941 0.039212290591029098 0 0.0017158297311858923 0.038766219866591269 0 0.0007443344715879096 0.037524072798698203 0 0.0030670764435437501 0.04002898240308507 0 0.0021642892789721941 0.039212290591029098 0 0.0017158297311858923 0.038766219866591269 0 0.0017158297311858923 0.038766219866591269 0 0.0007443344715879096 0.037524072798698203 0 0.0005980801598121021 0.037300364213849947 0 0.0007443344715879096 0.037524072798698203 0 0.00067289396232528189 0.037198825670912622 0 0.0011690798965895688 0.039401445104304558 0 0.00067289396232528189 0.037198825670912622 0 3.0557262507478017e-06 0.037614254702880594 0 0.0011690798965895688 0.039401445104304558 0 3.0557262507478017e-06 0.037614254702880594 0 0.0011690798965895688 0.039401445104304558 0 1.4975282263639603e-06 0.043307547714583769 0 0.0011690798965895688 0.039401445104304558 0 0.001465433249799399 0.041790486767437358 0 1.4975282263639603e-06 0.043307547714583769 0 0.0021642892789721941 0.039212290591029098 0 0.0011690798965895688 0.039401445104304558 0 0.001465433249799399 0.041790486767437358 0 1.1429146565746952e-07 0.048997719556756282 0 1.4975282263639603e-06 0.043307547714583769 0 -0.00022878230742537156 0.046199991486256912 0 0.001465433249799399 0.041790486767437358 0 1.4975282263639603e-06 0.043307547714583769 0 -0.00022878230742537156 0.046199991486256912 0 0.0022777217394404021 0.039393825034061518 0 0.001465433249799399 0.041790486767437358 0 -0.00022878230742537156 0.046199991486256912 0 -0.00057373167645393666 0.03117885672871927 0 -0.0015855198944296374 0.032377679126552678 0 -7.1000806998044538e-05 0.034865150926691645 0 -0.00057373167645393666 0.03117885672871927 0 -0.00069670205095836242 0.02981844563482116 0 3.5298154034388617e-05 0.028652670794811569 0 -0.00057373167645393666 0.03117885672871927 0 -0.00069670205095836242 0.02981844563482116 0 -0.0015855198944296374 0.032377679126552678 0 -0.00069670205095836242 0.02981844563482116 0 -0.00012092974781427717 0.026614259734655268 0 -0.00089101820461476658 0.029737155027481321 0 -0.00069670205095836242 0.02981844563482116 0 -0.0015855198944296374 0.032377679126552678 0 -0.00089101820461476658 0.029737155027481321 0 -0.0013390000634952988 0.032226311095627284 0 -0.0015855198944296374 0.032377679126552678 0 -0.00089101820461476658 0.029737155027481321 0 -0.0031837013772690551 0.035335042894902288 0 -0.0015855198944296374 0.032377679126552678 0 -7.1000806998044538e-05 0.034865150926691645 0 -0.00010118255045878338 0.038846936004050626 0 -7.1000806998044538e-05 0.034865150926691645 0 0.0005980801598121021 0.037300364213849947 0 0.0007443344715879096 0.037524072798698203 0 -7.1000806998044538e-05 0.034865150926691645 0 0.0005980801598121021 0.037300364213849947 0 0.0007443344715879096 0.037524072798698203 0 -7.1000806998044538e-05 0.034865150926691645 0 -0.00027922884904956635 0.036755768799990741 0 -0.00057373167645393666 0.03117885672871927 0 -7.1000806998044538e-05 0.034865150926691645 0 0.00032345640998352669 0.02962117917413154 0 3.6165827511984065e-06 0.03369012128435931 0 5.6192956707048317e-06 0.033073703639229519 0 -0.00057373167645393666 0.03117885672871927 0 0.00032345640998352669 0.02962117917413154 0 3.5298154034388617e-05 0.028652670794811569 0 0.0007443344715879096 0.037524072798698203 0 0.00067289396232528189 0.037198825670912622 0 -0.00027922884904956635 0.036755768799990741 0 0.00067289396232528189 0.037198825670912622 0 -0.00027922884904956635 0.036755768799990741 0 -3.0795612471811476e-06 0.031934162777884814 0 0.00067289396232528189 0.037198825670912622 0 3.0557262507478017e-06 0.037614254702880594 0 -3.0795612471811476e-06 0.031934162777884814 0 5.6192956707048317e-06 0.033073703639229519 0 -6.6019486178553994e-09 0.031925894207682361 0 0.00032345640998352669 0.02962117917413154 0 1.1099301461842022e-07 0.03191540322300495 0 3.5298154034388617e-05 0.028652670794811569 0 1.1099301461842022e-07 0.03191540322300495 0 8.816181381987567e-07 0.027372437946330552 0 3.5298154034388617e-05 0.028652670794811569 0 -0.00069670205095836242 0.02981844563482116 0 3.5298154034388617e-05 0.028652670794811569 0 -0.00012092974781427717 0.026614259734655268 0 8.816181381987567e-07 0.027372437946330552 0 -0.00012092974781427717 0.026614259734655268 0 -7.0685948221190196e-07 0.022817594974074696 0 8.816181381987567e-07 0.027372437946330552 0 3.5298154034388617e-05 0.028652670794811569 0 -0.00012092974781427717 0.026614259734655268 0 -0.00012092974781427717 0.026614259734655268 0 -7.0685948221190196e-07 0.022817594974074696 0 -0.00018154262502792609 0.023459725523506458 0 -0.00018154262502792609 0.023459725523506458 0 2.5473496998851826e-06 0.018261244339148018 0 -0.0011102894623427834 0.022798536932665599 0 -7.0685948221190196e-07 0.022817594974074696 0 -0.00018154262502792609 0.023459725523506458 0 2.5473496998851826e-06 0.018261244339148018 0 -0.00018154262502792609 0.023459725523506458 0 -0.0011102894623427834 0.022798536932665599 0 -0.00081460384540180022 0.026923972689061205 0 -0.00012092974781427717 0.026614259734655268 0 -0.00018154262502792609 0.023459725523506458 0 -0.00081460384540180022 0.026923972689061205 0 -3.1328810617444966e-06 0.013708117322576076 0 -0.001645729095571708 0.015351208633898555 0 2.5473496998851826e-06 0.018261244339148018 0 -1.2716651980619991e-05 0.013717860275757493 0 -0.0011102894623427834 0.022798536932665599 0 -1.2716651980619991e-05 0.013717860275757493 0 -0.0011102894623427834 0.022798536932665599 0 -0.0052687849515290269 0.023930543441650121 0 -0.001645729095571708 0.015351208633898555 0 -0.0024202554690548068 0.016478496628247682 0 -0.0052687849515290269 0.023930543441650121 0 -0.0025917900596128473 0.028726056783073165 0 -0.0057654680145879933 0.029109913825313732 0 -0.0011102894623427834 0.022798536932665599 0 -0.0052687849515290269 0.023930543441650121 0 -0.0025917900596128473 0.028726056783073165 0 -0.0025917900596128473 0.028726056783073165 0 -0.0057654680145879933 0.029109913825313732 0 -0.0037946745625209999 0.031180561604577817 0 -0.00089101820461476658 0.029737155027481321 0 -0.00081460384540180022 0.026923972689061205 0 -0.0014174225062086412 0.029854295799969802 0 -0.00012092974781427717 0.026614259734655268 0 -0.00089101820461476658 0.029737155027481321 0 -0.00081460384540180022 0.026923972689061205 0 -0.0025917900596128473 0.028726056783073165 0 -0.00081460384540180022 0.026923972689061205 0 -0.0014174225062086412 0.029854295799969802 0 -0.0011102894623427834 0.022798536932665599 0 -0.0025917900596128473 0.028726056783073165 0 -0.00081460384540180022 0.026923972689061205 0 -0.0025917900596128473 0.028726056783073165 0 -0.0014174225062086412 0.029854295799969802 0 -0.0020664491103885227 0.03118721386341769 0 -0.0013390000634952988 0.032226311095627284 0 -0.00089101820461476658 0.029737155027481321 0 -0.0014174225062086412 0.029854295799969802 0 -0.0013390000634952988 0.032226311095627284 0 -0.0014174225062086412 0.029854295799969802 0 -0.0020664491103885227 0.03118721386341769 0 -0.0013390000634952988 0.032226311095627284 0 -0.0018931525959326012 0.032058267614089239 0 -0.0020664491103885227 0.03118721386341769 0 -0.0013390000634952988 0.032226311095627284 0 -0.0015643889676039931 0.032303081273153886 0 -0.0018931525959326012 0.032058267614089239 0 -0.0047529237819409998 0.032078002680386193 0 -0.005560039264316188 0.032668395059454305 0 -0.0015643889676039931 0.032303081273153886 0 -0.0018931525959326012 0.032058267614089239 0 -0.0019208537634132566 0.032612905902118662 0 -0.0017655030240203242 0.032093328287048133 0 -0.0015922401801437692 0.032086348256480775 0 -0.0015753446549731879 0.032085107954411031 0 -0.0018931525959326012 0.032058267614089239 0 -0.0020664491103885227 0.03118721386341769 0 -0.0029609948383357105 0.032386342324534301 0 -0.0018931525959326012 0.032058267614089239 0 -0.0029609948383357105 0.032386342324534301 0 -0.0023100704280071042 0.032737711862680582 0 -0.0018931525959326012 0.032058267614089239 0 -0.0019208537634132566 0.032612905902118662 0 -0.0023100704280071042 0.032737711862680582 0 -0.0025917900596128473 0.028726056783073165 0 -0.0020664491103885227 0.03118721386341769 0 -0.0037946745625209999 0.031180561604577817 0 -0.0020664491103885227 0.03118721386341769 0 -0.0037946745625209999 0.031180561604577817 0 -0.0029609948383357105 0.032386342324534301 0 -0.0057654680145879933 0.029109913825313732 0 -0.0037946745625209999 0.031180561604577817 0 -0.0053463672553267956 0.031873236781372702 0 -0.0024202554690548068 0.016478496628247682 0 -0.0025988690278558532 0.017378419070763561 0 -0.0037946745625209999 0.031180561604577817 0 -0.0042664412542132452 0.03254219468674388 0 -0.0053463672553267956 0.031873236781372702 0 -0.0037946745625209999 0.031180561604577817 0 -0.0042664412542132452 0.03254219468674388 0 -0.0029609948383357105 0.032386342324534301 0 -0.0029609948383357105 0.032386342324534301 0 -0.0038947810314266481 0.033405158937884039 0 -0.0029198092765821151 0.033448486776989562 0 -0.0042664412542132452 0.03254219468674388 0 -0.0029609948383357105 0.032386342324534301 0 -0.0038947810314266481 0.033405158937884039 0 -0.0042664412542132452 0.03254219468674388 0 -0.0051037268209224882 0.033530425372614969 0 -0.0053463672553267956 0.031873236781372702 0 -0.0042664412542132452 0.03254219468674388 0 -0.0038947810314266481 0.033405158937884039 0 -0.0051037268209224882 0.033530425372614969 0 -0.0038947810314266481 0.033405158937884039 0 -0.004283813266022762 0.034270281212658453 0 -0.0051037268209224882 0.033530425372614969 0 -0.0032125050497255852 0.034417810978793262 0 -0.0038947810314266481 0.033405158937884039 0 -0.0029198092765821151 0.033448486776989562 0 -0.0032125050497255852 0.034417810978793262 0 -0.0038947810314266481 0.033405158937884039 0 -0.004283813266022762 0.034270281212658453 0 -0.0032125050497255852 0.034417810978793262 0 -0.0018745234194422285 0.033418215606460279 0 -0.0029198092765821151 0.033448486776989562 0 -0.007136481424210867 0.031609004836380107 0 -0.0085216456443128544 0.035483606086558449 0 -0.010763588523476633 0.029769179823427774 0 -0.014937268524569822 0.031204873951632944 0 -0.016146125460882864 0.034598033113676423 0 -0.010987873654385886 0.03910005325966142 0 -0.0085216456443128544 0.035483606086558449 0 -0.017787331131808342 0.049842486293635767 0 -0.014117895763001221 0.04934911215651145 0 -0.016531655619823029 0.046210776113922582 0 -0.015353832010135874 0.052743429443511541 0 -0.017787331131808342 0.049842486293635767 0 -0.014117895763001221 0.04934911215651145 0 -0.011936422866751036 0.046106610548902957 0 -0.014117895763001221 0.04934911215651145 0 -0.016531655619823029 0.046210776113922582 0 -0.010987873654385886 0.03910005325966142 0 -0.0087748723733892722 0.036086030108333146 0 -0.010315327277714548 0.038800837113173295 0 -0.009295349908287457 0.035920832952779889 0 -0.008760057550098517 0.035438468007172527 0 -0.0015643889676039931 0.032303081273153886 0 -0.0018745234194422285 0.033418215606460279 0 -0.0019208537634132566 0.032612905902118662 0 -0.0015753446549731879 0.032085107954411031 0 -0.0017113172434884355 0.032175679802301037 0 -0.0016843644022746928 0.032165538156097732 0 -0.005560039264316188 0.032668395059454305 0 -0.0085216456443128544 0.035483606086558449 0 -0.0017655030240203242 0.032093328287048133 0 -0.0015922401801437692 0.032086348256480775 0 -0.0015306163767557098 0.031960341272778442 0 -0.0070988474091262452 0.035979648981762785 0 -0.0087748723733892722 0.036086030108333146 0 -0.0015922401801437692 0.032086348256480775 0 -0.0015753446549731879 0.032085107954411031 0 -0.0016843644022746928 0.032165538156097732 0 -0.0085216456443128544 0.035483606086558449 0 -0.0087748723733892722 0.036086030108333146 0 -0.0076013399021226963 0.034440617150262857 0 -0.0087748723733892722 0.036086030108333146 0 -0.0018745234194422285 0.033418215606460279 0 -0.0023100704280071042 0.032737711862680582 0 -0.0029198092765821151 0.033448486776989562 0 -0.0018745234194422285 0.033418215606460279 0 -0.0019208537634132566 0.032612905902118662 0 -0.0023100704280071042 0.032737711862680582 0 -0.0029609948383357105 0.032386342324534301 0 -0.0023100704280071042 0.032737711862680582 0 -0.0029198092765821151 0.033448486776989562 0 0.0012997405354671318 0.0025538913502447928 0 0.00088477742918609292 0.002014842107238362 0 0.0010255048927055158 0.0012380931590497686 0 0.0012997405354671318 0.0025538913502447928 0 0.00088477742918609292 0.002014842107238362 0 0.00071468225791026521 0.0026169899039110937 0 0.00017740396665612959 -0.0020945604914848794 0 0.000255798626172544 -0.0015759114681362912 0 -0.0006386628679526064 -0.0060712878051958049 0 -0.0013429415520202046 -0.0055644600875039123 0 -0.00098908395734335366 -0.0051549516881584569 0 -0.0006386628679526064 -0.0060712878051958049 0 -0.0013429415520202046 -0.0055644600875039123 0 -0.0017049191235376225 -0.0061434594602168234 0 -0.0013429415520202046 -0.0055644600875039123 0 -0.0015316915977713222 -0.0050820656864502102 0 -0.00098908395734335366 -0.0051549516881584569 0 -0.0015316915977713222 -0.0050820656864502102 0 -0.0012197131815745383 -0.0046444145162873249 0 -0.0016587869196599281 -0.0047622147075038583 0 -0.0015316915977713222 -0.0050820656864502102 0 -0.0012197131815745383 -0.0046444145162873249 0 -0.00098908395734335366 -0.0051549516881584569 0 -0.0010068835073242489 -0.0046396152026169984 0 -0.00098908395734335366 -0.0051549516881584569 0 -0.00067665940982222436 -0.0045917190533670349 0 -0.0006386628679526064 -0.0060712878051958049 0 -0.00098908395734335366 -0.0051549516881584569 0 -0.00067665940982222436 -0.0045917190533670349 0 -0.0012197131815745383 -0.0046444145162873249 0 -0.0010068835073242489 -0.0046396152026169984 0 -0.00095089887728387374 -0.0042706364495809909 0 -0.0012197131815745383 -0.0046444145162873249 0 -0.0010068835073242489 -0.0046396152026169984 0 -0.00098908395734335366 -0.0051549516881584569 0 0.00088477742918609292 0.002014842107238362 0 0.0010255048927055158 0.0012380931590497686 0 0.00082944319727955209 0.0015001625221480557 0 -0.0010068835073242489 -0.0046396152026169984 0 -0.00067665940982222436 -0.0045917190533670349 0 -0.00095089887728387374 -0.0042706364495809909 0 0.0007061984201858296 0.00087567826910683974 0 0.0010255048927055158 0.0012380931590497686 0 0.00077675720142467619 0.0011306760209434364 0 0.0010255048927055158 0.0012380931590497686 0 0.00083873292220872 0.0012708425324781259 0 0.00077675720142467619 0.0011306760209434364 0 0.0010255048927055158 0.0012380931590497686 0 0.00083873292220872 0.0012708425324781259 0 0.00082944319727955209 0.0015001625221480557 0 0.00083873292220872 0.0012708425324781259 0 0.00070913314524858901 0.0013181705189441403 0 0.00082944319727955209 0.0015001625221480557 0 0.00083873292220872 0.0012708425324781259 0 0.00070913314524858901 0.0013181705189441403 0 0.00077675720142467619 0.0011306760209434364 0 0.00070913314524858901 0.0013181705189441403 0 0.00077675720142467619 0.0011306760209434364 0 0.0006145534192187914 0.001134659207685861 0 0.0006145534192187914 0.001134659207685861 0 0.00047316471379214132 0.0014040842789953324 0 0.00045759168537989669 0.0010496334540126522 0 0.00070913314524858901 0.0013181705189441403 0 0.0006145534192187914 0.001134659207685861 0 0.00047316471379214132 0.0014040842789953324 0 0.00070913314524858901 0.0013181705189441403 0 0.00047316471379214132 0.0014040842789953324 0 0.00066661850539314889 0.001701843878437162 0 0.00047316471379214132 0.0014040842789953324 0 0.00066661850539314889 0.001701843878437162 0 0.0004113097880193349 0.0018133199004863505 0 0.00088477742918609292 0.002014842107238362 0 0.00066661850539314889 0.001701843878437162 0 0.00082944319727955209 0.0015001625221480557 0 0.00070913314524858901 0.0013181705189441403 0 0.00066661850539314889 0.001701843878437162 0 0.00082944319727955209 0.0015001625221480557 0 -0.0038344490837972987 0.030267896290985499 0 -0.0025339432174766624 0.017975805603776741 0 0.00053928242897223705 0.00046593418849365546 0 0.00045759168537989669 0.0010496334540126522 0 -0.00026048524569197829 0.0017852311263726727 0 -0.0050010887518347176 0.034622407156090065 0 -0.004283813266022762 0.034270281212658453 0 -0.0051037268209224882 0.033530425372614969 0 -0.0019101653344051866 0.017716343420824506 0 -0.0025339432174766624 0.017975805603776741 0 0.00047316471379214132 0.0014040842789953324 0 0.00045759168537989669 0.0010496334540126522 0 -0.00026048524569197829 0.0017852311263726727 0 0.00047316471379214132 0.0014040842789953324 0 -0.00026048524569197829 0.0017852311263726727 0 0.0004113097880193349 0.0018133199004863505 0 -0.00026048524569197829 0.0017852311263726727 0 0.00011389997346718825 0.0022052378697580734 0 -0.00038140785913706781 0.002630168406327806 0 -0.0025339432174766624 0.017975805603776741 0 -0.0016884845310194483 0.008756433471859431 0 -0.00020133177921434676 0.0029558565560374207 0 -0.00041417658334739398 0.0032306438410857944 0 -0.0003210703797361521 0.0031264740684947574 0 -0.0025339432174766624 0.017975805603776741 0 -0.0025988690278558532 0.017378419070763561 0 -0.00026048524569197829 0.0017852311263726727 0 0.00011389997346718825 0.0022052378697580734 0 0.0004113097880193349 0.0018133199004863505 0 0.00011389997346718825 0.0022052378697580734 0 0.00024174727007369794 0.0026220198099123908 0 -0.00038140785913706781 0.002630168406327806 0 0.00088477742918609292 0.002014842107238362 0 0.00066661850539314889 0.001701843878437162 0 0.000528841111016114 0.0021526697927787509 0 0.00011389997346718825 0.0022052378697580734 0 0.000528841111016114 0.0021526697927787509 0 0.0004113097880193349 0.0018133199004863505 0 0.00066661850539314889 0.001701843878437162 0 0.000528841111016114 0.0021526697927787509 0 0.0004113097880193349 0.0018133199004863505 0 0.00011389997346718825 0.0022052378697580734 0 0.000528841111016114 0.0021526697927787509 0 0.00024174727007369794 0.0026220198099123908 0 0.00088477742918609292 0.002014842107238362 0 0.000528841111016114 0.0021526697927787509 0 0.00071468225791026521 0.0026169899039110937 0 0.000528841111016114 0.0021526697927787509 0 0.00071468225791026521 0.0026169899039110937 0 0.00024174727007369794 0.0026220198099123908 0 0.00071468225791026521 0.0026169899039110937 0 0.00024174727007369794 0.0026220198099123908 0 0.00036598312715801058 0.0031164958040471725 0 0.00024174727007369794 0.0026220198099123908 0 0.00036598312715801058 0.0031164958040471725 0 -5.2137020859670916e-05 0.0030183098391221757 0 0.00071468225791026521 0.0026169899039110937 0 0.00036598312715801058 0.0031164958040471725 0 0.00083669354726238505 0.0031372502475227161 0 -0.00038140785913706781 0.002630168406327806 0 -5.2137020859670916e-05 0.0030183098391221757 0 -0.00044717628444795171 0.0033963207101937159 0 -0.0016884845310194483 0.008756433471859431 0 -0.0014693725729218805 0.0066583206830513938 0 -0.00041417658334739398 0.0032306438410857944 0 -0.0003210703797361521 0.0031264740684947574 0 -0.00044717628444795171 0.0033963207101937159 0 0.00024174727007369794 0.0026220198099123908 0 -0.00038140785913706781 0.002630168406327806 0 -5.2137020859670916e-05 0.0030183098391221757 0 0.00036598312715801058 0.0031164958040471725 0 -5.2137020859670916e-05 0.0030183098391221757 0 -7.1801313996337218e-05 0.0033676608592108559 0 -0.00087639802668731037 0.0039532900808234408 0 -0.00044717628444795171 0.0033963207101937159 0 -0.00020970217727521868 0.0036714129588996235 0 -0.00087639802668731037 0.0039532900808234408 0 -0.00041417658334739398 0.0032306438410857944 0 -0.00044717628444795171 0.0033963207101937159 0 -0.00044717628444795171 0.0033963207101937159 0 -7.1801313996337218e-05 0.0033676608592108559 0 -0.00020970217727521868 0.0036714129588996235 0 -5.2137020859670916e-05 0.0030183098391221757 0 -0.00044717628444795171 0.0033963207101937159 0 -7.1801313996337218e-05 0.0033676608592108559 0 -7.1801313996337218e-05 0.0033676608592108559 0 -0.00020970217727521868 0.0036714129588996235 0 0.00021680763068732833 0.0036191198997848452 0 0.00036598312715801058 0.0031164958040471725 0 0.00059378783755272523 0.0034858588406844527 0 0.00083669354726238505 0.0031372502475227161 0 0.00036598312715801058 0.0031164958040471725 0 0.00021680763068732833 0.0036191198997848452 0 0.00059378783755272523 0.0034858588406844527 0 0.00036598312715801058 0.0031164958040471725 0 -7.1801313996337218e-05 0.0033676608592108559 0 0.00021680763068732833 0.0036191198997848452 0 0.00021680763068732833 0.0036191198997848452 0 0.00059378783755272523 0.0034858588406844527 0 0.00066216112902055073 0.0039490617807590852 0 0.00059378783755272523 0.0034858588406844527 0 0.00090973584166716105 0.0035695462784393348 0 0.00066216112902055073 0.0039490617807590852 0 0.00090973584166716105 0.0035695462784393348 0 0.0010444605792864416 0.0033198301991399738 0 0.0010263982336261523 0.0035897221381797147 0 0.00090973584166716105 0.0035695462784393348 0 0.0010444605792864416 0.0033198301991399738 0 0.00083669354726238505 0.0031372502475227161 0 0.00059378783755272523 0.0034858588406844527 0 0.00090973584166716105 0.0035695462784393348 0 0.00083669354726238505 0.0031372502475227161 0 0.0012997405354671318 0.0025538913502447928 0 0.0010444605792864416 0.0033198301991399738 0 0.00083669354726238505 0.0031372502475227161 0 0.0012997405354671318 0.0025538913502447928 0 0.00071468225791026521 0.0026169899039110937 0 0.00083669354726238505 0.0031372502475227161 0 -0.0006386628679526064 -0.0060712878051958049 0 -0.0014318002110121455 -0.00680030854952014 0 -0.0017049191235376225 -0.0061434594602168234 0 0.00017740396665612959 -0.0020945604914848794 0 0.00014229917643981979 -0.0025750249685632547 0 -0.0006386628679526064 -0.0060712878051958049 0 -0.00077754948638307638 -0.0075124470629180538 0 -0.0014318002110121455 -0.00680030854952014 0 0.0012997405354671318 0.0025538913502447928 0 0.0010444605792864416 0.0033198301991399738 0 0.0011148902993252036 0.0036261020906523896 0 -0.0006386628679526064 -0.0060712878051958049 0 -0.00077754948638307638 -0.0075124470629180538 0 -0.00066480970865701245 -0.0080567958545379719 0 0.0011148902993252036 0.0036261020906523896 0 0.0010263982336261523 0.0035897221381797147 0 0.00098345887165761305 0.0037322832144126299 0 0.0010444605792864416 0.0033198301991399738 0 0.0011148902993252036 0.0036261020906523896 0 0.0010263982336261523 0.0035897221381797147 0 0.00090973584166716105 0.0035695462784393348 0 0.0010263982336261523 0.0035897221381797147 0 0.00098345887165761305 0.0037322832144126299 0 0.0011148902993252036 0.0036261020906523896 0 0.00098345887165761305 0.0037322832144126299 0 0.00025422350015033611 0.0034789835128092913 0 0.00090973584166716105 0.0035695462784393348 0 0.00098345887165761305 0.0037322832144126299 0 0.00066216112902055073 0.0039490617807590852 0 0.00098345887165761305 0.0037322832144126299 0 0.00066216112902055073 0.0039490617807590852 0 0.00085737288813298774 0.0043607318044456 0 0.00098345887165761305 0.0037322832144126299 0 0.00072375053596644907 0.0024764427544552263 0 0.00085737288813298774 0.0043607318044456 0 0.00098345887165761305 0.0037322832144126299 0 0.00072375053596644907 0.0024764427544552263 0 0.00025422350015033611 0.0034789835128092913 0 -0.00087639802668731037 0.0039532900808234408 0 9.6645258673934778e-05 0.0040625877443182436 0 0.00021104523391339862 0.0049102206577001069 0 -0.00087639802668731037 0.0039532900808234408 0 -0.00020970217727521868 0.0036714129588996235 0 9.6645258673934778e-05 0.0040625877443182436 0 -0.00020970217727521868 0.0036714129588996235 0 0.00021680763068732833 0.0036191198997848452 0 9.6645258673934778e-05 0.0040625877443182436 0 9.6645258673934778e-05 0.0040625877443182436 0 0.00066216112902055073 0.0039490617807590852 0 0.00021104523391339862 0.0049102206577001069 0 0.00021680763068732833 0.0036191198997848452 0 9.6645258673934778e-05 0.0040625877443182436 0 0.00066216112902055073 0.0039490617807590852 0 0.00066216112902055073 0.0039490617807590852 0 0.00021104523391339862 0.0049102206577001069 0 0.00085737288813298774 0.0043607318044456 0 -0.0014804421374577596 0.0064632280410146176 0 -0.00087639802668731037 0.0039532900808234408 0 0.00021104523391339862 0.0049102206577001069 0 -0.0014804421374577596 0.0064632280410146176 0 0.00021104523391339862 0.0049102206577001069 0 0.00063554781728063583 0.006436286984089057 0 0.00021104523391339862 0.0049102206577001069 0 0.00063554781728063583 0.006436286984089057 0 0.00085737288813298774 0.0043607318044456 0 0.00063554781728063583 0.006436286984089057 0 2.493679828046171e-06 0.0086362903311290231 0 1.3953193946836475e-06 0.0035647877098484841 0 -6.174661511296344e-06 0.013696255748593011 0 -0.0014804421374577596 0.0064632280410146176 0 0.00063554781728063583 0.006436286984089057 0 -6.174661511296344e-06 0.013696255748593011 0 0.00063554781728063583 0.006436286984089057 0 2.493679828046171e-06 0.0086362903311290231 0 0.00063554781728063583 0.006436286984089057 0 0.00085737288813298774 0.0043607318044456 0 1.3953193946836475e-06 0.0035647877098484841 0 0.00072375053596644907 0.0024764427544552263 0 0.00085737288813298774 0.0043607318044456 0 1.3953193946836475e-06 0.0035647877098484841 0 0.00072375053596644907 0.0024764427544552263 0 1.3953193946836475e-06 0.0035647877098484841 0 2.2127763268139048e-06 -0.0015058578607204268 0 0.00072375053596644907 0.0024764427544552263 0 2.2127763268139048e-06 -0.0015058578607204268 0 -0.00083272025464947903 0.00073660529269060655 0 0.00016410402251299918 -0.0042903309846570653 0 -2.2209161819685069e-07 -0.0065730934723380917 0 2.2127763268139048e-06 -0.0015058578607204268 0 -0.00083272025464947903 0.00073660529269060655 0 -5.4914997446317686e-06 -0.0065676707351642553 0 -0.00058469765980438953 -0.0089949133281236604 0 -2.2259283596956392e-06 -0.0065835653516468163 0 0.00027148907537646096 -0.0089161428210199241 0 -2.2259283596956392e-06 -0.0065835653516468163 0 2.6301410306876772e-06 -0.0099351411417672782 0 0.00027148907537646096 -0.0089161428210199241 0 2.6301410306876772e-06 -0.0099351411417672782 0 0.0001715981869505264 -0.010088311967586378 0 -3.5926917850329149e-06 -0.013287441688292212 0 2.6301410306876772e-06 -0.0099351411417672782 0 0.0001715981869505264 -0.010088311967586378 0 0.00027148907537646096 -0.0089161428210199241 0 0.0001715981869505264 -0.010088311967586378 0 7.1976792377805531e-05 -0.0091637052749228339 0 0.00027148907537646096 -0.0089161428210199241 0 0.0001715981869505264 -0.010088311967586378 0 7.1976792377805531e-05 -0.0091637052749228339 0 -0.00051466119354712779 -0.0089464161873399218 0 -0.00058469765980438953 -0.0089949133281236604 0 0.00027148907537646096 -0.0089161428210199241 0 -0.00030847897918854865 -0.0090014466987804864 0 7.1976792377805531e-05 -0.0091637052749228339 0 0.00027148907537646096 -0.0089161428210199241 0 -0.00030847897918854865 -0.0090014466987804864 0 -0.00030847897918854865 -0.0090014466987804864 0 -0.00025909113990802497 -0.0089062965216409364 0 -0.00036416356761918812 -0.0087456936994410699 0 7.1976792377805531e-05 -0.0091637052749228339 0 -0.00030847897918854865 -0.0090014466987804864 0 -0.00025909113990802497 -0.0089062965216409364 0 -0.00025909113990802497 -0.0089062965216409364 0 -0.00051678872462981363 -0.0087495909270934244 0 -0.00051466119354712779 -0.0089464161873399218 0 7.1976792377805531e-05 -0.0091637052749228339 0 -0.00025909113990802497 -0.0089062965216409364 0 -0.00051466119354712779 -0.0089464161873399218 0 -0.00025909113990802497 -0.0089062965216409364 0 -0.00051678872462981363 -0.0087495909270934244 0 -0.00036416356761918812 -0.0087456936994410699 0 -0.00051678872462981363 -0.0087495909270934244 0 -0.00036416356761918812 -0.0087456936994410699 0 -0.00045457781987440102 -0.0086149225670086212 0 -0.00030847897918854865 -0.0090014466987804864 0 -0.00036416356761918812 -0.0087456936994410699 0 -0.00042439420347868776 -0.0086431777708330763 0 -0.00036416356761918812 -0.0087456936994410699 0 -0.00042439420347868776 -0.0086431777708330763 0 -0.00041573269680159021 -0.0086161505389972491 0 -0.00030847897918854865 -0.0090014466987804864 0 -0.00042439420347868776 -0.0086431777708330763 0 -0.0003964395757425398 -0.0087274511743502727 0 0.00014229917643981979 -0.0025750249685632547 0 0.00013414914313028732 -0.0031826980614066656 0 -0.00042439420347868776 -0.0086431777708330763 0 -0.0003964395757425398 -0.0087274511743502727 0 -0.00053604550089195581 -0.0084280428221724553 0 -0.00066480970865701245 -0.0080567958545379719 0 -0.0003964395757425398 -0.0087274511743502727 0 -0.00053604550089195581 -0.0084280428221724553 0 0.00072375053596644907 0.0024764427544552263 0 -0.00083272025464947903 0.00073660529269060655 0 0.00025422350015033611 0.0034789835128092913 0 0.00016410402251299918 -0.0042903309846570653 0 0.00013414914313028732 -0.0031826980614066656 0 -0.00058469765980438953 -0.0089949133281236604 0 -0.00030847897918854865 -0.0090014466987804864 0 -0.0003964395757425398 -0.0087274511743502727 0 0.00040755408583153472 -0.020197465434458804 0 -0.0003448497522989228 -0.019592216079215179 0 -0.00079373331706759876 -0.020252331300409807 0 1.1078232669872384e-06 -0.021710829037817125 0 0.00040755408583153472 -0.020197465434458804 0 -0.00079373331706759876 -0.020252331300409807 0 -4.9682246568350803e-06 -0.021729837683336539 0 -0.0027002622317155453 -0.025416345504639233 0 -4.3301307751603161e-07 -0.019017669488765057 0 -0.00023493951240298084 -0.018586185446320562 0 1.1731666009569765e-07 -0.019006531883312295 0 -2.8400409970978731e-05 -0.016246657567065018 0 0.00041658502222514628 -0.016381476441291176 0 1.1078232669872384e-06 -0.021710829037817125 0 -1.1427138876056264e-06 -0.019032901299666078 0 0.00040755408583153472 -0.020197465434458804 0 -2.8400409970978731e-05 -0.016246657567065018 0 0.00041658502222514628 -0.016381476441291176 0 1.4954847910072737e-05 -0.016683083043471575 0 -2.8400409970978731e-05 -0.016246657567065018 0 1.4954847910072737e-05 -0.016683083043471575 0 -4.2072504303034309e-05 -0.016472781307006253 0 1.1731666009569765e-07 -0.019006531883312295 0 0.00041658502222514628 -0.016381476441291176 0 -1.2404893271184812e-07 -0.013306191344817418 0 -1.1744485592449865e-06 -0.0132947671949667 0 -0.00063249387380431247 -0.013495278469205771 0 0.00041658502222514628 -0.016381476441291176 0 -1.2404893271184812e-07 -0.013306191344817418 0 1.4954847910072737e-05 -0.016683083043471575 0 0.0001715981869505264 -0.010088311967586378 0 -3.5926917850329149e-06 -0.013287441688292212 0 -0.0011681222519706581 -0.0094262599962464215 0 0.0001715981869505264 -0.010088311967586378 0 -0.0011681222519706581 -0.0094262599962464215 0 -0.00051466119354712779 -0.0089464161873399218 0 -0.0011681222519706581 -0.0094262599962464215 0 -0.00051466119354712779 -0.0089464161873399218 0 -0.0008628321753747668 -0.0087265513963982119 0 -0.00051678872462981363 -0.0087495909270934244 0 -0.00051466119354712779 -0.0089464161873399218 0 -0.0008628321753747668 -0.0087265513963982119 0 -0.00051678872462981363 -0.0087495909270934244 0 -0.0008628321753747668 -0.0087265513963982119 0 -0.00076009700181927124 -0.0087052359232135043 0 -3.0057745555434362e-05 -0.016465650289877235 0 1.3061083176467098e-05 -0.016505898820230663 0 1.935827927673696e-05 -0.016596181983278814 0 -0.0012066438222835725 -0.014518045226612092 0 -0.0011407897550168022 -0.020336116787848978 0 -0.00063249387380431247 -0.013495278469205771 0 -0.0012066438222835725 -0.014518045226612092 0 1.4954847910072737e-05 -0.016683083043471575 0 -3.0057745555434362e-05 -0.016465650289877235 0 -4.2072504303034309e-05 -0.016472781307006253 0 -3.0057745555434362e-05 -0.016465650289877235 0 -4.2072504303034309e-05 -0.016472781307006253 0 1.3061083176467098e-05 -0.016505898820230663 0 0.00040755408583153472 -0.020197465434458804 0 0.00035388727537279639 -0.019372472835057823 0 -0.0003448497522989228 -0.019592216079215179 0 -0.00023493951240298084 -0.018586185446320562 0 -0.0006848357161827371 -0.019048617332543667 0 -2.8400409970978731e-05 -0.016246657567065018 0 -4.2072504303034309e-05 -0.016472781307006253 0 1.3061083176467098e-05 -0.016505898820230663 0 -0.0006848357161827371 -0.019048617332543667 0 -0.001634943458477207 -0.022439185898035032 0 0.00035388727537279639 -0.019372472835057823 0 -0.00043532722902936638 -0.018882816342158801 0 0.00036874625657645164 -0.018512226320305285 0 0.00035388727537279639 -0.019372472835057823 0 -0.00043532722902936638 -0.018882816342158801 0 -0.0003448497522989228 -0.019592216079215179 0 -0.0010801626028806154 -0.036466498345839322 0 -0.0010735333500867862 -0.036593774590987241 0 -0.00092856873281001889 -0.036552552882581593 0 -0.0010801626028806154 -0.036466498345839322 0 -0.001240861399806111 -0.036565204033217676 0 -0.0010735333500867862 -0.036593774590987241 0 -0.0010649531303437952 -0.036314425384738246 0 -0.0010801626028806154 -0.036466498345839322 0 -0.00093785265481899946 -0.036397177555855628 0 -0.0010649531303437952 -0.036314425384738246 0 -0.0010801626028806154 -0.036466498345839322 0 -0.0012385330909743131 -0.036377784981052895 0 -0.0018283259702883774 -0.028168995368360868 0 -0.001634943458477207 -0.022439185898035032 0 -0.001634943458477207 -0.022439185898035032 0 -0.0011407897550168022 -0.020336116787848978 0 -0.00069979841189407913 -0.020554457400594237 0 -0.00074773880954866613 -0.022222172503946609 0 -0.001171265338978452 -0.020778834959273424 0 -0.0010801626028806154 -0.036466498345839322 0 -0.0012385330909743131 -0.036377784981052895 0 -0.001240861399806111 -0.036565204033217676 0 -0.001634943458477207 -0.022439185898035032 0 -0.0013745298740121628 -0.022323622463110242 0 -0.0013745298740121628 -0.022323622463110242 0 -0.0011407897550168022 -0.020336116787848978 0 -0.00019552560325202786 -0.0095262050975452352 0 -0.00057848078692853127 -0.0090848501004751128 0 -0.00047675817060833543 -0.0088151885750117256 0 -0.00019552560325202786 -0.0095262050975452352 0 -0.00069434780378454207 -0.0093815113288935412 0 -0.00057848078692853127 -0.0090848501004751128 0 -0.00069434780378454207 -0.0093815113288935412 0 -0.00080506937902701241 -0.0090272966218554948 0 -0.00099065226722132088 -0.0093623285451401566 0 -0.00069434780378454207 -0.0093815113288935412 0 -0.00099065226722132088 -0.0093623285451401566 0 -0.00084750687424566733 -0.0095535015998580771 0 -0.00069434780378454207 -0.0093815113288935412 0 -0.00080506937902701241 -0.0090272966218554948 0 -0.00057848078692853127 -0.0090848501004751128 0 -0.00080506937902701241 -0.0090272966218554948 0 -0.00057848078692853127 -0.0090848501004751128 0 -0.00067370371024466245 -0.0089314591769725088 0 -0.00057848078692853127 -0.0090848501004751128 0 -0.0005751263145905767 -0.0088457241964458484 0 -0.00067370371024466245 -0.0089314591769725088 0 -0.0005609299130110622 -0.0088105247828181368 0 -0.0005751263145905767 -0.0088457241964458484 0 -0.00076009700181927124 -0.0087052359232135043 0 -0.0008628321753747668 -0.0087265513963982119 0 -0.0005609299130110622 -0.0088105247828181368 0 -0.00076009700181927124 -0.0087052359232135043 0 -3.0057745555434362e-05 -0.016465650289877235 0 1.935827927673696e-05 -0.016596181983278814 0 -1.1999199578268184e-05 -0.016612724662767409 0 -0.0011407897550168022 -0.020336116787848978 0 -0.0011046322330640268 -0.020291743241034329 0 -0.00057848078692853127 -0.0090848501004751128 0 -0.00047675817060833543 -0.0088151885750117256 0 -0.0005751263145905767 -0.0088457241964458484 0 -0.00080506937902701241 -0.0090272966218554948 0 -0.00076009700181927124 -0.0087052359232135043 0 -0.00067370371024466245 -0.0089314591769725088 0 -0.0005751263145905767 -0.0088457241964458484 0 -0.00076009700181927124 -0.0087052359232135043 0 -0.00067370371024466245 -0.0089314591769725088 0 -0.00076009700181927124 -0.0087052359232135043 0 -0.0012937158241301441 -0.0090229595370400779 0 -0.0010150405724456532 -0.0090768728747633171 0 -0.00076009700181927124 -0.0087052359232135043 0 -0.0012937158241301441 -0.0090229595370400779 0 -0.0017536287406069208 -0.0087681053394835767 0 -0.00051678872462981363 -0.0087495909270934244 0 -0.00076009700181927124 -0.0087052359232135043 0 -0.00045457781987440102 -0.0086149225670086212 0 -0.0010061774311892248 -0.0086471479222651471 0 -0.0012275995250748168 -0.008651692218653792 0 -0.00080506937902701241 -0.0090272966218554948 0 -0.00076009700181927124 -0.0087052359232135043 0 -0.0010150405724456532 -0.0090768728747633171 0 -0.0012937158241301441 -0.0090229595370400779 0 -0.0010150405724456532 -0.0090768728747633171 0 -0.0011776084903672773 -0.0093135670385459546 0 -0.0010150405724456532 -0.0090768728747633171 0 -0.00099065226722132088 -0.0093623285451401566 0 -0.0011776084903672773 -0.0093135670385459546 0 -0.00080506937902701241 -0.0090272966218554948 0 -0.0010150405724456532 -0.0090768728747633171 0 -0.00099065226722132088 -0.0093623285451401566 0 -0.00099065226722132088 -0.0093623285451401566 0 -0.0011776084903672773 -0.0093135670385459546 0 -0.0011623644087665271 -0.009571056948977882 0 -0.0012937158241301441 -0.0090229595370400779 0 -0.0011776084903672773 -0.0093135670385459546 0 -0.0014246988543970206 -0.00953484099990742 0 -0.0011776084903672773 -0.0093135670385459546 0 -0.0011623644087665271 -0.009571056948977882 0 -0.0014246988543970206 -0.00953484099990742 0 -0.0011623644087665271 -0.009571056948977882 0 -0.0011127300754799584 -0.010081916059346555 0 -0.0014246988543970206 -0.00953484099990742 0 -0.00099065226722132088 -0.0093623285451401566 0 -0.00099846695516476883 -0.009722774180385604 0 -0.00084750687424566733 -0.0095535015998580771 0 -0.0011623644087665271 -0.009571056948977882 0 -0.00099846695516476883 -0.009722774180385604 0 -0.0011127300754799584 -0.010081916059346555 0 -0.00099065226722132088 -0.0093623285451401566 0 -0.0011623644087665271 -0.009571056948977882 0 -0.00099846695516476883 -0.009722774180385604 0 -0.00099846695516476883 -0.009722774180385604 0 -0.0011127300754799584 -0.010081916059346555 0 -0.00089887225815319662 -0.0098966901291453538 0 -0.0011127300754799584 -0.010081916059346555 0 -0.00089887225815319662 -0.0098966901291453538 0 -0.00078291777750935307 -0.010028712362950333 0 -0.0036553718767932128 -0.0057199682231857179 0 -0.0036865524592368487 -0.0054827454783836424 0 -0.0034220196387097991 -0.005471374328986295 0 -0.0036865524592368487 -0.0054827454783836424 0 -0.0036727972885299319 -0.0053015389817406026 0 -0.0034220196387097991 -0.005471374328986295 0 -0.0036727972885299319 -0.0053015389817406026 0 -0.0039907372964785356 -0.0054350719507515154 0 -0.0038499976975304578 -0.0051732977026061056 0 -0.0036865524592368487 -0.0054827454783836424 0 -0.0036727972885299319 -0.0053015389817406026 0 -0.0039907372964785356 -0.0054350719507515154 0 -0.0056570397801393012 -0.011450299738272366 0 -0.005382085646046416 -0.012396564429860668 0 -0.0036553718767932128 -0.0057199682231857179 0 -0.0036865524592368487 -0.0054827454783836424 0 -0.0039907372964785356 -0.0054350719507515154 0 -0.0037585114067991607 -0.0057001768458921666 0 -0.0036553718767932128 -0.0057199682231857179 0 -0.003926375065125649 -0.0056325552351509387 0 -0.00062140474265080759 -0.010278597235745051 0 -0.00047863749722514188 -0.01002533859705711 0 -0.00078291777750935307 -0.010028712362950333 0 -0.0011127300754799584 -0.010081916059346555 0 -0.00062140474265080759 -0.010278597235745051 0 -0.00078291777750935307 -0.010028712362950333 0 -0.0038167512653975149 -0.010789266097349155 0 -0.0038248141456438322 -0.015878351084319418 0 -0.0011127300754799584 -0.010081916059346555 0 -0.00062140474265080759 -0.010278597235745051 0 -0.00030832821123138928 -0.010729704437771874 0 -0.0037585114067991607 -0.0057001768458921666 0 -0.003926375065125649 -0.0056325552351509387 0 -0.0041751668709804329 -0.0055740457112218979 0 -0.005382085646046416 -0.012396564429860668 0 -0.0038248141456438322 -0.015878351084319418 0 -0.00062140474265080759 -0.010278597235745051 0 -0.00036987821933034026 -0.010417441738863739 0 -0.00030832821123138928 -0.010729704437771874 0 -0.00036987821933034026 -0.010417441738863739 0 -0.00047863749722514188 -0.01002533859705711 0 -0.00020081877526334526 -0.010152716040332943 0 -0.00062140474265080759 -0.010278597235745051 0 -0.00036987821933034026 -0.010417441738863739 0 -0.00047863749722514188 -0.01002533859705711 0 -0.00047863749722514188 -0.01002533859705711 0 -0.00078291777750935307 -0.010028712362950333 0 -0.00070269149476258948 -0.009754210227588005 0 -0.00089887225815319662 -0.0098966901291453538 0 -0.00078291777750935307 -0.010028712362950333 0 -0.00070269149476258948 -0.009754210227588005 0 -0.00099846695516476883 -0.009722774180385604 0 -0.00084750687424566733 -0.0095535015998580771 0 -0.00070269149476258948 -0.009754210227588005 0 -0.00099846695516476883 -0.009722774180385604 0 -0.00089887225815319662 -0.0098966901291453538 0 -0.00070269149476258948 -0.009754210227588005 0 -0.00069434780378454207 -0.0093815113288935412 0 -0.00084750687424566733 -0.0095535015998580771 0 -0.00070269149476258948 -0.009754210227588005 0 -0.00019552560325202786 -0.0095262050975452352 0 -0.00047863749722514188 -0.01002533859705711 0 -0.00070269149476258948 -0.009754210227588005 0 -0.00019552560325202786 -0.0095262050975452352 0 -0.00069434780378454207 -0.0093815113288935412 0 -0.00070269149476258948 -0.009754210227588005 0 -0.0018166556053995336 -0.022236192396790155 0 -0.0017928081603380409 -0.022227824899727307 0 -0.0017971841111681626 -0.022227788441210736 0 -0.0013745298740121628 -0.022323622463110242 0 -0.00012076054451731419 -0.026985084977366017 0 -0.00019552560325202786 -0.0095262050975452352 0 -0.00047863749722514188 -0.01002533859705711 0 -0.00020081877526334526 -0.010152716040332943 0 -0.0013745298740121628 -0.022323622463110242 0 -0.0020918122964832626 -0.018663112060774433 0 -0.001240861399806111 -0.036565204033217676 0 -0.001179639990358567 -0.036757402603985141 0 -0.0010953796779836142 -0.036694696096094825 0 -0.0020918122964832626 -0.018663112060774433 0 -0.0031547930575106979 -0.017745996739534604 0 -0.0017928081603380409 -0.022227824899727307 0 -0.0017971841111681626 -0.022227788441210736 0 -0.0017859031276012227 -0.022223081309772717 0 -0.00036987821933034026 -0.010417441738863739 0 -0.00020081877526334526 -0.010152716040332943 0 -0.0002241697695388286 -0.01079400014596665 0 -0.00036987821933034026 -0.010417441738863739 0 -0.00030832821123138928 -0.010729704437771874 0 -0.0002241697695388286 -0.01079400014596665 0 -0.0010391265955454836 -0.036825998274939827 0 -0.0010953796779836142 -0.036694696096094825 0 -0.00094776812713854262 -0.03672822510311078 0 -0.001179639990358567 -0.036757402603985141 0 -0.0010391265955454836 -0.036825998274939827 0 -0.0011183583562635268 -0.036939305102837425 0 -0.001179639990358567 -0.036757402603985141 0 -0.0010391265955454836 -0.036825998274939827 0 -0.0010953796779836142 -0.036694696096094825 0 -0.001240861399806111 -0.036565204033217676 0 -0.0010953796779836142 -0.036694696096094825 0 -0.0010735333500867862 -0.036593774590987241 0 -0.0010953796779836142 -0.036694696096094825 0 -0.0010735333500867862 -0.036593774590987241 0 -0.00094776812713854262 -0.03672822510311078 0 -0.0022672751835142199 -0.0068165407286685806 0 -0.0019188341333098184 -0.0072025294431514435 0 -0.0025514292680414797 -0.0070608164538152572 0 -0.0022672751835142199 -0.0068165407286685806 0 -0.0026408246985941955 -0.0065229830090929213 0 -0.0025514292680414797 -0.0070608164538152572 0 -0.0026408246985941955 -0.0065229830090929213 0 -0.0022805500843195818 -0.0063960529840314797 0 -0.0027323114053234136 -0.0060012565610265863 0 -0.0022672751835142199 -0.0068165407286685806 0 -0.0026408246985941955 -0.0065229830090929213 0 -0.0022805500843195818 -0.0063960529840314797 0 -0.0022672751835142199 -0.0068165407286685806 0 -0.0022805500843195818 -0.0063960529840314797 0 -0.0019660650448985275 -0.0067277779451754855 0 -0.0022805500843195818 -0.0063960529840314797 0 -0.0019660650448985275 -0.0067277779451754855 0 -0.0017049191235376225 -0.0061434594602168234 0 -0.00077754948638307638 -0.0075124470629180538 0 -0.0014318002110121455 -0.00680030854952014 0 -0.0019188341333098184 -0.0072025294431514435 0 -0.0014318002110121455 -0.00680030854952014 0 -0.0019660650448985275 -0.0067277779451754855 0 -0.0017049191235376225 -0.0061434594602168234 0 -0.0014318002110121455 -0.00680030854952014 0 -0.0019660650448985275 -0.0067277779451754855 0 -0.0019188341333098184 -0.0072025294431514435 0 -0.0022672751835142199 -0.0068165407286685806 0 -0.0019660650448985275 -0.0067277779451754855 0 -0.0019188341333098184 -0.0072025294431514435 0 -0.00063810435471078734 -0.0082941645602966369 0 -0.00053604550089195581 -0.0084280428221724553 0 -0.00049271980342457272 -0.008492276451476077 0 -0.00095495991504169217 -0.0082799499493277726 0 -0.0012133143519582619 -0.0083818283732854278 0 -0.00077754948638307638 -0.0075124470629180538 0 -0.00066480970865701245 -0.0080567958545379719 0 -0.00063810435471078734 -0.0082941645602966369 0 -0.00066480970865701245 -0.0080567958545379719 0 -0.00063810435471078734 -0.0082941645602966369 0 -0.00053604550089195581 -0.0084280428221724553 0 -0.0012133143519582619 -0.0083818283732854278 0 -0.0018231475163028384 -0.0086637457581453768 0 -0.00063810435471078734 -0.0082941645602966369 0 -0.00049271980342457272 -0.008492276451476077 0 -0.0004563107364548856 -0.0085510525104667053 0 -0.00042439420347868776 -0.0086431777708330763 0 -0.00053604550089195581 -0.0084280428221724553 0 -0.00049271980342457272 -0.008492276451476077 0 -0.00049271980342457272 -0.008492276451476077 0 -0.00043732748864572951 -0.0085553534764347301 0 -0.00041573269680159021 -0.0086161505389972491 0 -0.0017866472281121205 -0.0086794384500021929 0 -0.0018231475163028384 -0.0086637457581453768 0 -0.00042439420347868776 -0.0086431777708330763 0 -0.00049271980342457272 -0.008492276451476077 0 -0.00041573269680159021 -0.0086161505389972491 0 -0.00043732748864572951 -0.0085553534764347301 0 -0.00041573269680159021 -0.0086161505389972491 0 -0.00045457781987440102 -0.0086149225670086212 0 -0.0018231475163028384 -0.0086637457581453768 0 -0.0012275995250748168 -0.008651692218653792 0 -0.00036416356761918812 -0.0087456936994410699 0 -0.00041573269680159021 -0.0086161505389972491 0 -0.00045457781987440102 -0.0086149225670086212 0 -0.0012937158241301441 -0.0090229595370400779 0 -0.0017536287406069208 -0.0087681053394835767 0 -0.0018865686953176558 -0.0094812398614927147 0 -0.0012937158241301441 -0.0090229595370400779 0 -0.0018865686953176558 -0.0094812398614927147 0 -0.0014246988543970206 -0.00953484099990742 0 -0.0026880575001130909 -0.0088773691403287534 0 -0.0017536287406069208 -0.0087681053394835767 0 -0.0018865686953176558 -0.0094812398614927147 0 -0.0018231475163028384 -0.0086637457581453768 0 -0.0030320350909484634 -0.0090351186124664647 0 -0.0026408246985941955 -0.0065229830090929213 0 -0.0025514292680414797 -0.0070608164538152572 0 -0.0032517391060263088 -0.0062376644619866577 0 -0.0026408246985941955 -0.0065229830090929213 0 -0.0032517391060263088 -0.0062376644619866577 0 -0.0027323114053234136 -0.0060012565610265863 0 -0.0032517391060263088 -0.0062376644619866577 0 -0.0027323114053234136 -0.0060012565610265863 0 -0.0031501101335006513 -0.0056917806279715875 0 -0.0027323114053234136 -0.0060012565610265863 0 -0.0031501101335006513 -0.0056917806279715875 0 -0.0026673309383974998 -0.0054547195262881955 0 -0.0011127300754799584 -0.010081916059346555 0 -0.0018865686953176558 -0.0094812398614927147 0 -0.0014246988543970206 -0.00953484099990742 0 -0.0037585114067991607 -0.0057001768458921666 0 -0.0036553718767932128 -0.0057199682231857179 0 -0.0032517391060263088 -0.0062376644619866577 0 -0.0036553718767932128 -0.0057199682231857179 0 -0.0032517391060263088 -0.0062376644619866577 0 -0.0031501101335006513 -0.0056917806279715875 0 -0.0038167512653975149 -0.010789266097349155 0 -0.0030320350909484634 -0.0090351186124664647 0 -0.0031501101335006513 -0.0056917806279715875 0 -0.0034220196387097991 -0.005471374328986295 0 -0.0030521341838603091 -0.0051691411918284953 0 -0.0036553718767932128 -0.0057199682231857179 0 -0.0031501101335006513 -0.0056917806279715875 0 -0.0034220196387097991 -0.005471374328986295 0 -0.0034220196387097991 -0.005471374328986295 0 -0.0030521341838603091 -0.0051691411918284953 0 -0.0034152599440843995 -0.0051042401505464602 0 -0.0036727972885299319 -0.0053015389817406026 0 -0.0034220196387097991 -0.005471374328986295 0 -0.0034152599440843995 -0.0051042401505464602 0 -0.0031501101335006513 -0.0056917806279715875 0 -0.0026673309383974998 -0.0054547195262881955 0 -0.0030521341838603091 -0.0051691411918284953 0 -0.0026673309383974998 -0.0054547195262881955 0 -0.0030521341838603091 -0.0051691411918284953 0 -0.0025563440055785696 -0.004913910747575319 0 -0.0026673309383974998 -0.0054547195262881955 0 -0.0021036107729212341 -0.0051430142096791096 0 -0.0025563440055785696 -0.004913910747575319 0 -0.0026673309383974998 -0.0054547195262881955 0 -0.0021036107729212341 -0.0051430142096791096 0 -0.0022678101114151912 -0.0057806103532111186 0 -0.0027323114053234136 -0.0060012565610265863 0 -0.0026673309383974998 -0.0054547195262881955 0 -0.0022678101114151912 -0.0057806103532111186 0 -0.0022805500843195818 -0.0063960529840314797 0 -0.0027323114053234136 -0.0060012565610265863 0 -0.0022678101114151912 -0.0057806103532111186 0 -0.0022805500843195818 -0.0063960529840314797 0 -0.0022678101114151912 -0.0057806103532111186 0 -0.0017049191235376225 -0.0061434594602168234 0 -0.0022678101114151912 -0.0057806103532111186 0 -0.0017049191235376225 -0.0061434594602168234 0 -0.0018011966432567483 -0.0055585113626043202 0 -0.0013429415520202046 -0.0055644600875039123 0 -0.0017049191235376225 -0.0061434594602168234 0 -0.0018011966432567483 -0.0055585113626043202 0 -0.0015316915977713222 -0.0050820656864502102 0 -0.0021036107729212341 -0.0051430142096791096 0 -0.0018011966432567483 -0.0055585113626043202 0 -0.0015316915977713222 -0.0050820656864502102 0 -0.0021036107729212341 -0.0051430142096791096 0 -0.0016587869196599281 -0.0047622147075038583 0 -0.0021036107729212341 -0.0051430142096791096 0 -0.0022678101114151912 -0.0057806103532111186 0 -0.0018011966432567483 -0.0055585113626043202 0 -0.0013429415520202046 -0.0055644600875039123 0 -0.0015316915977713222 -0.0050820656864502102 0 -0.0018011966432567483 -0.0055585113626043202 0 -0.0013639605532967116 -0.0044723603173151922 0 -0.0016587869196599281 -0.0047622147075038583 0 -0.0020267011407292417 -0.0045234719524505319 0 -0.0021036107729212341 -0.0051430142096791096 0 -0.0016587869196599281 -0.0047622147075038583 0 -0.0020267011407292417 -0.0045234719524505319 0 -0.0025563440055785696 -0.004913910747575319 0 -0.0020267011407292417 -0.0045234719524505319 0 -0.0025989859947714669 -0.0044691264468222584 0 -0.0021036107729212341 -0.0051430142096791096 0 -0.0025563440055785696 -0.004913910747575319 0 -0.0020267011407292417 -0.0045234719524505319 0 -0.0020267011407292417 -0.0045234719524505319 0 -0.0023397343052920191 -0.0041048654752242862 0 -0.0025989859947714669 -0.0044691264468222584 0 -0.0020267011407292417 -0.0045234719524505319 0 -0.0019146369810532074 -0.0040038817354257012 0 -0.0023397343052920191 -0.0041048654752242862 0 -0.0013639605532967116 -0.0044723603173151922 0 -0.0020267011407292417 -0.0045234719524505319 0 -0.0019146369810532074 -0.0040038817354257012 0 -0.0019146369810532074 -0.0040038817354257012 0 -0.0023397343052920191 -0.0041048654752242862 0 -0.0024299938774834896 -0.0035429468138974598 0 -0.0023397343052920191 -0.0041048654752242862 0 -0.0024299938774834896 -0.0035429468138974598 0 -0.0027360867610624201 -0.0040085607978046648 0 -0.0023397343052920191 -0.0041048654752242862 0 -0.0027360867610624201 -0.0040085607978046648 0 -0.0025989859947714669 -0.0044691264468222584 0 -0.0040028977824404779 0.0059811388030288808 0 -0.0056932729236977815 0.00293285302869293 0 -0.0057452120948789411 0.0054006411243342871 0 -0.0056932729236977815 0.00293285302869293 0 -0.0072672663453012577 0.0055289928273018945 0 -0.0057452120948789411 0.0054006411243342871 0 -0.0043323237688643341 -0.0014187990205765642 0 -0.0058200433018675418 -0.0011857869761064089 0 -0.00319460596740274 -0.0037468264554650324 0 -0.0037136269636133114 -0.0037768689510370912 0 -0.0032575340181826909 -0.0033915173261157929 0 -0.00319460596740274 -0.0037468264554650324 0 -0.0028834958838454441 -0.003505494198957499 0 -0.0032575340181826909 -0.0033915173261157929 0 -0.0024299938774834896 -0.0035429468138974598 0 -0.0027360867610624201 -0.0040085607978046648 0 -0.0028834958838454441 -0.003505494198957499 0 -0.00319460596740274 -0.0037468264554650324 0 -0.0027360867610624201 -0.0040085607978046648 0 -0.0028834958838454441 -0.003505494198957499 0 -0.0027360867610624201 -0.0040085607978046648 0 -0.0031411215981459071 -0.0041185255430876517 0 -0.0030887946005880131 -0.0044931428668010505 0 -0.00319460596740274 -0.0037468264554650324 0 -0.0027360867610624201 -0.0040085607978046648 0 -0.0031411215981459071 -0.0041185255430876517 0 -0.00319460596740274 -0.0037468264554650324 0 -0.0031411215981459071 -0.0041185255430876517 0 -0.0035114729365426406 -0.0040865870122917354 0 -0.0031411215981459071 -0.0041185255430876517 0 -0.0035051828395689338 -0.0044469091056497925 0 -0.0035114729365426406 -0.0040865870122917354 0 -0.0031411215981459071 -0.0041185255430876517 0 -0.0030887946005880131 -0.0044931428668010505 0 -0.0035051828395689338 -0.0044469091056497925 0 -0.0030887946005880131 -0.0044931428668010505 0 -0.0034258903926795265 -0.0047427557910424498 0 -0.0031898467449864654 -0.0048543178797651569 0 -0.0030887946005880131 -0.0044931428668010505 0 -0.0029021302764260797 -0.0047789601001636808 0 -0.0031898467449864654 -0.0048543178797651569 0 -0.0030887946005880131 -0.0044931428668010505 0 -0.0034258903926795265 -0.0047427557910424498 0 -0.0035051828395689338 -0.0044469091056497925 0 -0.0030887946005880131 -0.0044931428668010505 0 -0.0025989859947714669 -0.0044691264468222584 0 -0.0029021302764260797 -0.0047789601001636808 0 -0.0027360867610624201 -0.0040085607978046648 0 -0.0030887946005880131 -0.0044931428668010505 0 -0.0025989859947714669 -0.0044691264468222584 0 -0.0030521341838603091 -0.0051691411918284953 0 -0.0025563440055785696 -0.004913910747575319 0 -0.0029021302764260797 -0.0047789601001636808 0 -0.0025563440055785696 -0.004913910747575319 0 -0.0025989859947714669 -0.0044691264468222584 0 -0.0029021302764260797 -0.0047789601001636808 0 -0.0030521341838603091 -0.0051691411918284953 0 -0.0029021302764260797 -0.0047789601001636808 0 -0.0031898467449864654 -0.0048543178797651569 0 -0.0034258903926795265 -0.0047427557910424498 0 -0.0031898467449864654 -0.0048543178797651569 0 -0.0034152599440843995 -0.0051042401505464602 0 -0.0030521341838603091 -0.0051691411918284953 0 -0.0031898467449864654 -0.0048543178797651569 0 -0.0034152599440843995 -0.0051042401505464602 0 -0.0036727972885299319 -0.0053015389817406026 0 -0.0034152599440843995 -0.0051042401505464602 0 -0.0036937888538831759 -0.0050120909416380465 0 -0.0034258903926795265 -0.0047427557910424498 0 -0.0034152599440843995 -0.0051042401505464602 0 -0.0036937888538831759 -0.0050120909416380465 0 -0.0034258903926795265 -0.0047427557910424498 0 -0.0036937888538831759 -0.0050120909416380465 0 -0.003734880121644401 -0.0047455680128499532 0 -0.0036937888538831759 -0.0050120909416380465 0 -0.0040377467932623456 -0.0049428719931758234 0 -0.003734880121644401 -0.0047455680128499532 0 -0.0036937888538831759 -0.0050120909416380465 0 -0.0038499976975304578 -0.0051732977026061056 0 -0.0040377467932623456 -0.0049428719931758234 0 -0.0036727972885299319 -0.0053015389817406026 0 -0.0036937888538831759 -0.0050120909416380465 0 -0.0038499976975304578 -0.0051732977026061056 0 -0.0039907372964785356 -0.0054350719507515154 0 -0.0038499976975304578 -0.0051732977026061056 0 -0.0040377467932623456 -0.0049428719931758234 0 -0.0040377467932623456 -0.0049428719931758234 0 -0.0043892839483480285 -0.005156560864497302 0 -0.0043145203058985188 -0.004352621317955877 0 -0.0039907372964785356 -0.0054350719507515154 0 -0.0040377467932623456 -0.0049428719931758234 0 -0.004330061182024547 -0.0052009753102190805 0 -0.0040377467932623456 -0.0049428719931758234 0 -0.004330061182024547 -0.0052009753102190805 0 -0.0043892839483480285 -0.005156560864497302 0 -0.0040377467932623456 -0.0049428719931758234 0 -0.0038432696489139897 -0.0043917541856756913 0 -0.0043145203058985188 -0.004352621317955877 0 -0.0040377467932623456 -0.0049428719931758234 0 -0.0038432696489139897 -0.0043917541856756913 0 -0.003734880121644401 -0.0047455680128499532 0 -0.0038432696489139897 -0.0043917541856756913 0 -0.0035051828395689338 -0.0044469091056497925 0 -0.003734880121644401 -0.0047455680128499532 0 -0.0034258903926795265 -0.0047427557910424498 0 -0.0035051828395689338 -0.0044469091056497925 0 -0.003734880121644401 -0.0047455680128499532 0 -0.0011183583562635268 -0.036939305102837425 0 -0.00092712097971871048 -0.037006919586528672 0 -0.00096552981822158198 -0.036918405574660418 0 -0.0010391265955454836 -0.036825998274939827 0 -0.0011183583562635268 -0.036939305102837425 0 -0.00096552981822158198 -0.036918405574660418 0 -0.0023291296576957812 -0.035814116731804034 0 -0.0033881933216983458 -0.035110871987780207 0 -0.0034495375621696931 -0.037443853227607904 0 -0.0017928081603380409 -0.022227824899727307 0 -0.0017731642139133489 -0.022228320940637973 0 -0.0017859031276012227 -0.022223081309772717 0 -0.00012076054451731419 -0.026985084977366017 0 0.00072233905905935171 -0.027161537929387414 0 0.00072233905905935171 -0.027161537929387414 0 -0.0031547930575106979 -0.017745996739534604 0 -0.0038248141456438322 -0.015878351084319418 0 -0.0031547930575106979 -0.017745996739534604 0 -0.0023291296576957812 -0.035814116731804034 0 -0.0028690350408318642 -0.037378525119789917 0 -0.0034495375621696931 -0.037443853227607904 0 -0.0023291296576957812 -0.035814116731804034 0 -0.002142785850025837 -0.036865453803468257 0 -0.0028690350408318642 -0.037378525119789917 0 -0.0031547930575106979 -0.017745996739534604 0 -0.0027266943748071003 -0.020803877435197404 0 -0.002142785850025837 -0.036865453803468257 0 -0.0017858096895096904 -0.03750518467037272 0 -0.0028690350408318642 -0.037378525119789917 0 -0.002156886849753588 -0.035950427762687448 0 -0.0015667567736727382 -0.036648339689039494 0 -0.00089249450864099962 -0.037085431548418007 0 -0.0011183583562635268 -0.036939305102837425 0 -0.00092712097971871048 -0.037006919586528672 0 -0.00089249450864099962 -0.037085431548418007 0 0.00072233905905935171 -0.027161537929387414 0 0.0015432353977279081 -0.030716509491856642 0 -0.0023291296576957812 -0.035814116731804034 0 -0.002142785850025837 -0.036865453803468257 0 -0.0015667567736727382 -0.036648339689039494 0 0.00072233905905935171 -0.027161537929387414 0 0.0011739734367583708 -0.028573683620692888 0 -0.002142785850025837 -0.036865453803468257 0 -0.0015667567736727382 -0.036648339689039494 0 -0.0017858096895096904 -0.03750518467037272 0 -0.0015667567736727382 -0.036648339689039494 0 -0.0017858096895096904 -0.03750518467037272 0 -0.0011736530886153678 -0.03727510338788232 0 -0.0011777493640251057 -0.038667568775102149 0 -0.0011111479117921663 -0.039975718340168741 0 0.00048311828940481179 -0.038027075372063478 0 -0.0011693430703065546 -0.037691308373245143 0 -0.0021359992975063602 -0.038359330565349049 0 -0.0028690350408318642 -0.037378525119789917 0 -0.0011777493640251057 -0.038667568775102149 0 -0.0011693430703065546 -0.037691308373245143 0 0.00048311828940481179 -0.038027075372063478 0 -0.0018907052795432977 -0.045135592557775252 0 -0.0023870693660580857 -0.044309749653130656 0 -0.0011777493640251057 -0.038667568775102149 0 -0.0021359992975063602 -0.038359330565349049 0 -0.001943175594300928 -0.039278173651946968 0 -0.0011777493640251057 -0.038667568775102149 0 -0.0011693430703065546 -0.037691308373245143 0 -0.0021359992975063602 -0.038359330565349049 0 -0.0021359992975063602 -0.038359330565349049 0 -0.002924122420738581 -0.039007765051671715 0 -0.001943175594300928 -0.039278173651946968 0 -0.0021359992975063602 -0.038359330565349049 0 -0.0028524598743194011 -0.038042181130572894 0 -0.002924122420738581 -0.039007765051671715 0 -0.0021359992975063602 -0.038359330565349049 0 -0.0028690350408318642 -0.037378525119789917 0 -0.0028524598743194011 -0.038042181130572894 0 -0.0028690350408318642 -0.037378525119789917 0 -0.0028524598743194011 -0.038042181130572894 0 -0.0034495375621696931 -0.037443853227607904 0 -0.0028524598743194011 -0.038042181130572894 0 -0.0034495375621696931 -0.037443853227607904 0 -0.002924122420738581 -0.039007765051671715 0 -0.0027266943748071003 -0.020803877435197404 0 -0.001321339487253272 -0.022729411426836706 0 -0.0034495375621696931 -0.037443853227607904 0 -0.002924122420738581 -0.039007765051671715 0 -0.0035749234402521033 -0.04051588990835913 0 -0.002924122420738581 -0.039007765051671715 0 -0.0023996077207917737 -0.040064739852184006 0 -0.0035749234402521033 -0.04051588990835913 0 -0.002924122420738581 -0.039007765051671715 0 -0.0023996077207917737 -0.040064739852184006 0 -0.001943175594300928 -0.039278173651946968 0 -0.0011777493640251057 -0.038667568775102149 0 -0.001943175594300928 -0.039278173651946968 0 -0.0011111479117921663 -0.039975718340168741 0 -0.0023996077207917737 -0.040064739852184006 0 -0.001943175594300928 -0.039278173651946968 0 -0.0011111479117921663 -0.039975718340168741 0 -0.0023996077207917737 -0.040064739852184006 0 -0.0011111479117921663 -0.039975718340168741 0 -0.0021857001988948143 -0.041279355855986896 0 -0.0038432696489139897 -0.0043917541856756913 0 -0.0035114729365426406 -0.0040865870122917354 0 -0.0037136269636133114 -0.0037768689510370912 0 -0.0038432696489139897 -0.0043917541856756913 0 -0.0035051828395689338 -0.0044469091056497925 0 -0.0035114729365426406 -0.0040865870122917354 0 -0.0038432696489139897 -0.0043917541856756913 0 -0.0043145203058985188 -0.004352621317955877 0 -0.0037136269636133114 -0.0037768689510370912 0 -0.0043145203058985188 -0.004352621317955877 0 -0.0037136269636133114 -0.0037768689510370912 0 -0.0042271510151535721 -0.0036094250013915768 0 -0.00319460596740274 -0.0037468264554650324 0 -0.0035114729365426406 -0.0040865870122917354 0 -0.0037136269636133114 -0.0037768689510370912 0 -0.0037136269636133114 -0.0037768689510370912 0 -0.0035489212009121294 -0.0029982492869828699 0 -0.0042271510151535721 -0.0036094250013915768 0 -0.0037136269636133114 -0.0037768689510370912 0 -0.0035489212009121294 -0.0029982492869828699 0 -0.0032575340181826909 -0.0033915173261157929 0 -0.0041714174369706335 -0.0029282277021683342 0 -0.0035489212009121294 -0.0029982492869828699 0 -0.0042271510151535721 -0.0036094250013915768 0 0.0021076177289808674 -0.027809238670842094 0 -0.0028332890653093518 -0.013835813114331925 0 0.0056780612745702631 -0.012646588801381682 0 -0.00069823029135263873 -0.011248945729595023 0 0.0013657301961341795 -0.013517313218298419 0 -0.0021857001988948143 -0.041279355855986896 0 -0.00075125787752776613 -0.042718302757462516 0 0.00093611188950826923 -0.041530691699999144 0 -0.0011111479117921663 -0.039975718340168741 0 -0.0021857001988948143 -0.041279355855986896 0 0.00055494269090614144 -0.041484596482149395 0 -0.00056503694152984117 -0.050118206170976412 0 0.0021983607661929922 -0.05351396381033835 0 -0.0021857001988948143 -0.041279355855986896 0 -0.0035749234402521033 -0.04051588990835913 0 -0.0022802184262572861 -0.042771984523813096 0 0.0021076177289808674 -0.027809238670842094 0 -0.001321339487253272 -0.022729411426836706 0 -0.0023996077207917737 -0.040064739852184006 0 -0.0021857001988948143 -0.041279355855986896 0 -0.0035749234402521033 -0.04051588990835913 0 -0.003657485232067958 -0.043701384609816853 0 -0.0035749234402521033 -0.04051588990835913 0 -0.0022802184262572861 -0.042771984523813096 0 -0.003657485232067958 -0.043701384609816853 0 -0.0022802184262572861 -0.042771984523813096 0 -0.0013841704314555413 -0.044242759121584152 0 -0.0021857001988948143 -0.041279355855986896 0 -0.0022802184262572861 -0.042771984523813096 0 -0.00075125787752776613 -0.042718302757462516 0 -0.0022802184262572861 -0.042771984523813096 0 -0.00075125787752776613 -0.042718302757462516 0 -0.0013841704314555413 -0.044242759121584152 0 0.0091054414985842075 -0.043130271827349256 0 0.0093276515665521222 -0.044268094366486141 0 0.010376481518026046 -0.043438899820087355 0 -0.00075125787752776613 -0.042718302757462516 0 -0.0013841704314555413 -0.044242759121584152 0 0.00092822672407448167 -0.044774921699336404 0 0.0078237098805893791 -0.042821141765532297 0 0.0091054414985842075 -0.043130271827349256 0 0.0077940381988024594 -0.044386802775672952 0 0.0021076177289808674 -0.027809238670842094 0 0.0045982017268019785 -0.042720377237298664 0 0.0093276515665521222 -0.044268094366486141 0 0.0077940381988024594 -0.044386802775672952 0 0.0091629694359114649 -0.04550841093551581 0 0.0091054414985842075 -0.043130271827349256 0 0.0093276515665521222 -0.044268094366486141 0 0.0077940381988024594 -0.044386802775672952 0 -0.00069823029135263873 -0.011248945729595023 0 0.00017693615058363894 -0.014373744230181461 0 -0.0038778275906252205 -0.013710925235916299 0 0.00012540779562798875 -0.015825827596204892 0 0.00017693615058363894 -0.014373744230181461 0 -0.0038778275906252205 -0.013710925235916299 0 0.00012540779562798875 -0.015825827596204892 0 -0.00076943693925509424 -0.017525482781490086 0 -0.0038778275906252205 -0.013710925235916299 0 0.0016521076309541215 -0.015513969190018873 0 0.00010639908235241358 -0.015925264859633772 0 0.0021958292570816731 -0.017769799064978851 0 0.0016521076309541215 -0.015513969190018873 0 0.00010639908235241358 -0.015925264859633772 0 0.0013657301961341795 -0.013517313218298419 0 -0.00152442645337988 -0.0097386404613978156 0 -0.0015068464702564901 -0.010034640573040092 0 -0.00069823029135263873 -0.011248945729595023 0 0.0013657301961341795 -0.013517313218298419 0 0.00017693615058363894 -0.014373744230181461 0 -0.00152442645337988 -0.0097386404613978156 0 -0.0015745095894474062 -0.010276745298265251 0 0.00011424921057574347 -0.015818039509247001 0 0.0013657301961341795 -0.013517313218298419 0 0.00017693615058363894 -0.014373744230181461 0 0.0021076177289808674 -0.027809238670842094 0 0.005149456852085817 -0.030523305691997463 0 0.0056780612745702631 -0.012646588801381682 0 0.0032048682029535082 -0.015558646394609176 0 0.0055194810443837524 -0.018948667359963062 0 0.0056780612745702631 -0.012646588801381682 0 0.0013657301961341795 -0.013517313218298419 0 0.0032048682029535082 -0.015558646394609176 0 0.0016521076309541215 -0.015513969190018873 0 0.0032048682029535082 -0.015558646394609176 0 0.0021958292570816731 -0.017769799064978851 0 0.0016521076309541215 -0.015513969190018873 0 0.0013657301961341795 -0.013517313218298419 0 0.0032048682029535082 -0.015558646394609176 0 0.0021958292570816731 -0.017769799064978851 0 0.0055194810443837524 -0.018948667359963062 0 0.002678472064169725 -0.021986255045367369 0 0.0032048682029535082 -0.015558646394609176 0 0.0021958292570816731 -0.017769799064978851 0 0.0055194810443837524 -0.018948667359963062 0 -0.00043345714262187567 -0.007789474518560561 0 -0.00072901310546034004 -0.0074217898897028095 0 0.000535196213228075 -0.0059595467233684403 0 0.0021958292570816731 -0.017769799064978851 0 1.4492630590508427e-05 -0.018693942606329488 0 0.002678472064169725 -0.021986255045367369 0 -0.00028994399060763767 -0.010593285344238918 0 0.0034143515474003507 -0.019960770394776027 0 0.00010639908235241358 -0.015925264859633772 0 0.0021958292570816731 -0.017769799064978851 0 1.4492630590508427e-05 -0.018693942606329488 0 -0.0014142535687949455 -0.0094618582069888584 0 -6.4375886357842895e-05 -0.0068969614112651158 0 -0.0012632196090922902 -0.0054130612751343678 0 -0.00152442645337988 -0.0097386404613978156 0 -0.00028994399060763767 -0.010593285344238918 0 -0.00152442645337988 -0.0097386404613978156 0 -0.0018428855040345518 -0.0069197634026708218 0 -0.0018428855040345518 -0.0069197634026708218 0 -0.00028994399060763767 -0.010593285344238918 0 -0.010582819581590479 0.010455855359335509 0 -0.0090908450293942008 0.010608680553400539 0 -0.0096519989659007589 0.012208774047463743 0 -0.0018428855040345518 -0.0069197634026708218 0 -0.0014192390015652977 -0.00014664087070533934 0 -0.010582819581590479 0.010455855359335509 0 -0.0090908450293942008 0.010608680553400539 0 -0.0095348600695064102 0.009117946791801881 0 -0.0018428855040345518 -0.0069197634026708218 0 -0.0052607393123939019 -0.004164021340827169 0 -0.0090908450293942008 0.010608680553400539 0 -0.0095348600695064102 0.009117946791801881 0 -0.0078519132078159314 0.0097910892063356181 0 -0.0095348600695064102 0.009117946791801881 0 -0.0078519132078159314 0.0097910892063356181 0 -0.0079087344435619794 0.0085682010292379499 0 -0.0090908450293942008 0.010608680553400539 0 -0.0078519132078159314 0.0097910892063356181 0 -0.0078306623423255537 0.011479982142126047 0 -0.0090908450293942008 0.010608680553400539 0 -0.0078306623423255537 0.011479982142126047 0 -0.0096519989659007589 0.012208774047463743 0 -0.0078306623423255537 0.011479982142126047 0 -0.0066362767155316339 0.010452079099510677 0 -0.0059592416965539314 0.011849066354866072 0 -0.0078519132078159314 0.0097910892063356181 0 -0.0078306623423255537 0.011479982142126047 0 -0.0066362767155316339 0.010452079099510677 0 -0.0046777735254843822 0.011306077460687233 0 -0.0052364725710532852 0.010096857967899121 0 -0.0059592416965539314 0.011849066354866072 0 -0.0066362767155316339 0.010452079099510677 0 -0.0052364725710532852 0.010096857967899121 0 -0.0059592416965539314 0.011849066354866072 0 -0.0066362767155316339 0.010452079099510677 0 -0.0052364725710532852 0.010096857967899121 0 -0.0065568196227169659 0.0088122068077979634 0 -0.0046871687592665605 0.0082874607991084166 0 -0.0052364725710532852 0.010096857967899121 0 -0.0065568196227169659 0.0088122068077979634 0 -0.0078519132078159314 0.0097910892063356181 0 -0.0066362767155316339 0.010452079099510677 0 -0.0065568196227169659 0.0088122068077979634 0 -0.0078519132078159314 0.0097910892063356181 0 -0.0065568196227169659 0.0088122068077979634 0 -0.0079087344435619794 0.0085682010292379499 0 -0.0065568196227169659 0.0088122068077979634 0 -0.0077781408742565485 0.007504355491824025 0 -0.0079087344435619794 0.0085682010292379499 0 -0.0065568196227169659 0.0088122068077979634 0 -0.0077781408742565485 0.007504355491824025 0 -0.0060547936223858323 0.0069793664903280749 0 -0.0046871687592665605 0.0082874607991084166 0 -0.0065568196227169659 0.0088122068077979634 0 -0.0060547936223858323 0.0069793664903280749 0 -0.0040028977824404779 0.0059811388030288808 0 -0.0046871687592665605 0.0082874607991084166 0 -0.0060547936223858323 0.0069793664903280749 0 -0.0040028977824404779 0.0059811388030288808 0 -0.0057452120948789411 0.0054006411243342871 0 -0.0060547936223858323 0.0069793664903280749 0 -0.0072672663453012577 0.0055289928273018945 0 -0.0057452120948789411 0.0054006411243342871 0 -0.0060547936223858323 0.0069793664903280749 0 -0.0072672663453012577 0.0055289928273018945 0 -0.0077781408742565485 0.007504355491824025 0 -0.0060547936223858323 0.0069793664903280749 0 -0.0024299938774834896 -0.0035429468138974598 0 -0.0028834958838454441 -0.003505494198957499 0 -0.0028928362458690432 -0.0030798848246309375 0 -0.0072672663453012577 0.0055289928273018945 0 -0.0077781408742565485 0.007504355491824025 0 -0.0087097077090875982 0.007728838152700231 0 -0.0058200433018675418 -0.0011857869761064089 0 -0.0060900383255452521 -0.0046333911540460604 0 -0.0028834958838454441 -0.003505494198957499 0 -0.0032575340181826909 -0.0033915173261157929 0 -0.0028928362458690432 -0.0030798848246309375 0 -0.00069823029135263873 -0.011248945729595023 0 -0.0038778275906252205 -0.013710925235916299 0 -0.0069805229883290647 -0.0098762123538918955 0 -0.0028332890653093518 -0.013835813114331925 0 -0.0060900383255452521 -0.0046333911540460604 0 -0.0052607393123939019 -0.004164021340827169 0 -0.0060900383255452521 -0.0046333911540460604 0 -0.0035489212009121294 -0.0029982492869828699 0 -0.0032575340181826909 -0.0033915173261157929 0 -0.0028928362458690432 -0.0030798848246309375 0 -0.0095348600695064102 0.009117946791801881 0 -0.0079087344435619794 0.0085682010292379499 0 -0.0085275700159069667 0.0077396411082325473 0 -0.0077781408742565485 0.007504355491824025 0 -0.0079087344435619794 0.0085682010292379499 0 -0.0085275700159069667 0.0077396411082325473 0 -0.0066357561574395965 -0.0040481399919697365 0 -0.0060900383255452521 -0.0046333911540460604 0 0.0074747103413376212 -0.066331485403519505 0 0.0070477762248518892 -0.066062188646944867 0 0.0070004798362084788 -0.066716445193130594 0 0.0074747103413376212 -0.066331485403519505 0 0.007921027689248088 -0.06657153951414245 0 0.0070004798362084788 -0.066716445193130594 0 0.0074747103413376212 -0.066331485403519505 0 0.0070477762248518892 -0.066062188646944867 0 0.0079574474343627015 -0.06592536288575708 0 0.0067126946942467495 -0.066331439223823563 0 0.0070477762248518892 -0.066062188646944867 0 0.0064954072654135287 -0.066133289813591456 0 0.0067126946942467495 -0.066331439223823563 0 0.0070004798362084788 -0.066716445193130594 0 0.0063942200851962354 -0.066402174389932456 0 0.0067126946942467495 -0.066331439223823563 0 0.0070477762248518892 -0.066062188646944867 0 0.0070004798362084788 -0.066716445193130594 0 0.0041851327836586452 -0.06447610987980687 0 0.005548480257042159 -0.065822518957052017 0 0.0026592856059865929 -0.065550851575630259 0 0.0061926995898515498 -0.063806070822170075 0 0.0048554157803773141 -0.062378387503313662 0 0.0041851327836586452 -0.06447610987980687 0 0.0059407926582299257 -0.064606045232331072 0 0.005548480257042159 -0.065822518957052017 0 0.0061926995898515498 -0.063806070822170075 0 0.0069174868632694998 -0.06423525222669707 0 0.0070446048990259122 -0.065226468521347572 0 0.0079495264596316471 -0.06464052376661554 0 0.0064111905692897184 -0.064049317619664287 0 0.005548480257042159 -0.065822518957052017 0 0.0070446048990259122 -0.065226468521347572 0 0.0079574474343627015 -0.06592536288575708 0 0.0059407926582299257 -0.064606045232331072 0 0.005548480257042159 -0.065822518957052017 0 0.0070446048990259122 -0.065226468521347572 0 0.0059407926582299257 -0.064606045232331072 0 0.0070446048990259122 -0.065226468521347572 0 0.0061842684326780632 -0.06326260147983899 0 0.002367545730009064 -0.067807071269383415 0 0.001979773451853985 -0.06847865092487071 0 0.0079495264596316471 -0.06464052376661554 0 0.0092381890840811092 -0.06528812210519308 0 0.0079574474343627015 -0.06592536288575708 0 0.0070446048990259122 -0.065226468521347572 0 0.0079495264596316471 -0.06464052376661554 0 0.0079574474343627015 -0.06592536288575708 0 0.00071249051638142371 -0.072875806969874654 0 -0.00073816456316273794 -0.077635235828582755 0 0.0092381890840811092 -0.06528812210519308 0 0.0089388755028605819 -0.066409987123384445 0 0.0079574474343627015 -0.06592536288575708 0 0.0089388755028605819 -0.066409987123384445 0 0.0079574474343627015 -0.06592536288575708 0 0.007921027689248088 -0.06657153951414245 0 0.0089388755028605819 -0.066409987123384445 0 0.007921027689248088 -0.06657153951414245 0 0.0082625766892270285 -0.067204120533115946 0 0.0074747103413376212 -0.066331485403519505 0 0.0079574474343627015 -0.06592536288575708 0 0.007921027689248088 -0.06657153951414245 0 0.007921027689248088 -0.06657153951414245 0 0.0082625766892270285 -0.067204120533115946 0 0.0070004798362084788 -0.066716445193130594 0 0.015211399172499602 -0.095628766961006945 0 0.013930908906515937 -0.094053528119898644 0 0.012216196411981385 -0.095136299495662754 0 0.0089388755028605819 -0.066409987123384445 0 0.0082625766892270285 -0.067204120533115946 0 0.0099752927785211401 -0.067613463185532602 0 0.011127164895581748 -0.082674509807211471 0 0.0074725512854292341 -0.085574341162981279 0 0.015211399172499602 -0.095628766961006945 0 0.013930908906515937 -0.094053528119898644 0 0.015438666164192578 -0.093071725108033659 0 0.015211399172499602 -0.095628766961006945 0 0.017410511147579452 -0.093971467695086727 0 0.015438666164192578 -0.093071725108033659 0 0.011127164895581748 -0.082674509807211471 0 0.01262272695796351 -0.080417052664566974 0 0.015211399172499602 -0.095628766961006945 0 0.017410511147579452 -0.093971467695086727 0 0.018238009172842726 -0.095979255745504935 0 0.018238009172842726 -0.095979255745504935 0 0.019331716893983743 -0.094229210111237763 0 0.020355236041207415 -0.095325413734255002 0 0.017410511147579452 -0.093971467695086727 0 0.018238009172842726 -0.095979255745504935 0 0.019331716893983743 -0.094229210111237763 0 0.01262272695796351 -0.080417052664566974 0 0.013309631102676118 -0.077326751995976356 0 0.017410511147579452 -0.093971467695086727 0 0.019331716893983743 -0.094229210111237763 0 0.018916454173570237 -0.092724156822489745 0 0.019331716893983743 -0.094229210111237763 0 0.02033150193211988 -0.093081945604051683 0 0.018916454173570237 -0.092724156822489745 0 0.020372556057559006 -0.094015674342701902 0 0.021191252886284515 -0.093538256114028093 0 0.020355236041207415 -0.095325413734255002 0 0.019331716893983743 -0.094229210111237763 0 0.02033150193211988 -0.093081945604051683 0 0.020372556057559006 -0.094015674342701902 0 0.02033150193211988 -0.093081945604051683 0 0.020372556057559006 -0.094015674342701902 0 0.021191252886284515 -0.093538256114028093 0 0.021191252886284515 -0.093538256114028093 0 0.022693092081561474 -0.093334073000267859 0 0.020355236041207415 -0.095325413734255002 0 0.019331716893983743 -0.094229210111237763 0 0.020372556057559006 -0.094015674342701902 0 0.020355236041207415 -0.095325413734255002 0 0.0224587063064546 -0.092938631458472351 0 0.021744431542090228 -0.095091762098708205 0 0.022577473089047468 -0.094681749932880893 0 0.0224587063064546 -0.092938631458472351 0 0.022577473089047468 -0.094681749932880893 0 0.023229301974737101 -0.094023129826104904 0 0.017445530887479865 -0.086128746976653917 0 0.017529630084449202 -0.089443018169704111 0 0.021744431542090228 -0.095091762098708205 0 0.023160150675726677 -0.095721522085201266 0 0.021025825367051363 -0.096251515576890753 0 0.0224587063064546 -0.092938631458472351 0 0.021744431542090228 -0.095091762098708205 0 0.020355236041207415 -0.095325413734255002 0 0.021744431542090228 -0.095091762098708205 0 0.022577473089047468 -0.094681749932880893 0 0.023160150675726677 -0.095721522085201266 0 0.021744431542090228 -0.095091762098708205 0 0.020355236041207415 -0.095325413734255002 0 0.021025825367051363 -0.096251515576890753 0 0.018238009172842726 -0.095979255745504935 0 0.020355236041207415 -0.095325413734255002 0 0.021025825367051363 -0.096251515576890753 0 0.0093276515665521222 -0.044268094366486141 0 0.010373497834493936 -0.044758912262352304 0 0.010376481518026046 -0.043438899820087355 0 0.012073778873208216 -0.059137220073542343 0 0.008182519609272354 -0.057418313261319125 0 0.012934538543538951 -0.066852375649791004 0 0.013799300371093455 -0.066753309490532792 0 0.012927139996685558 -0.063866490670899695 0 0.023892436345527478 -0.094290995917964429 0 0.02457095347503133 -0.092783471234329798 0 0.024190014618753908 -0.094924987689612689 0 0.014244373274853469 -0.073852355679745019 0 0.011384000785832597 -0.065370948829414757 0 0.0224587063064546 -0.092938631458472351 0 0.02457095347503133 -0.092783471234329798 0 0.023229301974737101 -0.094023129826104904 0 0.023892436345527478 -0.094290995917964429 0 0.02457095347503133 -0.092783471234329798 0 0.023229301974737101 -0.094023129826104904 0 0.023160150675726677 -0.095721522085201266 0 0.024190014618753908 -0.094924987689612689 0 0.023870982136375878 -0.096662102996095081 0 0.013799300371093455 -0.066753309490532792 0 0.01415549341025959 -0.064136004142302638 0 0.012927139996685558 -0.063866490670899695 0 0.011384000785832597 -0.065370948829414757 0 0.009258308011193225 -0.070479181449217776 0 0.0062797558942454153 -0.065872160655902887 0 0.0063625663645013398 -0.065890549592110936 0 0.0062825417425940375 -0.066039610137973145 0 0.022577473089047468 -0.094681749932880893 0 0.023344386398669745 -0.09479442220715549 0 0.023160150675726677 -0.095721522085201266 0 0.023892436345527478 -0.094290995917964429 0 0.023344386398669745 -0.09479442220715549 0 0.024190014618753908 -0.094924987689612689 0 0.022577473089047468 -0.094681749932880893 0 0.023229301974737101 -0.094023129826104904 0 0.023344386398669745 -0.09479442220715549 0 0.023892436345527478 -0.094290995917964429 0 0.023229301974737101 -0.094023129826104904 0 0.023344386398669745 -0.09479442220715549 0 0.023344386398669745 -0.09479442220715549 0 0.023160150675726677 -0.095721522085201266 0 0.024190014618753908 -0.094924987689612689 0 0.0045982017268019785 -0.042720377237298664 0 0.008182519609272354 -0.057418313261319125 0 0.011384000785832597 -0.065370948829414757 0 0.008182519609272354 -0.057418313261319125 0 0.008182519609272354 -0.057418313261319125 0 0.0021983607661929922 -0.05351396381033835 0 -0.00075125787752776613 -0.042718302757462516 0 0.00092822672407448167 -0.044774921699336404 0 0.00093611188950826923 -0.041530691699999144 0 0.0063625663645013398 -0.065890549592110936 0 0.0062825417425940375 -0.066039610137973145 0 0.0062906575821305337 -0.066144504101412371 0 0.0062797558942454153 -0.065872160655902887 0 0.0062825417425940375 -0.066039610137973145 0 0.0062415013899285877 -0.06603192437410034 0 0.009258308011193225 -0.070479181449217776 0 0.0091750826082436076 -0.069729516173438047 0 0.0062825417425940375 -0.066039610137973145 0 0.0062397266078732527 -0.066035976744403077 0 0.0062407774030394814 -0.066151695430659838 0 0.0091022080278192422 -0.070406606803850677 0 0.009258308011193225 -0.070479181449217776 0 0.0061779231399903094 -0.066241049241955702 0 0.0062407774030394814 -0.066151695430659838 0 0.0062604798664350316 -0.066224587751161981 0 0.0021983607661929922 -0.05351396381033835 0 0.003504574785875938 -0.059380199440259622 0 0.0062407774030394814 -0.066151695430659838 0 0.0062906575821305337 -0.066144504101412371 0 0.00622508786485995 -0.066166221446457604 0 -0.0028748512316663847 -0.065003513159991533 0 -0.00013085348991655779 -0.065253653974387649 0 -0.0014525597159874347 -0.063891682543389214 0 0.0062407774030394814 -0.066151695430659838 0 0.0062604798664350316 -0.066224587751161981 0 0.00622508786485995 -0.066166221446457604 0 -0.00013085348991655779 -0.065253653974387649 0 -9.234356043356828e-05 -0.063540672164080464 0 -0.0014525597159874347 -0.063891682543389214 0 0.0062825417425940375 -0.066039610137973145 0 0.0062407774030394814 -0.066151695430659838 0 0.0062906575821305337 -0.066144504101412371 0 -0.0028748512316663847 -0.065003513159991533 0 -0.0028713715761271331 -0.062983718807227626 0 -0.0014525597159874347 -0.063891682543389214 0 0.0021983607661929922 -0.05351396381033835 0 0.00050544050272893944 -0.051193907509840715 0 0.0067126946942467495 -0.066331439223823563 0 0.0063942200851962354 -0.066402174389932456 0 0.0064954072654135287 -0.066133289813591456 0 0.0063942200851962354 -0.066402174389932456 0 0.0063476794523857558 -0.066223749489706538 0 0.0064954072654135287 -0.066133289813591456 0 0.023160150675726677 -0.095721522085201266 0 0.023870982136375878 -0.096662102996095081 0 0.021025825367051363 -0.096251515576890753 0 0.009258308011193225 -0.070479181449217776 0 0.013309631102676118 -0.077326751995976356 0 0.0061779231399903094 -0.066241049241955702 0 0.0063942200851962354 -0.066402174389932456 0 0.0062604798664350316 -0.066224587751161981 0 0.0062604798664350316 -0.066224587751161981 0 0.0063476794523857558 -0.066223749489706538 0 0.00622508786485995 -0.066166221446457604 0 0.0063942200851962354 -0.066402174389932456 0 0.0062604798664350316 -0.066224587751161981 0 0.0063476794523857558 -0.066223749489706538 0 0.003504574785875938 -0.059380199440259622 0 0.0048554157803773141 -0.062378387503313662 0 -0.00013085348991655779 -0.065253653974387649 0 0.00099218047090361564 -0.064469495527538181 0 0.0026592856059865929 -0.065550851575630259 0 0.0063476794523857558 -0.066223749489706538 0 0.00622508786485995 -0.066166221446457604 0 0.0064954072654135287 -0.066133289813591456 0 -0.00013085348991655779 -0.065253653974387649 0 0.00099218047090361564 -0.064469495527538181 0 -9.234356043356828e-05 -0.063540672164080464 0 0.0026592856059865929 -0.065550851575630259 0 0.0030569840239634905 -0.063660077178063726 0 0.0015490243932495288 -0.063546733635104033 0 0.00099218047090361564 -0.064469495527538181 0 0.0026592856059865929 -0.065550851575630259 0 0.0015490243932495288 -0.063546733635104033 0 0.0041851327836586452 -0.06447610987980687 0 0.0026592856059865929 -0.065550851575630259 0 0.0030569840239634905 -0.063660077178063726 0 0.0029713194250640738 -0.062114838717652415 0 0.0015490243932495288 -0.063546733635104033 0 5.0405316327595272e-05 -0.061538045451906873 0 0.0030569840239634905 -0.063660077178063726 0 0.0029713194250640738 -0.062114838717652415 0 0.0015490243932495288 -0.063546733635104033 0 0.0015490243932495288 -0.063546733635104033 0 -9.234356043356828e-05 -0.063540672164080464 0 5.0405316327595272e-05 -0.061538045451906873 0 0.00099218047090361564 -0.064469495527538181 0 0.0015490243932495288 -0.063546733635104033 0 -9.234356043356828e-05 -0.063540672164080464 0 0.0029713194250640738 -0.062114838717652415 0 0.0019528028356126084 -0.059689579471480674 0 0.0047116847606452792 -0.060264110489956661 0 0.0029713194250640738 -0.062114838717652415 0 -0.00018445178968608364 -0.061447514932686312 0 0.0019528028356126084 -0.059689579471480674 0 0.0020498798981374786 -0.056094610567942391 0 0.00088789853493088195 -0.054333006747119897 0 -0.0011111479117921663 -0.039975718340168741 0 0.00055494269090614144 -0.041484596482149395 0 0.00053545042370179536 -0.039881929505529448 0 -0.0028713715761271331 -0.062983718807227626 0 -0.0014463542538898635 -0.062580033466580753 0 -0.0028627370842232275 -0.06094430260429573 0 -0.0011111479117921663 -0.039975718340168741 0 0.00053545042370179536 -0.039881929505529448 0 0.00030509402187993558 -0.038313567072811965 0 0.00085275587069829413 -0.044171463178516814 0 -0.00068831812808558656 -0.04771841220540491 0 -9.234356043356828e-05 -0.063540672164080464 0 5.0405316327595272e-05 -0.061538045451906873 0 -0.0014463542538898635 -0.062580033466580753 0 -0.0028713715761271331 -0.062983718807227626 0 -0.0014463542538898635 -0.062580033466580753 0 -0.0014525597159874347 -0.063891682543389214 0 -9.234356043356828e-05 -0.063540672164080464 0 -0.0014463542538898635 -0.062580033466580753 0 -0.0014525597159874347 -0.063891682543389214 0 -0.00018445178968608364 -0.061447514932686312 0 -0.0032851872084352202 -0.060348035366930924 0 -0.0032869994553430489 -0.060805421399866222 0 5.0405316327595272e-05 -0.061538045451906873 0 -0.0014463542538898635 -0.062580033466580753 0 -0.0028627370842232275 -0.06094430260429573 0 0.00088789853493088195 -0.054333006747119897 0 -0.00079549716919748549 -0.048601843972187621 0 0.00050544050272893944 -0.051193907509840715 0 -0.00079549716919748549 -0.048601843972187621 0 0.00053545042370179536 -0.039881929505529448 0 0.00053075442647623143 -0.038359793551346652 0 0.00030509402187993558 -0.038313567072811965 0 -0.0017858096895096904 -0.03750518467037272 0 -0.00090328601277649525 -0.037630037800943539 0 -0.0011736530886153678 -0.03727510338788232 0 -0.0018907052795432977 -0.045135592557775252 0 -0.00068831812808558656 -0.04771841220540491 0 -0.0026257805395274478 -0.048142437200904095 0 -0.002619315975737572 -0.047020869637663991 0 -0.001837321959069285 -0.047173095175314719 0 -0.00090201725310964432 -0.047975413154502274 0 -0.00068831812808558656 -0.04771841220540491 0 -0.00090201725310964432 -0.047975413154502274 0 -0.00079549716919748549 -0.048601843972187621 0 -0.00079549716919748549 -0.048601843972187621 0 -0.00068831812808558656 -0.04771841220540491 0 -0.00077980172715383638 -0.037454454306963911 0 -0.00090328601277649525 -0.037630037800943539 0 -0.0011736530886153678 -0.03727510338788232 0 -0.00018445178968608364 -0.061447514932686312 0 -0.0032851872084352202 -0.060348035366930924 0 -0.00085540863219027419 -0.057356895808709459 0 -0.0015667567736727382 -0.036648339689039494 0 -0.0011736530886153678 -0.03727510338788232 0 -0.00089249450864099962 -0.037085431548418007 0 -0.00090201725310964432 -0.047975413154502274 0 -0.00089563655451157295 -0.04679893112441675 0 -0.00092712097971871048 -0.037006919586528672 0 -0.00089249450864099962 -0.037085431548418007 0 -0.00085690606867633561 -0.03706496353360595 0 -0.00077980172715383638 -0.037454454306963911 0 -0.00089249450864099962 -0.037085431548418007 0 -0.00085690606867633561 -0.03706496353360595 0 -0.00077980172715383638 -0.037454454306963911 0 -0.0011736530886153678 -0.03727510338788232 0 -0.00089249450864099962 -0.037085431548418007 0 -0.00092712097971871048 -0.037006919586528672 0 -0.00085690606867633561 -0.03706496353360595 0 -0.00087296260218113104 -0.036959475097164254 0 -0.00085690606867633561 -0.03706496353360595 0 -0.00076307689422621912 -0.036977394475466038 0 -0.00087296260218113104 -0.036959475097164254 0 -0.00090201725310964432 -0.047975413154502274 0 -0.00096273685294295005 -0.04843467032827542 0 -0.00085370809517095814 -0.037125076656039376 0 -0.00085690606867633561 -0.03706496353360595 0 -0.00076307689422621912 -0.036977394475466038 0 -0.00076307689422621912 -0.036977394475466038 0 -0.00087296260218113104 -0.036959475097164254 0 -0.00088249431865831366 -0.036863234829899609 0 -0.0010391265955454836 -0.036825998274939827 0 -0.00096552981822158198 -0.036918405574660418 0 -0.00088249431865831366 -0.036863234829899609 0 -0.00087296260218113104 -0.036959475097164254 0 -0.00096552981822158198 -0.036918405574660418 0 -0.00088249431865831366 -0.036863234829899609 0 -0.00092712097971871048 -0.037006919586528672 0 -0.00087296260218113104 -0.036959475097164254 0 -0.00096552981822158198 -0.036918405574660418 0 -0.00018445178968608364 -0.061447514932686312 0 -0.00085540863219027419 -0.057356895808709459 0 0.0019528028356126084 -0.059689579471480674 0 0.0019528028356126084 -0.059689579471480674 0 0.0031411137531401298 -0.057291961822080129 0 0.0047116847606452792 -0.060264110489956661 0 -0.00085540863219027419 -0.057356895808709459 0 0.0019528028356126084 -0.059689579471480674 0 0.0031411137531401298 -0.057291961822080129 0 -0.00085540863219027419 -0.057356895808709459 0 0.0031411137531401298 -0.057291961822080129 0 0.0015766583915109344 -0.054347141398496078 0 -0.010583152286447023 -0.072737780316255038 0 -0.0094051131241395958 -0.071812232708704668 0 -0.010474696203758373 -0.071002764835945503 0 -0.010583152286447023 -0.072737780316255038 0 -0.0094051131241395958 -0.071812232708704668 0 -0.0088889284251780307 -0.073626191459391713 0 -0.0094051131241395958 -0.071812232708704668 0 -0.0069910820176641983 -0.073778375987238853 0 -0.0088889284251780307 -0.073626191459391713 0 -0.0079728465349452136 -0.073071990032400405 0 -0.006849802668378078 -0.074013200660683023 0 -0.0079296052975015539 -0.071782367528883978 0 -0.0071964994460713902 -0.073789918735120905 0 -0.0064149045371204106 -0.071747430809848037 0 -0.0094051131241395958 -0.071812232708704668 0 -0.0079296052975015539 -0.071782367528883978 0 -0.0071964994460713902 -0.073789918735120905 0 -0.0080618674616492348 -0.074547216675706601 0 -0.0091473697431861418 -0.075437817662789231 0 -0.0072654140196944748 -0.075462615099718855 0 -0.0069910820176641983 -0.073778375987238853 0 -0.0080618674616492348 -0.074547216675706601 0 -0.0088889284251780307 -0.073626191459391713 0 -0.0069910820176641983 -0.073778375987238853 0 -0.0080618674616492348 -0.074547216675706601 0 -0.0072654140196944748 -0.075462615099718855 0 -0.010583152286447023 -0.072737780316255038 0 -0.0088889284251780307 -0.073626191459391713 0 -0.0091473697431861418 -0.075437817662789231 0 -0.0019853928560010009 -0.062530343752175491 0 -0.00031114009628672442 -0.066386349346294574 0 -0.0080618674616492348 -0.074547216675706601 0 -0.0088889284251780307 -0.073626191459391713 0 -0.0091473697431861418 -0.075437817662789231 0 0.0029713194250640738 -0.062114838717652415 0 0.0047116847606452792 -0.060264110489956661 0 0.0048115504659338813 -0.062702173310301298 0 -0.00031114009628672442 -0.066386349346294574 0 0.001979773451853985 -0.06847865092487071 0 -0.0091473697431861418 -0.075437817662789231 0 -0.0072654140196944748 -0.075462615099718855 0 -0.0077175649454509004 -0.078075573718033309 0 -0.0072654140196944748 -0.075462615099718855 0 -0.0077175649454509004 -0.078075573718033309 0 -0.0053039710682254116 -0.077554065252699339 0 0.001979773451853985 -0.06847865092487071 0 0.0023088431995232171 -0.068232662243464179 0 0.0059407926582299257 -0.064606045232331072 0 0.0061842684326780632 -0.06326260147983899 0 0.0048115504659338813 -0.062702173310301298 0 0.0041851327836586452 -0.06447610987980687 0 0.0059407926582299257 -0.064606045232331072 0 0.0048115504659338813 -0.062702173310301298 0 0.0047116847606452792 -0.060264110489956661 0 0.0062503749967975919 -0.063241321374897366 0 0.0048115504659338813 -0.062702173310301298 0 0.0041851327836586452 -0.06447610987980687 0 0.0030569840239634905 -0.063660077178063726 0 0.0048115504659338813 -0.062702173310301298 0 0.0030569840239634905 -0.063660077178063726 0 0.0029713194250640738 -0.062114838717652415 0 0.0048115504659338813 -0.062702173310301298 0 -0.00073816456316273794 -0.077635235828582755 0 -0.0035800738852378622 -0.076634721400471173 0 -0.0034110118802712199 -0.079774029231929014 0 -0.0053234652053672981 -0.077663595880219288 0 -0.0023480533534274758 -0.077805890780913475 0 -0.0055358798287509859 -0.078870688500958908 0 -0.003346335679502016 -0.079663907530553135 0 -0.0053039710682254116 -0.077554065252699339 0 0.00071249051638142371 -0.072875806969874654 0 0.001979773451853985 -0.06847865092487071 0 -0.0055358798287509859 -0.078870688500958908 0 -0.0077175649454509004 -0.078075573718033309 0 -0.0053039710682254116 -0.077554065252699339 0 -0.0048157041143646658 -0.075880761971679006 0 -0.0035800738852378622 -0.076634721400471173 0 -0.0072654140196944748 -0.075462615099718855 0 -0.0053234652053672981 -0.077663595880219288 0 -0.0046390833007159491 -0.075793875768976768 0 -0.0049515821291625031 -0.075605588521288958 0 -0.0038211235987362945 -0.07654807690111301 0 -0.0053234652053672981 -0.077663595880219288 0 -0.0046390833007159491 -0.075793875768976768 0 -0.0023480533534274758 -0.077805890780913475 0 -0.004816908486743994 -0.075877351316502389 0 -0.0034384918553332492 -0.0745747472162228 0 -0.0025544081202266127 -0.076150104319344783 0 -0.004816908486743994 -0.075877351316502389 0 -0.0023480533534274758 -0.077805890780913475 0 -0.0025544081202266127 -0.076150104319344783 0 -0.004816908486743994 -0.075877351316502389 0 -0.0034384918553332492 -0.0745747472162228 0 -0.0053376499249391815 -0.07394185311782471 0 -0.0034384918553332492 -0.0745747472162228 0 -0.0053376499249391815 -0.07394185311782471 0 -0.0039894422558036068 -0.073030936974330676 0 -0.0034384918553332492 -0.0745747472162228 0 -0.0039894422558036068 -0.073030936974330676 0 -0.0021210688158936203 -0.073213169232373379 0 -0.006849802668378078 -0.074013200660683023 0 -0.0049515821291625031 -0.075605588521288958 0 -0.0071964994460713902 -0.073789918735120905 0 -0.004816908486743994 -0.075877351316502389 0 -0.0053376499249391815 -0.07394185311782471 0 -0.0069910820176641983 -0.073778375987238853 0 -0.0072654140196944748 -0.075462615099718855 0 -0.0046390833007159491 -0.075793875768976768 0 -0.0053376499249391815 -0.07394185311782471 0 -0.0064149045371204106 -0.071747430809848037 0 -0.0039894422558036068 -0.073030936974330676 0 -0.0071964994460713902 -0.073789918735120905 0 -0.0053376499249391815 -0.07394185311782471 0 -0.0064149045371204106 -0.071747430809848037 0 -0.005574127103522987 -0.067341022048634611 0 -0.0045107245905429113 -0.068845321151911637 0 -0.0075999774439875932 -0.071063315976349919 0 -0.0039894422558036068 -0.073030936974330676 0 -0.0051866115263231897 -0.069641171655527495 0 -0.0039894422558036068 -0.073030936974330676 0 -0.0051866115263231897 -0.069641171655527495 0 -0.0027621516894478703 -0.071017935046360059 0 -0.0051866115263231897 -0.069641171655527495 0 -0.0029483175950951817 -0.067883982960607103 0 -0.0027621516894478703 -0.071017935046360059 0 -0.0029483175950951817 -0.067883982960607103 0 -0.0068917146866927731 -0.065823943902434567 0 -0.0034823927447019351 -0.062598208874630287 0 -0.0029483175950951817 -0.067883982960607103 0 -0.0034823927447019351 -0.062598208874630287 0 -0.001212893065009127 -0.064593543390964916 0 -0.0051866115263231897 -0.069641171655527495 0 -0.0029483175950951817 -0.067883982960607103 0 -0.0068917146866927731 -0.065823943902434567 0 -0.0068917146866927731 -0.065823943902434567 0 -0.0088375205624344477 -0.066246261987891075 0 -0.009072659023822302 -0.063568909662000239 0 -0.0068917146866927731 -0.065823943902434567 0 -0.0075447060608217799 -0.06853578359334353 0 -0.0088375205624344477 -0.066246261987891075 0 -0.0051866115263231897 -0.069641171655527495 0 -0.0068917146866927731 -0.065823943902434567 0 -0.0075447060608217799 -0.06853578359334353 0 -0.0075999774439875932 -0.071063315976349919 0 -0.0051866115263231897 -0.069641171655527495 0 -0.0075447060608217799 -0.06853578359334353 0 -0.005574127103522987 -0.067341022048634611 0 -0.0070520316283885481 -0.063274413140085778 0 -0.0079296052975015539 -0.071782367528883978 0 -0.0064149045371204106 -0.071747430809848037 0 -0.0087786412781939317 -0.070450559860001677 0 -0.0075999774439875932 -0.071063315976349919 0 -0.009969497520223412 -0.068445599282904834 0 -0.011443486646678861 -0.068904447270557334 0 -0.0075999774439875932 -0.071063315976349919 0 -0.0075447060608217799 -0.06853578359334353 0 -0.009969497520223412 -0.068445599282904834 0 -0.009969497520223412 -0.068445599282904834 0 -0.011443486646678861 -0.068904447270557334 0 -0.01117892075862042 -0.067061349095843228 0 -0.0087786412781939317 -0.070450559860001677 0 -0.010283953713538808 -0.070467528847977232 0 -0.011189105147749833 -0.069128304793907552 0 -0.0070520316283885481 -0.063274413140085778 0 -0.007362869571932217 -0.055902664214274263 0 -0.0095373270640568275 -0.070913347061418788 0 -0.010283953713538808 -0.070467528847977232 0 -0.010474696203758373 -0.071002764835945503 0 -0.0095373270640568275 -0.070913347061418788 0 -0.0087786412781939317 -0.070450559860001677 0 -0.010283953713538808 -0.070467528847977232 0 -0.0094051131241395958 -0.071812232708704668 0 -0.0095373270640568275 -0.070913347061418788 0 -0.010474696203758373 -0.071002764835945503 0 -0.0094051131241395958 -0.071812232708704668 0 -0.0079296052975015539 -0.071782367528883978 0 -0.0087786412781939317 -0.070450559860001677 0 -0.0094051131241395958 -0.071812232708704668 0 -0.0095373270640568275 -0.070913347061418788 0 -0.0087786412781939317 -0.070450559860001677 0 -0.011443486646678861 -0.068904447270557334 0 -0.014161060748414769 -0.06609379958123146 0 -0.015916122867255633 -0.066461151994906362 0 -0.014161060748414769 -0.06609379958123146 0 -0.012389432900391762 -0.066136957797772122 0 -0.013423329482391722 -0.0652207624411517 0 -0.011443486646678861 -0.068904447270557334 0 -0.014161060748414769 -0.06609379958123146 0 -0.012389432900391762 -0.066136957797772122 0 -0.011443486646678861 -0.068904447270557334 0 -0.012389432900391762 -0.066136957797772122 0 -0.01117892075862042 -0.067061349095843228 0 -0.012389432900391762 -0.066136957797772122 0 -0.011669510782266085 -0.065338242327091248 0 -0.01117892075862042 -0.067061349095843228 0 -0.012389432900391762 -0.066136957797772122 0 -0.01267904204045422 -0.064138574095080406 0 -0.011669510782266085 -0.065338242327091248 0 -0.01267904204045422 -0.064138574095080406 0 -0.011669510782266085 -0.065338242327091248 0 -0.010432570827201412 -0.064003749589215078 0 -0.012389432900391762 -0.066136957797772122 0 -0.01267904204045422 -0.064138574095080406 0 -0.013423329482391722 -0.0652207624411517 0 -0.01267904204045422 -0.064138574095080406 0 -0.013423329482391722 -0.0652207624411517 0 -0.01446086306066293 -0.064507631209507379 0 -0.014161060748414769 -0.06609379958123146 0 -0.013423329482391722 -0.0652207624411517 0 -0.01446086306066293 -0.064507631209507379 0 -0.0074648833299148501 -0.063786860266477854 0 -0.0073073221794291102 -0.061471136430907722 0 -0.009969497520223412 -0.068445599282904834 0 -0.0088375205624344477 -0.066246261987891075 0 -0.010638221767300013 -0.06489313121969803 0 -0.009969497520223412 -0.068445599282904834 0 -0.01117892075862042 -0.067061349095843228 0 -0.010432570827201412 -0.064003749589215078 0 -0.0075447060608217799 -0.06853578359334353 0 -0.009969497520223412 -0.068445599282904834 0 -0.0088375205624344477 -0.066246261987891075 0 -0.011669510782266085 -0.065338242327091248 0 -0.01117892075862042 -0.067061349095843228 0 -0.010432570827201412 -0.064003749589215078 0 -0.009072659023822302 -0.063568909662000239 0 -0.010638221767300013 -0.06489313121969803 0 -0.011265732874697055 -0.061275674464074018 0 -0.0073073221794291102 -0.061471136430907722 0 -0.0065558956601000093 -0.055139676902903036 0 -0.0088375205624344477 -0.066246261987891075 0 -0.009072659023822302 -0.063568909662000239 0 -0.010638221767300013 -0.06489313121969803 0 -0.0061913917963683732 -0.058487073597633138 0 -0.0065558956601000093 -0.055139676902903036 0 -0.010432570827201412 -0.064003749589215078 0 -0.012615713727609603 -0.061841728903246317 0 -0.011160283157883302 -0.059610375005763869 0 -0.01267904204045422 -0.064138574095080406 0 -0.012615713727609603 -0.061841728903246317 0 -0.014688154103491355 -0.062237904765234303 0 -0.01267904204045422 -0.064138574095080406 0 -0.01446086306066293 -0.064507631209507379 0 -0.014688154103491355 -0.062237904765234303 0 -0.01267904204045422 -0.064138574095080406 0 -0.010432570827201412 -0.064003749589215078 0 -0.012615713727609603 -0.061841728903246317 0 -0.012615713727609603 -0.061841728903246317 0 -0.014231867361258692 -0.059767693413832652 0 -0.014688154103491355 -0.062237904765234303 0 -0.0065558956601000093 -0.055139676902903036 0 -0.0076473073264579248 -0.047485594936346222 0 -0.014231867361258692 -0.059767693413832652 0 -0.011160283157883302 -0.059610375005763869 0 -0.014867159370784946 -0.055730676983386185 0 -0.012615713727609603 -0.061841728903246317 0 -0.014231867361258692 -0.059767693413832652 0 -0.011160283157883302 -0.059610375005763869 0 -0.012630520405923589 -0.059766122748700287 0 -0.0085696548059198407 -0.058393211906265494 0 -0.01358369959875215 -0.054219091486467023 0 -0.0097617245588022417 -0.062777213373554575 0 -0.012630520405923589 -0.059766122748700287 0 -0.0085696548059198407 -0.058393211906265494 0 -0.004173997705989755 -0.05730168961635803 0 -0.0026794969807617188 -0.058452340899128576 0 -0.0034823927447019351 -0.062598208874630287 0 -0.0035213212568112142 -0.054261264008178559 0 -0.002168529713475286 -0.057284485202786908 0 -0.0026794969807617188 -0.058452340899128576 0 -0.0034823927447019351 -0.062598208874630287 0 -0.00040895463946772031 -0.060339262876169551 0 -0.0026794969807617188 -0.058452340899128576 0 -0.0011908961073889938 -0.056570023747879804 0 -0.00040895463946772031 -0.060339262876169551 0 -0.0085696548059198407 -0.058393211906265494 0 -0.0034823927447019351 -0.062598208874630287 0 -0.007178423976736157 -0.062394163530628592 0 -0.0097617245588022417 -0.062777213373554575 0 -0.0085696548059198407 -0.058393211906265494 0 -0.007178423976736157 -0.062394163530628592 0 -0.0068917146866927731 -0.065823943902434567 0 -0.0034823927447019351 -0.062598208874630287 0 -0.007178423976736157 -0.062394163530628592 0 -0.0057250739583387797 -0.059882638044155535 0 -0.0061913917963683732 -0.058487073597633138 0 -0.0068917146866927731 -0.065823943902434567 0 -0.0097617245588022417 -0.062777213373554575 0 -0.007178423976736157 -0.062394163530628592 0 -0.00094776812713854262 -0.03672822510311078 0 -0.00085312162071577412 -0.03668366712956992 0 -0.00092856873281001889 -0.036552552882581593 0 -0.0010735333500867862 -0.036593774590987241 0 -0.00094776812713854262 -0.03672822510311078 0 -0.00092856873281001889 -0.036552552882581593 0 -0.00094776812713854262 -0.03672822510311078 0 -0.00088249431865831366 -0.036863234829899609 0 -0.00080253619306489433 -0.036803816335709318 0 -0.0010391265955454836 -0.036825998274939827 0 -0.00094776812713854262 -0.03672822510311078 0 -0.00088249431865831366 -0.036863234829899609 0 -0.00076307689422621912 -0.036977394475466038 0 -0.00088249431865831366 -0.036863234829899609 0 -0.00080253619306489433 -0.036803816335709318 0 -0.00094776812713854262 -0.03672822510311078 0 -0.00080253619306489433 -0.036803816335709318 0 -0.00085312162071577412 -0.03668366712956992 0 -0.00080253619306489433 -0.036803816335709318 0 -0.00085312162071577412 -0.03668366712956992 0 -0.00075548188169336308 -0.036726528544946631 0 -0.00085312162071577412 -0.03668366712956992 0 -0.00075548188169336308 -0.036726528544946631 0 -0.00075817692011628313 -0.036640822656167894 0 -0.00069096496269140692 -0.036693135502112617 0 -0.00075548188169336308 -0.036726528544946631 0 -0.00063172904691128891 -0.036828699463141518 0 -0.0061632993190103248 -0.050779157657237853 0 -0.0044020666923421589 -0.053934951435067685 0 -0.00069096496269140692 -0.036693135502112617 0 -0.00075548188169336308 -0.036726528544946631 0 -0.00075817692011628313 -0.036640822656167894 0 -0.0061632993190103248 -0.050779157657237853 0 -0.0061045757971268507 -0.050107101192315671 0 -0.00080253619306489433 -0.036803816335709318 0 -0.00075548188169336308 -0.036726528544946631 0 -0.00063172904691128891 -0.036828699463141518 0 -0.00096273685294295005 -0.04843467032827542 0 -0.0044020666923421589 -0.053934951435067685 0 -0.00076307689422621912 -0.036977394475466038 0 -0.00080253619306489433 -0.036803816335709318 0 -0.00063172904691128891 -0.036828699463141518 0 -0.010583152286447023 -0.072737780316255038 0 -0.011961736473198328 -0.070074037277986043 0 -0.010474696203758373 -0.071002764835945503 0 -0.0019853928560010009 -0.062530343752175491 0 -0.0044020666923421589 -0.053934951435067685 0 -0.011961736473198328 -0.070074037277986043 0 -0.011084369682659131 -0.070012528760515308 0 -0.011189105147749833 -0.069128304793907552 0 -0.010283953713538808 -0.070467528847977232 0 -0.011084369682659131 -0.070012528760515308 0 -0.011189105147749833 -0.069128304793907552 0 -0.011961736473198328 -0.070074037277986043 0 -0.010474696203758373 -0.071002764835945503 0 -0.011084369682659131 -0.070012528760515308 0 -0.010283953713538808 -0.070467528847977232 0 -0.010474696203758373 -0.071002764835945503 0 -0.011084369682659131 -0.070012528760515308 0 -0.0055543476477825154 -0.052402007720901408 0 -0.0041186465496872438 -0.055124373425061664 0 -0.002992086595765935 -0.05373653540852618 0 -0.014161060748414769 -0.06609379958123146 0 -0.015085656202675388 -0.066138866887489545 0 -0.015916122867255633 -0.066461151994906362 0 -0.014161060748414769 -0.06609379958123146 0 -0.015085656202675388 -0.066138866887489545 0 -0.015232885094869541 -0.065363154152529954 0 -0.015085656202675388 -0.066138866887489545 0 -0.015916122867255633 -0.066461151994906362 0 -0.015232885094869541 -0.065363154152529954 0 -0.0044020666923421589 -0.053934951435067685 0 -0.007362869571932217 -0.055902664214274263 0 -0.019153070664925709 -0.064725338962190113 0 -0.015916122867255633 -0.066461151994906362 0 -0.016597211237612604 -0.064194196004579152 0 -0.0061632993190103248 -0.050779157657237853 0 -0.007362869571932217 -0.055902664214274263 0 -0.016597211237612604 -0.064194196004579152 0 -0.01446086306066293 -0.064507631209507379 0 -0.015232885094869541 -0.065363154152529954 0 -0.015916122867255633 -0.066461151994906362 0 -0.016597211237612604 -0.064194196004579152 0 -0.015232885094869541 -0.065363154152529954 0 -0.014161060748414769 -0.06609379958123146 0 -0.01446086306066293 -0.064507631209507379 0 -0.015232885094869541 -0.065363154152529954 0 -0.014231867361258692 -0.059767693413832652 0 -0.014688154103491355 -0.062237904765234303 0 -0.018069877268997402 -0.060499429019292748 0 -0.016597211237612604 -0.064194196004579152 0 -0.014688154103491355 -0.062237904765234303 0 -0.018069877268997402 -0.060499429019292748 0 -0.016597211237612604 -0.064194196004579152 0 -0.01446086306066293 -0.064507631209507379 0 -0.014688154103491355 -0.062237904765234303 0 -0.018069877268997402 -0.060499429019292748 0 -0.019245428242711228 -0.056368814150116082 0 -0.014867159370784946 -0.055730676983386185 0 -0.014231867361258692 -0.059767693413832652 0 -0.018069877268997402 -0.060499429019292748 0 -0.014867159370784946 -0.055730676983386185 0 -0.018069877268997402 -0.060499429019292748 0 -0.021754341708603724 -0.059657555877966041 0 -0.019245428242711228 -0.056368814150116082 0 -0.00067714454975959621 -0.036702073138325943 0 -0.00075817692011628313 -0.036640822656167894 0 -0.00078488667620823095 -0.036456704027389153 0 -0.0061632993190103248 -0.050779157657237853 0 -0.0065236386416164856 -0.044835766750808546 0 -0.019153070664925709 -0.064725338962190113 0 -0.018069877268997402 -0.060499429019292748 0 -0.021754341708603724 -0.059657555877966041 0 -0.019153070664925709 -0.064725338962190113 0 -0.016597211237612604 -0.064194196004579152 0 -0.018069877268997402 -0.060499429019292748 0 -0.00083194982650947242 -0.036585897717909356 0 -0.00078488667620823095 -0.036456704027389153 0 -0.00092856873281001889 -0.036552552882581593 0 -0.00075817692011628313 -0.036640822656167894 0 -0.00083194982650947242 -0.036585897717909356 0 -0.00078488667620823095 -0.036456704027389153 0 -0.00085312162071577412 -0.03668366712956992 0 -0.00075817692011628313 -0.036640822656167894 0 -0.00083194982650947242 -0.036585897717909356 0 -0.00085312162071577412 -0.03668366712956992 0 -0.00083194982650947242 -0.036585897717909356 0 -0.00092856873281001889 -0.036552552882581593 0 -0.00078488667620823095 -0.036456704027389153 0 -0.00093785265481899946 -0.036397177555855628 0 -0.0008960338043835761 -0.036239190304469565 0 -0.00078488667620823095 -0.036456704027389153 0 -0.00093785265481899946 -0.036397177555855628 0 -0.00092856873281001889 -0.036552552882581593 0 -0.0010801626028806154 -0.036466498345839322 0 -0.00093785265481899946 -0.036397177555855628 0 -0.00092856873281001889 -0.036552552882581593 0 -0.0003448497522989228 -0.019592216079215179 0 -0.0012855819634936436 -0.019282220872548123 0 -0.00079373331706759876 -0.020252331300409807 0 -0.0048929154180185272 -0.035294473150091502 0 -0.0027002622317155453 -0.025416345504639233 0 4.3833391256326239e-06 -0.025716002914612745 0 2.5128583149464407e-05 -0.02550761652486545 0 -0.00021083159949506524 -0.02551142992172473 0 -0.0010649531303437952 -0.036314425384738246 0 -0.00093785265481899946 -0.036397177555855628 0 -0.0008960338043835761 -0.036239190304469565 0 -0.00043532722902936638 -0.018882816342158801 0 -0.0003448497522989228 -0.019592216079215179 0 -0.0012855819634936436 -0.019282220872548123 0 -0.0018283259702883774 -0.028168995368360868 0 -0.0048929154180185272 -0.035294473150091502 0 -0.021754341708603724 -0.059657555877966041 0 -0.024343403203740122 -0.054614589152779176 0 -0.019245428242711228 -0.056368814150116082 0 -0.0065236386416164856 -0.044835766750808546 0 -0.0048929154180185272 -0.035294473150091502 0 -0.0048929154180185272 -0.035294473150091502 0 -0.007699365587156135 -0.037298413783763459 0 4.3833391256326239e-06 -0.025716002914612745 0 0.00015204717411873437 -0.025581469281011897 0 2.5128583149464407e-05 -0.02550761652486545 0 -0.024343403203740122 -0.054614589152779176 0 -0.018553087197604963 -0.051866408851419882 0 -0.019245428242711228 -0.056368814150116082 0 -0.018553087197604963 -0.051866408851419882 0 -0.019245428242711228 -0.056368814150116082 0 -0.014867159370784946 -0.055730676983386185 0 -0.007699365587156135 -0.037298413783763459 0 -0.0076473073264579248 -0.047485594936346222 0 0.00033005827702426718 -0.034183856433715978 0 -0.00096757277908203422 -0.034800552931274861 0 -0.0033741724417512848 -0.031076729428489366 0 -0.0066660563246209734 -0.046349720433695292 0 -0.0076993727864591872 -0.043144798855473968 0 -0.0048071506545191963 -0.045548822457875122 0 -0.0091021070110057448 -0.043809761837589251 0 -0.0066660563246209734 -0.046349720433695292 0 -0.0076993727864591872 -0.043144798855473968 0 -0.007699365587156135 -0.037298413783763459 0 -0.004923319622818668 -0.035627294711470046 0 -0.004923319622818668 -0.035627294711470046 0 -0.0045822323832404293 -0.035492322582911809 0 -0.00024727644011183402 -0.034897272596147347 0 -0.0001707114444836444 -0.034752191826208284 0 -0.00062286261854750213 -0.035891508493784051 0 -0.00024727644011183402 -0.034897272596147347 0 -0.00096757277908203422 -0.034800552931274861 0 -0.00062286261854750213 -0.035891508493784051 0 -0.0001707114444836444 -0.034752191826208284 0 -0.00062286261854750213 -0.035891508493784051 0 -0.00040889653243253281 -0.035788998281854875 0 -0.00040889653243253281 -0.035788998281854875 0 1.5098944484890469e-06 -0.031336858468846276 0 -4.5663295089416708e-06 -0.036531095322104148 0 -0.0001707114444836444 -0.034752191826208284 0 -0.00040889653243253281 -0.035788998281854875 0 1.5098944484890469e-06 -0.031336858468846276 0 -0.00062286261854750213 -0.035891508493784051 0 -0.00040889653243253281 -0.035788998281854875 0 -0.0023359009690227411 -0.038477826858880827 0 -0.0001707114444836444 -0.034752191826208284 0 1.5098944484890469e-06 -0.031336858468846276 0 -0.00041967132132703766 -0.033214098260940184 0 -0.00024727644011183402 -0.034897272596147347 0 -0.0001707114444836444 -0.034752191826208284 0 -0.00041967132132703766 -0.033214098260940184 0 -0.00015593969826624657 -0.025318279863973919 0 -0.00023830543802015852 -0.025362302012741811 0 -6.1946027823536152e-05 -0.025463713883217928 0 -0.00015593969826624657 -0.025318279863973919 0 -6.1946027823536152e-05 -0.025463713883217928 0 3.1752971164004972e-05 -0.02542486828048536 0 -0.004923319622818668 -0.035627294711470046 0 -0.0013547107103171598 -0.030919909417250462 0 -0.007699365587156135 -0.037298413783763459 0 -0.0071798528097216131 -0.034699582776119231 0 0.00015204717411873437 -0.025581469281011897 0 2.5128583149464407e-05 -0.02550761652486545 0 3.1752971164004972e-05 -0.02542486828048536 0 -6.1946027823536152e-05 -0.025463713883217928 0 3.1752971164004972e-05 -0.02542486828048536 0 0.00021458523760478965 -0.025379713201865318 0 2.5128583149464407e-05 -0.02550761652486545 0 3.1752971164004972e-05 -0.02542486828048536 0 0.00021458523760478965 -0.025379713201865318 0 -6.1946027823536152e-05 -0.025463713883217928 0 2.0724724525270589e-07 -0.02612985754948495 0 0.00021458523760478965 -0.025379713201865318 0 1.5098944484890469e-06 -0.031336858468846276 0 -0.00041967132132703766 -0.033214098260940184 0 -3.4495183327763351e-06 -0.026147589254727106 0 -0.0013547107103171598 -0.030919909417250462 0 -2.6788467619741707e-06 -0.026151096769417105 0 -2.7384206494956956e-07 -0.021737984722319935 0 2.0724724525270589e-07 -0.02612985754948495 0 0.00021458523760478965 -0.025379713201865318 0 -2.7384206494956956e-07 -0.021737984722319935 0 0.00021458523760478965 -0.025379713201865318 0 -0.00021083159949506524 -0.02551142992172473 0 2.5128583149464407e-05 -0.02550761652486545 0 0.00021458523760478965 -0.025379713201865318 0 -0.00021083159949506524 -0.02551142992172473 0 -0.0015409939282214427 -0.049595525810070248 0 -0.0025127126823070614 -0.05382132625869724 0 -0.0032135085346290905 -0.048818210349695107 0 -0.0015409939282214427 -0.049595525810070248 0 -0.00060680282765417678 -0.052728090044221562 0 -0.0025127126823070614 -0.05382132625869724 0 -0.00060680282765417678 -0.052728090044221562 0 -0.0011908961073889938 -0.056570023747879804 0 -0.0025127126823070614 -0.05382132625869724 0 -0.0026794969807617188 -0.058452340899128576 0 -0.0011908961073889938 -0.056570023747879804 0 -0.0025127126823070614 -0.05382132625869724 0 -0.00060680282765417678 -0.052728090044221562 0 -0.0011908961073889938 -0.056570023747879804 0 0.00031510957190761913 -0.056131633193163964 0 -0.004173997705989755 -0.05730168961635803 0 -0.0026794969807617188 -0.058452340899128576 0 -0.0025127126823070614 -0.05382132625869724 0 -0.004173997705989755 -0.05730168961635803 0 -0.0025127126823070614 -0.05382132625869724 0 -0.006162047451370509 -0.05260925059442572 0 -0.0035213212568112142 -0.054261264008178559 0 -0.0051034902984690477 -0.046914101069642604 0 -0.0042218160151057749 -0.048902777006917544 0 -0.0066660563246209734 -0.046349720433695292 0 -0.0048071506545191963 -0.045548822457875122 0 -0.0065558956601000093 -0.055139676902903036 0 -0.0051034902984690477 -0.046914101069642604 0 -0.004923319622818668 -0.035627294711470046 0 -0.0051034902984690477 -0.046914101069642604 0 -0.0051034902984690477 -0.046914101069642604 0 -0.0049524261898048465 -0.043745083474276317 0 -0.00096757277908203422 -0.034800552931274861 0 -0.0033741724417512848 -0.031076729428489366 0 -0.0027922312863828845 -0.03426266605801729 0 -0.006162047451370509 -0.05260925059442572 0 -0.0059349150523885161 -0.047511686395431477 0 -0.0032135085346290905 -0.048818210349695107 0 -0.0025127126823070614 -0.05382132625869724 0 -0.006162047451370509 -0.05260925059442572 0 -0.0032135085346290905 -0.048818210349695107 0 -0.0015409939282214427 -0.049595525810070248 0 -0.0032135085346290905 -0.048818210349695107 0 -0.0012769765866911646 -0.044885639747759123 0 -0.0032135085346290905 -0.048818210349695107 0 -0.0025083363611368955 -0.04372050724817883 0 -0.0012769765866911646 -0.044885639747759123 0 -0.0025083363611368955 -0.04372050724817883 0 -0.0012769765866911646 -0.044885639747759123 0 -0.0012495705804230204 -0.040798495123262446 0 -0.0059349150523885161 -0.047511686395431477 0 -0.0025083363611368955 -0.04372050724817883 0 -0.0023359009690227411 -0.038477826858880827 0 -0.00062286261854750213 -0.035891508493784051 0 -0.0027922312863828845 -0.03426266605801729 0 -0.0023359009690227411 -0.038477826858880827 0 -0.0049524261898048465 -0.043745083474276317 0 -0.0047822726805863388 -0.0428547799247435 0 -0.00096757277908203422 -0.034800552931274861 0 -0.00062286261854750213 -0.035891508493784051 0 -0.0027922312863828845 -0.03426266605801729 0 -0.0059349150523885161 -0.047511686395431477 0 -0.0032135085346290905 -0.048818210349695107 0 -0.0025083363611368955 -0.04372050724817883 0 -0.0025083363611368955 -0.04372050724817883 0 -0.0023359009690227411 -0.038477826858880827 0 -0.0012495705804230204 -0.040798495123262446 0 -0.00040889653243253281 -0.035788998281854875 0 -0.0023359009690227411 -0.038477826858880827 0 -4.5663295089416708e-06 -0.036531095322104148 0 -0.0023359009690227411 -0.038477826858880827 0 -4.5663295089416708e-06 -0.036531095322104148 0 -0.0012495705804230204 -0.040798495123262446 0 -4.5663295089416708e-06 -0.036531095322104148 0 -0.0012495705804230204 -0.040798495123262446 0 -1.1600426203821232e-06 -0.041722945616548435 0 -0.0012769765866911646 -0.044885639747759123 0 -0.0012495705804230204 -0.040798495123262446 0 -1.1600426203821232e-06 -0.041722945616548435 0 -1.1600426203821232e-06 -0.041722945616548435 0 -0.00036912698441747782 -0.04790268811104826 0 -5.1791389470301548e-07 -0.04691871133011101 0 -0.0012769765866911646 -0.044885639747759123 0 -1.1600426203821232e-06 -0.041722945616548435 0 -0.00036912698441747782 -0.04790268811104826 0 -0.0015409939282214427 -0.049595525810070248 0 -0.00060680282765417678 -0.052728090044221562 0 -0.00036912698441747782 -0.04790268811104826 0 -0.0015409939282214427 -0.049595525810070248 0 -0.0012769765866911646 -0.044885639747759123 0 -0.00036912698441747782 -0.04790268811104826 0 -0.00060680282765417678 -0.052728090044221562 0 -0.00036912698441747782 -0.04790268811104826 0 0.00054511844914363551 -0.052108057703269199 0 -0.00036912698441747782 -0.04790268811104826 0 -5.1791389470301548e-07 -0.04691871133011101 0 0.00054511844914363551 -0.052108057703269199 0 -5.1791389470301548e-07 -0.04691871133011101 0 4.9995438379143795e-06 -0.052099981313466368 0 0.00054511844914363551 -0.052108057703269199 0 4.9995438379143795e-06 -0.052099981313466368 0 0.001382641492781144 -0.054316741149897416 0 0.00054511844914363551 -0.052108057703269199 0 0.001382641492781144 -0.054316741149897416 0 0.00054511844914363551 -0.052108057703269199 0 0.0016035288837724791 -0.056499632359251123 0 -0.00060680282765417678 -0.052728090044221562 0 0.00054511844914363551 -0.052108057703269199 0 0.00031510957190761913 -0.056131633193163964 0 0.00054511844914363551 -0.052108057703269199 0 0.0016035288837724791 -0.056499632359251123 0 0.00031510957190761913 -0.056131633193163964 0 0.0016035288837724791 -0.056499632359251123 0 0.0014676538354541475 -0.058815766239629183 0 0.00031510957190761913 -0.056131633193163964 0 -0.0011908961073889938 -0.056570023747879804 0 0.00031510957190761913 -0.056131633193163964 0 -0.00040895463946772031 -0.060339262876169551 0 0.0014676538354541475 -0.058815766239629183 0 0.00031510957190761913 -0.056131633193163964 0 -0.00040895463946772031 -0.060339262876169551 0 0.0028555369230626802 -0.059535396739890306 0 0.0045331410996997607 -0.061656127851390193 0 0.0038036360042369602 -0.061733958286269028 0 0.0045331410996997607 -0.061656127851390193 0 0.004706446145269794 -0.062692629232990682 0 0.0038036360042369602 -0.061733958286269028 0 0.0016035288837724791 -0.056499632359251123 0 0.0014676538354541475 -0.058815766239629183 0 0.0028555369230626802 -0.059535396739890306 0 0.0014676538354541475 -0.058815766239629183 0 0.0028555369230626802 -0.059535396739890306 0 0.0022823110870213133 -0.062300401545814933 0 0.001382641492781144 -0.054316741149897416 0 0.0016035288837724791 -0.056499632359251123 0 0.0030753654316116991 -0.05763227330180528 0 0.0016035288837724791 -0.056499632359251123 0 0.0028555369230626802 -0.059535396739890306 0 0.0030753654316116991 -0.05763227330180528 0 0.0028555369230626802 -0.059535396739890306 0 0.0030753654316116991 -0.05763227330180528 0 0.0045331410996997607 -0.061656127851390193 0 0.0030753654316116991 -0.05763227330180528 0 0.0050727845599814296 -0.058757588482079258 0 0.0045331410996997607 -0.061656127851390193 0 0.0018880266727677069 -0.056067471137781995 0 0.0026716765785846368 -0.058819118444619706 0 -3.2883134596594822e-06 -0.052112061947586739 0 -0.00056254289783246318 -0.05881704853180051 0 1.0548507804679811e-06 -0.05836115763705834 0 0.0030753654316116991 -0.05763227330180528 0 0.0029148049674025734 -0.054036763789783678 0 0.0050727845599814296 -0.058757588482079258 0 0.001382641492781144 -0.054316741149897416 0 0.0030753654316116991 -0.05763227330180528 0 0.0029148049674025734 -0.054036763789783678 0 4.9995438379143795e-06 -0.052099981313466368 0 0.001382641492781144 -0.054316741149897416 0 0.0029148049674025734 -0.054036763789783678 0 1.6948287467829756e-06 -0.0521141963550606 0 0.0018880266727677069 -0.056067471137781995 0 -0.00056254289783246318 -0.05881704853180051 0 1.0548507804679811e-06 -0.05836115763705834 0 0.00058602035587120298 -0.063591786809420084 0 1.0548507804679811e-06 -0.05836115763705834 0 0.0017744213399488807 -0.065145875756243143 0 4.05793992686721e-06 -0.06695177693129635 0 1.0548507804679811e-06 -0.05836115763705834 0 0.0017744213399488807 -0.065145875756243143 0 0.00058602035587120298 -0.063591786809420084 0 0.0017744213399488807 -0.065145875756243143 0 4.05793992686721e-06 -0.06695177693129635 0 0.00060052526518648397 -0.068569695533039557 0 4.05793992686721e-06 -0.06695177693129635 0 0.00060052526518648397 -0.068569695533039557 0 -0.00011342650282203024 -0.073232415756708469 0 0.0018967591803740324 -0.070896886882564111 0 0.00055202920270455312 -0.068010637869371018 0 -0.0010990926476868105 -0.071460902177186481 0 0.0018967591803740324 -0.070896886882564111 0 0.0028648217359147697 -0.066863297251349291 0 0.003080683987141519 -0.065174399515716325 0 0.0017744213399488807 -0.065145875756243143 0 0.00060052526518648397 -0.068569695533039557 0 0.003080683987141519 -0.065174399515716325 0 0.00077415376848387688 -0.071259856730116797 0 0.0018050767855806856 -0.070081056419814713 0 0.0028648217359147697 -0.066863297251349291 0 0.00055202920270455312 -0.068010637869371018 0 0.002899121811500423 -0.065230603651327115 0 0.0034079620416488177 -0.065473073740453913 0 0.0028648217359147697 -0.066863297251349291 0 0.0033095057631572136 -0.065348231875622248 0 0.0028648217359147697 -0.066863297251349291 0 0.003080683987141519 -0.065174399515716325 0 0.0033095057631572136 -0.065348231875622248 0 0.0034079620416488177 -0.065473073740453913 0 0.0028648217359147697 -0.066863297251349291 0 0.002899121811500423 -0.065230603651327115 0 0.0034079620416488177 -0.065473073740453913 0 0.0040795482034163173 -0.064360499411989916 0 0.002899121811500423 -0.065230603651327115 0 0.0018967591803740324 -0.070896886882564111 0 0.0028648217359147697 -0.066863297251349291 0 0.00055202920270455312 -0.068010637869371018 0 0.0050727845599814296 -0.058757588482079258 0 0.0044488468194915807 -0.062185204023887532 0 0.0045331410996997607 -0.061656127851390193 0 0.0050727845599814296 -0.058757588482079258 0 0.0044488468194915807 -0.062185204023887532 0 0.0031955460293659698 -0.064953522210404582 0 0.0026716765785846368 -0.058819118444619706 0 0.0029234999419463495 -0.059984119552620875 0 0.0044488468194915807 -0.062185204023887532 0 0.0039685314693281466 -0.063701250810046489 0 0.0045627213859260052 -0.062905455163565938 0 0.0017744213399488807 -0.065145875756243143 0 0.003080683987141519 -0.065174399515716325 0 0.0031955460293659698 -0.064953522210404582 0 0.0017744213399488807 -0.065145875756243143 0 0.00058602035587120298 -0.063591786809420084 0 0.0031955460293659698 -0.064953522210404582 0 0.003080683987141519 -0.065174399515716325 0 0.0034490898811642052 -0.064643984672027144 0 0.0033095057631572136 -0.065348231875622248 0 0.003080683987141519 -0.065174399515716325 0 0.0031955460293659698 -0.064953522210404582 0 0.0034490898811642052 -0.064643984672027144 0 0.0044488468194915807 -0.062185204023887532 0 0.0031955460293659698 -0.064953522210404582 0 0.0039685314693281466 -0.063701250810046489 0 0.0034490898811642052 -0.064643984672027144 0 0.0039685314693281466 -0.063701250810046489 0 0.0037082278239217708 -0.064392995849310894 0 0.0031955460293659698 -0.064953522210404582 0 0.0034490898811642052 -0.064643984672027144 0 0.0039685314693281466 -0.063701250810046489 0 0.0039685314693281466 -0.063701250810046489 0 0.0041274586954933136 -0.063940250731293724 0 0.0045627213859260052 -0.062905455163565938 0 0.0039685314693281466 -0.063701250810046489 0 0.0041274586954933136 -0.063940250731293724 0 0.0037082278239217708 -0.064392995849310894 0 0.0034490898811642052 -0.064643984672027144 0 0.0033095057631572136 -0.065348231875622248 0 0.0037082278239217708 -0.064392995849310894 0 0.0033095057631572136 -0.065348231875622248 0 0.0037082278239217708 -0.064392995849310894 0 0.0037517869245929296 -0.064652524897399574 0 0.0041274586954933136 -0.063940250731293724 0 0.0037082278239217708 -0.064392995849310894 0 0.0037517869245929296 -0.064652524897399574 0 0.0034079620416488177 -0.065473073740453913 0 0.0033095057631572136 -0.065348231875622248 0 0.0037517869245929296 -0.064652524897399574 0 0.0034079620416488177 -0.065473073740453913 0 0.0037517869245929296 -0.064652524897399574 0 0.0040795482034163173 -0.064360499411989916 0 0.0041274586954933136 -0.063940250731293724 0 0.0037517869245929296 -0.064652524897399574 0 0.0040795482034163173 -0.064360499411989916 0 0.0041274586954933136 -0.063940250731293724 0 0.0040795482034163173 -0.064360499411989916 0 0.0046702303102493879 -0.063452954051678945 0 0.0041274586954933136 -0.063940250731293724 0 0.0046702303102493879 -0.063452954051678945 0 0.0045627213859260052 -0.062905455163565938 0 0.0046702303102493879 -0.063452954051678945 0 0.0045627213859260052 -0.062905455163565938 0 0.004706446145269794 -0.062692629232990682 0 0.0044488468194915807 -0.062185204023887532 0 0.0045627213859260052 -0.062905455163565938 0 0.0045331410996997607 -0.061656127851390193 0 0.0045627213859260052 -0.062905455163565938 0 0.0045331410996997607 -0.061656127851390193 0 0.004706446145269794 -0.062692629232990682 0 0.0046702303102493879 -0.063452954051678945 0 0.0045330033850960044 -0.06373492183124696 0 0.0054507880008357731 -0.063896392935817836 0 0.0046702303102493879 -0.063452954051678945 0 0.004706446145269794 -0.062692629232990682 0 0.0054507880008357731 -0.063896392935817836 0 0.0040795482034163173 -0.064360499411989916 0 0.0046702303102493879 -0.063452954051678945 0 0.0045330033850960044 -0.06373492183124696 0 0.0040795482034163173 -0.064360499411989916 0 0.0045330033850960044 -0.06373492183124696 0 0.002899121811500423 -0.065230603651327115 0 0.0091993719790877358 -0.064899700657666537 0 0.0054507880008357731 -0.063896392935817836 0 0.0084538445426046525 -0.067366293336423966 0 0.0028442235113634333 -0.074117250424924036 0 0.0034329036180292759 -0.072333342722937441 0 0.0045330033850960044 -0.06373492183124696 0 0.0042213873561294151 -0.062814665261443331 0 0.0054507880008357731 -0.063896392935817836 0 0.0045330033850960044 -0.06373492183124696 0 0.0042213873561294151 -0.062814665261443331 0 0.0028756887141531818 -0.063498548610086886 0 0.002899121811500423 -0.065230603651327115 0 0.0028756887141531818 -0.063498548610086886 0 -0.00027691637206269905 -0.064357968145004579 0 0.00055202920270455312 -0.068010637869371018 0 0.002899121811500423 -0.065230603651327115 0 -0.00027691637206269905 -0.064357968145004579 0 0.0045330033850960044 -0.06373492183124696 0 0.002899121811500423 -0.065230603651327115 0 0.0028756887141531818 -0.063498548610086886 0 0.0042213873561294151 -0.062814665261443331 0 0.0028756887141531818 -0.063498548610086886 0 0.0018331553862697958 -0.061929564690440572 0 0.0028442235113634333 -0.074117250424924036 0 -0.0010841626948454668 -0.079848243872020899 0 -0.012648561673525746 -0.093224372629767793 0 -0.010304363293333021 -0.090102249292456332 0 -0.008851075677111072 -0.09414626661137987 0 -0.0010841626948454668 -0.079848243872020899 0 -0.003007227749585905 -0.078790608564950806 0 0.0028756887141531818 -0.063498548610086886 0 0.0018331553862697958 -0.061929564690440572 0 -0.00027691637206269905 -0.064357968145004579 0 -0.0083543957834931078 -0.093952360000706503 0 -0.0081467458568768372 -0.09488288590421122 0 -0.0068120436924534126 -0.09433599243577119 0 -0.0010841626948454668 -0.079848243872020899 0 -0.0045270053139505207 -0.085100281035993638 0 -0.0081467458568768372 -0.09488288590421122 0 -0.0079412902732522075 -0.095864328931446155 0 -0.0068120436924534126 -0.09433599243577119 0 0.012808774599071185 -0.065838133315915523 0 0.010168396188844419 -0.069224464749197953 0 0.0084538445426046525 -0.067366293336423966 0 -0.0083543957834931078 -0.093952360000706503 0 -0.0081467458568768372 -0.09488288590421122 0 -0.0094536823730372484 -0.095369092545586356 0 -0.0010841626948454668 -0.079848243872020899 0 0.0030323225502255444 -0.079945315707645542 0 0.0091993719790877358 -0.064899700657666537 0 0.012808774599071185 -0.065838133315915523 0 0.0084538445426046525 -0.067366293336423966 0 0.0030323225502255444 -0.079945315707645542 0 -0.00065104673114809624 -0.083217878275260018 0 0.0027051050471132406 -0.076345330340049825 0 0.0030372669153488239 -0.075411556908889996 0 0.0027285771795770874 -0.076221434172248539 0 -0.0081467458568768372 -0.09488288590421122 0 -0.0094536823730372484 -0.095369092545586356 0 -0.0079412902732522075 -0.095864328931446155 0 0.0029294915713190366 -0.0756004231804209 0 0.0027051050471132406 -0.076345330340049825 0 0.0024633963868531967 -0.077172081542104032 0 0.0030323225502255444 -0.079945315707645542 0 0.0030551079829864128 -0.07990025038266832 0 0.0029294915713190366 -0.0756004231804209 0 0.0027051050471132406 -0.076345330340049825 0 0.0030372669153488239 -0.075411556908889996 0 0.0054507880008357731 -0.063896392935817836 0 0.0060215464354127484 -0.068049435597214644 0 0.0084538445426046525 -0.067366293336423966 0 0.010168396188844419 -0.069224464749197953 0 0.0060215464354127484 -0.068049435597214644 0 0.0084538445426046525 -0.067366293336423966 0 0.0030323225502255444 -0.079945315707645542 0 0.0024867747847533506 -0.075006417354045646 0 0.0030372669153488239 -0.075411556908889996 0 0.0030918890995755618 -0.074398369253876787 0 0.0027285771795770874 -0.076221434172248539 0 0.0030612667692796447 -0.07542564513603088 0 0.003389072522184536 -0.072333910762914996 0 0.0030372669153488239 -0.075411556908889996 0 0.003389072522184536 -0.072333910762914996 0 0.0030372669153488239 -0.075411556908889996 0 0.0030918890995755618 -0.074398369253876787 0 0.003389072522184536 -0.072333910762914996 0 0.0030918890995755618 -0.074398369253876787 0 0.0027045236349032601 -0.072825513173341946 0 0.0054507880008357731 -0.063896392935817836 0 0.0060215464354127484 -0.068049435597214644 0 0.0026724371980478157 -0.06761462932462628 0 0.003389072522184536 -0.072333910762914996 0 0.0027045236349032601 -0.072825513173341946 0 0.0026724371980478157 -0.06761462932462628 0 0.0024867747847533506 -0.075006417354045646 0 0.0016197835768448395 -0.073220716850744549 0 0.0026724371980478157 -0.06761462932462628 0 0.0013787847780997542 -0.070456037155180409 0 0.00013359228252022768 -0.067625076177531523 0 0.0013787847780997542 -0.070456037155180409 0 -0.00057636879914091214 -0.071005361022173918 0 0.0011930742809657289 -0.073010278903446441 0 0.0027045236349032601 -0.072825513173341946 0 0.0026724371980478157 -0.06761462932462628 0 0.0013787847780997542 -0.070456037155180409 0 0.0027045236349032601 -0.072825513173341946 0 0.0013787847780997542 -0.070456037155180409 0 0.0011930742809657289 -0.073010278903446441 0 0.0013787847780997542 -0.070456037155180409 0 -0.00057636879914091214 -0.071005361022173918 0 0.00013359228252022768 -0.067625076177531523 0 -0.0029483175950951817 -0.067883982960607103 0 -0.00057636879914091214 -0.071005361022173918 0 0.00013359228252022768 -0.067625076177531523 0 -0.0029483175950951817 -0.067883982960607103 0 -0.00057636879914091214 -0.071005361022173918 0 -0.0027621516894478703 -0.071017935046360059 0 -0.0029483175950951817 -0.067883982960607103 0 0.00013359228252022768 -0.067625076177531523 0 -0.001212893065009127 -0.064593543390964916 0 0.0026724371980478157 -0.06761462932462628 0 0.00013359228252022768 -0.067625076177531523 0 0.0006769946785524088 -0.064198940064510671 0 0.00013359228252022768 -0.067625076177531523 0 0.0006769946785524088 -0.064198940064510671 0 -0.001212893065009127 -0.064593543390964916 0 -0.0034823927447019351 -0.062598208874630287 0 -0.001212893065009127 -0.064593543390964916 0 -0.00040895463946772031 -0.060339262876169551 0 0.0006769946785524088 -0.064198940064510671 0 -0.001212893065009127 -0.064593543390964916 0 -0.00040895463946772031 -0.060339262876169551 0 0.0006769946785524088 -0.064198940064510671 0 -0.00040895463946772031 -0.060339262876169551 0 0.0022823110870213133 -0.062300401545814933 0 0.0014676538354541475 -0.058815766239629183 0 -0.00040895463946772031 -0.060339262876169551 0 0.0022823110870213133 -0.062300401545814933 0 0.0028555369230626802 -0.059535396739890306 0 0.0022823110870213133 -0.062300401545814933 0 0.0038036360042369602 -0.061733958286269028 0 0.004706446145269794 -0.062692629232990682 0 0.0054507880008357731 -0.063896392935817836 0 0.0038553968286332693 -0.063466503503364358 0 0.0022823110870213133 -0.062300401545814933 0 0.0038036360042369602 -0.061733958286269028 0 0.0038553968286332693 -0.063466503503364358 0 0.004706446145269794 -0.062692629232990682 0 0.0038036360042369602 -0.061733958286269028 0 0.0038553968286332693 -0.063466503503364358 0 0.0054507880008357731 -0.063896392935817836 0 0.0026724371980478157 -0.06761462932462628 0 0.0038553968286332693 -0.063466503503364358 0 0.0026724371980478157 -0.06761462932462628 0 0.0006769946785524088 -0.064198940064510671 0 0.0022823110870213133 -0.062300401545814933 0 0.0026724371980478157 -0.06761462932462628 0 0.0022823110870213133 -0.062300401545814933 0 0.0038553968286332693 -0.063466503503364358 0 5.931397794317531e-07 -0.094990654193414195 0 0.00036317273160723382 -0.086700496770413304 0 -2.3235923277411681e-06 -0.078764259086554045 0 5.931397794317531e-07 -0.094990654193414195 0 -7.0296766054533765e-06 -0.094245469688096259 0 8.7512394836625582e-07 -0.094997948966486764 0 0.00021173308608830318 -0.0933135127478191 0 -7.0296766054533765e-06 -0.094245469688096259 0 8.7512394836625582e-07 -0.094997948966486764 0 0.00021173308608830318 -0.0933135127478191 0 0.00022285688036468231 -0.093583182789265862 0 -7.0296766054533765e-06 -0.094245469688096259 0 5.931397794317531e-07 -0.094990654193414195 0 -7.0296766054533765e-06 -0.094245469688096259 0 0.00036317273160723382 -0.086700496770413304 0 0.00011267102739763824 -0.087202421161644159 0 -7.0296766054533765e-06 -0.094245469688096259 0 0.00036317273160723382 -0.086700496770413304 0 0.00066867495594423172 -0.090026476662381574 0 0.00060317456924531803 -0.090671731209988005 0 0.00036317273160723382 -0.086700496770413304 0 0.0014998088867458823 -0.084175263513583148 0 0.00024214585339829342 -0.081791444728226012 0 0.00066867495594423172 -0.090026476662381574 0 0.00022351214760997726 -0.089396271471728225 0 0.00011267102739763824 -0.087202421161644159 0 0.00036317273160723382 -0.086700496770413304 0 0.0014998088867458823 -0.084175263513583148 0 0.00021173308608830318 -0.0933135127478191 0 0.00022285688036468231 -0.093583182789265862 0 0.00053318147342876589 -0.091956784429401528 0 0.00021173308608830318 -0.0933135127478191 0 0.00053318147342876589 -0.091956784429401528 0 0.00053258309357099177 -0.091715370920553332 0 0.00053318147342876589 -0.091956784429401528 0 0.00012551415316836532 -0.090219630728887029 0 0.00053258309357099177 -0.091715370920553332 0 0.00022351214760997726 -0.089396271471728225 0 -0.00048464978002326535 -0.089383453775262828 0 0.00053318147342876589 -0.091956784429401528 0 -0.00045858959500105702 -0.087737559671479268 0 0.00012551415316836532 -0.090219630728887029 0 0.0014998088867458823 -0.084175263513583148 0 -0.00045858959500105702 -0.087737559671479268 0 -0.00043548366981978332 -0.08262320825769473 0 -0.00045858959500105702 -0.087737559671479268 0 -0.002977737031015679 -0.083800947892854916 0 -0.00043548366981978332 -0.08262320825769473 0 -0.00045858959500105702 -0.087737559671479268 0 -0.002977737031015679 -0.083800947892854916 0 -0.0042886193522492311 -0.087164607178222581 0 -0.00045858959500105702 -0.087737559671479268 0 -0.0042886193522492311 -0.087164607178222581 0 -0.0016277479143123157 -0.089807944785020827 0 -0.002977737031015679 -0.083800947892854916 0 -0.00043548366981978332 -0.08262320825769473 0 -0.0038761624041330984 -0.078838026991694746 0 -0.00043548366981978332 -0.08262320825769473 0 -0.0012252401115769129 -0.078876704126639607 0 -0.0038761624041330984 -0.078838026991694746 0 -0.00043548366981978332 -0.08262320825769473 0 0.00024214585339829342 -0.081791444728226012 0 -0.0012252401115769129 -0.078876704126639607 0 0.0014998088867458823 -0.084175263513583148 0 -0.00043548366981978332 -0.08262320825769473 0 0.00024214585339829342 -0.081791444728226012 0 -2.3235923277411681e-06 -0.078764259086554045 0 -0.0012252401115769129 -0.078876704126639607 0 -0.00011342650282203024 -0.073232415756708469 0 0.00036317273160723382 -0.086700496770413304 0 0.00024214585339829342 -0.081791444728226012 0 -2.3235923277411681e-06 -0.078764259086554045 0 0.00024214585339829342 -0.081791444728226012 0 -2.3235923277411681e-06 -0.078764259086554045 0 -0.0012252401115769129 -0.078876704126639607 0 4.05793992686721e-06 -0.06695177693129635 0 -2.3235923277411681e-06 -0.078764259086554045 0 -0.00011342650282203024 -0.073232415756708469 0 -0.0011108147976549086 -0.074351511210891091 0 -0.00078701940048400828 -0.073343607988577711 0 0.0018967591803740324 -0.070896886882564111 0 -0.0010990926476868105 -0.071460902177186481 0 -0.0035707710943775873 -0.076889395253426931 0 -0.0010990926476868105 -0.071460902177186481 0 -0.0035707710943775873 -0.076889395253426931 0 -0.003517340755617908 -0.069508347737552656 0 0.00077415376848387688 -0.071259856730116797 0 -0.00078701940048400828 -0.073343607988577711 0 -0.0012252401115769129 -0.078876704126639607 0 -0.0035707710943775873 -0.076889395253426931 0 -0.0038761624041330984 -0.078838026991694746 0 -0.0035707710943775873 -0.076889395253426931 0 -0.0038761624041330984 -0.078838026991694746 0 -0.003517340755617908 -0.069508347737552656 0 -0.0033481264684384095 -0.077679930128948124 0 -0.0035318032252604614 -0.078075790948413562 0 -0.002977737031015679 -0.083800947892854916 0 -0.0042886193522492311 -0.087164607178222581 0 -0.0083133187406911595 -0.086442248184423462 0 -0.002977737031015679 -0.083800947892854916 0 -0.0038761624041330984 -0.078838026991694746 0 -0.0083133187406911595 -0.086442248184423462 0 0.00055202920270455312 -0.068010637869371018 0 -0.003517340755617908 -0.069508347737552656 0 -0.00027691637206269905 -0.064357968145004579 0 0.00055202920270455312 -0.068010637869371018 0 -0.0010990926476868105 -0.071460902177186481 0 -0.003517340755617908 -0.069508347737552656 0 -0.0083133187406911595 -0.086442248184423462 0 -0.010304363293333021 -0.090102249292456332 0 -0.0068712145172857538 -0.090090450309125367 0 -0.0035318032252604614 -0.078075790948413562 0 -0.003007227749585905 -0.078790608564950806 0 -0.0042886193522492311 -0.087164607178222581 0 -0.0083133187406911595 -0.086442248184423462 0 -0.0068712145172857538 -0.090090450309125367 0 -0.0042886193522492311 -0.087164607178222581 0 -0.0068712145172857538 -0.090090450309125367 0 -0.0044910650724025994 -0.092343401340383394 0 -0.0070663977140338671 -0.092347021270907659 0 -0.0051122106169540354 -0.094652194476316245 0 -0.0044910650724025994 -0.092343401340383394 0 -0.0068712145172857538 -0.090090450309125367 0 -0.0070663977140338671 -0.092347021270907659 0 -0.0044910650724025994 -0.092343401340383394 0 -0.010304363293333021 -0.090102249292456332 0 -0.0070663977140338671 -0.092347021270907659 0 -0.008851075677111072 -0.09414626661137987 0 -0.010304363293333021 -0.090102249292456332 0 -0.0068712145172857538 -0.090090450309125367 0 -0.0070663977140338671 -0.092347021270907659 0 0.0024633963868531967 -0.077172081542104032 0 0.00255013954952469 -0.078180511936607883 0 0.0025364063131706168 -0.078139087981686589 0 -0.0079412902732522075 -0.095864328931446155 0 -0.0061842294085558093 -0.095330492664890479 0 -0.0063561075529173609 -0.096436088009317647 0 -0.00065104673114809624 -0.083217878275260018 0 -0.00078126595187559436 -0.085780724468806996 0 -0.0079412902732522075 -0.095864328931446155 0 -0.0068120436924534126 -0.09433599243577119 0 -0.0061842294085558093 -0.095330492664890479 0 -0.0006191506807275047 -0.089498943792863175 0 -0.00078126595187559436 -0.085780724468806996 0 -0.0061842294085558093 -0.095330492664890479 0 -0.0051122106169540354 -0.094652194476316245 0 -0.0043760585745861898 -0.095842956511859742 0 0.00073781536798553393 -0.085977844056746563 0 0.00083475580079424533 -0.086792005703418995 0 -0.00028145354835377577 -0.086476065394355581 0 -0.0061842294085558093 -0.095330492664890479 0 -0.0043760585745861898 -0.095842956511859742 0 -0.0063561075529173609 -0.096436088009317647 0 -0.0068120436924534126 -0.09433599243577119 0 -0.0061842294085558093 -0.095330492664890479 0 -0.0051122106169540354 -0.094652194476316245 0 -0.0070663977140338671 -0.092347021270907659 0 -0.008851075677111072 -0.09414626661137987 0 -0.0051122106169540354 -0.094652194476316245 0 -0.0045270053139505207 -0.085100281035993638 0 -0.00457684755369679 -0.086843026169560411 0 -0.0006191506807275047 -0.089498943792863175 0 -0.0021368439272222411 -0.090954265883673155 0 -0.0051122106169540354 -0.094652194476316245 0 -0.0043760585745861898 -0.095842956511859742 0 -0.0044910650724025994 -0.092343401340383394 0 -0.0015832646750709579 -0.093665264191894679 0 -0.0023756299936119377 -0.095194315722690076 0 -0.0029960886425262094 -0.092564090967138746 0 -0.0006191506807275047 -0.089498943792863175 0 0.0012226984495518252 -0.086350637916753514 0 0.0077196440355238342 -0.090222450756993894 0 0.0047966514132895899 -0.089033333544455237 0 0.0074534628112218598 -0.087237189462146689 0 0.0077196440355238342 -0.090222450756993894 0 0.0047966514132895899 -0.089033333544455237 0 0.0039569580020101637 -0.091877272828973969 0 0.0047966514132895899 -0.089033333544455237 0 0.0039569580020101637 -0.091877272828973969 0 0.0029143753026305481 -0.090120796993989657 0 -0.0006191506807275047 -0.089498943792863175 0 0.00063208054793377477 -0.090818848619854509 0 -0.0015832646750709579 -0.093665264191894679 0 -0.0023756299936119377 -0.095194315722690076 0 -0.00016001303749580941 -0.093869881328331059 0 -0.0015832646750709579 -0.093665264191894679 0 -0.00016001303749580941 -0.093869881328331059 0 -0.0006615908650635298 -0.092804141306894558 0 -0.00016001303749580941 -0.093869881328331059 0 -0.0006615908650635298 -0.092804141306894558 0 0.00027777297581991047 -0.092497183186789247 0 -0.0006615908650635298 -0.092804141306894558 0 -0.00048260749115488404 -0.091363647202856918 0 0.00027777297581991047 -0.092497183186789247 0 -0.0015832646750709579 -0.093665264191894679 0 -0.0006615908650635298 -0.092804141306894558 0 -0.0029960886425262094 -0.092564090967138746 0 -0.0006615908650635298 -0.092804141306894558 0 -0.0029960886425262094 -0.092564090967138746 0 -0.00048260749115488404 -0.091363647202856918 0 -0.0042886193522492311 -0.087164607178222581 0 -0.0029960886425262094 -0.092564090967138746 0 -0.0016277479143123157 -0.089807944785020827 0 -0.0027833805179896683 -0.089264594778599271 0 -0.0021368439272222411 -0.090954265883673155 0 -0.0029960886425262094 -0.092564090967138746 0 -0.0016277479143123157 -0.089807944785020827 0 -0.00048260749115488404 -0.091363647202856918 0 0.00012551415316836532 -0.090219630728887029 0 -0.00048260749115488404 -0.091363647202856918 0 0.00053258309357099177 -0.091715370920553332 0 -0.00045858959500105702 -0.087737559671479268 0 -0.0016277479143123157 -0.089807944785020827 0 0.00012551415316836532 -0.090219630728887029 0 -0.0016277479143123157 -0.089807944785020827 0 0.00012551415316836532 -0.090219630728887029 0 -0.00048260749115488404 -0.091363647202856918 0 -0.00048260749115488404 -0.091363647202856918 0 0.00053258309357099177 -0.091715370920553332 0 0.00027777297581991047 -0.092497183186789247 0 0.00021173308608830318 -0.0933135127478191 0 0.00043811680849539184 -0.092819619439389836 0 0.00018630739055732599 -0.093451077077730357 0 0.00021173308608830318 -0.0933135127478191 0 0.00053258309357099177 -0.091715370920553332 0 0.00043811680849539184 -0.092819619439389836 0 0.00053258309357099177 -0.091715370920553332 0 0.00043811680849539184 -0.092819619439389836 0 0.00065561632309446495 -0.092671411601810236 0 0.00065561632309446495 -0.092671411601810236 0 0.00018630739055732599 -0.093451077077730357 0 0.00096891699166951496 -0.092701116613411683 0 0.00043811680849539184 -0.092819619439389836 0 0.00065561632309446495 -0.092671411601810236 0 0.00018630739055732599 -0.093451077077730357 0 0.00018630739055732599 -0.093451077077730357 0 0.00096891699166951496 -0.092701116613411683 0 0.00046827802464714845 -0.09108081224211706 0 0.00053258309357099177 -0.091715370920553332 0 0.00065561632309446495 -0.092671411601810236 0 0.00027777297581991047 -0.092497183186789247 0 0.00065561632309446495 -0.092671411601810236 0 0.00096891699166951496 -0.092701116613411683 0 0.00027777297581991047 -0.092497183186789247 0 -0.00016001303749580941 -0.093869881328331059 0 0.00096891699166951496 -0.092701116613411683 0 0.00027777297581991047 -0.092497183186789247 0 0.0039569580020101637 -0.091877272828973969 0 0.0017794988083800829 -0.091194547030237313 0 0.0029143753026305481 -0.090120796993989657 0 0.0039569580020101637 -0.091877272828973969 0 0.00096891699166951496 -0.092701116613411683 0 0.0017794988083800829 -0.091194547030237313 0 0.00063208054793377477 -0.090818848619854509 0 0.00068014349364285112 -0.091285567412681207 0 0.0017794988083800829 -0.091194547030237313 0 0.0029143753026305481 -0.090120796993989657 0 0.0012438718460625791 -0.090049108389606489 0 0.0029143753026305481 -0.090120796993989657 0 0.0012438718460625791 -0.090049108389606489 0 0.0029934234895635944 -0.088000546575089017 0 0.0047966514132895899 -0.089033333544455237 0 0.0029143753026305481 -0.090120796993989657 0 0.0029934234895635944 -0.088000546575089017 0 0.0012438718460625791 -0.090049108389606489 0 0.00046827802464714845 -0.09108081224211706 0 0.0017100453739818534 -0.090738209458006744 0 0.0017794988083800829 -0.091194547030237313 0 0.0012438718460625791 -0.090049108389606489 0 0.00046827802464714845 -0.09108081224211706 0 0.00056034208434277378 -0.093235663772232774 0 0.00073119451462161302 -0.093288556026022817 0 0.00096891699166951496 -0.092701116613411683 0 0.0017794988083800829 -0.091194547030237313 0 0.00046827802464714845 -0.09108081224211706 0 0.00049412534663991674 -0.093323589937186133 0 0.00056034208434277378 -0.093235663772232774 0 0.00018630739055732599 -0.093451077077730357 0 -4.1983521420259577e-05 -0.094643097910566507 0 8.7512394836625582e-07 -0.094997948966486764 0 -4.1983521420259577e-05 -0.094643097910566507 0 8.7512394836625582e-07 -0.094997948966486764 0 0.00013739601175324697 -0.094943596119074922 0 0.00021173308608830318 -0.0933135127478191 0 0.00018630739055732599 -0.093451077077730357 0 8.7512394836625582e-07 -0.094997948966486764 0 8.7512394836625582e-07 -0.094997948966486764 0 -6.1313235413450936e-08 -0.094999447679720003 0 0.00023637069698529296 -0.094999293064732121 0 -6.1313235413450936e-08 -0.094999447679720003 0 0.00023637069698529296 -0.094999293064732121 0 0.00047295244089849914 -0.094203226608589097 0 0.00023637069698529296 -0.094999293064732121 0 0.00094306875206650275 -0.094398898453193741 0 0.00047295244089849914 -0.094203226608589097 0 0.00023637069698529296 -0.094999293064732121 0 0.00041728405757517008 -0.0949746748801443 0 0.00094306875206650275 -0.094398898453193741 0 8.7512394836625582e-07 -0.094997948966486764 0 0.00023637069698529296 -0.094999293064732121 0 0.00013739601175324697 -0.094943596119074922 0 0.00023637069698529296 -0.094999293064732121 0 0.00041728405757517008 -0.0949746748801443 0 0.00013739601175324697 -0.094943596119074922 0 0.0018480314495160546 -0.093127899410690801 0 0.0017100453739818534 -0.090738209458006744 0 0.00048123410342240474 -0.092680691980251528 0 0.0018480314495160546 -0.093127899410690801 0 0.00048123410342240474 -0.092680691980251528 0 0.0012179682973254584 -0.093823858892213688 0 0.0012438718460625791 -0.090049108389606489 0 0.0017100453739818534 -0.090738209458006744 0 0.00048123410342240474 -0.092680691980251528 0 0.000854417286203179 -0.093612847417071127 0 0.00073119451462161302 -0.093288556026022817 0 0.0035294822004303867 -0.085907256031465776 0 0.0029934234895635944 -0.088000546575089017 0 0.00262285667193724 -0.084881798138074421 0 0.0018456573633690424 -0.089820862605383855 0 0.0020721924347236772 -0.089503463862375551 0 0.0047966514132895899 -0.089033333544455237 0 0.0035294822004303867 -0.085907256031465776 0 0.0029934234895635944 -0.088000546575089017 0 0.0012438718460625791 -0.090049108389606489 0 0.0029934234895635944 -0.088000546575089017 0 0.00262285667193724 -0.084881798138074421 0 0.0035294822004303867 -0.085907256031465776 0 0.00262285667193724 -0.084881798138074421 0 0.0037448485223468431 -0.08445147860324391 0 0.0047383642495397432 -0.084890012258525341 0 0.0037779556354817349 -0.084787753804146035 0 0.0037448485223468431 -0.08445147860324391 0 0.00048123410342240474 -0.092680691980251528 0 0.0012179682973254584 -0.093823858892213688 0 0.0015272068021949803 -0.094506743741530994 0 0.00262285667193724 -0.084881798138074421 0 0.0047383642495397432 -0.084890012258525341 0 0.0037448485223468431 -0.08445147860324391 0 0.0020721924347236772 -0.089503463862375551 0 0.0025096903074878826 -0.08961943057623728 0 0.000854417286203179 -0.093612847417071127 0 0.00088239442170200252 -0.093760541183684598 0 0.0018480314495160546 -0.093127899410690801 0 0.0012179682973254584 -0.093823858892213688 0 0.00094306875206650275 -0.094398898453193741 0 0.0012179682973254584 -0.093823858892213688 0 0.00094306875206650275 -0.094398898453193741 0 0.0015272068021949803 -0.094506743741530994 0 0.00094306875206650275 -0.094398898453193741 0 0.0012429487566561381 -0.093399083918543485 0 0.00047295244089849914 -0.094203226608589097 0 0.00094306875206650275 -0.094398898453193741 0 0.0015272068021949803 -0.094506743741530994 0 0.0012429487566561381 -0.093399083918543485 0 0.0047383642495397432 -0.084890012258525341 0 0.0036033848637685678 -0.086145452286668284 0 0.0031798291673279747 -0.088166458648756996 0 0.0047383642495397432 -0.084890012258525341 0 0.0037779556354817349 -0.084787753804146035 0 0.0036033848637685678 -0.086145452286668284 0 0.0037779556354817349 -0.084787753804146035 0 0.0033122849943022616 -0.084851341235041733 0 0.0031451336702620872 -0.08675176739953333 0 0.0037779556354817349 -0.084787753804146035 0 0.0036033848637685678 -0.086145452286668284 0 0.0031451336702620872 -0.08675176739953333 0 0.0036033848637685678 -0.086145452286668284 0 0.0031451336702620872 -0.08675176739953333 0 0.0031798291673279747 -0.088166458648756996 0 0.0033122849943022616 -0.084851341235041733 0 0.0027642653679725076 -0.086313505167719393 0 0.0031451336702620872 -0.08675176739953333 0 0.0033122849943022616 -0.084851341235041733 0 0.0024748217464801592 -0.084627488878772875 0 0.0027642653679725076 -0.086313505167719393 0 0.0024748217464801592 -0.084627488878772875 0 0.0021564281603430658 -0.086056489947272802 0 0.0027642653679725076 -0.086313505167719393 0 0.0033122849943022616 -0.084851341235041733 0 0.0032043237976957886 -0.083375745031449344 0 0.0024748217464801592 -0.084627488878772875 0 0.0037779556354817349 -0.084787753804146035 0 0.0033122849943022616 -0.084851341235041733 0 0.0042361642145465513 -0.083508192025179645 0 0.0033122849943022616 -0.084851341235041733 0 0.0032043237976957886 -0.083375745031449344 0 0.0042361642145465513 -0.083508192025179645 0 0.0032043237976957886 -0.083375745031449344 0 0.0042361642145465513 -0.083508192025179645 0 0.0032849819222967136 -0.08158663372611899 0 0.0037779556354817349 -0.084787753804146035 0 0.0042361642145465513 -0.083508192025179645 0 0.0037448485223468431 -0.08445147860324391 0 0.0042361642145465513 -0.083508192025179645 0 0.0037448485223468431 -0.08445147860324391 0 0.0041358846504850706 -0.08496640195942004 0 0.0035294822004303867 -0.085907256031465776 0 0.0037448485223468431 -0.08445147860324391 0 0.0041358846504850706 -0.08496640195942004 0 0.0047966514132895899 -0.089033333544455237 0 0.0035294822004303867 -0.085907256031465776 0 0.0074534628112218598 -0.087237189462146689 0 0.0035294822004303867 -0.085907256031465776 0 0.0041358846504850706 -0.08496640195942004 0 0.0051061693323950028 -0.08615500806741179 0 0.0030415349603799074 -0.086620192954509859 0 0.0012226984495518252 -0.086350637916753514 0 0.0042361642145465513 -0.083508192025179645 0 0.0041358846504850706 -0.08496640195942004 0 0.0051061693323950028 -0.08615500806741179 0 0.0042361642145465513 -0.083508192025179645 0 0.0046699054386341405 -0.07874113352319255 0 0.0032849819222967136 -0.08158663372611899 0 0.0019992822383840493 -0.084137963362320781 0 0.0012226984495518252 -0.086350637916753514 0 0.0046699054386341405 -0.07874113352319255 0 0.0032849819222967136 -0.08158663372611899 0 0.0029345210756939275 -0.080011536983361053 0 0.0032849819222967136 -0.08158663372611899 0 0.0027721793255647883 -0.080981606803307751 0 0.0029345210756939275 -0.080011536983361053 0 0.0027721793255647883 -0.080981606803307751 0 0.0023547941446094458 -0.080259238577778738 0 0.0025832515439335227 -0.082066498344248437 0 0.0027721793255647883 -0.080981606803307751 0 0.0029345210756939275 -0.080011536983361053 0 0.0023547941446094458 -0.080259238577778738 0 0.0046699054386341405 -0.07874113352319255 0 0.0029345210756939275 -0.080011536983361053 0 0.0027289333884414047 -0.078695708706317591 0 0.0012226984495518252 -0.086350637916753514 0 -0.00078126595187559436 -0.085780724468806996 0 0.0046699054386341405 -0.07874113352319255 0 0.0027289333884414047 -0.078695708706317591 0 0.0025784368447977386 -0.07808221697147999 0 0.0029345210756939275 -0.080011536983361053 0 0.0027289333884414047 -0.078695708706317591 0 0.0024487156540486817 -0.079131648325042367 0 0.0024633963868531967 -0.077172081542104032 0 0.0023704694808972023 -0.078002582203492765 0 0.0025364063131706168 -0.078139087981686589 0 0.0023704694808972023 -0.078002582203492765 0 0.0025364063131706168 -0.078139087981686589 0 0.0024590485824706201 -0.078504336037214476 0 0.0027289333884414047 -0.078695708706317591 0 0.0025364063131706168 -0.078139087981686589 0 0.0024590485824706201 -0.078504336037214476 0 0.0027289333884414047 -0.078695708706317591 0 0.0025784368447977386 -0.07808221697147999 0 0.0025364063131706168 -0.078139087981686589 0 -0.00078126595187559436 -0.085780724468806996 0 -0.00074398609180688791 -0.085751726710505377 0 0.0027289333884414047 -0.078695708706317591 0 0.0024590485824706201 -0.078504336037214476 0 0.0024487156540486817 -0.079131648325042367 0 0.0024590485824706201 -0.078504336037214476 0 0.0023521554955016292 -0.078636509764532819 0 0.0024487156540486817 -0.079131648325042367 0 0.0023704694808972023 -0.078002582203492765 0 0.0024590485824706201 -0.078504336037214476 0 0.0023521554955016292 -0.078636509764532819 0 0.0023704694808972023 -0.078002582203492765 0 0.0023521554955016292 -0.078636509764532819 0 0.0021943095559081808 -0.078895747298748112 0 0.0023521554955016292 -0.078636509764532819 0 0.0024487156540486817 -0.079131648325042367 0 0.0021943095559081808 -0.078895747298748112 0 0.0024487156540486817 -0.079131648325042367 0 0.0023547941446094458 -0.080259238577778738 0 0.0021943095559081808 -0.078895747298748112 0 0.0029345210756939275 -0.080011536983361053 0 0.0024487156540486817 -0.079131648325042367 0 0.0023547941446094458 -0.080259238577778738 0 0.0023547941446094458 -0.080259238577778738 0 0.0020481839574805162 -0.079688403313910486 0 0.0021943095559081808 -0.078895747298748112 0 0.0023547941446094458 -0.080259238577778738 0 0.0018258789092659411 -0.08108309200422599 0 0.0020481839574805162 -0.079688403313910486 0 0.0023547941446094458 -0.080259238577778738 0 0.0018258789092659411 -0.08108309200422599 0 0.0025832515439335227 -0.082066498344248437 0 0.0018258789092659411 -0.08108309200422599 0 0.0025832515439335227 -0.082066498344248437 0 0.0024748217464801592 -0.084627488878772875 0 0.0032043237976957886 -0.083375745031449344 0 0.0025832515439335227 -0.082066498344248437 0 0.0024748217464801592 -0.084627488878772875 0 0.0032043237976957886 -0.083375745031449344 0 0.0032849819222967136 -0.08158663372611899 0 0.0025832515439335227 -0.082066498344248437 0 0.0032849819222967136 -0.08158663372611899 0 0.0027721793255647883 -0.080981606803307751 0 0.0025832515439335227 -0.082066498344248437 0 0.0018454681293435483 -0.08085019250036217 0 0.0024748217464801592 -0.084627488878772875 0 0.0016525487356842266 -0.084750689566022969 0 0.0024748217464801592 -0.084627488878772875 0 0.0016525487356842266 -0.084750689566022969 0 0.0021564281603430658 -0.086056489947272802 0 0.0023377843376334527 -0.080506274310425535 0 0.0027826765585392673 -0.081553915576533173 0 0.0016525487356842266 -0.084750689566022969 0 -0.00029273415474008506 -0.086301708590019233 0 -0.0013685097072578829 -0.085151267208825571 0 0.0018454681293435483 -0.08085019250036217 0 0.0016525487356842266 -0.084750689566022969 0 0.0018483663361818841 -0.080603316230496061 0 0.0020737767133200261 -0.083310172283428158 0 0.0012218556580194074 -0.082784535184974348 0 -0.00029273415474008506 -0.086301708590019233 0 0.0013681710563378624 -0.087216818060428969 0 0.00020687491423542747 -0.088131343929344824 0 0.0016525487356842266 -0.084750689566022969 0 -0.00029273415474008506 -0.086301708590019233 0 0.0013681710563378624 -0.087216818060428969 0 0.0016525487356842266 -0.084750689566022969 0 0.0021564281603430658 -0.086056489947272802 0 0.0013681710563378624 -0.087216818060428969 0 0.0021564281603430658 -0.086056489947272802 0 0.0013681710563378624 -0.087216818060428969 0 0.0023408724462280861 -0.087692678728799767 0 2.6327412768427376e-05 -0.088363039531614659 0 0.0015424815006381809 -0.08923051202057429 0 0.0013681710563378624 -0.087216818060428969 0 0.0024265563412740215 -0.08962125209837582 0 0.0023408724462280861 -0.087692678728799767 0 0.0013681710563378624 -0.087216818060428969 0 0.00020687491423542747 -0.088131343929344824 0 0.0024265563412740215 -0.08962125209837582 0 7.4562705239174929e-05 -0.088557702343275813 0 -5.9833470119321613e-05 -0.089983292868927409 0 0.00089579040645665462 -0.090261579388479687 0 7.4562705239174929e-05 -0.088557702343275813 0 -5.9833470119321613e-05 -0.089983292868927409 0 -0.0011055561583038494 -0.089226269745212472 0 -5.9833470119321613e-05 -0.089983292868927409 0 -0.0010131064883615864 -0.09083320461368237 0 0.00069582920854441917 -0.091030431212262564 0 -5.9833470119321613e-05 -0.089983292868927409 0 0.00089579040645665462 -0.090261579388479687 0 0.00069582920854441917 -0.091030431212262564 0 7.4562705239174929e-05 -0.088557702343275813 0 0.00089579040645665462 -0.090261579388479687 0 0.0012763829760115363 -0.089482894839493052 0 0.00089579040645665462 -0.090261579388479687 0 0.001524619102242795 -0.090433759378727635 0 0.0010503530354149518 -0.091105821916124291 0 0.00089579040645665462 -0.090261579388479687 0 0.0012763829760115363 -0.089482894839493052 0 0.001524619102242795 -0.090433759378727635 0 0.001524619102242795 -0.090433759378727635 0 0.0022958708409133418 -0.090114188391476516 0 0.0019089471270144426 -0.090463554600299964 0 0.0024265563412740215 -0.08962125209837582 0 0.0022958708409133418 -0.090114188391476516 0 0.0026046305968184403 -0.089897150227077241 0 0.0015424815006381809 -0.08923051202057429 0 0.0020864615582929205 -0.089574485277072693 0 0.0012763829760115363 -0.089482894839493052 0 0.001524619102242795 -0.090433759378727635 0 0.0022958708409133418 -0.090114188391476516 0 0.0022958708409133418 -0.090114188391476516 0 0.0026046305968184403 -0.089897150227077241 0 0.0024828873113302008 -0.090259406725723801 0 0.0026046305968184403 -0.089897150227077241 0 0.0027589100425241676 -0.09001868816869886 0 0.0024828873113302008 -0.090259406725723801 0 0.0027589100425241676 -0.09001868816869886 0 0.0024404656164836026 -0.090886259730917449 0 0.0024828873113302008 -0.090259406725723801 0 0.0027589100425241676 -0.09001868816869886 0 0.0028360054696439734 -0.090075052516065846 0 0.0028457612072890436 -0.088955560058678898 0 0.0027589100425241676 -0.09001868816869886 0 0.0028360054696439734 -0.090075052516065846 0 0.0024404656164836026 -0.090886259730917449 0 0.0027589100425241676 -0.09001868816869886 0 0.0026930997412523607 -0.089105935572234757 0 0.0028457612072890436 -0.088955560058678898 0 0.0026046305968184403 -0.089897150227077241 0 0.0027589100425241676 -0.09001868816869886 0 0.0026930997412523607 -0.089105935572234757 0 0.0024265563412740215 -0.08962125209837582 0 0.0026046305968184403 -0.089897150227077241 0 0.0026930997412523607 -0.089105935572234757 0 0.0024265563412740215 -0.08962125209837582 0 0.0026930997412523607 -0.089105935572234757 0 0.0023408724462280861 -0.087692678728799767 0 0.0026930997412523607 -0.089105935572234757 0 0.0028056759568334854 -0.087698789911183919 0 0.0023408724462280861 -0.087692678728799767 0 0.0028056759568334854 -0.087698789911183919 0 0.0023408724462280861 -0.087692678728799767 0 0.0027642653679725076 -0.086313505167719393 0 0.0021564281603430658 -0.086056489947272802 0 0.0023408724462280861 -0.087692678728799767 0 0.0027642653679725076 -0.086313505167719393 0 0.0028056759568334854 -0.087698789911183919 0 0.0027642653679725076 -0.086313505167719393 0 0.0031451336702620872 -0.08675176739953333 0 0.0028056759568334854 -0.087698789911183919 0 0.0031451336702620872 -0.08675176739953333 0 0.0028457612072890436 -0.088955560058678898 0 0.0031451336702620872 -0.08675176739953333 0 0.0031798291673279747 -0.088166458648756996 0 0.0028457612072890436 -0.088955560058678898 0 0.0028360054696439734 -0.090075052516065846 0 0.0031798291673279747 -0.088166458648756996 0 0.0028457612072890436 -0.088955560058678898 0 0.0026930997412523607 -0.089105935572234757 0 0.0028056759568334854 -0.087698789911183919 0 0.0028457612072890436 -0.088955560058678898 0 0.0015272068021949803 -0.094506743741530994 0 0.0012429487566561381 -0.093399083918543485 0 0.00305658516236176 -0.090964732520333144 0 0.0025096903074878826 -0.08961943057623728 0 0.0026606959877265618 -0.08990643554571251 0 0.0047383642495397432 -0.084890012258525341 0 0.0031798291673279747 -0.088166458648756996 0 0.00305658516236176 -0.090964732520333144 0 0.0012429487566561381 -0.093399083918543485 0 0.0017089739354189007 -0.092373927576490572 0 0.00305658516236176 -0.090964732520333144 0 0.0028360054696439734 -0.090075052516065846 0 0.0031798291673279747 -0.088166458648756996 0 0.00305658516236176 -0.090964732520333144 0 0.0012429487566561381 -0.093399083918543485 0 0.0010754027129782739 -0.09316195880353928 0 0.00047295244089849914 -0.094203226608589097 0 0.0012429487566561381 -0.093399083918543485 0 0.0010754027129782739 -0.09316195880353928 0 0.0017089739354189007 -0.092373927576490572 0 0.0018400542043532288 -0.092021110330654174 0 0.0015082908190913501 -0.092695567076458096 0 0.00095472453987419993 -0.093568222181602836 0 0.0010754027129782739 -0.09316195880353928 0 0.0018400542043532288 -0.092021110330654174 0 0.00095472453987419993 -0.093568222181602836 0 0.0010754027129782739 -0.09316195880353928 0 0.0017089739354189007 -0.092373927576490572 0 0.0018400542043532288 -0.092021110330654174 0 0.0018400542043532288 -0.092021110330654174 0 0.0024404656164836026 -0.090886259730917449 0 0.0015082908190913501 -0.092695567076458096 0 0.0017089739354189007 -0.092373927576490572 0 0.0018400542043532288 -0.092021110330654174 0 0.00305658516236176 -0.090964732520333144 0 0.0018400542043532288 -0.092021110330654174 0 0.00305658516236176 -0.090964732520333144 0 0.0024404656164836026 -0.090886259730917449 0 0.0028360054696439734 -0.090075052516065846 0 0.00305658516236176 -0.090964732520333144 0 0.0024404656164836026 -0.090886259730917449 0 0.001811216305369061 -0.091872665002280127 0 0.001691391759859758 -0.092094971934985587 0 0.0022958708409133418 -0.090114188391476516 0 0.0024828873113302008 -0.090259406725723801 0 0.0021977484925316346 -0.090066533082816466 0 0.0024404656164836026 -0.090886259730917449 0 0.00075906023538700209 -0.093790790681416839 0 0.0015082908190913501 -0.092695567076458096 0 0.0024404656164836026 -0.090886259730917449 0 0.0024828873113302008 -0.090259406725723801 0 0.0021977484925316346 -0.090066533082816466 0 0.0022958708409133418 -0.090114188391476516 0 0.0021977484925316346 -0.090066533082816466 0 0.0019089471270144426 -0.090463554600299964 0 0.00075906023538700209 -0.093790790681416839 0 0.001043991627220303 -0.093834435062444876 0 0.0010615727817118021 -0.094435701803479016 0 0.00075906023538700209 -0.093790790681416839 0 0.001043991627220303 -0.093834435062444876 0 0.0015082908190913501 -0.092695567076458096 0 0.001043991627220303 -0.093834435062444876 0 0.0015082908190913501 -0.092695567076458096 0 0.00095472453987419993 -0.093568222181602836 0 0.00095472453987419993 -0.093568222181602836 0 0.00076443291554214796 -0.094361963179358341 0 1.5840517088384349e-06 -0.094997569415125174 0 0.001043991627220303 -0.093834435062444876 0 0.00095472453987419993 -0.093568222181602836 0 0.00076443291554214796 -0.094361963179358341 0 -6.1313235413450936e-08 -0.094999447679720003 0 1.5840517088384349e-06 -0.094997569415125174 0 0.00047295244089849914 -0.094203226608589097 0 0.00095472453987419993 -0.093568222181602836 0 1.5840517088384349e-06 -0.094997569415125174 0 0.00047295244089849914 -0.094203226608589097 0 0.0010754027129782739 -0.09316195880353928 0 0.00095472453987419993 -0.093568222181602836 0 0.00047295244089849914 -0.094203226608589097 0 0.00070866137495167872 -0.076029236182115614 0 0.00015155256515215907 -0.075953602423886865 0 0.00026935251776450151 -0.075199868148014146 0 -0.0026696049674259448 -0.080112330137120061 0 -0.0025165500687197671 -0.080061970743078192 0 -0.0026696049674259448 -0.080112330137120061 0 -0.001347563235014724 -0.081008398335386214 0 0.00065070724358221792 -0.07636638303761252 0 0.0021822776783270294 -0.077222863176350978 0 0.0017031077719830653 -0.076088221031546069 0 -0.0071206393665739975 -0.084195894460336415 0 -0.0049999990833632718 -0.084671785942556893 0 -0.0062899752658467584 -0.085287154110703506 0 -0.0049999990833632718 -0.084671785942556893 0 -0.0062899752658467584 -0.085287154110703506 0 -0.005623141616657279 -0.086386352229839619 0 -0.0065226503770289337 -0.086124002837034253 0 -0.0062899752658467584 -0.085287154110703506 0 -0.005623141616657279 -0.086386352229839619 0 -0.0065226503770289337 -0.086124002837034253 0 -0.0062899752658467584 -0.085287154110703506 0 -0.0074288362729017501 -0.085908436174300995 0 -0.0071206393665739975 -0.084195894460336415 0 -0.0062899752658467584 -0.085287154110703506 0 -0.0074288362729017501 -0.085908436174300995 0 -0.0026696049674259448 -0.080112330137120061 0 -0.0025603651714054178 -0.0822062833919594 0 0.0008942447233009843 -0.07611514403580924 0 0.00049035212206919535 -0.078585553944217484 0 5.5312100543657365e-05 -0.07712517346629523 0 0.00049035212206919535 -0.078585553944217484 0 -0.00064010858200508921 -0.078920892378057092 0 -0.00037182463523448728 -0.078018919091222869 0 -0.00064010858200508921 -0.078920892378057092 0 -0.0011797757026767457 -0.078093407406835749 0 -0.0017971626211683643 -0.07916707088016306 0 -0.00064010858200508921 -0.078920892378057092 0 -0.0011797757026767457 -0.078093407406835749 0 -0.00037182463523448728 -0.078018919091222869 0 -0.0011797757026767457 -0.078093407406835749 0 -0.00058346464753317986 -0.077376488730238724 0 -0.00037182463523448728 -0.078018919091222869 0 -0.0011797757026767457 -0.078093407406835749 0 -0.00058346464753317986 -0.077376488730238724 0 -0.001460057411481119 -0.077118550863863017 0 -0.00058346464753317986 -0.077376488730238724 0 -0.00037182463523448728 -0.078018919091222869 0 5.5312100543657365e-05 -0.07712517346629523 0 0.00049035212206919535 -0.078585553944217484 0 -0.00037182463523448728 -0.078018919091222869 0 5.5312100543657365e-05 -0.07712517346629523 0 -0.0034110118802712199 -0.079774029231929014 0 -0.0023480533534274758 -0.077805890780913475 0 -0.0017971626211683643 -0.07916707088016306 0 -0.0011797757026767457 -0.078093407406835749 0 -0.0023480533534274758 -0.077805890780913475 0 -0.0017971626211683643 -0.07916707088016306 0 -0.0011797757026767457 -0.078093407406835749 0 -0.0023480533534274758 -0.077805890780913475 0 -0.001460057411481119 -0.077118550863863017 0 -0.0023480533534274758 -0.077805890780913475 0 -0.001460057411481119 -0.077118550863863017 0 -0.0025544081202266127 -0.076150104319344783 0 -0.001460057411481119 -0.077118550863863017 0 -0.0025544081202266127 -0.076150104319344783 0 -0.0012571002516286026 -0.076160219290121442 0 -0.0025544081202266127 -0.076150104319344783 0 -0.0012571002516286026 -0.076160219290121442 0 -0.0017325079235015106 -0.075121460146761965 0 5.5312100543657365e-05 -0.07712517346629523 0 -0.00050117585476928527 -0.076530765785026822 0 0.00015155256515215907 -0.075953602423886865 0 0.0008942447233009843 -0.07611514403580924 0 5.5312100543657365e-05 -0.07712517346629523 0 0.00015155256515215907 -0.075953602423886865 0 -0.00058346464753317986 -0.077376488730238724 0 5.5312100543657365e-05 -0.07712517346629523 0 -0.00050117585476928527 -0.076530765785026822 0 -0.00058346464753317986 -0.077376488730238724 0 -0.001460057411481119 -0.077118550863863017 0 -0.00050117585476928527 -0.076530765785026822 0 -0.001460057411481119 -0.077118550863863017 0 -0.00050117585476928527 -0.076530765785026822 0 -0.0012571002516286026 -0.076160219290121442 0 -0.00054042609663020947 -0.075483251947750199 0 -0.0012571002516286026 -0.076160219290121442 0 -0.0017325079235015106 -0.075121460146761965 0 -0.00050117585476928527 -0.076530765785026822 0 -0.00054042609663020947 -0.075483251947750199 0 -0.0012571002516286026 -0.076160219290121442 0 -0.00050117585476928527 -0.076530765785026822 0 -0.00054042609663020947 -0.075483251947750199 0 0.00015155256515215907 -0.075953602423886865 0 -0.00054042609663020947 -0.075483251947750199 0 0.00015155256515215907 -0.075953602423886865 0 0.00026935251776450151 -0.075199868148014146 0 -0.00054042609663020947 -0.075483251947750199 0 0.00026935251776450151 -0.075199868148014146 0 -0.00034000056761487602 -0.074008213004894532 0 -0.00054042609663020947 -0.075483251947750199 0 -0.00034000056761487602 -0.074008213004894532 0 -0.0017325079235015106 -0.075121460146761965 0 0.00026935251776450151 -0.075199868148014146 0 -0.00034000056761487602 -0.074008213004894532 0 0.00095029584737385748 -0.074798301539265671 0 -0.0034384918553332492 -0.0745747472162228 0 -0.0025544081202266127 -0.076150104319344783 0 -0.0017325079235015106 -0.075121460146761965 0 -0.00034000056761487602 -0.074008213004894532 0 -0.0017325079235015106 -0.075121460146761965 0 -0.0021210688158936203 -0.073213169232373379 0 -0.0034384918553332492 -0.0745747472162228 0 -0.0017325079235015106 -0.075121460146761965 0 -0.0021210688158936203 -0.073213169232373379 0 -0.00057636879914091214 -0.071005361022173918 0 -0.0027621516894478703 -0.071017935046360059 0 -0.0021210688158936203 -0.073213169232373379 0 -0.0039894422558036068 -0.073030936974330676 0 -0.0027621516894478703 -0.071017935046360059 0 -0.0021210688158936203 -0.073213169232373379 0 -0.00057636879914091214 -0.071005361022173918 0 -0.00034000056761487602 -0.074008213004894532 0 -0.0021210688158936203 -0.073213169232373379 0 -0.00057636879914091214 -0.071005361022173918 0 -0.00034000056761487602 -0.074008213004894532 0 0.0011930742809657289 -0.073010278903446441 0 0.0011930742809657289 -0.073010278903446441 0 0.00095029584737385748 -0.074798301539265671 0 0.0019936327058040545 -0.074552831766386024 0 -0.00034000056761487602 -0.074008213004894532 0 0.0011930742809657289 -0.073010278903446441 0 0.00095029584737385748 -0.074798301539265671 0 -0.0026696049674259448 -0.080112330137120061 0 -0.0021012006907912568 -0.078388039895566516 0 0.00070866137495167872 -0.076029236182115614 0 0.00026935251776450151 -0.075199868148014146 0 0.00095029584737385748 -0.074798301539265671 0 0.00065070724358221792 -0.07636638303761252 0 0.0017031077719830653 -0.076088221031546069 0 0.00095029584737385748 -0.074798301539265671 0 0.0017031077719830653 -0.076088221031546069 0 0.0019936327058040545 -0.074552831766386024 0 0.0027991767353267778 -0.075782613169453075 0 0.0017031077719830653 -0.076088221031546069 0 0.00095029584737385748 -0.074798301539265671 0 0.0019936327058040545 -0.074552831766386024 0 0.0027045236349032601 -0.072825513173341946 0 0.0011930742809657289 -0.073010278903446441 0 0.0019936327058040545 -0.074552831766386024 0 0.0027045236349032601 -0.072825513173341946 0 0.0019936327058040545 -0.074552831766386024 0 0.0027991767353267778 -0.075782613169453075 0 0.0030918890995755618 -0.074398369253876787 0 0.0027045236349032601 -0.072825513173341946 0 0.0027991767353267778 -0.075782613169453075 0 0.0030918890995755618 -0.074398369253876787 0 0.0027991767353267778 -0.075782613169453075 0 0.0027285771795770874 -0.076221434172248539 0 0.0020045302248062028 -0.078185964475561032 0 0.0020920065685347544 -0.078975286746629209 0 0.0027991767353267778 -0.075782613169453075 0 0.0026195486772521933 -0.078330339769275864 0 0.0026416202141635718 -0.077508686776787808 0 0.0027991767353267778 -0.075782613169453075 0 0.0027285771795770874 -0.076221434172248539 0 0.0020818943980132659 -0.078029275844113788 0 0.0021822776783270294 -0.077222863176350978 0 0.0017031077719830653 -0.076088221031546069 0 0.0027991767353267778 -0.075782613169453075 0 0.0021822776783270294 -0.077222863176350978 0 0.0027991767353267778 -0.075782613169453075 0 0.0026416202141635718 -0.077508686776787808 0 0.0027051050471132406 -0.076345330340049825 0 0.0024633963868531967 -0.077172081542104032 0 0.0023940642964748048 -0.077376467945552571 0 0.0023704694808972023 -0.078002582203492765 0 0.0023940642964748048 -0.077376467945552571 0 0.0021943095559081808 -0.078895747298748112 0 0.0024633963868531967 -0.077172081542104032 0 0.0023704694808972023 -0.078002582203492765 0 0.0023940642964748048 -0.077376467945552571 0 0.0027285771795770874 -0.076221434172248539 0 0.0023940642964748048 -0.077376467945552571 0 0.0020818943980132659 -0.078029275844113788 0 0.0027051050471132406 -0.076345330340049825 0 0.0027285771795770874 -0.076221434172248539 0 0.0023940642964748048 -0.077376467945552571 0 0.0023940642964748048 -0.077376467945552571 0 0.0020818943980132659 -0.078029275844113788 0 0.0021943095559081808 -0.078895747298748112 0 0.0020818943980132659 -0.078029275844113788 0 0.0020481839574805162 -0.079688403313910486 0 0.0021943095559081808 -0.078895747298748112 0 0.0018454681293435483 -0.08085019250036217 0 0.0022996038029136313 -0.079257374571576708 0 0.0018483663361818841 -0.080603316230496061 0 0.0023377843376334527 -0.080506274310425535 0 0.0020920065685347544 -0.078975286746629209 0 0.0018258789092659411 -0.08108309200422599 0 0.0020818943980132659 -0.078029275844113788 0 0.0020481839574805162 -0.079688403313910486 0 0.0018454681293435483 -0.08085019250036217 0 0.0026195486772521933 -0.078330339769275864 0 0.0022996038029136313 -0.079257374571576708 0 0.0026195486772521933 -0.078330339769275864 0 0.0022996038029136313 -0.079257374571576708 0 0.0026416202141635718 -0.077508686776787808 0 0.0022996038029136313 -0.079257374571576708 0 0.0018483663361818841 -0.080603316230496061 0 0.002529035969965291 -0.078419597484158901 0 0.0012218556580194074 -0.082784535184974348 0 -4.4969992792418736e-06 -0.081906635380925102 0 -0.0023793890755851462 -0.085724538740189593 0 -0.0013685097072578829 -0.085151267208825571 0 -0.0030865958245582534 -0.085124715032888154 0 -0.001347563235014724 -0.081008398335386214 0 -4.4969992792418736e-06 -0.081906635380925102 0 0.0021822776783270294 -0.077222863176350978 0 0.0026416202141635718 -0.077508686776787808 0 0.002529035969965291 -0.078419597484158901 0 0.0022996038029136313 -0.079257374571576708 0 0.0026416202141635718 -0.077508686776787808 0 0.002529035969965291 -0.078419597484158901 0 -0.0023793890755851462 -0.085724538740189593 0 -0.0030865958245582534 -0.085124715032888154 0 -0.0037809964444137732 -0.086253851385149863 0 -0.0049999990833632718 -0.084671785942556893 0 -0.0030865958245582534 -0.085124715032888154 0 -0.0037809964444137732 -0.086253851385149863 0 -0.0049999990833632718 -0.084671785942556893 0 -0.0037809964444137732 -0.086253851385149863 0 -0.005623141616657279 -0.086386352229839619 0 -0.0037809964444137732 -0.086253851385149863 0 -0.0047613386864281846 -0.087501852941095318 0 -0.005623141616657279 -0.086386352229839619 0 -0.0037809964444137732 -0.086253851385149863 0 -0.0033948508398897012 -0.087946210073558628 0 -0.0047613386864281846 -0.087501852941095318 0 -0.0037809964444137732 -0.086253851385149863 0 -0.0033948508398897012 -0.087946210073558628 0 -0.0015691012977197773 -0.087484570731635999 0 -0.0028665039045404133 -0.086890384332705559 0 -0.0018008404126062089 -0.087403828044401249 0 -0.0033948508398897012 -0.087946210073558628 0 -0.0021977606250218307 -0.088739412965368622 0 -0.0029591325419553341 -0.089456539333783947 0 -0.0033948508398897012 -0.087946210073558628 0 -0.0047613386864281846 -0.087501852941095318 0 -0.0046795249142330781 -0.088849546915161309 0 -0.0033948508398897012 -0.087946210073558628 0 -0.0046795249142330781 -0.088849546915161309 0 -0.0029591325419553341 -0.089456539333783947 0 -0.00029273415474008506 -0.086301708590019233 0 0.00020687491423542747 -0.088131343929344824 0 -0.0021742553801866993 -0.086813825084206916 0 -0.00029273415474008506 -0.086301708590019233 0 -0.0013685097072578829 -0.085151267208825571 0 -0.0021742553801866993 -0.086813825084206916 0 -0.0023793890755851462 -0.085724538740189593 0 -0.0013685097072578829 -0.085151267208825571 0 -0.0021742553801866993 -0.086813825084206916 0 -0.0023793890755851462 -0.085724538740189593 0 -0.0037809964444137732 -0.086253851385149863 0 -0.0021742553801866993 -0.086813825084206916 0 -0.0015691012977197773 -0.087484570731635999 0 -0.0021977606250218307 -0.088739412965368622 0 -0.0011055561583038494 -0.089226269745212472 0 -0.0033948508398897012 -0.087946210073558628 0 -0.0015691012977197773 -0.087484570731635999 0 -0.0021977606250218307 -0.088739412965368622 0 7.4562705239174929e-05 -0.088557702343275813 0 -0.0015691012977197773 -0.087484570731635999 0 -0.0011055561583038494 -0.089226269745212472 0 2.6327412768427376e-05 -0.088363039531614659 0 -0.0018008404126062089 -0.087403828044401249 0 -0.0021977606250218307 -0.088739412965368622 0 -0.0011055561583038494 -0.089226269745212472 0 -0.0020122011416571287 -0.089742359821171902 0 -0.0021977606250218307 -0.088739412965368622 0 -0.0020122011416571287 -0.089742359821171902 0 -0.0029591325419553341 -0.089456539333783947 0 -0.0020122011416571287 -0.089742359821171902 0 -0.0027062517077670887 -0.090373228715221687 0 -0.0010131064883615864 -0.09083320461368237 0 0.0010921896931080565 -0.090788052558833668 0 0.0008181536412976058 -0.091010490534858157 0 -5.9833470119321613e-05 -0.089983292868927409 0 -0.0011055561583038494 -0.089226269745212472 0 -0.0010131064883615864 -0.09083320461368237 0 -0.0011055561583038494 -0.089226269745212472 0 -0.0020122011416571287 -0.089742359821171902 0 -0.0010131064883615864 -0.09083320461368237 0 -0.0033259519532373347 -0.087041768968136049 0 -0.0030924218829090247 -0.087474201810372812 0 -0.0035123421637054258 -0.08933338727218243 0 -0.0029591325419553341 -0.089456539333783947 0 -0.0036415221424396902 -0.089888160194431729 0 -0.0020122011416571287 -0.089742359821171902 0 -0.0029591325419553341 -0.089456539333783947 0 -0.0027062517077670887 -0.090373228715221687 0 -0.0029591325419553341 -0.089456539333783947 0 -0.0027062517077670887 -0.090373228715221687 0 -0.0036415221424396902 -0.089888160194431729 0 0.0039479125094775934 -0.09261953129181047 0 0.0060968666627227797 -0.093345751659833373 0 0.0049714893990190981 -0.09165227737044547 0 0.0010921896931080565 -0.090788052558833668 0 0.0018705201398380689 -0.090167176121963455 0 -0.0036415221424396902 -0.089888160194431729 0 -0.0040430917371486082 -0.089627986175220387 0 -0.0038919358584901627 -0.089485922118895916 0 0.0060968666627227797 -0.093345751659833373 0 0.0085559000290378346 -0.09403731624148802 0 0.0077053532945807338 -0.092500163695748538 0 0.0018705201398380689 -0.090167176121963455 0 0.0034668300228712923 -0.088705847522631207 0 0.0085559000290378346 -0.09403731624148802 0 0.0094683709888777456 -0.0925812879502661 0 0.0077053532945807338 -0.092500163695748538 0 -0.0040430917371486082 -0.089627986175220387 0 -0.0040836769135474621 -0.089473181977140645 0 -0.0042136759690715236 -0.089452317711857035 0 -0.0040430917371486082 -0.089627986175220387 0 -0.0040836769135474621 -0.089473181977140645 0 -0.0038919358584901627 -0.089485922118895916 0 -0.0040416153139725339 -0.089348999526422807 0 -0.0038919358584901627 -0.089485922118895916 0 -0.003887063960533765 -0.089242789625325281 0 -0.0040836769135474621 -0.089473181977140645 0 -0.0040416153139725339 -0.089348999526422807 0 -0.0038919358584901627 -0.089485922118895916 0 -0.0040836769135474621 -0.089473181977140645 0 -0.0040416153139725339 -0.089348999526422807 0 -0.0041287349773086865 -0.089354488033558457 0 -0.0035123421637054258 -0.08933338727218243 0 -0.0036415221424396902 -0.089888160194431729 0 -0.0038919358584901627 -0.089485922118895916 0 -0.0035123421637054258 -0.08933338727218243 0 -0.0038919358584901627 -0.089485922118895916 0 -0.003887063960533765 -0.089242789625325281 0 -0.0033259519532373347 -0.087041768968136049 0 -0.0033466934766667135 -0.085861452987348333 0 -0.0047613386864281846 -0.087501852941095318 0 -0.0046795249142330781 -0.088849546915161309 0 -0.0062322942364329923 -0.088215018778467852 0 -0.0062322942364329923 -0.088215018778467852 0 -0.0067515396946084705 -0.086917766687070894 0 -0.0077365067234543734 -0.087630273213168589 0 -0.0040416153139725339 -0.089348999526422807 0 -0.003887063960533765 -0.089242789625325281 0 -0.0041708482464305318 -0.089152533195961906 0 -0.0033466934766667135 -0.085861452987348333 0 -0.0020114797242820025 -0.083934515894451334 0 -0.0040416153139725339 -0.089348999526422807 0 -0.0041708482464305318 -0.089152533195961906 0 -0.0041287349773086865 -0.089354488033558457 0 -0.0074288362729017501 -0.085908436174300995 0 -0.0067515396946084705 -0.086917766687070894 0 -0.0077365067234543734 -0.087630273213168589 0 -0.0065226503770289337 -0.086124002837034253 0 -0.0074288362729017501 -0.085908436174300995 0 -0.0067515396946084705 -0.086917766687070894 0 -0.0065226503770289337 -0.086124002837034253 0 -0.0067515396946084705 -0.086917766687070894 0 -0.005623141616657279 -0.086386352229839619 0 -0.0062322942364329923 -0.088215018778467852 0 -0.0067515396946084705 -0.086917766687070894 0 -0.005623141616657279 -0.086386352229839619 0 -0.0047613386864281846 -0.087501852941095318 0 -0.0062322942364329923 -0.088215018778467852 0 -0.005623141616657279 -0.086386352229839619 0 -0.0034110118802712199 -0.079774029231929014 0 -0.0017971626211683643 -0.07916707088016306 0 -0.0010793823849811778 -0.080625540437314375 0 -0.00073816456316273794 -0.077635235828582755 0 -0.00082892914093806412 -0.081846654115623182 0 -0.00064010858200508921 -0.078920892378057092 0 -0.0011004763263246329 -0.080670601482748877 0 6.1110434366797402e-05 -0.081096164949513064 0 -0.00070001414948637185 -0.081150191077258307 0 -0.00082892914093806412 -0.081846654115623182 0 -0.00064010858200508921 -0.078920892378057092 0 -0.0017971626211683643 -0.07916707088016306 0 -0.0010793823849811778 -0.080625540437314375 0 -0.0025603651714054178 -0.0822062833919594 0 -0.0020114797242820025 -0.083934515894451334 0 0.00049035212206919535 -0.078585553944217484 0 -0.00064010858200508921 -0.078920892378057092 0 6.1110434366797402e-05 -0.081096164949513064 0 -0.00082892914093806412 -0.081846654115623182 0 0.0014546885977762955 -0.081163005445751502 0 -0.00082892914093806412 -0.081846654115623182 0 -0.0020114797242820025 -0.083934515894451334 0 -0.0041708482464305318 -0.089152533195961906 0 -0.0041287349773086865 -0.089354488033558457 0 -0.0042136759690715236 -0.089452317711857035 0 -0.0040538806556462111 -0.088691027016540608 0 -0.0045304650357630037 -0.088969384932845966 0 -0.0042296359663184287 -0.089314481508808982 0 -0.0044186518422904995 -0.088546019982117474 0 -0.0040538806556462111 -0.088691027016540608 0 -0.0045304650357630037 -0.088969384932845966 0 -0.0020114797242820025 -0.083934515894451334 0 -0.0027019919548697483 -0.086703138035624919 0 0.0014546885977762955 -0.081163005445751502 0 0.001316253261083119 -0.081911006082299426 0 -0.00073816456316273794 -0.077635235828582755 0 0.0014546885977762955 -0.081163005445751502 0 -0.00023447957055644495 -0.078729434985283689 0 0.0017619814218045196 -0.079465136355859389 0 0.001470077451301183 -0.080592148774982983 0 0.0092381890840811092 -0.06528812210519308 0 0.0089388755028605819 -0.066409987123384445 0 0.010271245734387365 -0.066536161234360125 0 0.0014546885977762955 -0.081163005445751502 0 0.0074725512854292341 -0.085574341162981279 0 0.0089388755028605819 -0.066409987123384445 0 0.010271245734387365 -0.066536161234360125 0 0.0099752927785211401 -0.067613463185532602 0 -0.0040430917371486082 -0.089627986175220387 0 -0.0044366589361293238 -0.089486784101566991 0 -0.0042136759690715236 -0.089452317711857035 0 -0.0043679302127217785 -0.089141683633427782 0 -0.0044366589361293238 -0.089486784101566991 0 -0.0042296359663184287 -0.089314481508808982 0 0.0034668300228712923 -0.088705847522631207 0 0.0074725512854292341 -0.085574341162981279 0 -0.0040538806556462111 -0.088691027016540608 0 -0.0042296359663184287 -0.089314481508808982 0 -0.0042136759690715236 -0.089452317711857035 0 -0.0040836769135474621 -0.089473181977140645 0 -0.0041287349773086865 -0.089354488033558457 0 -0.0042136759690715236 -0.089452317711857035 0 -0.0044366589361293238 -0.089486784101566991 0 -0.0042296359663184287 -0.089314481508808982 0 -0.0042136759690715236 -0.089452317711857035 0 0.0085559000290378346 -0.09403731624148802 0 0.011118538916380687 -0.094570186888208146 0 0.0094683709888777456 -0.0925812879502661 0 0.0074725512854292341 -0.085574341162981279 0 0.0095613292319428802 -0.090248142727652192 0 0.011118538916380687 -0.094570186888208146 0 0.011910469259869966 -0.092069753998514289 0 0.0094683709888777456 -0.0925812879502661 0 0.013930908906515937 -0.094053528119898644 0 0.012216196411981385 -0.095136299495662754 0 0.012872589935201382 -0.092349274235333678 0 0.011910469259869966 -0.092069753998514289 0 0.0094683709888777456 -0.0925812879502661 0 0.0095113099957228886 -0.091026628262813145 0 0.0095113099957228886 -0.091026628262813145 0 0.010460200178315842 -0.089693665333294439 0 0.0084113392428774077 -0.089573092552864178 0 0.011910469259869966 -0.092069753998514289 0 0.0095113099957228886 -0.091026628262813145 0 0.010460200178315842 -0.089693665333294439 0 0.011910469259869966 -0.092069753998514289 0 0.010460200178315842 -0.089693665333294439 0 0.013195338597794953 -0.089483099428768809 0 0.010460200178315842 -0.089693665333294439 0 0.01075208798041986 -0.087336913513472531 0 0.013195338597794953 -0.089483099428768809 0 0.010460200178315842 -0.089693665333294439 0 0.0091997298745069948 -0.088219734970803682 0 0.01075208798041986 -0.087336913513472531 0 0.010460200178315842 -0.089693665333294439 0 0.0091997298745069948 -0.088219734970803682 0 0.0084113392428774077 -0.089573092552864178 0 0.0091997298745069948 -0.088219734970803682 0 0.01075208798041986 -0.087336913513472531 0 0.0083786510747304345 -0.086369206308642879 0 0.01075208798041986 -0.087336913513472531 0 0.013195338597794953 -0.089483099428768809 0 0.013412557225797832 -0.087605960365912464 0 0.01075208798041986 -0.087336913513472531 0 0.013412557225797832 -0.087605960365912464 0 0.012570874139016011 -0.085273062303933403 0 0.0067496702104425732 -0.087238148701306098 0 0.0078640504331608831 -0.088108494924948363 0 0.0068158555528863166 -0.08946690604009222 0 0.0091997298745069948 -0.088219734970803682 0 0.0078640504331608831 -0.088108494924948363 0 0.0083786510747304345 -0.086369206308642879 0 0.0067496702104425732 -0.087238148701306098 0 0.0078640504331608831 -0.088108494924948363 0 0.0083786510747304345 -0.086369206308642879 0 0.0078640504331608831 -0.088108494924948363 0 0.0084113392428774077 -0.089573092552864178 0 0.0068158555528863166 -0.08946690604009222 0 0.0091997298745069948 -0.088219734970803682 0 0.0078640504331608831 -0.088108494924948363 0 0.0084113392428774077 -0.089573092552864178 0 0.0067496702104425732 -0.087238148701306098 0 0.0068158555528863166 -0.08946690604009222 0 0.0052969105478122931 -0.088600642223902543 0 0.0068158555528863166 -0.08946690604009222 0 0.008079214271164049 -0.091139871882089635 0 0.0064362666011094482 -0.091410939419931905 0 0.0068158555528863166 -0.08946690604009222 0 0.0064362666011094482 -0.091410939419931905 0 0.005199871426666257 -0.0901949874251355 0 0.0084113392428774077 -0.089573092552864178 0 0.0068158555528863166 -0.08946690604009222 0 0.008079214271164049 -0.091139871882089635 0 0.0095113099957228886 -0.091026628262813145 0 0.0084113392428774077 -0.089573092552864178 0 0.008079214271164049 -0.091139871882089635 0 0.0094683709888777456 -0.0925812879502661 0 0.008079214271164049 -0.091139871882089635 0 0.0077053532945807338 -0.092500163695748538 0 0.0094683709888777456 -0.0925812879502661 0 0.0095113099957228886 -0.091026628262813145 0 0.008079214271164049 -0.091139871882089635 0 0.008079214271164049 -0.091139871882089635 0 0.0077053532945807338 -0.092500163695748538 0 0.0064362666011094482 -0.091410939419931905 0 0.0060968666627227797 -0.093345751659833373 0 0.0077053532945807338 -0.092500163695748538 0 0.0064362666011094482 -0.091410939419931905 0 0.0060968666627227797 -0.093345751659833373 0 0.0064362666011094482 -0.091410939419931905 0 0.0049714893990190981 -0.09165227737044547 0 0.0039479125094775934 -0.09261953129181047 0 0.0049714893990190981 -0.09165227737044547 0 0.0033679419522175211 -0.090791730407496898 0 0.0049714893990190981 -0.09165227737044547 0 0.005199871426666257 -0.0901949874251355 0 0.0033679419522175211 -0.090791730407496898 0 0.005199871426666257 -0.0901949874251355 0 0.0033679419522175211 -0.090791730407496898 0 0.00410260641127678 -0.089456004069358927 0 0.0064362666011094482 -0.091410939419931905 0 0.0049714893990190981 -0.09165227737044547 0 0.005199871426666257 -0.0901949874251355 0 0.0020863882352677612 -0.09191121480348291 0 0.0033679419522175211 -0.090791730407496898 0 0.0018043335170646437 -0.090663474036876468 0 0.0039479125094775934 -0.09261953129181047 0 0.0020863882352677612 -0.09191121480348291 0 0.0033679419522175211 -0.090791730407496898 0 0.0018043335170646437 -0.090663474036876468 0 0.0021010252470867142 -0.089252146270999547 0 0.00089026314947021992 -0.09041776847432427 0 0.0033679419522175211 -0.090791730407496898 0 0.0018043335170646437 -0.090663474036876468 0 0.0021010252470867142 -0.089252146270999547 0 0.0033679419522175211 -0.090791730407496898 0 0.0021010252470867142 -0.089252146270999547 0 0.00410260641127678 -0.089456004069358927 0 0.0021010252470867142 -0.089252146270999547 0 0.00410260641127678 -0.089456004069358927 0 0.0037910742528007822 -0.088258811941012594 0 0.0023245210916159305 -0.090212192884689513 0 0.0037910742528007822 -0.088258811941012594 0 0.0025456590449253907 -0.088004799168981282 0 0.002215389059869424 -0.089796114123429555 0 0.0028516489976443469 -0.089329993362119747 0 0.0023245210916159305 -0.090212192884689513 0 0.0018753189534152879 -0.089466140326738969 0 0.0025456590449253907 -0.088004799168981282 0 0.005199871426666257 -0.0901949874251355 0 0.0052969105478122931 -0.088600642223902543 0 0.00410260641127678 -0.089456004069358927 0 0.0068158555528863166 -0.08946690604009222 0 0.005199871426666257 -0.0901949874251355 0 0.0052969105478122931 -0.088600642223902543 0 0.0052969105478122931 -0.088600642223902543 0 0.00410260641127678 -0.089456004069358927 0 0.0037910742528007822 -0.088258811941012594 0 0.0052969105478122931 -0.088600642223902543 0 0.0037910742528007822 -0.088258811941012594 0 0.0053812526744653035 -0.0868339090408249 0 0.0067496702104425732 -0.087238148701306098 0 0.0052969105478122931 -0.088600642223902543 0 0.0053812526744653035 -0.0868339090408249 0 0.0053812526744653035 -0.0868339090408249 0 0.0042483811347907331 -0.086437995429307371 0 0.0049278777666427092 -0.08451334051155672 0 0.0037910742528007822 -0.088258811941012594 0 0.0053812526744653035 -0.0868339090408249 0 0.0042483811347907331 -0.086437995429307371 0 0.0059909809427542591 -0.0843185816674068 0 0.0049083921207472543 -0.084895857983995821 0 0.0042483811347907331 -0.086437995429307371 0 0.0049278777666427092 -0.08451334051155672 0 0.003282343043040415 -0.085646420442519078 0 0.0053812526744653035 -0.0868339090408249 0 0.0049278777666427092 -0.08451334051155672 0 0.0069239299722317054 -0.085364747070903108 0 0.0030980254451377439 -0.086117643648303974 0 0.0029301594783646685 -0.0860123643009824 0 0.0029593314330765585 -0.085995204322956931 0 0.0030980254451377439 -0.086117643648303974 0 0.003282343043040415 -0.085646420442519078 0 0.0029593314330765585 -0.085995204322956931 0 0.0033675842927615861 -0.087669754818153894 0 0.0026456722893736812 -0.088318474714382422 0 0.0018753189534152879 -0.089466140326738969 0 0.0025456590449253907 -0.088004799168981282 0 0.001386279578526763 -0.089497775295674389 0 0.0042483811347907331 -0.086437995429307371 0 0.0030980254451377439 -0.086117643648303974 0 0.003282343043040415 -0.085646420442519078 0 0.0039233852375379413 -0.087391854817555611 0 0.0033675842927615861 -0.087669754818153894 0 0.0037910742528007822 -0.088258811941012594 0 0.0042483811347907331 -0.086437995429307371 0 0.0025456590449253907 -0.088004799168981282 0 0.006451227474986148 -0.084430447377603884 0 0.0053859340018318274 -0.084232495773581384 0 0.0059627482440648485 -0.083553816408745124 0 0.0049083921207472543 -0.084895857983995821 0 0.0039252878132094906 -0.085390423355028319 0 0.006451227474986148 -0.084430447377603884 0 0.0053859340018318274 -0.084232495773581384 0 0.0047647205669495629 -0.085315671546783045 0 0.0053859340018318274 -0.084232495773581384 0 0.0050282439849323604 -0.083360404754604017 0 0.0059627482440648485 -0.083553816408745124 0 0.006451227474986148 -0.084430447377603884 0 0.0059627482440648485 -0.083553816408745124 0 0.0068622789954067304 -0.083304151338344748 0 0.0059627482440648485 -0.083553816408745124 0 0.0068622789954067304 -0.083304151338344748 0 0.0056802442255013182 -0.081778988447264014 0 0.0057115858024739952 -0.083848496601855921 0 0.005362074541140874 -0.084105220910089706 0 0.0068622789954067304 -0.083304151338344748 0 0.0070015448860186362 -0.083137559565455613 0 0.0071862698328614685 -0.083062473813758891 0 0.0045523973770773439 -0.08241184296329325 0 0.004573024701481113 -0.081605767936118789 0 0.0056802442255013182 -0.081778988447264014 0 0.0050282439849323604 -0.083360404754604017 0 0.0059627482440648485 -0.083553816408745124 0 0.0056802442255013182 -0.081778988447264014 0 0.0050282439849323604 -0.083360404754604017 0 0.0045523973770773439 -0.08241184296329325 0 0.0056802442255013182 -0.081778988447264014 0 0.0072578760498195963 -0.083609021675239328 0 0.0071717199808345924 -0.083260136677616836 0 0.0072387091986056678 -0.083385825561817811 0 0.0059909809427542591 -0.0843185816674068 0 0.0065929490374972708 -0.084014556009351163 0 0.0072578760498195963 -0.083609021675239328 0 0.0068622789954067304 -0.083304151338344748 0 0.0071717199808345924 -0.083260136677616836 0 0.0072578760498195963 -0.083609021675239328 0 0.006451227474986148 -0.084430447377603884 0 0.0068622789954067304 -0.083304151338344748 0 0.0071717199808345924 -0.083260136677616836 0 0.0072515897037949261 -0.083061897525746137 0 0.0071862698328614685 -0.083062473813758891 0 0.0068622789954067304 -0.083304151338344748 0 0.0071717199808345924 -0.083260136677616836 0 0.0071862698328614685 -0.083062473813758891 0 0.0071717199808345924 -0.083260136677616836 0 0.0072387091986056678 -0.083385825561817811 0 0.0072515897037949261 -0.083061897525746137 0 0.0072387091986056678 -0.083385825561817811 0 0.0078459620519186323 -0.082972955541427085 0 0.0074355702273373415 -0.082873866453194597 0 0.0072387091986056678 -0.083385825561817811 0 0.0074355702273373415 -0.082873866453194597 0 0.0072515897037949261 -0.083061897525746137 0 0.0072387091986056678 -0.083385825561817811 0 0.0084626429130620004 -0.083234938601237013 0 0.0084205111752375696 -0.084295263785187285 0 0.0072387091986056678 -0.083385825561817811 0 0.0078459620519186323 -0.082972955541427085 0 0.0084626429130620004 -0.083234938601237013 0 0.0082208178191469881 -0.082906847532427899 0 0.0078459620519186323 -0.082972955541427085 0 0.0084626429130620004 -0.083234938601237013 0 0.0082208178191469881 -0.082906847532427899 0 0.0078459620519186323 -0.082972955541427085 0 0.0077718234019784017 -0.082715004880288406 0 0.0038113743534769159 -0.073715493217853492 0 0.0031515213018343015 -0.074346714629379237 0 -0.002396464017351615 -0.066642094723398895 0 0.0082208178191469881 -0.082906847532427899 0 0.0087918474593235447 -0.082841708114432186 0 0.0077718234019784017 -0.082715004880288406 0 0.006006802364251833 -0.078183941688726541 0 0.003351580483623827 -0.074571664000904272 0 0.0075198281105957323 -0.070073765722665771 0 0.010853274557247824 -0.067063853554962055 0 0.0038113743534769159 -0.073715493217853492 0 0.010690054457359819 -0.068008577444112248 0 0.011403690457860676 -0.075153801306557078 0 0.0038113743534769159 -0.073715493217853492 0 0.010102320728373779 -0.082306719630568848 0 0.011403690457860676 -0.075153801306557078 0 0.0038113743534769159 -0.073715493217853492 0 0.0031515213018343015 -0.074346714629379237 0 0.010102320728373779 -0.082306719630568848 0 0.006006802364251833 -0.078183941688726541 0 0.0076381101751782062 -0.080231960275561912 0 0.0087918474593235447 -0.082841708114432186 0 0.0084626429130620004 -0.083234938601237013 0 0.010102320728373779 -0.082306719630568848 0 0.0082208178191469881 -0.082906847532427899 0 0.0087918474593235447 -0.082841708114432186 0 0.0084626429130620004 -0.083234938601237013 0 0.0084626429130620004 -0.083234938601237013 0 0.010102320728373779 -0.082306719630568848 0 0.0084205111752375696 -0.084295263785187285 0 0.010102320728373779 -0.082306719630568848 0 0.0098211864185285547 -0.08503718976381773 0 0.0084205111752375696 -0.084295263785187285 0 0.010102320728373779 -0.082306719630568848 0 0.0098211864185285547 -0.08503718976381773 0 0.012570874139016011 -0.085273062303933403 0 0.01075208798041986 -0.087336913513472531 0 0.0098211864185285547 -0.08503718976381773 0 0.012570874139016011 -0.085273062303933403 0 0.01075208798041986 -0.087336913513472531 0 0.0098211864185285547 -0.08503718976381773 0 0.0083786510747304345 -0.086369206308642879 0 0.0098211864185285547 -0.08503718976381773 0 0.0083786510747304345 -0.086369206308642879 0 0.0084205111752375696 -0.084295263785187285 0 0.0083786510747304345 -0.086369206308642879 0 0.0069239299722317054 -0.085364747070903108 0 0.0084205111752375696 -0.084295263785187285 0 0.0067496702104425732 -0.087238148701306098 0 0.0053812526744653035 -0.0868339090408249 0 0.0069239299722317054 -0.085364747070903108 0 0.0067496702104425732 -0.087238148701306098 0 0.0083786510747304345 -0.086369206308642879 0 0.0069239299722317054 -0.085364747070903108 0 0.0072387091986056678 -0.083385825561817811 0 0.0069239299722317054 -0.085364747070903108 0 0.0084205111752375696 -0.084295263785187285 0 0.0049278777666427092 -0.08451334051155672 0 0.0072387091986056678 -0.083385825561817811 0 0.0069239299722317054 -0.085364747070903108 0 1.5840517088384349e-06 -0.094997569415125174 0 9.0029149640383847e-09 -0.094996399561790845 0 0.00051220765538939855 -0.094448066680009768 0 8.5109607043494245e-07 -0.094997595067159504 0 0.00060487085851655524 -0.093885696919911055 0 -1.4677384937223612e-08 -0.095000265138776963 0 0.00015854575509194495 -0.09518873011878963 0 5.0208496886789219e-05 -0.095041663987743691 0 0.00066598714993292257 -0.093589488428036494 0 0.00051220765538939855 -0.094448066680009768 0 0.0013786584522063482 -0.093024474993814638 0 9.0029149640383847e-09 -0.094996399561790845 0 0.00066598714993292257 -0.093589488428036494 0 0.00051220765538939855 -0.094448066680009768 0 0.00076443291554214796 -0.094361963179358341 0 1.5840517088384349e-06 -0.094997569415125174 0 0.00051220765538939855 -0.094448066680009768 0 0.00076443291554214796 -0.094361963179358341 0 0.00051220765538939855 -0.094448066680009768 0 0.0010615727817118021 -0.094435701803479016 0 0.00051220765538939855 -0.094448066680009768 0 0.0010615727817118021 -0.094435701803479016 0 0.0013786584522063482 -0.093024474993814638 0 0.0015853360580820176 -0.092395338563198426 0 0.0015376841646712448 -0.092510248958330613 0 0.001043991627220303 -0.093834435062444876 0 0.00076443291554214796 -0.094361963179358341 0 0.0010615727817118021 -0.094435701803479016 0 0.0021977484925316346 -0.090066533082816466 0 0.0019089471270144426 -0.090463554600299964 0 0.0020648505276034596 -0.091159774664534413 0 0.001691391759859758 -0.092094971934985587 0 0.0015853360580820176 -0.092395338563198426 0 0.0019089471270144426 -0.090463554600299964 0 0.0020648505276034596 -0.091159774664534413 0 0.0015418447759619615 -0.090845228827985527 0 0.0020648505276034596 -0.091159774664534413 0 0.0014224958330742127 -0.092054259672062572 0 0.0013394178405410286 -0.091335309658886699 0 0.0020648505276034596 -0.091159774664534413 0 0.0013394178405410286 -0.091335309658886699 0 0.0015418447759619615 -0.090845228827985527 0 0.0013247822225366365 -0.091940419797563441 0 0.0014224958330742127 -0.092054259672062572 0 0.0012605086019970185 -0.091654547701932779 0 0.0013247822225366365 -0.091940419797563441 0 0.0013754724962370772 -0.092205562029901086 0 0.0012692482754527274 -0.091836573050397566 0 0.0013247822225366365 -0.091940419797563441 0 0.0014224958330742127 -0.092054259672062572 0 0.0013754724962370772 -0.092205562029901086 0 0.0014224958330742127 -0.092054259672062572 0 0.0013754724962370772 -0.092205562029901086 0 0.0014211805395625381 -0.092518639637366701 0 0.0014224958330742127 -0.092054259672062572 0 0.0013786584522063482 -0.093024474993814638 0 0.0014211805395625381 -0.092518639637366701 0 0.0020648505276034596 -0.091159774664534413 0 0.0014224958330742127 -0.092054259672062572 0 0.0013786584522063482 -0.093024474993814638 0 0.00066598714993292257 -0.093589488428036494 0 0.0013786584522063482 -0.093024474993814638 0 0.0014240463448947503 -0.092533217755502828 0 0.00060487085851655524 -0.093885696919911055 0 0.00090200157405714084 -0.092609029669118714 0 0.00015854575509194495 -0.09518873011878963 0 0.00045536970275584739 -0.095216701996903338 0 0.00052910379829971589 -0.095276895297679159 0 0.0013786584522063482 -0.093024474993814638 0 0.0014240463448947503 -0.092533217755502828 0 0.0014211805395625381 -0.092518639637366701 0 0.00045536970275584739 -0.095216701996903338 0 0.00052910379829971589 -0.095276895297679159 0 0.00052789156967555104 -0.095200729127764228 0 0.00052910379829971589 -0.095276895297679159 0 0.00052789156967555104 -0.095200729127764228 0 0.00064758617960299157 -0.095216851741133812 0 0.0014240463448947503 -0.092533217755502828 0 0.0013633669132002394 -0.092191840822781229 0 0.0012687299160541398 -0.09185154930397374 0 0.00090200157405714084 -0.092609029669118714 0 0.00095279601496293909 -0.090826601629673279 0 0.00052910379829971589 -0.095276895297679159 0 0.00064758617960299157 -0.095216851741133812 0 0.00089721079106585351 -0.095266958060929344 0 0.0012956060687676521 -0.091950875502209331 0 0.0013633669132002394 -0.092191840822781229 0 0.001271298131426574 -0.091875472995295818 0 0.0013633669132002394 -0.092191840822781229 0 0.001271298131426574 -0.091875472995295818 0 0.0012687299160541398 -0.09185154930397374 0 0.0012956060687676521 -0.091950875502209331 0 0.0013239313816816116 -0.092032459981721923 0 0.0013633669132002394 -0.092191840822781229 0 0.0013239313816816116 -0.092032459981721923 0 0.0013754724962370772 -0.092205562029901086 0 0.0013633669132002394 -0.092191840822781229 0 0.0013239313816816116 -0.092032459981721923 0 0.0013754724962370772 -0.092205562029901086 0 0.0012692482754527274 -0.091836573050397566 0 0.0012956060687676521 -0.091950875502209331 0 0.0013239313816816116 -0.092032459981721923 0 0.0012545048514089308 -0.091826996457830962 0 0.0013754724962370772 -0.092205562029901086 0 0.0014211805395625381 -0.092518639637366701 0 0.0013633669132002394 -0.092191840822781229 0 0.0014240463448947503 -0.092533217755502828 0 0.0014211805395625381 -0.092518639637366701 0 0.0013633669132002394 -0.092191840822781229 0 0.001228695705683293 -0.091815201534590621 0 0.0011242280007005092 -0.091369304721290415 0 0.0010099871223168133 -0.090787576254621569 0 0.00095279601496293909 -0.090826601629673279 0 0.0020065359386899763 -0.08929407646535141 0 0.001156158130680386 -0.091516417900221747 0 0.0011242280007005092 -0.091369304721290415 0 0.0010969471905807777 -0.091290490426083573 0 0.001156158130680386 -0.091516417900221747 0 0.0010969471905807777 -0.091290490426083573 0 0.0011641344798203701 -0.091542903531034225 0 0.001156158130680386 -0.091516417900221747 0 0.0012082727435819075 -0.091685824348900158 0 0.0011641344798203701 -0.091542903531034225 0 0.0012692482754527274 -0.091836573050397566 0 0.0012082727435819075 -0.091685824348900158 0 0.0011641344798203701 -0.091542903531034225 0 0.0013239313816816116 -0.092032459981721923 0 0.0012692482754527274 -0.091836573050397566 0 0.0012545048514089308 -0.091826996457830962 0 0.0012692482754527274 -0.091836573050397566 0 0.0012545048514089308 -0.091826996457830962 0 0.0012082727435819075 -0.091685824348900158 0 0.0012545048514089308 -0.091826996457830962 0 0.0012082727435819075 -0.091685824348900158 0 0.0012056155187645989 -0.091705821101041515 0 0.001156158130680386 -0.091516417900221747 0 0.0012082727435819075 -0.091685824348900158 0 0.0012056155187645989 -0.091705821101041515 0 0.0012056155187645989 -0.091705821101041515 0 0.001228695705683293 -0.091815201534590621 0 0.0011242280007005092 -0.091369304721290415 0 0.0012956060687676521 -0.091950875502209331 0 0.0012545048514089308 -0.091826996457830962 0 0.001250391420039983 -0.091827238515052312 0 0.0012956060687676521 -0.091950875502209331 0 0.001250391420039983 -0.091827238515052312 0 0.001271298131426574 -0.091875472995295818 0 0.0012545048514089308 -0.091826996457830962 0 0.0012056155187645989 -0.091705821101041515 0 0.001250391420039983 -0.091827238515052312 0 0.0012056155187645989 -0.091705821101041515 0 0.001235741723948506 -0.09180600934435966 0 0.001228695705683293 -0.091815201534590621 0 0.001250391420039983 -0.091827238515052312 0 0.001235741723948506 -0.09180600934435966 0 0.001271298131426574 -0.091875472995295818 0 0.0012056155187645989 -0.091705821101041515 0 0.001250391420039983 -0.091827238515052312 0 0.001235741723948506 -0.09180600934435966 0 0.00095194005290513239 -0.090830741720455965 0 0.00095279601496293909 -0.090826601629673279 0 0.001235741723948506 -0.09180600934435966 0 0.001271298131426574 -0.091875472995295818 0 0.001228695705683293 -0.091815201534590621 0 0.001156158130680386 -0.091516417900221747 0 0.0012056155187645989 -0.091705821101041515 0 0.0011242280007005092 -0.091369304721290415 0 0.0011242280007005092 -0.091369304721290415 0 0.0010677563642575712 -0.091095431225015039 0 0.0010099871223168133 -0.090787576254621569 0 0.0011242280007005092 -0.091369304721290415 0 0.0010677563642575712 -0.091095431225015039 0 0.0010969471905807777 -0.091290490426083573 0 0.0010539894043987122 -0.090959650828001962 0 0.0010830000646289211 -0.09068880016812482 0 0.0010099871223168133 -0.090787576254621569 0 0.0010677563642575712 -0.091095431225015039 0 0.0010539894043987122 -0.090959650828001962 0 0.0010099871223168133 -0.090787576254621569 0 0.0010539894043987122 -0.090959650828001962 0 0.0010655667597947191 -0.091170549685857583 0 0.0011082581498522899 -0.090829895344391079 0 0.0010969471905807777 -0.091290490426083573 0 0.0010655667597947191 -0.091170549685857583 0 0.0011641344798203701 -0.091542903531034225 0 0.0010677563642575712 -0.091095431225015039 0 0.0010539894043987122 -0.090959650828001962 0 0.0010969471905807777 -0.091290490426083573 0 0.0010539894043987122 -0.090959650828001962 0 0.0010969471905807777 -0.091290490426083573 0 0.0010655667597947191 -0.091170549685857583 0 0.0010655667597947191 -0.091170549685857583 0 0.0010499554104371881 -0.091240561146091276 0 0.0011641344798203701 -0.091542903531034225 0 0.0010655667597947191 -0.091170549685857583 0 0.0010499554104371881 -0.091240561146091276 0 0.0011082581498522899 -0.090829895344391079 0 0.0010499554104371881 -0.091240561146091276 0 0.0011641344798203701 -0.091542903531034225 0 0.0012605086019970185 -0.091654547701932779 0 0.0010499554104371881 -0.091240561146091276 0 0.0012605086019970185 -0.091654547701932779 0 0.0013394178405410286 -0.091335309658886699 0 0.0013247822225366365 -0.091940419797563441 0 0.0012692482754527274 -0.091836573050397566 0 0.0012605086019970185 -0.091654547701932779 0 0.0012692482754527274 -0.091836573050397566 0 0.0011641344798203701 -0.091542903531034225 0 0.0012605086019970185 -0.091654547701932779 0 0.0014224958330742127 -0.092054259672062572 0 0.0012605086019970185 -0.091654547701932779 0 0.0013394178405410286 -0.091335309658886699 0 0.0013394178405410286 -0.091335309658886699 0 0.0015418447759619615 -0.090845228827985527 0 0.0010503530354149518 -0.091105821916124291 0 0.001524619102242795 -0.090433759378727635 0 0.0019089471270144426 -0.090463554600299964 0 0.0015418447759619615 -0.090845228827985527 0 0.001524619102242795 -0.090433759378727635 0 0.0015418447759619615 -0.090845228827985527 0 0.0010503530354149518 -0.091105821916124291 0 0.0010499554104371881 -0.091240561146091276 0 0.0013394178405410286 -0.091335309658886699 0 0.0010503530354149518 -0.091105821916124291 0 0.0010503530354149518 -0.091105821916124291 0 0.00069582920854441917 -0.091030431212262564 0 0.00089026314947021992 -0.09041776847432427 0 0.0010499554104371881 -0.091240561146091276 0 0.0010503530354149518 -0.091105821916124291 0 0.0012890293319838793 -0.091062661815292295 0 0.0012391776902492609 -0.090604825742584508 0 0.0014623306503699859 -0.090391177975439441 0 0.00089579040645665462 -0.090261579388479687 0 0.0010503530354149518 -0.091105821916124291 0 0.00069582920854441917 -0.091030431212262564 0 0.0008181536412976058 -0.091010490534858157 0 0.00079345129952821758 -0.091045604493305926 0 0.0020863882352677612 -0.09191121480348291 0 0.0018043335170646437 -0.090663474036876468 0 0.00069582920854441917 -0.091030431212262564 0 0.0018043335170646437 -0.090663474036876468 0 0.00069582920854441917 -0.091030431212262564 0 0.00089026314947021992 -0.09041776847432427 0 0.0023245210916159305 -0.090212192884689513 0 0.0012890293319838793 -0.091062661815292295 0 0.0014432061398225919 -0.090189443802626987 0 0.002215389059869424 -0.089796114123429555 0 0.0014623306503699859 -0.090391177975439441 0 0.0010499554104371881 -0.091240561146091276 0 0.0012890293319838793 -0.091062661815292295 0 0.0011082581498522899 -0.090829895344391079 0 0.0012890293319838793 -0.091062661815292295 0 0.0011082581498522899 -0.090829895344391079 0 0.0014432061398225919 -0.090189443802626987 0 0.0011082581498522899 -0.090829895344391079 0 0.0011862687514653096 -0.090307624976945763 0 0.0014432061398225919 -0.090189443802626987 0 0.0010539894043987122 -0.090959650828001962 0 0.0011082581498522899 -0.090829895344391079 0 0.0010830000646289211 -0.09068880016812482 0 0.0011082581498522899 -0.090829895344391079 0 0.0010830000646289211 -0.09068880016812482 0 0.0011862687514653096 -0.090307624976945763 0 0.0010830000646289211 -0.09068880016812482 0 0.0011862687514653096 -0.090307624976945763 0 0.0010099871223168133 -0.090787576254621569 0 0.0023245210916159305 -0.090212192884689513 0 0.0018753189534152879 -0.089466140326738969 0 0.0014432061398225919 -0.090189443802626987 0 0.0018753189534152879 -0.089466140326738969 0 0.0014432061398225919 -0.090189443802626987 0 0.001386279578526763 -0.089497775295674389 0 0.0011862687514653096 -0.090307624976945763 0 0.0014432061398225919 -0.090189443802626987 0 0.001386279578526763 -0.089497775295674389 0 0.0039252878132094906 -0.085390423355028319 0 0.0033988005941363894 -0.085616426666076231 0 0.0029301594783646685 -0.0860123643009824 0 0.0029593314330765585 -0.085995204322956931 0 0.0027589858519350197 -0.085944777249812476 0 0.0047647205669495629 -0.085315671546783045 0 0.0027589858519350197 -0.085944777249812476 0 0.0036186714449359023 -0.085001464929969031 0 0.0011862687514653096 -0.090307624976945763 0 0.001386279578526763 -0.089497775295674389 0 0.0010099871223168133 -0.090787576254621569 0 0.0026456722893736812 -0.088318474714382422 0 0.0020065359386899763 -0.08929407646535141 0 0.0029301594783646685 -0.0860123643009824 0 0.0027589858519350197 -0.085944777249812476 0 0.0025703680896984504 -0.08599518222351589 0 0.0027589858519350197 -0.085944777249812476 0 0.0036186714449359023 -0.085001464929969031 0 0.0027757591833575718 -0.085124309992431882 0 0.0027589858519350197 -0.085944777249812476 0 0.0027757591833575718 -0.085124309992431882 0 0.0026005975075290766 -0.085798424882535085 0 0.0036186714449359023 -0.085001464929969031 0 0.0027757591833575718 -0.085124309992431882 0 0.0034280630511178693 -0.084311045800634227 0 0.0027757591833575718 -0.085124309992431882 0 0.0034280630511178693 -0.084311045800634227 0 0.0025525134310822161 -0.083384437703372338 0 0.0036186714449359023 -0.085001464929969031 0 0.0034280630511178693 -0.084311045800634227 0 0.0043450247000922336 -0.084240649233207968 0 0.0047647205669495629 -0.085315671546783045 0 0.0036186714449359023 -0.085001464929969031 0 0.0043450247000922336 -0.084240649233207968 0 0.0053859340018318274 -0.084232495773581384 0 0.0047647205669495629 -0.085315671546783045 0 0.0043450247000922336 -0.084240649233207968 0 0.0053859340018318274 -0.084232495773581384 0 0.0050282439849323604 -0.083360404754604017 0 0.0043450247000922336 -0.084240649233207968 0 0.0050282439849323604 -0.083360404754604017 0 0.0043450247000922336 -0.084240649233207968 0 0.0038569857068340178 -0.083320738370005754 0 0.0050282439849323604 -0.083360404754604017 0 0.0038569857068340178 -0.083320738370005754 0 0.0045523973770773439 -0.08241184296329325 0 0.0034280630511178693 -0.084311045800634227 0 0.0043450247000922336 -0.084240649233207968 0 0.0038569857068340178 -0.083320738370005754 0 0.0038569857068340178 -0.083320738370005754 0 0.0045523973770773439 -0.08241184296329325 0 0.0035372192529930973 -0.081826177472895736 0 0.0045523973770773439 -0.08241184296329325 0 0.0035372192529930973 -0.081826177472895736 0 0.004573024701481113 -0.081605767936118789 0 0.0038569857068340178 -0.083320738370005754 0 0.0025525134310822161 -0.083384437703372338 0 0.0035372192529930973 -0.081826177472895736 0 0.0038335488006840976 -0.094927796287004942 0 0.0037015255753141811 -0.093172190207945607 0 0.0047150891113150574 -0.093514563122661237 0 0.0032120451473366053 -0.089204174428270139 0 0.0044536609601232751 -0.087992133013651622 0 0.0034280630511178693 -0.084311045800634227 0 0.0038569857068340178 -0.083320738370005754 0 0.0025525134310822161 -0.083384437703372338 0 0.0038335488006840976 -0.094927796287004942 0 0.002780155900839203 -0.093882677505953568 0 0.0037015255753141811 -0.093172190207945607 0 0.002780155900839203 -0.093882677505953568 0 0.0021677073461933496 -0.09528678396001225 0 0.001348692146095074 -0.094282974757565793 0 0.0038335488006840976 -0.094927796287004942 0 0.002780155900839203 -0.093882677505953568 0 0.0021677073461933496 -0.09528678396001225 0 0.0038335488006840976 -0.094927796287004942 0 0.0021677073461933496 -0.09528678396001225 0 0.0029811417294175776 -0.096294163368373958 0 0.0022440474973482965 -0.092997594320066476 0 0.0019102613851983347 -0.090554778408820757 0 0.0009528910758965734 -0.094705201858171745 0 0.0011101401740613273 -0.094946197354077402 0 0.00085734964848116089 -0.094913853847980331 0 0.0011101401740613273 -0.094946197354077402 0 0.00088728577768136096 -0.095067904338814166 0 0.00085734964848116089 -0.094913853847980331 0 0.0027757591833575718 -0.085124309992431882 0 0.0025525134310822161 -0.083384437703372338 0 0.002264721531303688 -0.085027073285276852 0 0.0032120451473366053 -0.089204174428270139 0 0.0019102613851983347 -0.090554778408820757 0 0.0025525134310822161 -0.083384437703372338 0 0.0016462393384328324 -0.084965029035630357 0 0.002264721531303688 -0.085027073285276852 0 0.0019102613851983347 -0.090554778408820757 0 0.001477938098611615 -0.089605454851422614 0 0.001267317249899098 -0.086199486166191414 0 0.0023466088440420229 -0.085676613067107971 0 0.0025703680896984504 -0.08599518222351589 0 0.0016462393384328324 -0.084965029035630357 0 0.002264721531303688 -0.085027073285276852 0 0.0023466088440420229 -0.085676613067107971 0 0.0027757591833575718 -0.085124309992431882 0 0.002264721531303688 -0.085027073285276852 0 0.0023466088440420229 -0.085676613067107971 0 0.0027757591833575718 -0.085124309992431882 0 0.0023466088440420229 -0.085676613067107971 0 0.0026005975075290766 -0.085798424882535085 0 0.0027589858519350197 -0.085944777249812476 0 0.0026005975075290766 -0.085798424882535085 0 0.0025703680896984504 -0.08599518222351589 0 0.0023466088440420229 -0.085676613067107971 0 0.0026005975075290766 -0.085798424882535085 0 0.0025703680896984504 -0.08599518222351589 0 0.00095279601496293909 -0.090826601629673279 0 0.0019102613851983347 -0.090554778408820757 0 0.001267317249899098 -0.086199486166191414 0 0.0019125233702667131 -0.085141465716570025 0 0.0023466088440420229 -0.085676613067107971 0 0.00089721079106585351 -0.095266958060929344 0 0.0011101401740613273 -0.094946197354077402 0 0.00088728577768136096 -0.095067904338814166 0 0.00089721079106585351 -0.095266958060929344 0 0.00088728577768136096 -0.095067904338814166 0 0.000814537610736717 -0.095146115671556883 0 0.0006398979186640403 -0.095095542406982203 0 0.00076228507263772572 -0.095063348651597143 0 0.00071788678065430383 -0.095169675772593637 0 0.0006398979186640403 -0.095095542406982203 0 0.00054294807051139351 -0.095087405502833941 0 0.0006470804975765755 -0.09500084841026521 0 0.0006398979186640403 -0.095095542406982203 0 0.00076228507263772572 -0.095063348651597143 0 0.0006470804975765755 -0.09500084841026521 0 0.00088728577768136096 -0.095067904338814166 0 0.00076228507263772572 -0.095063348651597143 0 0.00085734964848116089 -0.094913853847980331 0 0.00088728577768136096 -0.095067904338814166 0 0.00076228507263772572 -0.095063348651597143 0 0.000814537610736717 -0.095146115671556883 0 0.00089721079106585351 -0.095266958060929344 0 0.000814537610736717 -0.095146115671556883 0 0.00071788678065430383 -0.095169675772593637 0 0.00064758617960299157 -0.095216851741133812 0 0.00089721079106585351 -0.095266958060929344 0 0.00071788678065430383 -0.095169675772593637 0 0.00076228507263772572 -0.095063348651597143 0 0.000814537610736717 -0.095146115671556883 0 0.00071788678065430383 -0.095169675772593637 0 0.00064758617960299157 -0.095216851741133812 0 0.00071788678065430383 -0.095169675772593637 0 0.00057031332082137568 -0.095160549765256286 0 0.0006398979186640403 -0.095095542406982203 0 0.00071788678065430383 -0.095169675772593637 0 0.00057031332082137568 -0.095160549765256286 0 0.00045536970275584739 -0.095216701996903338 0 0.00052789156967555104 -0.095200729127764228 0 0.00044385739882688209 -0.095121805958899644 0 0.00052789156967555104 -0.095200729127764228 0 0.00064758617960299157 -0.095216851741133812 0 0.00057031332082137568 -0.095160549765256286 0 0.00045536970275584739 -0.095216701996903338 0 0.00044385739882688209 -0.095121805958899644 0 0.00017864996608117756 -0.095050105885030794 0 0.00052789156967555104 -0.095200729127764228 0 0.00057031332082137568 -0.095160549765256286 0 0.00044385739882688209 -0.095121805958899644 0 0.00057031332082137568 -0.095160549765256286 0 0.00044385739882688209 -0.095121805958899644 0 0.00054294807051139351 -0.095087405502833941 0 0.0006398979186640403 -0.095095542406982203 0 0.00057031332082137568 -0.095160549765256286 0 0.00054294807051139351 -0.095087405502833941 0 0.00044385739882688209 -0.095121805958899644 0 0.00054294807051139351 -0.095087405502833941 0 0.00041574110808581354 -0.095023555182914776 0 0.00054294807051139351 -0.095087405502833941 0 0.00041574110808581354 -0.095023555182914776 0 0.0006470804975765755 -0.09500084841026521 0 0.00041574110808581354 -0.095023555182914776 0 0.00068249238364680371 -0.09481579976150363 0 0.00041534007934779238 -0.094712335321358185 0 0.00041574110808581354 -0.095023555182914776 0 0.00068249238364680371 -0.09481579976150363 0 0.0006470804975765755 -0.09500084841026521 0 0.0009528910758965734 -0.094705201858171745 0 0.00068249238364680371 -0.09481579976150363 0 0.00085734964848116089 -0.094913853847980331 0 0.00068249238364680371 -0.09481579976150363 0 0.0006470804975765755 -0.09500084841026521 0 0.00085734964848116089 -0.094913853847980331 0 0.00076228507263772572 -0.095063348651597143 0 0.0006470804975765755 -0.09500084841026521 0 0.00085734964848116089 -0.094913853847980331 0 0.0009528910758965734 -0.094705201858171745 0 0.00068249238364680371 -0.09481579976150363 0 0.00087304303566349635 -0.094382351889685009 0 0.0022440474973482965 -0.092997594320066476 0 0.0018166836847897637 -0.093410534168419587 0 0.001348692146095074 -0.094282974757565793 0 0.00056770924860578549 -0.0934954853580902 0 0.0018597127063090838 -0.093443525046561518 0 0.002780155900839203 -0.093882677505953568 0 0.001348692146095074 -0.094282974757565793 0 0.0018597127063090838 -0.093443525046561518 0 0.0018166836847897637 -0.093410534168419587 0 0.0015320557807316653 -0.093323629539394978 0 0.00087304303566349635 -0.094382351889685009 0 0.00044888927470194663 -0.094338822986078166 0 0.00056770924860578549 -0.0934954853580902 0 0.00087304303566349635 -0.094382351889685009 0 0.00044888927470194663 -0.094338822986078166 0 0.00041534007934779238 -0.094712335321358185 0 0.00068249238364680371 -0.09481579976150363 0 0.00087304303566349635 -0.094382351889685009 0 0.00041534007934779238 -0.094712335321358185 0 0.00041534007934779238 -0.094712335321358185 0 0.00011280307486433044 -0.094885565608378811 0 9.104646818577053e-05 -0.09462405032822005 0 0.00044888927470194663 -0.094338822986078166 0 0.00041534007934779238 -0.094712335321358185 0 9.104646818577053e-05 -0.09462405032822005 0 0.00044888927470194663 -0.094338822986078166 0 9.104646818577053e-05 -0.09462405032822005 0 -0.00016494851052637516 -0.093756193380520242 0 9.104646818577053e-05 -0.09462405032822005 0 -9.9943061128161949e-07 -0.094998384396825869 0 -0.00016494851052637516 -0.093756193380520242 0 -9.6884838141723612e-08 -0.094998698381426466 0 0.00014117836716566812 -0.094130554284067178 0 0.00011280307486433044 -0.094885565608378811 0 9.104646818577053e-05 -0.09462405032822005 0 -9.9943061128161949e-07 -0.094998384396825869 0 0.00011280307486433044 -0.094885565608378811 0 -9.9943061128161949e-07 -0.094998384396825869 0 5.3150646276307902e-07 -0.095000509745116646 0 0.00011280307486433044 -0.094885565608378811 0 5.3150646276307902e-07 -0.095000509745116646 0 0.00017864996608117756 -0.095050105885030794 0 -1.1210355927400846e-08 -0.094999923674336545 0 0.00010347619579796388 -0.094950243783475607 0 5.3889289713551834e-08 -0.09499996781855892 0 1.599611111571979e-07 -0.095000018059921434 0 0.00013863130693041379 -0.095064468720564316 0 0.00041574110808581354 -0.095023555182914776 0 0.00011280307486433044 -0.094885565608378811 0 0.00017864996608117756 -0.095050105885030794 0 0.00041574110808581354 -0.095023555182914776 0 0.00041534007934779238 -0.094712335321358185 0 0.00011280307486433044 -0.094885565608378811 0 0.00024846283182020383 -0.095137341604983189 0 0.00013863130693041379 -0.095064468720564316 0 0.00044385739882688209 -0.095121805958899644 0 0.00041574110808581354 -0.095023555182914776 0 0.00017864996608117756 -0.095050105885030794 0 0.00015854575509194495 -0.09518873011878963 0 0.00045536970275584739 -0.095216701996903338 0 0.00010347619579796388 -0.094950243783475607 0 0.00015854575509194495 -0.09518873011878963 0 0.00010347619579796388 -0.094950243783475607 0 5.0208496886789219e-05 -0.095041663987743691 0 -1.4677384937223612e-08 -0.095000265138776963 0 5.0208496886789219e-05 -0.095041663987743691 0 5.3889289713551834e-08 -0.09499996781855892 0 0.00010347619579796388 -0.094950243783475607 0 5.0208496886789219e-05 -0.095041663987743691 0 5.3889289713551834e-08 -0.09499996781855892 0 3.4752873298595577e-05 -0.094978539703231557 0 -5.5577954045383239e-08 -0.094999832774542353 0 4.6240508928719884e-05 -0.09483534320559546 0 -4.382138854570699e-07 -0.094998892516793151 0 -0.0001653721218645876 -0.094410500143539078 0 3.4752873298595577e-05 -0.094978539703231557 0 0.00010098647162299365 -0.094792638136904445 0 4.6240508928719884e-05 -0.09483534320559546 0 3.0932700035015403e-05 -0.094896465292292315 0 0.00010670558823377594 -0.094867188127743293 0 0.00010098647162299365 -0.094792638136904445 0 3.0932700035015403e-05 -0.094896465292292315 0 0.00010670558823377594 -0.094867188127743293 0 7.807228736717962e-05 -0.094926950488864681 0 3.8893908015739247e-05 -0.094939915318871276 0 6.35840683122854e-05 -0.0949026926169311 0 3.0932700035015403e-05 -0.094896465292292315 0 7.807228736717962e-05 -0.094926950488864681 0 4.5012041835100144e-05 -0.094983620105655517 0 7.807228736717962e-05 -0.094926950488864681 0 4.5012041835100144e-05 -0.094983620105655517 0 0.00012994660790718816 -0.095005948321687225 0 3.0932700035015403e-05 -0.094896465292292315 0 -1.5377542681635759e-08 -0.094999854365163894 0 4.5012041835100144e-05 -0.094983620105655517 0 3.8893908015739247e-05 -0.094939915318871276 0 4.2266383366909052e-08 -0.094999914102990315 0 3.4752873298595577e-05 -0.094978539703231557 0 -5.5577954045383239e-08 -0.094999832774542353 0 3.395615627244642e-08 -0.095000101643353915 0 2.5270446249008414e-08 -0.09500006081278338 0 3.640162149147797e-05 -0.095018765314074341 0 4.5012041835100144e-05 -0.094983620105655517 0 -1.5377542681635759e-08 -0.094999854365163894 0 2.5270446249008414e-08 -0.09500006081278338 0 4.5012041835100144e-05 -0.094983620105655517 0 -6.8036059395542236e-09 -0.095000001785801536 0 2.5270446249008414e-08 -0.09500006081278338 0 3.640162149147797e-05 -0.095018765314074341 0 3.640162149147797e-05 -0.095018765314074341 0 4.5012041835100144e-05 -0.094983620105655517 0 0.00012994660790718816 -0.095005948321687225 0 0.00014117836716566812 -0.094130554284067178 0 0.00030221026743737771 -0.093186526371339853 0 0.00045608429433818777 -0.092087175936739846 0 0.00056770924860578549 -0.0934954853580902 0 0.001508547490788279 -0.092471423281983517 0 -0.00016494851052637516 -0.093756193380520242 0 0.00045608429433818777 -0.092087175936739846 0 0.00056770924860578549 -0.0934954853580902 0 0.00044888927470194663 -0.094338822986078166 0 -0.00016494851052637516 -0.093756193380520242 0 0.00056770924860578549 -0.0934954853580902 0 0.00056770924860578549 -0.0934954853580902 0 0.0018597127063090838 -0.093443525046561518 0 0.001508547490788279 -0.092471423281983517 0 0.00045608429433818777 -0.092087175936739846 0 0.001508547490788279 -0.092471423281983517 0 0.0015893067747378079 -0.090448125514506011 0 0.00030221026743737771 -0.093186526371339853 0 0.00048246969696313761 -0.091985494960564518 0 7.807228736717962e-05 -0.094926950488864681 0 0.00012994660790718816 -0.095005948321687225 0 0.00014834628281310675 -0.094907332483439313 0 0.00012994660790718816 -0.095005948321687225 0 0.00027970748203655826 -0.094924454888931198 0 0.00014834628281310675 -0.094907332483439313 0 0.00010670558823377594 -0.094867188127743293 0 7.807228736717962e-05 -0.094926950488864681 0 0.00014834628281310675 -0.094907332483439313 0 0.00010670558823377594 -0.094867188127743293 0 0.00014834628281310675 -0.094907332483439313 0 0.00020167205898838808 -0.094808062540540139 0 0.00010670558823377594 -0.094867188127743293 0 0.00020167205898838808 -0.094808062540540139 0 0.00010098647162299365 -0.094792638136904445 0 0.00027970748203655826 -0.094924454888931198 0 0.00014834628281310675 -0.094907332483439313 0 0.00020167205898838808 -0.094808062540540139 0 0.00027970748203655826 -0.094924454888931198 0 0.00020167205898838808 -0.094808062540540139 0 0.00044905829944938907 -0.094784961234945453 0 0.0015893067747378079 -0.090448125514506011 0 0.0027090800128478361 -0.089073557891613281 0 0.0031268962302857142 -0.090398228962387625 0 0.00048246969696313761 -0.091985494960564518 0 0.00048165273039647573 -0.09025835861206187 0 0.0027090800128478361 -0.089073557891613281 0 0.0031268962302857142 -0.090398228962387625 0 0.0036600078668891389 -0.089383994900228733 0 0.0015893067747378079 -0.090448125514506011 0 0.0031268962302857142 -0.090398228962387625 0 0.0026945428125158648 -0.091861499335834956 0 0.0022635862520686929 -0.090751637687245867 0 0.0028397727657560419 -0.090390298064047039 0 0.001508547490788279 -0.092471423281983517 0 0.0015893067747378079 -0.090448125514506011 0 0.0026945428125158648 -0.091861499335834956 0 0.0018597127063090838 -0.093443525046561518 0 0.001508547490788279 -0.092471423281983517 0 0.0028753524343964791 -0.092343551445446106 0 0.002780155900839203 -0.093882677505953568 0 0.0018597127063090838 -0.093443525046561518 0 0.0028753524343964791 -0.092343551445446106 0 0.002780155900839203 -0.093882677505953568 0 0.0028753524343964791 -0.092343551445446106 0 0.0037015255753141811 -0.093172190207945607 0 0.0028397727657560419 -0.090390298064047039 0 0.004064333827146 -0.08931046718095946 0 0.0028753524343964791 -0.092343551445446106 0 0.0037015255753141811 -0.093172190207945607 0 0.0041873787244558957 -0.092173839832161431 0 0.0031268962302857142 -0.090398228962387625 0 0.0026945428125158648 -0.091861499335834956 0 0.0037817516412315092 -0.091415276776147789 0 0.0041873787244558957 -0.092173839832161431 0 0.0049084517172038444 -0.092562584752161295 0 0.0055853255779163479 -0.092087015226024846 0 0.0037817516412315092 -0.091415276776147789 0 0.0051999815731351932 -0.091293112542998781 0 0.0041996258154462941 -0.090114912833603344 0 0.004064333827146 -0.08931046718095946 0 0.0057541457940214705 -0.087199405743588962 0 0.0037015255753141811 -0.093172190207945607 0 0.0041873787244558957 -0.092173839832161431 0 0.0049084517172038444 -0.092562584752161295 0 0.0037015255753141811 -0.093172190207945607 0 0.0049084517172038444 -0.092562584752161295 0 0.0047150891113150574 -0.093514563122661237 0 0.0035372192529930973 -0.081826177472895736 0 0.004573024701481113 -0.081605767936118789 0 0.0044861564059017747 -0.080312080462030422 0 0.0049084517172038444 -0.092562584752161295 0 0.0047150891113150574 -0.093514563122661237 0 0.0055853255779163479 -0.092087015226024846 0 0.0044536609601232751 -0.087992133013651622 0 0.0057541457940214705 -0.087199405743588962 0 0.004573024701481113 -0.081605767936118789 0 0.0044861564059017747 -0.080312080462030422 0 0.0056802442255013182 -0.081778988447264014 0 0.0069081961046644994 -0.082990646416003983 0 0.0069136009607877694 -0.082979117845215167 0 0.0069991525689259374 -0.083035218708323685 0 0.0051433920311114477 -0.091696641126462142 0 0.0052562218387670829 -0.091562011207174498 0 0.0051439281557628738 -0.090815441912983283 0 0.0057541457940214705 -0.087199405743588962 0 0.0060845482674076728 -0.086819834252517436 0 0.0052562218387670829 -0.091562011207174498 0 0.0051439281557628738 -0.090815441912983283 0 0.0069439740742956455 -0.089292019930913166 0 0.0057541457940214705 -0.087199405743588962 0 0.00596500368958814 -0.088293851622231689 0 0.0051433920311114477 -0.091696641126462142 0 0.0051439281557628738 -0.090815441912983283 0 0.0041996258154462941 -0.090114912833603344 0 0.0051188260592724757 -0.089897417769192925 0 0.0048993445607601743 -0.089147374968052889 0 0.0069439740742956455 -0.089292019930913166 0 0.0051439281557628738 -0.090815441912983283 0 0.0051188260592724757 -0.089897417769192925 0 0.0069439740742956455 -0.089292019930913166 0 0.0041996258154462941 -0.090114912833603344 0 0.0042886085347297181 -0.089333599802652014 0 0.0048993445607601743 -0.089147374968052889 0 0.0051188260592724757 -0.089897417769192925 0 0.0041996258154462941 -0.090114912833603344 0 0.0048993445607601743 -0.089147374968052889 0 0.0051439281557628738 -0.090815441912983283 0 0.0051188260592724757 -0.089897417769192925 0 0.0041996258154462941 -0.090114912833603344 0 0.0031268962302857142 -0.090398228962387625 0 0.0037817516412315092 -0.091415276776147789 0 0.0041996258154462941 -0.090114912833603344 0 0.0031268962302857142 -0.090398228962387625 0 0.0041996258154462941 -0.090114912833603344 0 0.0036600078668891389 -0.089383994900228733 0 0.0041996258154462941 -0.090114912833603344 0 0.0042886085347297181 -0.089333599802652014 0 0.0036600078668891389 -0.089383994900228733 0 0.0042886085347297181 -0.089333599802652014 0 0.0036600078668891389 -0.089383994900228733 0 0.0043489577946824341 -0.08883016315512185 0 0.0026014766540188136 -0.088520153277662161 0 0.0019759525302389855 -0.087976859607512864 0 0.0048993445607601743 -0.089147374968052889 0 0.0029882102677014992 -0.086478482273135496 0 0.0062400454804977003 -0.086448515607434911 0 0.0042886085347297181 -0.089333599802652014 0 0.0048993445607601743 -0.089147374968052889 0 0.0043489577946824341 -0.08883016315512185 0 0.0055738729285935229 -0.084801891101840152 0 0.0040746613359525161 -0.08393812893254142 0 0.006762358009329796 -0.083628664305440262 0 0.0055738729285935229 -0.084801891101840152 0 0.0029882102677014992 -0.086478482273135496 0 0.0040746613359525161 -0.08393812893254142 0 0.0055738729285935229 -0.084801891101840152 0 0.0029882102677014992 -0.086478482273135496 0 0.0062400454804977003 -0.086448515607434911 0 0.0036600078668891389 -0.089383994900228733 0 0.0043489577946824341 -0.08883016315512185 0 0.0037932959683613407 -0.088036666217420179 0 0.0029882102677014992 -0.086478482273135496 0 0.001335279059501577 -0.08410526842914641 0 0.0040746613359525161 -0.08393812893254142 0 0.0019759525302389855 -0.087976859607512864 0 0.00045021583404496928 -0.086908799695448138 0 0.00045021583404496928 -0.086908799695448138 0 0.00035025378961251342 -0.07804183119602677 0 -0.0017319863383261139 -0.082459281725501057 0 0.00064917083470994788 -0.080252221862074688 0 -0.0014844996628872306 -0.080245585050179966 0 0.0040746613359525161 -0.08393812893254142 0 0.0045015023436330926 -0.081167661678960293 0 0.006762358009329796 -0.083628664305440262 0 0.001335279059501577 -0.08410526842914641 0 0.0040746613359525161 -0.08393812893254142 0 0.0045015023436330926 -0.081167661678960293 0 0.00064917083470994788 -0.080252221862074688 0 0.0011307980801603477 -0.078329341783478348 0 -0.00079340139055508285 -0.078215803193915037 0 0.0019988222724390608 -0.07659309028916951 0 0.0011307980801603477 -0.078329341783478348 0 -0.00079340139055508285 -0.078215803193915037 0 -0.00040727571747737408 -0.072967941227619487 0 -0.0011904667261805777 -0.082623774554147655 0 0.0003133580465779422 -0.094674064195029148 0 0.00029702910632333645 -0.094707585382231646 0 0.00029367195387186882 -0.094731015750494016 0 0.00028007002083132727 -0.094729611646399467 0 0.00029367195387186882 -0.094731015750494016 0 0.00026592085129394793 -0.094758563627178355 0 0.00029702910632333645 -0.094707585382231646 0 0.00028007002083132727 -0.094729611646399467 0 0.00029367195387186882 -0.094731015750494016 0 -0.00079340139055508285 -0.078215803193915037 0 -0.0014844996628872306 -0.080245585050179966 0 -0.0035713221086842153 -0.079827990593220502 0 0.00064917083470994788 -0.080252221862074688 0 -0.00079340139055508285 -0.078215803193915037 0 -0.0014844996628872306 -0.080245585050179966 0 -0.0011904667261805777 -0.082623774554147655 0 0.00043099349328961463 -0.088070968343449643 0 0.00029367195387186882 -0.094731015750494016 0 0.00025852086445142048 -0.094776761012659527 0 0.00026592085129394793 -0.094758563627178355 0 0.00025852086445142048 -0.094776761012659527 0 0.00026592085129394793 -0.094758563627178355 0 0.00023629356605406711 -0.094791696077746401 0 0.00024731248419941068 -0.094722835145259573 0 0.00026592085129394793 -0.094758563627178355 0 0.00023629356605406711 -0.094791696077746401 0 0.00043099349328961463 -0.088070968343449643 0 -0.00047862906510651268 -0.091877490690254929 0 0.0002941268265271381 -0.094874156707938029 0 0.00017748455025976903 -0.094950741175909945 0 0.0001752436565237017 -0.094871377612838245 0 0.0002941268265271381 -0.094874156707938029 0 0.00023629356605406711 -0.094791696077746401 0 0.0001752436565237017 -0.094871377612838245 0 0.00043099349328961463 -0.088070968343449643 0 0.0011923013086453781 -0.089937790207805443 0 0.00049096724305967561 -0.094421760193706683 0 0.00045070280296263191 -0.094604303214293875 0 0.00031311481803420198 -0.094546104468008638 0 0.00045070280296263191 -0.094604303214293875 0 0.00031374343452878276 -0.094684249911499749 0 0.00031311481803420198 -0.094546104468008638 0 0.00045021583404496928 -0.086908799695448138 0 0.00043099349328961463 -0.088070968343449643 0 -0.0017319863383261139 -0.082459281725501057 0 -0.0014844996628872306 -0.080245585050179966 0 -0.0035713221086842153 -0.079827990593220502 0 0.00062836895969105484 -0.094616916293918121 0 0.00049096724305967561 -0.094421760193706683 0 0.00045070280296263191 -0.094604303214293875 0 0.0027090800128478361 -0.089073557891613281 0 0.0036600078668891389 -0.089383994900228733 0 0.0037932959683613407 -0.088036666217420179 0 0.00048165273039647573 -0.09025835861206187 0 0.00045021583404496928 -0.086908799695448138 0 0.00044905829944938907 -0.094784961234945453 0 0.00062836895969105484 -0.094616916293918121 0 0.00045070280296263191 -0.094604303214293875 0 0.00044905829944938907 -0.094784961234945453 0 0.00045070280296263191 -0.094604303214293875 0 0.00031374343452878276 -0.094684249911499749 0 0.00020167205898838808 -0.094808062540540139 0 0.00044905829944938907 -0.094784961234945453 0 0.00031374343452878276 -0.094684249911499749 0 0.00020167205898838808 -0.094808062540540139 0 0.00031374343452878276 -0.094684249911499749 0 0.00015784088280196268 -0.094682823446260278 0 0.00020167205898838808 -0.094808062540540139 0 0.00015784088280196268 -0.094682823446260278 0 0.00010098647162299365 -0.094792638136904445 0 8.1273926400688589e-05 -0.095001016630763102 0 9.9495643027206523e-05 -0.094911887749461396 0 2.6447662222512266e-05 -0.094969698509866279 0 -0.00036897379960787636 -0.093544875319439086 0 -0.00047862906510651268 -0.091877490690254929 0 0.00031374343452878276 -0.094684249911499749 0 0.00015784088280196268 -0.094682823446260278 0 0.00031311481803420198 -0.094546104468008638 0 8.1273926400688589e-05 -0.095001016630763102 0 0.00017748455025976903 -0.094950741175909945 0 9.9495643027206523e-05 -0.094911887749461396 0 0.00017748455025976903 -0.094950741175909945 0 0.0001752436565237017 -0.094871377612838245 0 9.9495643027206523e-05 -0.094911887749461396 0 0.00013843449439918139 -0.094778611541541338 0 0.00023629356605406711 -0.094791696077746401 0 0.0001752436565237017 -0.094871377612838245 0 0.00013843449439918139 -0.094778611541541338 0 0.0001752436565237017 -0.094871377612838245 0 9.9495643027206523e-05 -0.094911887749461396 0 0.00010958373537106567 -0.09486239018920066 0 5.2766726044335807e-05 -0.094904585016460874 0 0.00013843449439918139 -0.094778611541541338 0 9.9495643027206523e-05 -0.094911887749461396 0 3.7834748953956671e-05 -0.094880292897739735 0 9.9495643027206523e-05 -0.094911887749461396 0 3.7834748953956671e-05 -0.094880292897739735 0 2.6447662222512266e-05 -0.094969698509866279 0 3.7834748953956671e-05 -0.094880292897739735 0 -1.5407502973868115e-06 -0.094994460092569455 0 2.6447662222512266e-05 -0.094969698509866279 0 -1.6107799038313179e-08 -0.094999949553613294 0 -6.9601684973819177e-07 -0.094988485205740991 0 -6.2569904204251147e-09 -0.094999918603021399 0 8.4989962807269782e-06 -0.094984154495537154 0 -6.9601684973819177e-07 -0.094988485205740991 0 -1.5407502973868115e-06 -0.094994460092569455 0 5.2766726044335807e-05 -0.094904585016460874 0 3.0503936575106511e-05 -0.094924133870931751 0 -6.9601684973819177e-07 -0.094988485205740991 0 -1.5407502973868115e-06 -0.094994460092569455 0 -6.2569904204251147e-09 -0.094999918603021399 0 -1.5407502973868115e-06 -0.094994460092569455 0 -6.2569904204251147e-09 -0.094999918603021399 0 3.5833259985679517e-09 -0.094999982739197533 0 -1.5407502973868115e-06 -0.094994460092569455 0 3.5833259985679517e-09 -0.094999982739197533 0 2.6447662222512266e-05 -0.094969698509866279 0 3.5833259985679517e-09 -0.094999982739197533 0 2.6447662222512266e-05 -0.094969698509866279 0 2.1130064954786964e-05 -0.095012971702892079 0 8.1273926400688589e-05 -0.095001016630763102 0 2.6447662222512266e-05 -0.094969698509866279 0 2.1130064954786964e-05 -0.095012971702892079 0 0.00015784088280196268 -0.094682823446260278 0 0.00010098647162299365 -0.094792638136904445 0 4.6240508928719884e-05 -0.09483534320559546 0 -0.00036897379960787636 -0.093544875319439086 0 -0.0001653721218645876 -0.094410500143539078 0 1.1369721698562961e-08 -0.095000040293574006 0 3.5833259985679517e-09 -0.094999982739197533 0 2.1130064954786964e-05 -0.095012971702892079 0 -0.0023844260088805051 -0.053797293626530393 0 -0.0071465328111379031 -0.052823251695751583 0 -0.0073580795343651398 -0.059393940020909086 0 -0.0023844260088805051 -0.053797293626530393 0 0.00089792697945782383 -0.059357083093476842 0 -0.0073580795343651398 -0.059393940020909086 0 -0.0071465328111379031 -0.052823251695751583 0 -0.0073580795343651398 -0.059393940020909086 0 -0.012026828173159325 -0.05251001832199502 0 0.0010166218252179442 -0.070783439857249372 0 -0.00065109692532674653 -0.066707308469391768 0 -0.0071465328111379031 -0.052823251695751583 0 -0.012026828173159325 -0.05251001832199502 0 -0.0094964811673677822 -0.047688871556521455 0 -0.0071465328111379031 -0.052823251695751583 0 -0.0052810544205530987 -0.050883808209095771 0 -0.0094964811673677822 -0.047688871556521455 0 -0.0052810544205530987 -0.050883808209095771 0 -0.0020539607850002229 -0.049283795136039407 0 -0.0094964811673677822 -0.047688871556521455 0 -0.0023844260088805051 -0.053797293626530393 0 -0.0071465328111379031 -0.052823251695751583 0 -0.0052810544205530987 -0.050883808209095771 0 -0.0023844260088805051 -0.053797293626530393 0 -0.0052810544205530987 -0.050883808209095771 0 -0.0020539607850002229 -0.049283795136039407 0 -0.0025518611412550306 -0.05236133221942451 0 0.0004607140962532708 -0.052357510575009744 0 -0.0023844260088805051 -0.053797293626530393 0 -0.0020539607850002229 -0.049283795136039407 0 0.0055307849004204686 -0.050825553518658577 0 0.0055307849004204686 -0.050825553518658577 0 0.00089792697945782383 -0.059357083093476842 0 0.0085131866688747879 -0.059627127524083119 0 -0.0023844260088805051 -0.053797293626530393 0 0.0055307849004204686 -0.050825553518658577 0 0.00089792697945782383 -0.059357083093476842 0 0.00089792697945782383 -0.059357083093476842 0 0.0041306056850342263 -0.065703759684191732 0 -0.002396464017351615 -0.066642094723398895 0 0.00089792697945782383 -0.059357083093476842 0 0.0085131866688747879 -0.059627127524083119 0 0.0041306056850342263 -0.065703759684191732 0 0.0038113743534769159 -0.073715493217853492 0 0.0041306056850342263 -0.065703759684191732 0 0.010106420807218828 -0.067419729735449907 0 0.0085131866688747879 -0.059627127524083119 0 0.0041306056850342263 -0.065703759684191732 0 0.010106420807218828 -0.067419729735449907 0 0.0038113743534769159 -0.073715493217853492 0 0.0041306056850342263 -0.065703759684191732 0 -0.002396464017351615 -0.066642094723398895 0 0.0078459620519186323 -0.082972955541427085 0 0.0077718234019784017 -0.082715004880288406 0 0.0074355702273373415 -0.082873866453194597 0 0.0077718234019784017 -0.082715004880288406 0 0.0071761264155014246 -0.082936856107021686 0 0.0074355702273373415 -0.082873866453194597 0 0.003351580483623827 -0.074571664000904272 0 0.0010166218252179442 -0.070783439857249372 0 0.00089792697945782383 -0.059357083093476842 0 -0.002396464017351615 -0.066642094723398895 0 -0.0073580795343651398 -0.059393940020909086 0 0.0071761264155014246 -0.082936856107021686 0 0.0074355702273373415 -0.082873866453194597 0 0.007313980759701323 -0.082950182640988801 0 0.0074355702273373415 -0.082873866453194597 0 0.0072515897037949261 -0.083061897525746137 0 0.007313980759701323 -0.082950182640988801 0 0.0072515897037949261 -0.083061897525746137 0 0.007313980759701323 -0.082950182640988801 0 0.0071862698328614685 -0.083062473813758891 0 0.0074870469045078677 -0.083020523737804344 0 0.007313980759701323 -0.082950182640988801 0 0.0071862698328614685 -0.083062473813758891 0 0.0074870469045078677 -0.083020523737804344 0 0.007313980759701323 -0.082950182640988801 0 0.0073291956539330329 -0.083322369208520833 0 0.0071761264155014246 -0.082936856107021686 0 0.007313980759701323 -0.082950182640988801 0 0.0073291956539330329 -0.083322369208520833 0 0.0057541457940214705 -0.087199405743588962 0 0.005362074541140874 -0.084105220910089706 0 0.0069081961046644994 -0.082990646416003983 0 0.0070015448860186362 -0.083137559565455613 0 0.0069991525689259374 -0.083035218708323685 0 0.0070015448860186362 -0.083137559565455613 0 0.0071862698328614685 -0.083062473813758891 0 0.0069991525689259374 -0.083035218708323685 0 0.0071862698328614685 -0.083062473813758891 0 0.0070997551037831575 -0.082955700084022088 0 0.0069991525689259374 -0.083035218708323685 0 0.0074870469045078677 -0.083020523737804344 0 0.0071862698328614685 -0.083062473813758891 0 0.0070997551037831575 -0.082955700084022088 0 0.0077019352697278365 -0.084822646464972562 0 0.0075738534736353533 -0.085239324387450355 0 0.0060845482674076728 -0.086819834252517436 0 0.0075738534736353533 -0.085239324387450355 0 0.0069136009607877694 -0.082979117845215167 0 0.0070997551037831575 -0.082955700084022088 0 0.0069991525689259374 -0.083035218708323685 0 0.010076662768866816 -0.08263505445113116 0 0.0088260532381903931 -0.082780895694789081 0 0.0093795992812110464 -0.083819631560161714 0 0.0060845482674076728 -0.086819834252517436 0 0.0072329983649690194 -0.086186263248413636 0 0.0074870469045078677 -0.083020523737804344 0 0.0088260532381903931 -0.082780895694789081 0 0.0081722441154363466 -0.083514046618965998 0 0.0093795992812110464 -0.083819631560161714 0 0.0081722441154363466 -0.083514046618965998 0 0.0085806842360301051 -0.084205177754407806 0 0.0088260532381903931 -0.082780895694789081 0 0.0093795992812110464 -0.083819631560161714 0 0.0081722441154363466 -0.083514046618965998 0 0.0093795992812110464 -0.083819631560161714 0 0.0085806842360301051 -0.084205177754407806 0 0.0085831261243775846 -0.085221929322971374 0 0.0081722441154363466 -0.083514046618965998 0 0.0085806842360301051 -0.084205177754407806 0 0.0078904926762570753 -0.084055856577490859 0 0.0083557746682058065 -0.084667045138551653 0 0.0085806842360301051 -0.084205177754407806 0 0.0078904926762570753 -0.084055856577490859 0 0.0083557746682058065 -0.084667045138551653 0 0.0085806842360301051 -0.084205177754407806 0 0.0085831261243775846 -0.085221929322971374 0 0.0072329983649690194 -0.086186263248413636 0 0.0076446236941345742 -0.08582209540787375 0 0.0048993445607601743 -0.089147374968052889 0 0.0069439740742956455 -0.089292019930913166 0 0.0062400454804977003 -0.086448515607434911 0 0.0069439740742956455 -0.089292019930913166 0 0.0062400454804977003 -0.086448515607434911 0 0.0085831261243775846 -0.085221929322971374 0 0.0071761264155014246 -0.082936856107021686 0 0.0073291956539330329 -0.083322369208520833 0 0.0070202980720929847 -0.083751609764051452 0 0.0074870469045078677 -0.083020523737804344 0 0.0081722441154363466 -0.083514046618965998 0 0.0073291956539330329 -0.083322369208520833 0 0.0081722441154363466 -0.083514046618965998 0 0.0073291956539330329 -0.083322369208520833 0 0.0078904926762570753 -0.084055856577490859 0 0.0078904926762570753 -0.084055856577490859 0 0.0070202980720929847 -0.083751609764051452 0 0.0077030720391545642 -0.085024520796851411 0 0.0083557746682058065 -0.084667045138551653 0 0.0078904926762570753 -0.084055856577490859 0 0.0081400670685243173 -0.084706586148653965 0 -0.00065109692532674653 -0.066707308469391768 0 -0.0017867039548260862 -0.060860052462506614 0 0.0073291956539330329 -0.083322369208520833 0 0.0078904926762570753 -0.084055856577490859 0 0.0070202980720929847 -0.083751609764051452 0 -0.0017867039548260862 -0.060860052462506614 0 -0.0059457909124243811 -0.054113288684462989 0 -0.0080550377428718328 -0.047225695581177035 0 -0.0065637825783231183 -0.046397946025375794 0 -0.0056344379411469823 -0.047833760236817215 0 -0.012026828173159325 -0.05251001832199502 0 -0.016615645825865819 -0.04602702989142473 0 -0.0094964811673677822 -0.047688871556521455 0 -0.0017867039548260862 -0.060860052462506614 0 0.0014418683748046361 -0.063333421980867416 0 0.0078904926762570753 -0.084055856577490859 0 0.0081400670685243173 -0.084706586148653965 0 0.0077030720391545642 -0.085024520796851411 0 0.0081400670685243173 -0.084706586148653965 0 0.0077030720391545642 -0.085024520796851411 0 0.008476894488960841 -0.084990187229871131 0 -0.0017438769313785662 -0.062287647481078845 0 -0.0015971645388592149 -0.06248764226628415 0 -0.0013922829099435525 -0.062371384217484734 0 -0.0080550377428718328 -0.047225695581177035 0 -0.0089419348460946235 -0.046006540601966447 0 -0.0065637825783231183 -0.046397946025375794 0 -0.0025311554722674658 -0.060679721078099866 0 -0.0027491803076530115 -0.05312581692579043 0 -0.0081358402876425713 -0.045787096666280939 0 -0.0064054896929691685 -0.044733163723670026 0 -0.0077783942745534409 -0.044384757525678803 0 -0.0017867039548260862 -0.060860052462506614 0 -0.0025311554722674658 -0.060679721078099866 0 -0.0089419348460946235 -0.046006540601966447 0 -0.0065637825783231183 -0.046397946025375794 0 -0.007052974048297668 -0.0448473330687231 0 -0.0065637825783231183 -0.046397946025375794 0 -0.007052974048297668 -0.0448473330687231 0 -0.0055158708571213591 -0.045285869986118492 0 0.0062400454804977003 -0.086448515607434911 0 0.0074161514008340094 -0.085026920807634604 0 0.0085831261243775846 -0.085221929322971374 0 0.0055738729285935229 -0.084801891101840152 0 0.0074161514008340094 -0.085026920807634604 0 0.006762358009329796 -0.083628664305440262 0 0.0055738729285935229 -0.084801891101840152 0 0.0062400454804977003 -0.086448515607434911 0 0.0074161514008340094 -0.085026920807634604 0 0.0074161514008340094 -0.085026920807634604 0 0.0084911557683521998 -0.084742037985513247 0 0.006762358009329796 -0.083628664305440262 0 0.0077030720391545642 -0.085024520796851411 0 0.0085215294858532586 -0.084910463595422161 0 0.008476894488960841 -0.084990187229871131 0 0.0074161514008340094 -0.085026920807634604 0 0.0081233810237879688 -0.085002171683558114 0 0.0084911557683521998 -0.084742037985513247 0 0.0081233810237879688 -0.085002171683558114 0 0.0084911557683521998 -0.084742037985513247 0 0.008476894488960841 -0.084990187229871131 0 0.0084911557683521998 -0.084742037985513247 0 0.0085215294858532586 -0.084910463595422161 0 0.008476894488960841 -0.084990187229871131 0 0.0014282035182338079 -0.063398463429935367 0 0.0014418683748046361 -0.063333421980867416 0 0.0074161514008340094 -0.085026920807634604 0 0.0081233810237879688 -0.085002171683558114 0 0.0085831261243775846 -0.085221929322971374 0 0.0081233810237879688 -0.085002171683558114 0 0.0085831261243775846 -0.085221929322971374 0 0.008476894488960841 -0.084990187229871131 0 0.0083557746682058065 -0.084667045138551653 0 0.0085831261243775846 -0.085221929322971374 0 0.008476894488960841 -0.084990187229871131 0 0.0083557746682058065 -0.084667045138551653 0 0.0081400670685243173 -0.084706586148653965 0 0.008476894488960841 -0.084990187229871131 0 0.0084911557683521998 -0.084742037985513247 0 0.0087462283785620498 -0.084623331276185737 0 0.006762358009329796 -0.083628664305440262 0 -0.0025311554722674658 -0.060679721078099866 0 0.0014418683748046361 -0.063333421980867416 0 0.01107601879580414 -0.083045943948511308 0 0.0092718525169585824 -0.084121710563883886 0 0.0094374672793076566 -0.082933505322745002 0 0.01107601879580414 -0.083045943948511308 0 0.0094374672793076566 -0.082933505322745002 0 0.0089849063211120614 -0.081719798937188254 0 0.01107601879580414 -0.083045943948511308 0 0.0089849063211120614 -0.081719798937188254 0 0.0093877279547228756 -0.080681073093945552 0 -0.0025311554722674658 -0.060679721078099866 0 -0.002078641827070596 -0.061287735926994005 0 0.0094374672793076566 -0.082933505322745002 0 0.0089849063211120614 -0.081719798937188254 0 0.0084155403508399569 -0.082835942596610937 0 0.0092718525169585824 -0.084121710563883886 0 0.0094374672793076566 -0.082933505322745002 0 0.0084155403508399569 -0.082835942596610937 0 0.0045015023436330926 -0.081167661678960293 0 0.0071858073271218147 -0.081954233561507384 0 0.006762358009329796 -0.083628664305440262 0 0.0092718525169585824 -0.084121710563883886 0 0.0084155403508399569 -0.082835942596610937 0 0.006762358009329796 -0.083628664305440262 0 0.0014418683748046361 -0.063333421980867416 0 0.0044988574959155319 -0.066053352852821601 0 0.0084155403508399569 -0.082835942596610937 0 0.0071858073271218147 -0.081954233561507384 0 0.006762358009329796 -0.083628664305440262 0 0.0089849063211120614 -0.081719798937188254 0 0.0084155403508399569 -0.082835942596610937 0 0.0071858073271218147 -0.081954233561507384 0 0.00035025378961251342 -0.07804183119602677 0 -0.00082994080893950787 -0.067059141066308559 0 0.0045015023436330926 -0.081167661678960293 0 0.0072264117807387821 -0.080410661392059032 0 0.0076498557237127136 -0.078221672565801578 0 0.0045015023436330926 -0.081167661678960293 0 0.0071858073271218147 -0.081954233561507384 0 0.0072264117807387821 -0.080410661392059032 0 0.00064917083470994788 -0.080252221862074688 0 0.0011307980801603477 -0.078329341783478348 0 0.0030398534904009771 -0.078030980481975834 0 0.0089849063211120614 -0.081719798937188254 0 0.0071858073271218147 -0.081954233561507384 0 0.0072264117807387821 -0.080410661392059032 0 0.0072264117807387821 -0.080410661392059032 0 0.0094051469429394102 -0.080666517765849807 0 0.0076498557237127136 -0.078221672565801578 0 -0.002078641827070596 -0.061287735926994005 0 -0.0025511460631642484 -0.05271843419973208 0 -0.0091974714005982755 -0.044313171024194416 0 -0.0085111614244868187 -0.042571272928632269 0 -0.0077783942745534409 -0.044384757525678803 0 -0.002078641827070596 -0.061287735926994005 0 -0.00082994080893950787 -0.067059141066308559 0 0.0089849063211120614 -0.081719798937188254 0 0.0072264117807387821 -0.080410661392059032 0 0.0094051469429394102 -0.080666517765849807 0 -0.0021612444547105679 -0.062460224437470194 0 -0.002078641827070596 -0.061287735926994005 0 -0.0021057094032606596 -0.04819642185760524 0 -0.00082994080893950787 -0.067059141066308559 0 -0.0012016523957573315 -0.053813825528857322 0 -0.0019025509979261996 -0.057865903722889148 0 -0.0062000402830914847 -0.058433372465225841 0 -0.0035846358670512972 -0.062059992201277496 0 -0.0019025509979261996 -0.057865903722889148 0 -0.0062000402830914847 -0.058433372465225841 0 0.0019988222724390608 -0.07659309028916951 0 0.0011307980801603477 -0.078329341783478348 0 0.0030398534904009771 -0.078030980481975834 0 -0.0034211778511028354 -0.057367366097040857 0 -0.0067279159110564509 -0.058633621289451349 0 -0.0044807575598938224 -0.061745615506109935 0 -0.00040727571747737408 -0.072967941227619487 0 -0.00082994080893950787 -0.067059141066308559 0 -0.0027491803076530115 -0.05312581692579043 0 -0.0024391718792323926 -0.049243819909371184 0 -0.0064054896929691685 -0.044733163723670026 0 -0.0058201879860908497 -0.043230432544121164 0 -0.0046964514288572144 -0.043672615888290446 0 -0.0064054896929691685 -0.044733163723670026 0 -0.0070795040346291454 -0.043225491139502949 0 -0.0058201879860908497 -0.043230432544121164 0 -0.0064054896929691685 -0.044733163723670026 0 -0.0077783942745534409 -0.044384757525678803 0 -0.0070795040346291454 -0.043225491139502949 0 -0.0085111614244868187 -0.042571272928632269 0 -0.0077783942745534409 -0.044384757525678803 0 -0.0070795040346291454 -0.043225491139502949 0 -0.0081358402876425713 -0.045787096666280939 0 -0.0091974714005982755 -0.044313171024194416 0 -0.0077783942745534409 -0.044384757525678803 0 -0.0085111614244868187 -0.042571272928632269 0 -0.0070795040346291454 -0.043225491139502949 0 -0.0074692511693737768 -0.04216437593429577 0 -0.0078246328213733285 -0.040850839464194752 0 -0.0085111614244868187 -0.042571272928632269 0 -0.0074692511693737768 -0.04216437593429577 0 -0.0070795040346291454 -0.043225491139502949 0 -0.0074692511693737768 -0.04216437593429577 0 -0.0063807311977267913 -0.041997779871271276 0 -0.0063807311977267913 -0.041997779871271276 0 -0.0058201879860908497 -0.043230432544121164 0 -0.004318411317641286 -0.041970694545513845 0 -0.0070795040346291454 -0.043225491139502949 0 -0.0063807311977267913 -0.041997779871271276 0 -0.0058201879860908497 -0.043230432544121164 0 -0.004318411317641286 -0.041970694545513845 0 -0.0030223854421566427 -0.042618243592450367 0 -0.0046964514288572144 -0.043672615888290446 0 -0.0058201879860908497 -0.043230432544121164 0 -0.004318411317641286 -0.041970694545513845 0 -0.0046964514288572144 -0.043672615888290446 0 -0.0024319568438273724 -0.041540050981708751 0 -0.004318411317641286 -0.041970694545513845 0 -0.0030223854421566427 -0.042618243592450367 0 -0.002055895742341011 -0.047923436581137506 0 -0.0024391718792323926 -0.049243819909371184 0 -0.0030223854421566427 -0.042618243592450367 0 -0.0050237735436575864 -0.043688371127129762 0 -0.0020779306303004572 -0.045166737893068215 0 -0.007052974048297668 -0.0448473330687231 0 -0.0050237735436575864 -0.043688371127129762 0 -0.0055158708571213591 -0.045285869986118492 0 -0.0050237735436575864 -0.043688371127129762 0 -0.0055158708571213591 -0.045285869986118492 0 -0.0040059304882340717 -0.046202050232880779 0 -0.0065637825783231183 -0.046397946025375794 0 -0.0055158708571213591 -0.045285869986118492 0 -0.0040059304882340717 -0.046202050232880779 0 -0.0050237735436575864 -0.043688371127129762 0 -0.0040059304882340717 -0.046202050232880779 0 -0.0020779306303004572 -0.045166737893068215 0 -0.0040059304882340717 -0.046202050232880779 0 -0.0030811172485450734 -0.048294789552558823 0 -0.0020779306303004572 -0.045166737893068215 0 -0.0025518611412550306 -0.05236133221942451 0 -0.0059457909124243811 -0.054113288684462989 0 -0.0019118116562227632 -0.04484677601640636 0 -0.00063852157887322677 -0.041479398793881066 0 -0.0025352280256261055 -0.048604715364243711 0 -0.0030811172485450734 -0.048294789552558823 0 -0.0056344379411469823 -0.047833760236817215 0 -0.0040059304882340717 -0.046202050232880779 0 -0.0030811172485450734 -0.048294789552558823 0 -0.0056344379411469823 -0.047833760236817215 0 -0.0065637825783231183 -0.046397946025375794 0 -0.0040059304882340717 -0.046202050232880779 0 -0.0056344379411469823 -0.047833760236817215 0 0.0055307849004204686 -0.050825553518658577 0 0.0023396944127583351 -0.044644081186525707 0 0.009354452253635636 -0.042873193135198863 0 -0.0025352280256261055 -0.048604715364243711 0 0.0055307849004204686 -0.050825553518658577 0 0.0023396944127583351 -0.044644081186525707 0 -0.0030811172485450734 -0.048294789552558823 0 0.0023396944127583351 -0.044644081186525707 0 -0.00042286005578744926 -0.038650614545753269 0 -0.0025352280256261055 -0.048604715364243711 0 -0.0030811172485450734 -0.048294789552558823 0 0.0023396944127583351 -0.044644081186525707 0 0.0023396944127583351 -0.044644081186525707 0 -0.00042286005578744926 -0.038650614545753269 0 0.0054438144823086218 -0.038714903932584921 0 0.0023396944127583351 -0.044644081186525707 0 0.0054438144823086218 -0.038714903932584921 0 0.009354452253635636 -0.042873193135198863 0 0.0054438144823086218 -0.038714903932584921 0 0.0098880538536829515 -0.034780703084383767 0 0.009354452253635636 -0.042873193135198863 0 0.0054438144823086218 -0.038714903932584921 0 0.0028554009665558021 -0.028746408760703529 0 0.0098880538536829515 -0.034780703084383767 0 -0.0030223854421566427 -0.042618243592450367 0 -0.0020779306303004572 -0.045166737893068215 0 -0.0010463741668588894 -0.042281394744269063 0 -0.00042286005578744926 -0.038650614545753269 0 0.0054438144823086218 -0.038714903932584921 0 0.0028554009665558021 -0.028746408760703529 0 -0.00063852157887322677 -0.041479398793881066 0 0.0018715205538398635 -0.035655349970208326 0 -0.0024319568438273724 -0.041540050981708751 0 -0.0030223854421566427 -0.042618243592450367 0 -0.0010463741668588894 -0.042281394744269063 0 0.0028554009665558021 -0.028746408760703529 0 0.010888419694802462 -0.02867128371527411 0 0.0098880538536829515 -0.034780703084383767 0 0.0092373064560972596 -0.023826813655803705 0 0.0028554009665558021 -0.028746408760703529 0 0.010888419694802462 -0.02867128371527411 0 0.010888419694802462 -0.02867128371527411 0 0.015374873172816496 -0.027859224356434932 0 0.015145851349047118 -0.033476180004419209 0 0.013098906499503307 -0.023674846129770524 0 0.010888419694802462 -0.02867128371527411 0 0.015374873172816496 -0.027859224356434932 0 0.019143434969389739 -0.024081368109574494 0 0.015374873172816496 -0.027859224356434932 0 0.019891836720847995 -0.030971463801523155 0 0.015374873172816496 -0.027859224356434932 0 0.015145851349047118 -0.033476180004419209 0 0.019891836720847995 -0.030971463801523155 0 0.015145851349047118 -0.033476180004419209 0 0.019078697466672536 -0.036651902966882331 0 0.019891836720847995 -0.030971463801523155 0 0.015145851349047118 -0.033476180004419209 0 0.019078697466672536 -0.036651902966882331 0 0.015580315413474382 -0.041020117718466066 0 0.010888419694802462 -0.02867128371527411 0 0.015145851349047118 -0.033476180004419209 0 0.0098880538536829515 -0.034780703084383767 0 0.015145851349047118 -0.033476180004419209 0 0.0098880538536829515 -0.034780703084383767 0 0.015580315413474382 -0.041020117718466066 0 0.019143434969389739 -0.024081368109574494 0 0.025828687409613305 -0.028062406163015256 0 0.019891836720847995 -0.030971463801523155 0 0.025828687409613305 -0.028062406163015256 0 0.019891836720847995 -0.030971463801523155 0 0.024729278051336425 -0.035545021024313908 0 0.019078697466672536 -0.036651902966882331 0 0.019891836720847995 -0.030971463801523155 0 0.024729278051336425 -0.035545021024313908 0 0.024729278051336425 -0.035545021024313908 0 0.029896201829685918 -0.038243768775253047 0 0.031607904048401442 -0.033284065135991824 0 0.025828687409613305 -0.028062406163015256 0 0.024729278051336425 -0.035545021024313908 0 0.031607904048401442 -0.033284065135991824 0 0.023350378968843413 -0.043546812110095097 0 0.032046742228338206 -0.043925826211443288 0 0.029896201829685918 -0.038243768775253047 0 0.024729278051336425 -0.035545021024313908 0 0.023350378968843413 -0.043546812110095097 0 0.029896201829685918 -0.038243768775253047 0 0.019078697466672536 -0.036651902966882331 0 0.024729278051336425 -0.035545021024313908 0 0.023350378968843413 -0.043546812110095097 0 0.019078697466672536 -0.036651902966882331 0 0.023350378968843413 -0.043546812110095097 0 0.015580315413474382 -0.041020117718466066 0 0.023350378968843413 -0.043546812110095097 0 0.015934484638647824 -0.047322932988614938 0 0.021669426932163404 -0.049592132894202896 0 0.023350378968843413 -0.043546812110095097 0 0.029571829934332508 -0.049797725157448965 0 0.032046742228338206 -0.043925826211443288 0 0.023350378968843413 -0.043546812110095097 0 0.021669426932163404 -0.049592132894202896 0 0.029571829934332508 -0.049797725157448965 0 0.0055307849004204686 -0.050825553518658577 0 0.009354452253635636 -0.042873193135198863 0 0.015934484638647824 -0.047322932988614938 0 0.0098880538536829515 -0.034780703084383767 0 0.009354452253635636 -0.042873193135198863 0 0.015580315413474382 -0.041020117718466066 0 0.023350378968843413 -0.043546812110095097 0 0.015580315413474382 -0.041020117718466066 0 0.015934484638647824 -0.047322932988614938 0 0.009354452253635636 -0.042873193135198863 0 0.015580315413474382 -0.041020117718466066 0 0.015934484638647824 -0.047322932988614938 0 0.0055307849004204686 -0.050825553518658577 0 0.015934484638647824 -0.047322932988614938 0 0.014438668891531788 -0.054425346594445853 0 0.0055307849004204686 -0.050825553518658577 0 0.0085131866688747879 -0.059627127524083119 0 0.014438668891531788 -0.054425346594445853 0 0.0085131866688747879 -0.059627127524083119 0 0.014438668891531788 -0.054425346594445853 0 0.016517696999663663 -0.06150764844996516 0 0.014438668891531788 -0.054425346594445853 0 0.02307349026926268 -0.05560564971130745 0 0.016517696999663663 -0.06150764844996516 0 0.015934484638647824 -0.047322932988614938 0 0.014438668891531788 -0.054425346594445853 0 0.021669426932163404 -0.049592132894202896 0 0.014438668891531788 -0.054425346594445853 0 0.021669426932163404 -0.049592132894202896 0 0.02307349026926268 -0.05560564971130745 0 0.022439975413001585 -0.056493451319404996 0 0.025737224789379998 -0.053521454253409227 0 0.021669426932163404 -0.049592132894202896 0 0.02307349026926268 -0.05560564971130745 0 0.029571829934332508 -0.049797725157448965 0 0.028769456035364006 -0.058485176454996277 0 0.022798504584318671 -0.056029448912541781 0 0.029571829934332508 -0.049797725157448965 0 0.022439975413001585 -0.056493451319404996 0 0.016650472326365566 -0.061771154495645589 0 0.022798504584318671 -0.056029448912541781 0 0.023501903754115729 -0.063021853486864621 0 0.016575126087572535 -0.062167866087421406 0 0.028769456035364006 -0.058485176454996277 0 0.023501903754115729 -0.063021853486864621 0 0.032174649580254573 -0.065454196100512965 0 0.028769456035364006 -0.058485176454996277 0 0.022798504584318671 -0.056029448912541781 0 0.023501903754115729 -0.063021853486864621 0 0.023501903754115729 -0.063021853486864621 0 0.032174649580254573 -0.065454196100512965 0 0.025325925689652504 -0.069440779266022337 0 0.023501903754115729 -0.063021853486864621 0 0.017914991955173841 -0.070662755861807577 0 0.025325925689652504 -0.069440779266022337 0 0.023501903754115729 -0.063021853486864621 0 0.016575126087572535 -0.062167866087421406 0 0.017914991955173841 -0.070662755861807577 0 0.010690054457359819 -0.068008577444112248 0 0.016575126087572535 -0.062167866087421406 0 0.017914991955173841 -0.070662755861807577 0 0.010853274557247824 -0.067063853554962055 0 0.016650472326365566 -0.061771154495645589 0 0.0085131866688747879 -0.059627127524083119 0 0.010106420807218828 -0.067419729735449907 0 0.016517696999663663 -0.06150764844996516 0 0.040885935098211819 -0.060690592151289968 0 0.041879502720125576 -0.066005507924465037 0 0.03795057337235682 -0.064205444451400029 0 0.040885935098211819 -0.060690592151289968 0 0.046477502943229637 -0.060560286981535733 0 0.041879502720125576 -0.066005507924465037 0 0.025038568506578405 -0.040458555903425363 0 0.026477354597566859 -0.046082647053813271 0 0.045835642745016267 -0.060697965938752305 0 0.045117250942036495 -0.062349854056141255 0 0.041879502720125576 -0.066005507924465037 0 0.016559880513416572 -0.034826598798787627 0 0.017043926336729704 -0.034196874179234026 0 0.017815136897523277 -0.035302155004750466 0 0.025038568506578405 -0.040458555903425363 0 0.022458066404735758 -0.031505886002901738 0 0.020733236043227233 -0.030596282306896497 0 0.021611430985646236 -0.029466693967108246 0 0.021078111661409642 -0.029368686661237164 0 0.016559880513416572 -0.034826598798787627 0 0.016546368336089558 -0.035790665795420999 0 0.017815136897523277 -0.035302155004750466 0 0.045835642745016267 -0.060697965938752305 0 0.045117250942036495 -0.062349854056141255 0 0.045835635862016874 -0.063637345806285647 0 0.025038568506578405 -0.040458555903425363 0 0.026334331128046451 -0.048139703123520214 0 0.026786351210599052 -0.048771293182018734 0 0.026334331128046451 -0.048139703123520214 0 0.045870164416791342 -0.063672148366634956 0 0.041879502720125576 -0.066005507924465037 0 0.045768050002412769 -0.072398429358440639 0 0.024057720485564298 -0.051873145839787943 0 0.025543903369768032 -0.054575327875330988 0 0.024007600141626423 -0.055761476790317781 0 0.045117250942036495 -0.062349854056141255 0 0.045870164416791342 -0.063672148366634956 0 0.041879502720125576 -0.066005507924465037 0 0.016546368336089558 -0.035790665795420999 0 0.017815136897523277 -0.035302155004750466 0 0.017627294864252609 -0.037782440041562795 0 0.026334331128046451 -0.048139703123520214 0 0.023421365239284422 -0.047129899490992486 0 0.026334331128046451 -0.048139703123520214 0 0.029074015980175585 -0.062576069051936009 0 0.041879502720125576 -0.066005507924465037 0 0.03795057337235682 -0.064205444451400029 0 0.039200298193103486 -0.070588124679868067 0 0.03795057337235682 -0.064205444451400029 0 0.032174649580254573 -0.065454196100512965 0 0.039200298193103486 -0.070588124679868067 0 0.028769456035364006 -0.058485176454996277 0 0.032174649580254573 -0.065454196100512965 0 0.035767571890235703 -0.057802392109112602 0 0.03795057337235682 -0.064205444451400029 0 0.032174649580254573 -0.065454196100512965 0 0.035767571890235703 -0.057802392109112602 0 0.040885935098211819 -0.060690592151289968 0 0.03795057337235682 -0.064205444451400029 0 0.035767571890235703 -0.057802392109112602 0 0.040885935098211819 -0.060690592151289968 0 0.035767571890235703 -0.057802392109112602 0 0.04141017593665592 -0.054128467875711211 0 0.035767571890235703 -0.057802392109112602 0 0.036761394003830938 -0.049131812481600222 0 0.04141017593665592 -0.054128467875711211 0 0.028769456035364006 -0.058485176454996277 0 0.035767571890235703 -0.057802392109112602 0 0.029571829934332508 -0.049797725157448965 0 0.035767571890235703 -0.057802392109112602 0 0.029571829934332508 -0.049797725157448965 0 0.036761394003830938 -0.049131812481600222 0 0.036761394003830938 -0.049131812481600222 0 0.04141017593665592 -0.054128467875711211 0 0.041783978297770676 -0.046025649783935418 0 0.04141017593665592 -0.054128467875711211 0 0.046794184759996776 -0.050491958533447519 0 0.041783978297770676 -0.046025649783935418 0 0.040885935098211819 -0.060690592151289968 0 0.046477502943229637 -0.060560286981535733 0 0.04141017593665592 -0.054128467875711211 0 0.046477502943229637 -0.060560286981535733 0 0.04141017593665592 -0.054128467875711211 0 0.046794184759996776 -0.050491958533447519 0 0.020733236043227233 -0.030596282306896497 0 0.021078111661409642 -0.029368686661237164 0 0.020780041650069206 -0.025014225417638449 0 0.025038568506578405 -0.040458555903425363 0 0.026383606055616481 -0.035812191797954661 0 0.021078111661409642 -0.029368686661237164 0 0.020780041650069206 -0.025014225417638449 0 0.023652822402920236 -0.026812959733824988 0 0.021611254671352085 -0.029465168378949511 0 0.021078111661409642 -0.029368686661237164 0 0.023652822402920236 -0.026812959733824988 0 0.022458066404735758 -0.031505886002901738 0 0.022438205277279254 -0.031495761201989887 0 0.020780041650069206 -0.025014225417638449 0 0.023248308411848311 -0.021832755276770661 0 0.023338892569728417 -0.024458391586636832 0 0.020780041650069206 -0.025014225417638449 0 0.02083275542836515 -0.019481635808201614 0 0.023248308411848311 -0.021832755276770661 0 0.046794184759996776 -0.050491958533447519 0 0.041783978297770676 -0.046025649783935418 0 0.046972577164218252 -0.040383721331901053 0 0.026383606055616481 -0.035812191797954661 0 0.021701459721108526 -0.020723030709630944 0 0.041783978297770676 -0.046025649783935418 0 0.040397865592677988 -0.040161282148311904 0 0.037612060492744362 -0.04305353707798637 0 0.041783978297770676 -0.046025649783935418 0 0.040397865592677988 -0.040161282148311904 0 0.046972577164218252 -0.040383721331901053 0 0.040397865592677988 -0.040161282148311904 0 0.046972577164218252 -0.040383721331901053 0 0.04012040803100278 -0.033519736006993664 0 0.0037106301980434921 0.0051235927119169539 0 0.0035521610130946099 0.0049954655006829753 0 0.0038990761729935782 0.0057810070095319641 0 0.021546542012333327 -0.019830095033757919 0 0.021701459721108526 -0.020723030709630944 0 0.0037106301980434921 0.0051235927119169539 0 0.0042954515815690746 0.00520791208747628 0 0.0046528336846831421 0.0045259687161215258 0 0.0037106301980434921 0.0051235927119169539 0 0.0036820362808231487 0.0044918223691350623 0 0.0046528336846831421 0.0045259687161215258 0 0.021701459721108526 -0.020723030709630944 0 0.015737997325461744 -0.014436579988255226 0 0.0036820362808231487 0.0044918223691350623 0 0.0048339626836810031 0.0031798396459942701 0 0.0046528336846831421 0.0045259687161215258 0 0.029571829934332508 -0.049797725157448965 0 0.036761394003830938 -0.049131812481600222 0 0.032046742228338206 -0.043925826211443288 0 0.036761394003830938 -0.049131812481600222 0 0.032046742228338206 -0.043925826211443288 0 0.037612060492744362 -0.04305353707798637 0 0.036761394003830938 -0.049131812481600222 0 0.041783978297770676 -0.046025649783935418 0 0.037612060492744362 -0.04305353707798637 0 0.032046742228338206 -0.043925826211443288 0 0.037612060492744362 -0.04305353707798637 0 0.035507752901130361 -0.037832977047342592 0 0.040397865592677988 -0.040161282148311904 0 0.037612060492744362 -0.04305353707798637 0 0.035507752901130361 -0.037832977047342592 0 0.032046742228338206 -0.043925826211443288 0 0.035507752901130361 -0.037832977047342592 0 0.029896201829685918 -0.038243768775253047 0 0.035507752901130361 -0.037832977047342592 0 0.029896201829685918 -0.038243768775253047 0 0.031607904048401442 -0.033284065135991824 0 0.035507752901130361 -0.037832977047342592 0 0.031607904048401442 -0.033284065135991824 0 0.04012040803100278 -0.033519736006993664 0 0.040397865592677988 -0.040161282148311904 0 0.035507752901130361 -0.037832977047342592 0 0.04012040803100278 -0.033519736006993664 0 0.033376501332758657 -0.026469630394692797 0 0.031607904048401442 -0.033284065135991824 0 0.04012040803100278 -0.033519736006993664 0 0.021062658232842767 -0.013297147936917377 0 0.021599693453500449 -0.015989117376481343 0 0.010563344693327153 0.0021387575583171779 0 0.0048044203474319688 0.0063217558158304987 0 0.0052602961050107495 0.0034569326650772361 0 0.033376501332758657 -0.026469630394692797 0 0.025828687409613305 -0.028062406163015256 0 0.031607904048401442 -0.033284065135991824 0 0.0040255317302107388 0.0056255766396000901 0 0.0038990761729935782 0.0057810070095319641 0 0.0029995943457671146 0.0057975274668369322 0 0.0040255317302107388 0.0056255766396000901 0 0.0039457922719267936 0.0054678678221954996 0 0.0038990761729935782 0.0057810070095319641 0 0.0037106301980434921 0.0051235927119169539 0 0.0042954515815690746 0.00520791208747628 0 0.0039457922719267936 0.0054678678221954996 0 0.0040255317302107388 0.0056255766396000901 0 0.0042954515815690746 0.00520791208747628 0 0.0039457922719267936 0.0054678678221954996 0 0.0037106301980434921 0.0051235927119169539 0 0.0039457922719267936 0.0054678678221954996 0 0.0038990761729935782 0.0057810070095319641 0 0.021701459721108526 -0.020723030709630944 0 0.021599693453500449 -0.015989117376481343 0 0.0048044203474319688 0.0063217558158304987 0 0.0038990761729935782 0.0057810070095319641 0 0.0029995943457671146 0.0057975274668369322 0 0.0035521610130946099 0.0049954655006829753 0 0.0048044203474319688 0.0063217558158304987 0 0.0038990761729935782 0.0057810070095319641 0 0.0048044203474319688 0.0063217558158304987 0 0.0052602961050107495 0.0034569326650772361 0 0.0029995943457671146 0.0057975274668369322 0 0.0040255317302107388 0.0056255766396000901 0 0.0029995943457671146 0.0057975274668369322 0 0.0052458285286245956 0.0077136418236838384 0 0.0040255317302107388 0.0056255766396000901 0 0.0052458285286245956 0.0077136418236838384 0 0.0061613776479453684 0.0064159749555132506 0 0.0040255317302107388 0.0056255766396000901 0 0.0053827362189944007 0.0051389697947625892 0 0.0061613776479453684 0.0064159749555132506 0 0.0040255317302107388 0.0056255766396000901 0 0.0042954515815690746 0.00520791208747628 0 0.0053827362189944007 0.0051389697947625892 0 0.0061613776479453684 0.0064159749555132506 0 0.0078824034868121493 0.0061726577663147215 0 0.0070771970358814587 0.0045092498627701044 0 0.0053827362189944007 0.0051389697947625892 0 0.0061613776479453684 0.0064159749555132506 0 0.0070771970358814587 0.0045092498627701044 0 0.0078824034868121493 0.0061726577663147215 0 0.0084345303879442609 0.0049503951287663195 0 0.0070771970358814587 0.0045092498627701044 0 0.0061613776479453684 0.0064159749555132506 0 0.0073380555149704929 0.0078723224064582362 0 0.0078824034868121493 0.0061726577663147215 0 0.0052458285286245956 0.0077136418236838384 0 0.0061613776479453684 0.0064159749555132506 0 0.0073380555149704929 0.0078723224064582362 0 0.0073380555149704929 0.0078723224064582362 0 0.0092905000693567791 0.0073931161529442908 0 0.0078824034868121493 0.0061726577663147215 0 0.0092905000693567791 0.0073931161529442908 0 0.010535767285591998 0.005955193858164674 0 0.0090359134332538005 0.0061123540037475096 0 0.0092905000693567791 0.0073931161529442908 0 0.0078824034868121493 0.0061726577663147215 0 0.0090359134332538005 0.0061123540037475096 0 0.0092905000693567791 0.0073931161529442908 0 0.010535767285591998 0.005955193858164674 0 0.011837001725290756 0.0081673165159032602 0 0.010535767285591998 0.005955193858164674 0 0.011837001725290756 0.0081673165159032602 0 0.011688960420337992 0.0046248506025342116 0 0.010535767285591998 0.005955193858164674 0 0.00944244756833474 0.0036567127408364424 0 0.011688960420337992 0.0046248506025342116 0 0.012629277630565233 0.0015875722773763851 0 0.012478016339044107 -0.00076157234775340297 0 0.010535767285591998 0.005955193858164674 0 0.0084345303879442609 0.0049503951287663195 0 0.0085941172359808391 0.0035747131812372719 0 0.010535767285591998 0.005955193858164674 0 0.0090359134332538005 0.0061123540037475096 0 0.0084345303879442609 0.0049503951287663195 0 0.0078824034868121493 0.0061726577663147215 0 0.0090359134332538005 0.0061123540037475096 0 0.0084345303879442609 0.0049503951287663195 0 0.010535767285591998 0.005955193858164674 0 0.00944244756833474 0.0036567127408364424 0 0.0085006694335281185 0.0033605655539673575 0 0.0084345303879442609 0.0049503951287663195 0 0.0085941172359808391 0.0035747131812372719 0 0.0077972717161346244 0.003956597982759256 0 0.00944244756833474 0.0036567127408364424 0 0.0085006694335281185 0.0033605655539673575 0 0.0093646527086997128 0.0017919288456715219 0 0.0091867538707523094 0.007144524406676114 0 0.0097391418189515817 0.010934762122051873 0 0.00944244756833474 0.0036567127408364424 0 0.011541526803613105 0.0010959572100218784 0 0.011688960420337992 0.0046248506025342116 0 0.010505190291918536 0.0047260219219499968 0 0.0091867538707523094 0.007144524406676114 0 0.011833628632776311 0.00076038054556598156 0 0.0093646527086997128 0.0017919288456715219 0 0.009292953747947242 0.00049006198629186878 0 0.00944244756833474 0.0036567127408364424 0 0.011833628632776311 0.00076038054556598156 0 0.0093646527086997128 0.0017919288456715219 0 0.0085006694335281185 0.0033605655539673575 0 0.0093646527086997128 0.0017919288456715219 0 0.0080875977887372077 0.00040380792999199021 0 0.0093646527086997128 0.0017919288456715219 0 0.009292953747947242 0.00049006198629186878 0 0.0080875977887372077 0.00040380792999199021 0 0.0066869190819378475 0.0010730216870617477 0 0.0072374126285648932 0.0032301064494091331 0 0.0060220930758639289 0.0030516104581293584 0 0.013141228700498352 -0.0077042345144977707 0 0.0098543314456228086 -0.00051802199774392146 0 0.0085006694335281185 0.0033605655539673575 0 0.0080875977887372077 0.00040380792999199021 0 0.0062837145415845603 0.00050322925748337338 0 0.0064115917540506565 0.0024359713334554407 0 0.0057154979983404137 0.0030671935482007224 0 0.0058664333398377212 0.0039749221768581467 0 0.012478016339044107 -0.00076157234775340297 0 0.013141228700498352 -0.0077042345144977707 0 0.0085941172359808391 0.0035747131812372719 0 0.0066869190819378475 0.0010730216870617477 0 0.0072374126285648932 0.0032301064494091331 0 0.0064115917540506565 0.0024359713334554407 0 0.0057154979983404137 0.0030671935482007224 0 0.0060331049385945953 0.0019529238185736313 0 0.023248308411848311 -0.021832755276770661 0 0.023338892569728417 -0.024458391586636832 0 0.025669678659019941 -0.024179268602961844 0 0.015737997325461744 -0.014436579988255226 0 0.013817811461705824 -0.013049349099680748 0 0.0048339626836810031 0.0031798396459942701 0 0.0057154979983404137 0.0030671935482007224 0 0.0060331049385945953 0.0019529238185736313 0 0.0048339626836810031 0.0031798396459942701 0 0.0057154979983404137 0.0030671935482007224 0 0.0058664333398377212 0.0039749221768581467 0 0.0053827362189944007 0.0051389697947625892 0 0.0046528336846831421 0.0045259687161215258 0 0.0058664333398377212 0.0039749221768581467 0 0.0089039672578638106 0.0015025757693773597 0 0.0098543314456228086 -0.00051802199774392146 0 0.0048339626836810031 0.0031798396459942701 0 0.0046528336846831421 0.0045259687161215258 0 0.0058664333398377212 0.0039749221768581467 0 0.0042954515815690746 0.00520791208747628 0 0.0053827362189944007 0.0051389697947625892 0 0.0046528336846831421 0.0045259687161215258 0 0.0053827362189944007 0.0051389697947625892 0 0.0070771970358814587 0.0045092498627701044 0 0.0060220930758639289 0.0030516104581293584 0 0.0077972717161346244 0.003956597982759256 0 0.0070771970358814587 0.0045092498627701044 0 0.0072374126285648932 0.0032301064494091331 0 0.0084345303879442609 0.0049503951287663195 0 0.0077972717161346244 0.003956597982759256 0 0.0070771970358814587 0.0045092498627701044 0 0.0085941172359808391 0.0035747131812372719 0 0.0077972717161346244 0.003956597982759256 0 0.0072374126285648932 0.0032301064494091331 0 0.0070771970358814587 0.0045092498627701044 0 0.0072374126285648932 0.0032301064494091331 0 0.0060220930758639289 0.0030516104581293584 0 0.0050749216495705419 0.01789336835268306 0 0.0066755396447211951 0.018073564744078705 0 0.0062141189845312901 0.016333734135416219 0 0.0066755396447211951 0.018073564744078705 0 0.0062141189845312901 0.016333734135416219 0 0.0075593272794195971 0.01717988419592667 0 0.0062141189845312901 0.016333734135416219 0 0.0074100894298708888 0.015977696855480096 0 0.0075593272794195971 0.01717988419592667 0 0.0066755396447211951 0.018073564744078705 0 0.0075593272794195971 0.01717988419592667 0 0.0077498540091445762 0.018702691062372042 0 0.0075593272794195971 0.01717988419592667 0 0.009080278027827576 0.018069708928785708 0 0.0077498540091445762 0.018702691062372042 0 0.0075593272794195971 0.01717988419592667 0 0.009080278027827576 0.018069708928785708 0 0.009075636594070775 0.016498070137308734 0 0.009080278027827576 0.018069708928785708 0 0.009075636594070775 0.016498070137308734 0 0.0098140563004112807 0.01711806057688094 0 0.0075445943746701829 0.01493999373355881 0 0.0080276587801779188 0.01432170200898094 0 0.0076510538629896655 0.015163787350642053 0 0.0074100894298708888 0.015977696855480096 0 0.00793656492078465 0.016192149777401719 0 0.0074100894298708888 0.015977696855480096 0 0.0075593272794195971 0.01717988419592667 0 0.00793656492078465 0.016192149777401719 0 0.009075636594070775 0.016498070137308734 0 0.01053879931717607 0.015764456377880605 0 0.0098140563004112807 0.01711806057688094 0 0.01053879931717607 0.015764456377880605 0 0.0098140563004112807 0.01711806057688094 0 0.01055800651512941 0.0181266618774839 0 0.0080276587801779188 0.01432170200898094 0 0.0091843374018911808 0.012557535989652027 0 0.0091843374018911808 0.012557535989652027 0 0.0097391418189515817 0.010934762122051873 0 0.009080278027827576 0.018069708928785708 0 0.0098140563004112807 0.01711806057688094 0 0.01055800651512941 0.0181266618774839 0 0.009080278027827576 0.018069708928785708 0 0.01055800651512941 0.0181266618774839 0 0.0095558669599653222 0.019254684009185796 0 0.010472477569834771 0.020255353142095416 0 0.01055800651512941 0.0181266618774839 0 0.0095558669599653222 0.019254684009185796 0 0.010472477569834771 0.020255353142095416 0 0.0095558669599653222 0.019254684009185796 0 0.0088566168915437515 0.020381239702377145 0 0.0088566168915437515 0.020381239702377145 0 0.0085631969782425307 0.019392628518591696 0 0.0077097278622558956 0.02004638461002595 0 0.0095558669599653222 0.019254684009185796 0 0.0088566168915437515 0.020381239702377145 0 0.0085631969782425307 0.019392628518591696 0 0.009080278027827576 0.018069708928785708 0 0.0095558669599653222 0.019254684009185796 0 0.0085631969782425307 0.019392628518591696 0 0.009080278027827576 0.018069708928785708 0 0.0085631969782425307 0.019392628518591696 0 0.0077498540091445762 0.018702691062372042 0 0.0085631969782425307 0.019392628518591696 0 0.0077498540091445762 0.018702691062372042 0 0.0077097278622558956 0.02004638461002595 0 0.0077498540091445762 0.018702691062372042 0 0.0077097278622558956 0.02004638461002595 0 0.0071120600484521467 0.019276781038870188 0 0.0066755396447211951 0.018073564744078705 0 0.0077498540091445762 0.018702691062372042 0 0.0071120600484521467 0.019276781038870188 0 0.0088566168915437515 0.020381239702377145 0 0.0077097278622558956 0.02004638461002595 0 0.0080232911014000135 0.021186852673695238 0 0.0077097278622558956 0.02004638461002595 0 0.0069313185912418494 0.020092116104172556 0 0.0071120600484521467 0.019276781038870188 0 0.0077097278622558956 0.02004638461002595 0 0.0069313185912418494 0.020092116104172556 0 0.0072035863725693856 0.020847385719013158 0 0.0069313185912418494 0.020092116104172556 0 0.0062422165066441226 0.019241248905527284 0 0.0071120600484521467 0.019276781038870188 0 0.0050749216495705419 0.01789336835268306 0 0.0066755396447211951 0.018073564744078705 0 0.0062422165066441226 0.019241248905527284 0 0.0059571559229839493 0.019970069867223238 0 0.0069313185912418494 0.020092116104172556 0 0.0062422165066441226 0.019241248905527284 0 0.0066755396447211951 0.018073564744078705 0 0.0062422165066441226 0.019241248905527284 0 0.0071120600484521467 0.019276781038870188 0 0.0064016557631777797 0.021306394895614082 0 0.0072234070719528892 0.021630782770350541 0 0.006913064228806721 0.022453273375818907 0 0.0056299069754088098 0.023087710473555147 0 0.0062506787720301524 0.021835116682640529 0 0.0064016557631777797 0.021306394895614082 0 0.0069313185912418494 0.020092116104172556 0 0.0072035863725693856 0.020847385719013158 0 0.0064016557631777797 0.021306394895614082 0 0.0072234070719528892 0.021630782770350541 0 0.0072035863725693856 0.020847385719013158 0 0.0072234070719528892 0.021630782770350541 0 0.0072035863725693856 0.020847385719013158 0 0.0080232911014000135 0.021186852673695238 0 0.0077097278622558956 0.02004638461002595 0 0.0072035863725693856 0.020847385719013158 0 0.0080232911014000135 0.021186852673695238 0 0.0072234070719528892 0.021630782770350541 0 0.0082354655821576944 0.022486316320701989 0 0.006913064228806721 0.022453273375818907 0 0.0072234070719528892 0.021630782770350541 0 0.0080232911014000135 0.021186852673695238 0 0.0082354655821576944 0.022486316320701989 0 0.0066358239973213374 0.0032836951197910027 0 0.006503102120095053 0.0044100552921325364 0 0.0056589978525345428 0.0044092593213326588 0 0.0080232911014000135 0.021186852673695238 0 0.00925977615572246 0.021486385688519266 0 0.0082354655821576944 0.022486316320701989 0 0.0074937187957260266 0.011084332593938401 0 0.0066286228767804996 0.012950678168454802 0 0.0088566168915437515 0.020381239702377145 0 0.0080232911014000135 0.021186852673695238 0 0.00925977615572246 0.021486385688519266 0 0.0091867538707523094 0.007144524406676114 0 0.0074937187957260266 0.011084332593938401 0 0.010472477569834771 0.020255353142095416 0 0.0088566168915437515 0.020381239702377145 0 0.00925977615572246 0.021486385688519266 0 0.007555515651369203 0.0021986945736775006 0 0.0066358239973213374 0.0032836951197910027 0 0.0075926840634441819 0.003499668299552072 0 0.0066358239973213374 0.0032836951197910027 0 0.0071326805223826057 0.0041930745484092752 0 0.0075926840634441819 0.003499668299552072 0 0.0066358239973213374 0.0032836951197910027 0 0.0071326805223826057 0.0041930745484092752 0 0.006503102120095053 0.0044100552921325364 0 0.0071326805223826057 0.0041930745484092752 0 0.0075926840634441819 0.003499668299552072 0 0.0076493476114531502 0.0049047245792129667 0 0.0071326805223826057 0.0041930745484092752 0 0.0070191678115806965 0.0049643723096472079 0 0.006503102120095053 0.0044100552921325364 0 0.0071326805223826057 0.0041930745484092752 0 0.0070191678115806965 0.0049643723096472079 0 0.0076493476114531502 0.0049047245792129667 0 0.0091256294351430844 -0.0054808250600299662 0 0.0096343285493463264 -0.0060210992981225503 0 0.0070191678115806965 0.0049643723096472079 0 0.0066446386997975945 0.0059225107805297153 0 0.0076808007616165101 0.0048990642091977553 0 0.0057597423432145418 0.0013952847108015811 0 0.0096343285493463264 -0.0060210992981225503 0 0.0070191678115806965 0.0049643723096472079 0 0.0066446386997975945 0.0059225107805297153 0 0.0061539518189876767 0.0051842714665185216 0 0.0068310985762751845 0.0056075943293965626 0 0.0081818118556335837 0.0042707012718203761 0 0.0082325385201172802 0.0065442921893853791 0 0.0066446386997975945 0.0059225107805297153 0 0.0061539518189876767 0.0051842714665185216 0 0.0056030988304918159 0.0060117075416417122 0 0.0061539518189876767 0.0051842714665185216 0 0.006503102120095053 0.0044100552921325364 0 0.0056589978525345428 0.0044092593213326588 0 0.0070191678115806965 0.0049643723096472079 0 0.0061539518189876767 0.0051842714665185216 0 0.006503102120095053 0.0044100552921325364 0 0.0066286228767804996 0.012950678168454802 0 0.0058224982759570304 0.014233139419272189 0 0.0082354655821576944 0.022486316320701989 0 0.0073715636964477374 0.023404189267794511 0 0.006913064228806721 0.022453273375818907 0 0.0061539518189876767 0.0051842714665185216 0 0.0056589978525345428 0.0044092593213326588 0 0.0046560796214595527 0.0055972249022211195 0 0.0061539518189876767 0.0051842714665185216 0 0.0056030988304918159 0.0060117075416417122 0 0.0046560796214595527 0.0055972249022211195 0 0.0056030988304918159 0.0060117075416417122 0 0.0046560796214595527 0.0055972249022211195 0 0.0049296310063509322 0.0064492161585479324 0 0.0063040597822988974 0.023448846615955199 0 0.0073715636964477374 0.023404189267794511 0 0.006913064228806721 0.022453273375818907 0 0.0063040597822988974 0.023448846615955199 0 0.0065688158946392529 0.024319183590837047 0 0.0073715636964477374 0.023404189267794511 0 0.013170000952329834 -0.011416787335449062 0 0.014362426881833739 -0.015101014706859399 0 0.015608883815653386 -0.017067164597790369 0 0.015428791801506301 -0.018541672920417262 0 0.014594574501072625 -0.01591415035515745 0 0.016107781345083998 -0.017577594003940974 0 0.015608883815653386 -0.017067164597790369 0 0.015428791801506301 -0.018541672920417262 0 0.016107781345083998 -0.017577594003940974 0 0.015608883815653386 -0.017067164597790369 0 0.016299561531791646 -0.016241961661079794 0 0.018330869517280662 -0.016641427537762113 0 0.017273354340024215 -0.017966732121559494 0 0.016299561531791646 -0.016241961661079794 0 0.016107781345083998 -0.017577594003940974 0 0.017273354340024215 -0.017966732121559494 0 0.016299561531791646 -0.016241961661079794 0 0.022458066404735758 -0.031505886002901738 0 0.018633421265868966 -0.022011369171477082 0 0.018633421265868966 -0.022011369171477082 0 0.013817811461705824 -0.013049349099680748 0 0.016107781345083998 -0.017577594003940974 0 0.017273354340024215 -0.017966732121559494 0 0.016218727477537397 -0.019301809166283875 0 0.023652822402920236 -0.026812959733824988 0 0.023338892569728417 -0.024458391586636832 0 0.025669678659019941 -0.024179268602961844 0 0.020780041650069206 -0.025014225417638449 0 0.023652822402920236 -0.026812959733824988 0 0.023338892569728417 -0.024458391586636832 0 0.013141228700498352 -0.0077042345144977707 0 0.013817811461705824 -0.013049349099680748 0 0.013141228700498352 -0.0077042345144977707 0 0.013170000952329834 -0.011416787335449062 0 0.013817811461705824 -0.013049349099680748 0 0.013170000952329834 -0.011416787335449062 0 0.016107781345083998 -0.017577594003940974 0 0.016218727477537397 -0.019301809166283875 0 0.015428791801506301 -0.018541672920417262 0 0.012585267558223735 -0.014900076972177904 0 0.013804972609400524 -0.013335967437576179 0 0.011257895235141632 -0.010882448756042523 0 0.0080875977887372077 0.00040380792999199021 0 0.0062837145415845603 0.00050322925748337338 0 0.0068707924726568032 -0.0012853287561717833 0 0.0080875977887372077 0.00040380792999199021 0 0.0068707924726568032 -0.0012853287561717833 0 0.0091628331721074086 -0.0014271920226408676 0 0.009292953747947242 0.00049006198629186878 0 0.0080875977887372077 0.00040380792999199021 0 0.0091628331721074086 -0.0014271920226408676 0 0.0091867538707523094 0.007144524406676114 0 0.0094537946511284929 0.00065840680373825211 0 0.011833628632776311 0.00076038054556598156 0 0.0091628331721074086 -0.0014271920226408676 0 0.011718178383547788 -0.0024795759558353136 0 0.011833628632776311 0.00076038054556598156 0 0.009292953747947242 0.00049006198629186878 0 0.0091628331721074086 -0.0014271920226408676 0 0.0091628331721074086 -0.0014271920226408676 0 0.011718178383547788 -0.0024795759558353136 0 0.0091269635299939447 -0.0034766958954274866 0 0.011718178383547788 -0.0024795759558353136 0 0.0091269635299939447 -0.0034766958954274866 0 0.011384414070573763 -0.0056752807299169086 0 0.0068707924726568032 -0.0012853287561717833 0 0.0091628331721074086 -0.0014271920226408676 0 0.0091269635299939447 -0.0034766958954274866 0 0.013170000952329834 -0.011416787335449062 0 0.011849112202422761 -0.0098132018025042823 0 0.015115936752401429 -0.017660341833314747 0 0.014045694617597505 -0.016647633049624567 0 0.014594574501072625 -0.01591415035515745 0 0.014045694617597505 -0.016647633049624567 0 0.01434167729749207 -0.01580665524914086 0 0.012896258935636666 -0.015556162839791794 0 0.014045694617597505 -0.016647633049624567 0 0.014594574501072625 -0.01591415035515745 0 0.01434167729749207 -0.01580665524914086 0 0.010224593109751231 -0.013749169265981683 0 0.010543994166684551 -0.013965542014488838 0 0.010923974783652838 -0.013849749307381391 0 0.011849112202422761 -0.0098132018025042823 0 0.010688813765972074 -0.0081326027266428024 0 0.011718178383547788 -0.0024795759558353136 0 0.011590754601963394 -0.0058762550094054377 0 0.011384414070573763 -0.0056752807299169086 0 0.0094537946511284929 0.00065840680373825211 0 0.0096343285493463264 -0.0060210992981225503 0 0.017015902082416431 -0.02061694621813696 0 0.010688813765972074 -0.0081326027266428024 0 0.010543994166684551 -0.013965542014488838 0 0.010973806188025114 -0.013897869393089545 0 0.010923974783652838 -0.013849749307381391 0 0.0096343285493463264 -0.0060210992981225503 0 0.010688813765972074 -0.0081326027266428024 0 0.0096343285493463264 -0.0060210992981225503 0 0.0090439217323210301 -0.0044183272269829625 0 0.010543994166684551 -0.013965542014488838 0 0.010973806188025114 -0.013897869393089545 0 0.010621568814995326 -0.014452248170428086 0 0.010973806188025114 -0.013897869393089545 0 0.010621568814995326 -0.014452248170428086 0 0.0109201427962193 -0.014851621894145082 0 0.010224593109751231 -0.013749169265981683 0 0.010543994166684551 -0.013965542014488838 0 0.010183420134702744 -0.014598613560611522 0 0.017015902082416431 -0.02061694621813696 0 0.015741527464296277 -0.025402347219162034 0 0.010543994166684551 -0.013965542014488838 0 0.010621568814995326 -0.014452248170428086 0 0.010183420134702744 -0.014598613560611522 0 0.021407111352573126 -0.034986243449375357 0 0.0195431946907813 -0.036471840436457952 0 0.021339784641967195 -0.037678195324646599 0 0.021407111352573126 -0.034986243449375357 0 0.0195431946907813 -0.036471840436457952 0 0.019222314152695191 -0.034571428874533794 0 0.017015902082416431 -0.02061694621813696 0 0.018786777270209241 -0.025799291088705531 0 0.015608883815653386 -0.017067164597790369 0 0.014594574501072625 -0.01591415035515745 0 0.016299561531791646 -0.016241961661079794 0 0.014594574501072625 -0.01591415035515745 0 0.01434167729749207 -0.01580665524914086 0 0.016299561531791646 -0.016241961661079794 0 0.017043926336729704 -0.034196874179234026 0 0.019222314152695191 -0.034571428874533794 0 0.017815136897523277 -0.035302155004750466 0 0.022458066404735758 -0.031505886002901738 0 0.018786777270209241 -0.025799291088705531 0 0.0195431946907813 -0.036471840436457952 0 0.019222314152695191 -0.034571428874533794 0 0.017815136897523277 -0.035302155004750466 0 0.0195431946907813 -0.036471840436457952 0 0.017815136897523277 -0.035302155004750466 0 0.017627294864252609 -0.037782440041562795 0 0.017627294864252609 -0.037782440041562795 0 0.018718009803602189 -0.03983054787370275 0 0.019801199164198518 -0.03868147863441268 0 0.023421365239284422 -0.047129899490992486 0 0.022670889677650682 -0.049003074959475063 0 0.0195431946907813 -0.036471840436457952 0 0.017627294864252609 -0.037782440041562795 0 0.019801199164198518 -0.03868147863441268 0 0.025543903369768032 -0.054575327875330988 0 0.027026563288682703 -0.057261343165093369 0 0.025042202802100736 -0.057476180607981958 0 0.027026563288682703 -0.057261343165093369 0 0.026293542384752306 -0.059204740447658083 0 0.025042202802100736 -0.057476180607981958 0 0.020170475420663466 -0.040310403291858483 0 0.019801199164198518 -0.03868147863441268 0 0.02129828685989647 -0.040406034983659439 0 0.018718009803602189 -0.03983054787370275 0 0.020170475420663466 -0.040310403291858483 0 0.019851227869125493 -0.041946519579995734 0 0.018718009803602189 -0.03983054787370275 0 0.020170475420663466 -0.040310403291858483 0 0.019801199164198518 -0.03868147863441268 0 0.0195431946907813 -0.036471840436457952 0 0.019801199164198518 -0.03868147863441268 0 0.021339784641967195 -0.037678195324646599 0 0.010183420134702744 -0.014598613560611522 0 0.010487843068374126 -0.014945956600825283 0 0.010138260001526775 -0.015441062495548434 0 0.015741527464296277 -0.025402347219162034 0 0.014515862119762642 -0.027778813672393678 0 0.019801199164198518 -0.03868147863441268 0 0.021339784641967195 -0.037678195324646599 0 0.02129828685989647 -0.040406034983659439 0 0.010621568814995326 -0.014452248170428086 0 0.010183420134702744 -0.014598613560611522 0 0.010487843068374126 -0.014945956600825283 0 0.010621568814995326 -0.014452248170428086 0 0.010487843068374126 -0.014945956600825283 0 0.0109201427962193 -0.014851621894145082 0 0.0090439217323210301 -0.0044183272269829625 0 0.008022922780881063 -0.0041065533425709202 0 0.0109201427962193 -0.014851621894145082 0 0.010545069083283063 -0.015388816373120574 0 0.010846666034586722 -0.015787632731606192 0 0.0082325385201172802 0.0065442921893853791 0 0.0082395648311191817 0.0087582319574282027 0 0.0078781157931181803 0.008446683009976327 0 0.010487843068374126 -0.014945956600825283 0 0.0109201427962193 -0.014851621894145082 0 0.010545069083283063 -0.015388816373120574 0 0.010487843068374126 -0.014945956600825283 0 0.010545069083283063 -0.015388816373120574 0 0.010138260001526775 -0.015441062495548434 0 0.020170475420663466 -0.040310403291858483 0 0.02129828685989647 -0.040406034983659439 0 0.021178261050728477 -0.040864864961473166 0 0.02129828685989647 -0.040406034983659439 0 0.021178261050728477 -0.040864864961473166 0 0.02114511319336871 -0.044434305839391543 0 0.014515862119762642 -0.027778813672393678 0 0.012623834885424318 -0.029423810334898388 0 0.021178261050728477 -0.040864864961473166 0 0.020693525735446503 -0.042883347485562863 0 0.02114511319336871 -0.044434305839391543 0 0.010138260001526775 -0.015441062495548434 0 0.01043087994350996 -0.015834925942839459 0 0.010093272963348306 -0.016262107187206505 0 0.010545069083283063 -0.015388816373120574 0 0.010138260001526775 -0.015441062495548434 0 0.01043087994350996 -0.015834925942839459 0 0.010545069083283063 -0.015388816373120574 0 0.01043087994350996 -0.015834925942839459 0 0.010846666034586722 -0.015787632731606192 0 0.01043087994350996 -0.015834925942839459 0 0.010846666034586722 -0.015787632731606192 0 0.010487041254884925 -0.016242644858329845 0 0.0082395648311191817 0.0087582319574282027 0 0.0074906374965556253 0.0093597648751980456 0 0.0082661159790140548 0.010720455144828689 0 0.008022922780881063 -0.0041065533425709202 0 0.0057822779468919795 -0.0067051040356987225 0 0.010846666034586722 -0.015787632731606192 0 0.010487041254884925 -0.016242644858329845 0 0.010778875709643329 -0.016692098289677579 0 0.010487041254884925 -0.016242644858329845 0 0.010391225388198266 -0.016622331602200304 0 0.010778875709643329 -0.016692098289677579 0 0.020693525735446503 -0.042883347485562863 0 0.02114511319336871 -0.044434305839391543 0 0.0205206628675501 -0.043636530960594 0 0.02114511319336871 -0.044434305839391543 0 0.020247673988348369 -0.044416337628944959 0 0.0205206628675501 -0.043636530960594 0 0.01043087994350996 -0.015834925942839459 0 0.010487041254884925 -0.016242644858329845 0 0.010093272963348306 -0.016262107187206505 0 0.010487041254884925 -0.016242644858329845 0 0.010274290098386162 -0.016474279159852986 0 0.010391225388198266 -0.016622331602200304 0 0.010487041254884925 -0.016242644858329845 0 0.010093272963348306 -0.016262107187206505 0 0.010274290098386162 -0.016474279159852986 0 0.020048407318725866 -0.045393962667380092 0 0.018749400899767496 -0.045579921798527684 0 0.020139824869264692 -0.046808930951716309 0 0.020247673988348369 -0.044416337628944959 0 0.018749400899767496 -0.045579921798527684 0 0.019083992624008003 -0.042357746944770513 0 0.018749400899767496 -0.045579921798527684 0 0.016233214950562368 -0.044734593003022259 0 0.019083992624008003 -0.042357746944770513 0 0.020048407318725866 -0.045393962667380092 0 0.020247673988348369 -0.044416337628944959 0 0.018749400899767496 -0.045579921798527684 0 0.02114511319336871 -0.044434305839391543 0 0.020048407318725866 -0.045393962667380092 0 0.020139824869264692 -0.046808930951716309 0 0.02114511319336871 -0.044434305839391543 0 0.020048407318725866 -0.045393962667380092 0 0.020247673988348369 -0.044416337628944959 0 0.020247673988348369 -0.044416337628944959 0 0.0205206628675501 -0.043636530960594 0 0.019209380354301205 -0.042515328044895086 0 0.021216849685022215 -0.049688147328535069 0 0.022064475676358775 -0.051468320357837605 0 0.018749400899767496 -0.045579921798527684 0 0.016233214950562368 -0.044734593003022259 0 0.017777177553609545 -0.046849439016212316 0 0.023005260240749108 -0.058389501041032105 0 0.022064475676358775 -0.051468320357837605 0 0.02623021451190348 -0.061902617020743921 0 0.026293542384752306 -0.059204740447658083 0 0.028523652316880355 -0.05993408858845331 0 0.027026563288682703 -0.057261343165093369 0 0.026293542384752306 -0.059204740447658083 0 0.028523652316880355 -0.05993408858845331 0 0.02623021451190348 -0.061902617020743921 0 0.026293542384752306 -0.059204740447658083 0 0.024643502611337704 -0.059453058286549898 0 0.022670889677650682 -0.049003074959475063 0 0.022064475676358775 -0.051468320357837605 0 0.021178261050728477 -0.040864864961473166 0 0.020693525735446503 -0.042883347485562863 0 0.019209380354301205 -0.042515328044895086 0 0.020170475420663466 -0.040310403291858483 0 0.021178261050728477 -0.040864864961473166 0 0.019851227869125493 -0.041946519579995734 0 0.022878443134858217 -0.049674480427202738 0 0.022064475676358775 -0.051468320357837605 0 0.020693525735446503 -0.042883347485562863 0 0.0205206628675501 -0.043636530960594 0 0.019209380354301205 -0.042515328044895086 0 0.0050176969951250643 0.015223130762761048 0 0.0046049413296972075 0.011618873476736069 0 0.0033766620722789566 0.0074870137474621372 0 0.0048541092106663434 0.0084500228838033133 0 0.0040973623162854451 0.0085396882555215381 0 0.0041938474912119935 0.016621163729533903 0 0.0035271792601066 0.012060824370197771 0 0.0036729200567286882 0.0075272720930620448 0 0.0051174286217766747 0.0076513630156338532 0 0.0049707928214196579 0.008387157616034209 0 0.0036729200567286882 0.0075272720930620448 0 0.0039002075521203309 0.0072476210587083898 0 0.0051174286217766747 0.0076513630156338532 0 0.0050176969951250643 0.015223130762761048 0 0.0058224982759570304 0.014233139419272189 0 0.0036647905319502072 0.0068156502420132596 0 0.0046560796214595527 0.0055972249022211195 0 0.0049296310063509322 0.0064492161585479324 0 0.0036647905319502072 0.0068156502420132596 0 0.0049296310063509322 0.0064492161585479324 0 0.0049273269919295872 0.0072663233246016076 0 0.0049296310063509322 0.0064492161585479324 0 0.0056048035766397509 0.00693279008811379 0 0.0049273269919295872 0.0072663233246016076 0 0.0056030988304918159 0.0060117075416417122 0 0.0049296310063509322 0.0064492161585479324 0 0.0056048035766397509 0.00693279008811379 0 0.0051174286217766747 0.0076513630156338532 0 0.0064303646325701066 0.0080530505515562026 0 0.0049707928214196579 0.008387157616034209 0 0.0056048035766397509 0.00693279008811379 0 0.0049273269919295872 0.0072663233246016076 0 0.0063250356393602554 0.0078258210561433436 0 0.0046049413296972075 0.011618873476736069 0 0.0055931372416672138 0.010351686592403974 0 0.0063250356393602554 0.0078258210561433436 0 0.006683570063858865 0.0067486017898571336 0 0.0073137298432509601 0.0073800412004196665 0 0.0056048035766397509 0.00693279008811379 0 0.0063250356393602554 0.0078258210561433436 0 0.006683570063858865 0.0067486017898571336 0 0.0068310985762751845 0.0056075943293965626 0 0.0056048035766397509 0.00693279008811379 0 0.006683570063858865 0.0067486017898571336 0 0.0066446386997975945 0.0059225107805297153 0 0.0056030988304918159 0.0060117075416417122 0 0.0056048035766397509 0.00693279008811379 0 0.0057597423432145418 0.0013952847108015811 0 0.0049083809432458707 0.003275643848551963 0 0.0068310985762751845 0.0056075943293965626 0 0.0082325385201172802 0.0065442921893853791 0 0.006683570063858865 0.0067486017898571336 0 0.0082325385201172802 0.0065442921893853791 0 0.006683570063858865 0.0067486017898571336 0 0.0073137298432509601 0.0073800412004196665 0 0.0082325385201172802 0.0065442921893853791 0 0.0073137298432509601 0.0073800412004196665 0 0.0078781157931181803 0.008446683009976327 0 0.0063250356393602554 0.0078258210561433436 0 0.0073137298432509601 0.0073800412004196665 0 0.0078781157931181803 0.008446683009976327 0 0.0064303646325701066 0.0080530505515562026 0 0.0078781157931181803 0.008446683009976327 0 0.0070378524740001124 0.008802119541770282 0 0.0070378524740001124 0.008802119541770282 0 0.0074906374965556253 0.0093597648751980456 0 0.0063751410641864244 0.0093550561118650195 0 0.0055931372416672138 0.010351686592403974 0 0.0062455269734490379 0.010110747206841419 0 0.0082395648311191817 0.0087582319574282027 0 0.0078781157931181803 0.008446683009976327 0 0.0074906374965556253 0.0093597648751980456 0 0.0078781157931181803 0.008446683009976327 0 0.0070378524740001124 0.008802119541770282 0 0.0074906374965556253 0.0093597648751980456 0 0.0074906374965556253 0.0093597648751980456 0 0.0070718979452605198 0.01015380897927308 0 0.0063751410641864244 0.0093550561118650195 0 0.0074906374965556253 0.0093597648751980456 0 0.0070718979452605198 0.01015380897927308 0 0.0082661159790140548 0.010720455144828689 0 0.0063751410641864244 0.0093550561118650195 0 0.005827180139735222 0.0099436443693571921 0 0.0052052335996336675 0.0096494465350195277 0 0.0070718979452605198 0.01015380897927308 0 0.0063751410641864244 0.0093550561118650195 0 0.0062143096999946034 0.010333552485107386 0 0.0063751410641864244 0.0093550561118650195 0 0.0062143096999946034 0.010333552485107386 0 0.005827180139735222 0.0099436443693571921 0 0.0062143096999946034 0.010333552485107386 0 0.005827180139735222 0.0099436443693571921 0 0.0056944717513860155 0.010304000934829138 0 0.0064303646325701066 0.0080530505515562026 0 0.0063751410641864244 0.0093550561118650195 0 0.0049707928214196579 0.008387157616034209 0 0.0064303646325701066 0.0080530505515562026 0 0.0070378524740001124 0.008802119541770282 0 0.0063751410641864244 0.0093550561118650195 0 0.0042168186297413673 0.011393042445347943 0 0.0035271792601066 0.012060824370197771 0 0.0063751410641864244 0.0093550561118650195 0 0.0049987296111777121 0.0090623241530284355 0 0.0052052335996336675 0.0096494465350195277 0 0.0063751410641864244 0.0093550561118650195 0 0.0048541092106663434 0.0084500228838033133 0 0.0049987296111777121 0.0090623241530284355 0 0.0049987296111777121 0.0090623241530284355 0 0.0052052335996336675 0.0096494465350195277 0 0.0043576415498931195 0.0092742021974333809 0 0.005827180139735222 0.0099436443693571921 0 0.0051139148475524629 0.010207752496173216 0 0.0052052335996336675 0.0096494465350195277 0 0.005827180139735222 0.0099436443693571921 0 0.0056944717513860155 0.010304000934829138 0 0.0051139148475524629 0.010207752496173216 0 0.0051139148475524629 0.010207752496173216 0 0.0052052335996336675 0.0096494465350195277 0 0.0044668101914953793 0.0098580665422954485 0 0.0052052335996336675 0.0096494465350195277 0 0.0044668101914953793 0.0098580665422954485 0 0.0043576415498931195 0.0092742021974333809 0 0.0044668101914953793 0.0098580665422954485 0 0.0038354905910176372 0.0096325225796475081 0 0.0043576415498931195 0.0092742021974333809 0 0.0051139148475524629 0.010207752496173216 0 0.0044668101914953793 0.0098580665422954485 0 0.0038226929856852282 0.01052798075746829 0 0.0044668101914953793 0.0098580665422954485 0 0.0038354905910176372 0.0096325225796475081 0 0.0038226929856852282 0.01052798075746829 0 0.0035963384875260002 0.0088305445583503513 0 0.0038354905910176372 0.0096325225796475081 0 0.0043576415498931195 0.0092742021974333809 0 0.0049987296111777121 0.0090623241530284355 0 0.0043576415498931195 0.0092742021974333809 0 0.0040973623162854451 0.0085396882555215381 0 0.0048541092106663434 0.0084500228838033133 0 0.0049987296111777121 0.0090623241530284355 0 0.0040973623162854451 0.0085396882555215381 0 0.0035963384875260002 0.0088305445583503513 0 0.0043576415498931195 0.0092742021974333809 0 0.0040973623162854451 0.0085396882555215381 0 0.0035963384875260002 0.0088305445583503513 0 0.0034859557342124159 0.0082901186141092001 0 0.0040973623162854451 0.0085396882555215381 0 -0.0042943693511528613 0.014733659411327841 0 -0.0053555409262714708 0.015115343088322238 0 -0.0052480419186774849 0.014147870063682988 0 -0.0053555409262714708 0.015115343088322238 0 -0.0052480419186774849 0.014147870063682988 0 -0.0067835608345926113 0.013995830303744036 0 -0.0031548212770871652 0.014686157912416918 0 -0.0032280194798636592 0.01442570360131626 0 -0.0027302296744292991 0.014446975720200305 0 -0.0031548212770871652 0.014686157912416918 0 -0.0027302296744292991 0.014446975720200305 0 -0.0026720448872786951 0.014548925332393881 0 0.00064576537978665934 0.01152135439519323 0 0.0018098754525256696 0.0036072235602947035 0 -0.0042680604951786782 0.0094656286612446114 0 0.00036562618069247837 0.0030292381575474465 0 0.0051139148475524629 0.010207752496173216 0 0.0038226929856852282 0.01052798075746829 0 0.0057539705925397037 0.010801374311226769 0 0.0056944717513860155 0.010304000934829138 0 0.0051139148475524629 0.010207752496173216 0 0.0057539705925397037 0.010801374311226769 0 -0.0053555409262714708 0.015115343088322238 0 -0.0077634873863014287 0.015655640737367853 0 -0.0067835608345926113 0.013995830303744036 0 0.00036562618069247837 0.0030292381575474465 0 -0.00083872416903356677 0.0026103227551623471 0 -0.0077634873863014287 0.015655640737367853 0 -0.0087011287291067201 0.013938849755310555 0 -0.0067835608345926113 0.013995830303744036 0 0.0024416886596363473 -0.0023210142914359176 0 0.0011132305058777644 -0.0020514621884959931 0 0.0014918963466992233 -0.0041385414954130152 0 0.0018098754525256696 0.0036072235602947035 0 0.0035828869645366792 -0.0022822226162407741 0 0.0062143096999946034 0.010333552485107386 0 0.0057539705925397037 0.010801374311226769 0 0.0070121531004007052 0.01099502093609637 0 0.0012371125522219163 -0.00032797926860076245 0 0.0014095278357913034 -2.2797975418883038e-06 0 0.0021950734028653241 -0.00017605684532701624 0 0.0018098754525256696 0.0036072235602947035 0 0.00036562618069247837 0.0030292381575474465 0 0.0062143096999946034 0.010333552485107386 0 0.0056944717513860155 0.010304000934829138 0 0.0057539705925397037 0.010801374311226769 0 0.0070718979452605198 0.01015380897927308 0 0.0062143096999946034 0.010333552485107386 0 0.0070121531004007052 0.01099502093609637 0 0.00036562618069247837 0.0030292381575474465 0 0.0035828869645366792 -0.0022822226162407741 0 0.0030533772195905566 -0.0051700871844224854 0 0.0085313748947892943 -0.0063279726734854448 0 0.0086046557499744273 -0.0042237610983258799 0 0.0011132305058777644 -0.0020514621884959931 0 0.00036846429028184813 -0.0033524036805557735 0 -0.00051297445233509128 -0.0023470832700857036 0 0.0035828869645366792 -0.0022822226162407741 0 0.005389958683149826 -0.010949398710218834 0 0.0035828869645366792 -0.0022822226162407741 0 0.0057822779468919795 -0.0067051040356987225 0 0.0070718979452605198 0.01015380897927308 0 0.0070121531004007052 0.01099502093609637 0 0.0082661159790140548 0.010720455144828689 0 0.0011132305058777644 -0.0020514621884959931 0 0.00036846429028184813 -0.0033524036805557735 0 0.0014918963466992233 -0.0041385414954130152 0 0.000535196213228075 -0.0059595467233684403 0 0.0014918963466992233 -0.0041385414954130152 0 -0.00061766295114239558 -0.0048745268022735953 0 0.00036846429028184813 -0.0033524036805557735 0 0.0014918963466992233 -0.0041385414954130152 0 -0.00061766295114239558 -0.0048745268022735953 0 -0.0014192390015652977 -0.00014664087070533934 0 -0.00083872416903356677 0.0026103227551623471 0 -0.0078306623423255537 0.011479982142126047 0 -0.0096519989659007589 0.012208774047463743 0 -0.0080905524072804897 0.012806680454627732 0 -0.0078306623423255537 0.011479982142126047 0 -0.0080905524072804897 0.012806680454627732 0 -0.0068965551063444718 0.012646925658992022 0 -0.0087011287291067201 0.013938849755310555 0 -0.0080905524072804897 0.012806680454627732 0 -0.0067835608345926113 0.013995830303744036 0 -0.0096519989659007589 0.012208774047463743 0 -0.0087011287291067201 0.013938849755310555 0 -0.0080905524072804897 0.012806680454627732 0 -0.0067835608345926113 0.013995830303744036 0 -0.0068965551063444718 0.012646925658992022 0 -0.0055500270089838943 0.01320169851865389 0 -0.0080905524072804897 0.012806680454627732 0 -0.0067835608345926113 0.013995830303744036 0 -0.0068965551063444718 0.012646925658992022 0 -0.0078306623423255537 0.011479982142126047 0 -0.0068965551063444718 0.012646925658992022 0 -0.0059592416965539314 0.011849066354866072 0 -0.0042238095435666173 0.012572060673989882 0 -0.0059592416965539314 0.011849066354866072 0 -0.0055500270089838943 0.01320169851865389 0 -0.0068965551063444718 0.012646925658992022 0 -0.0059592416965539314 0.011849066354866072 0 -0.0055500270089838943 0.01320169851865389 0 -0.0052480419186774849 0.014147870063682988 0 -0.0067835608345926113 0.013995830303744036 0 -0.0055500270089838943 0.01320169851865389 0 -0.0044072133901342332 0.013626777781423445 0 -0.0052480419186774849 0.014147870063682988 0 -0.0055500270089838943 0.01320169851865389 0 0.014989416412807261 -0.042142852749628243 0 0.0090815097457673695 -0.028287976748221158 0 0.014989416412807261 -0.042142852749628243 0 0.0073994288990829795 -0.029547773206380384 0 0.0091131924714318736 -0.034779715113543851 0 0.0075034041816043028 -0.034977505863298237 0 0.0075579304832338592 -0.032865210809582449 0 0.009697458835982966 -0.046703339349670546 0 0.0089562865804939818 -0.047389424284054349 0 0.0089135767892987734 -0.046563565185472985 0 0.015299993205680861 -0.051747932987436518 0 0.015224738984537918 -0.050092494954506087 0 0.017662149562737591 -0.049489661580100493 0 0.01558887049251328 -0.054674636464505141 0 0.014989416412807261 -0.042142852749628243 0 0.015224738984537918 -0.050092494954506087 0 0.017624341668387517 -0.049504027417394639 0 0.016187727358590413 -0.047736959130776857 0 0.014931195909606726 -0.042700529822213985 0 0.014989416412807261 -0.042142852749628243 0 0.016233214950562368 -0.044734593003022259 0 0.016187727358590413 -0.047736959130776857 0 0.01324143171924159 -0.047213303652482941 0 0.014989416412807261 -0.042142852749628243 0 0.015632410045873294 -0.043174411216531761 0 0.016233214950562368 -0.044734593003022259 0 0.016187727358590413 -0.047736959130776857 0 0.017777177553609545 -0.046849439016212316 0 0.017532693827360606 -0.049354568635435608 0 0.016187727358590413 -0.047736959130776857 0 0.017777177553609545 -0.046849439016212316 0 0.017599856214785152 -0.049155775316809702 0 0.020139824869264692 -0.046808930951716309 0 0.020996622498136514 -0.048728010906846406 0 0.018749400899767496 -0.045579921798527684 0 0.017777177553609545 -0.046849439016212316 0 0.020139824869264692 -0.046808930951716309 0 0.017532693827360606 -0.049354568635435608 0 0.017777177553609545 -0.046849439016212316 0 0.020139824869264692 -0.046808930951716309 0 0.014989416412807261 -0.042142852749628243 0 0.015501714215852693 -0.043138361135933743 0 0.010274290098386162 -0.016474279159852986 0 0.010391225388198266 -0.016622331602200304 0 0.010064414116729077 -0.017045468441213213 0 0.02114511319336871 -0.044434305839391543 0 0.020139824869264692 -0.046808930951716309 0 0.020996622498136514 -0.048728010906846406 0 0.012623834885424318 -0.029423810334898388 0 0.0090815097457673695 -0.028287976748221158 0 0.010093272963348306 -0.016262107187206505 0 0.010274290098386162 -0.016474279159852986 0 0.010064414116729077 -0.017045468441213213 0 0.005389958683149826 -0.010949398710218834 0 0.0090815097457673695 -0.028287976748221158 0 0.010391225388198266 -0.016622331602200304 0 0.010730455414740818 -0.016896041079596961 0 0.010064414116729077 -0.017045468441213213 0 0.010391225388198266 -0.016622331602200304 0 0.010734517274737327 -0.01669146588565816 0 0.010730455414740818 -0.016896041079596961 0 0.0070891603858891346 -0.0075240043251024813 0 0.0057822779468919795 -0.0067051040356987225 0 0.0057822779468919795 -0.0067051040356987225 0 0.005389958683149826 -0.010949398710218834 0 0.005389958683149826 -0.010949398710218834 0 0.0021011119183672496 -0.011547636902723516 0 0.0025026812646944114 -0.020556294938100978 0 0.0033108540924261676 -0.019496382881912241 0 0.0025439115940586172 -0.018811404564054005 0 0.00036846429028184813 -0.0033524036805557735 0 -0.00051297445233509128 -0.0023470832700857036 0 -0.00061766295114239558 -0.0048745268022735953 0 0.0025026812646944114 -0.020556294938100978 0 0.00389443939479674 -0.020336268080317965 0 0.0033108540924261676 -0.019496382881912241 0 0.00389443939479674 -0.020336268080317965 0 0.0033108540924261676 -0.019496382881912241 0 0.0039391639696597933 -0.018706137464910916 0 0.0090815097457673695 -0.028287976748221158 0 0.0073994288990829795 -0.029547773206380384 0 0.0033108540924261676 -0.019496382881912241 0 0.0039391639696597933 -0.018706137464910916 0 0.0025439115940586172 -0.018811404564054005 0 -0.00072901310546034004 -0.0074217898897028095 0 0.000535196213228075 -0.0059595467233684403 0 -0.00061766295114239558 -0.0048745268022735953 0 -0.00028994399060763767 -0.010593285344238918 0 0.0021011119183672496 -0.011547636902723516 0 0.0025762547065940867 -0.017023517758721522 0 0.0025439115940586172 -0.018811404564054005 0 0.0032637221520236542 -0.017866021219584888 0 0.005149456852085817 -0.030523305691997463 0 0.0073994288990829795 -0.029547773206380384 0 0.0039391639696597933 -0.018706137464910916 0 0.0025439115940586172 -0.018811404564054005 0 0.0032637221520236542 -0.017866021219584888 0 0.0055194810443837524 -0.018948667359963062 0 0.0053527421467929109 -0.025281474565172709 0 0.002678472064169725 -0.021986255045367369 0 0.0073994288990829795 -0.029547773206380384 0 0.0034143515474003507 -0.019960770394776027 0 0.0077940381988024594 -0.044386802775672952 0 0.0077653713456748439 -0.045929844074214118 0 0.0091629694359114649 -0.04550841093551581 0 0.0089562865804939818 -0.047389424284054349 0 0.0077653713456748439 -0.045929844074214118 0 0.0089135767892987734 -0.046563565185472985 0 0.0077653713456748439 -0.045929844074214118 0 0.0089135767892987734 -0.046563565185472985 0 0.0091629694359114649 -0.04550841093551581 0 0.009697458835982966 -0.046703339349670546 0 0.0089135767892987734 -0.046563565185472985 0 0.0091629694359114649 -0.04550841093551581 0 0.009697458835982966 -0.046703339349670546 0 0.0091629694359114649 -0.04550841093551581 0 0.010374781040478603 -0.046081835468925442 0 0.0093276515665521222 -0.044268094366486141 0 0.010373497834493936 -0.044758912262352304 0 0.0091629694359114649 -0.04550841093551581 0 0.012934538543538951 -0.066852375649791004 0 0.013799300371093455 -0.066753309490532792 0 0.013457140208806548 -0.069405392737882418 0 0.010373497834493936 -0.044758912262352304 0 0.0091629694359114649 -0.04550841093551581 0 0.010374781040478603 -0.046081835468925442 0 0.012073778873208216 -0.059137220073542343 0 0.016108298885942469 -0.067858388449324458 0 0.012934538543538951 -0.066852375649791004 0 0.013457140208806548 -0.069405392737882418 0 0.012960830782534108 -0.069878736881628489 0 0.014244373274853469 -0.073852355679745019 0 0.016415261025714348 -0.074260894192832869 0 0.017445530887479865 -0.086128746976653917 0 0.016415261025714348 -0.074260894192832869 0 0.022693092081561474 -0.093334073000267859 0 0.024956390751976403 -0.091163640687330488 0 0.023023522614231049 -0.091272244218115001 0 0.0224587063064546 -0.092938631458472351 0 0.02457095347503133 -0.092783471234329798 0 0.024879431687395918 -0.090523119859684628 0 0.02368448179216635 -0.090574710087876445 0 0.024257865458517647 -0.089861064191439938 0 0.022669998525732177 -0.089989318004448579 0 0.02368448179216635 -0.090574710087876445 0 0.024956390751976403 -0.091163640687330488 0 0.023023522614231049 -0.091272244218115001 0 0.02368448179216635 -0.090574710087876445 0 0.024257865458517647 -0.089861064191439938 0 0.024956390751976403 -0.091163640687330488 0 0.016415261025714348 -0.074260894192832869 0 0.01735832265282311 -0.082094643155009667 0 0.016108298885942469 -0.067858388449324458 0 0.019239726371130687 -0.068955504805397763 0 0.024875816120874007 -0.090393072728868845 0 0.025160448164146535 -0.090139302337116214 0 0.02525462671838483 -0.088878620930148866 0 0.015299993205680861 -0.051747932987436518 0 0.013133571507576153 -0.053811803126389328 0 0.013172467106655931 -0.050473730122697055 0 0.024257865458517647 -0.089861064191439938 0 0.024956390751976403 -0.091163640687330488 0 0.025226281851478752 -0.088706201928955938 0 0.016415261025714348 -0.074260894192832869 0 0.016108298885942469 -0.067858388449324458 0 0.01558887049251328 -0.054674636464505141 0 0.016108298885942469 -0.067858388449324458 0 0.024875816120874007 -0.090393072728868845 0 0.025226281851478752 -0.088706201928955938 0 0.02525462671838483 -0.088878620930148866 0 0.015224738984537918 -0.050092494954506087 0 0.013172467106655931 -0.050473730122697055 0 0.01324143171924159 -0.047213303652482941 0 0.015299993205680861 -0.051747932987436518 0 0.015224738984537918 -0.050092494954506087 0 0.013172467106655931 -0.050473730122697055 0 0.025226281851478752 -0.088706201928955938 0 0.02525462671838483 -0.088878620930148866 0 0.025292281932049458 -0.087256987862993698 0 0.024257865458517647 -0.089861064191439938 0 0.023334390693152605 -0.088922122286758748 0 0.022669998525732177 -0.089989318004448579 0 0.024257865458517647 -0.089861064191439938 0 0.025226281851478752 -0.088706201928955938 0 0.023334390693152605 -0.088922122286758748 0 0.025226281851478752 -0.088706201928955938 0 0.023334390693152605 -0.088922122286758748 0 0.025292281932049458 -0.087256987862993698 0 0.023334390693152605 -0.088922122286758748 0 0.023285491260276361 -0.086944249244945038 0 0.025257380636928218 -0.08728965701372407 0 0.019364610543948928 -0.076436180556044217 0 0.022381974875552484 -0.069232766391746747 0 0.015224738984537918 -0.050092494954506087 0 0.016187727358590413 -0.047736959130776857 0 0.01324143171924159 -0.047213303652482941 0 0.019239726371130687 -0.068955504805397763 0 0.022381974875552484 -0.069232766391746747 0 0.02124434527854405 -0.088549931447240299 0 0.019555676545924251 -0.087257973292896529 0 0.021494015125577321 -0.086567948187023583 0 0.023334390693152605 -0.088922122286758748 0 0.023285491260276361 -0.086944249244945038 0 0.02124434527854405 -0.088549931447240299 0 0.023285491260276361 -0.086944249244945038 0 0.02124434527854405 -0.088549931447240299 0 0.021494015125577321 -0.086567948187023583 0 0.023334390693152605 -0.088922122286758748 0 0.02124434527854405 -0.088549931447240299 0 0.022669998525732177 -0.089989318004448579 0 0.02124434527854405 -0.088549931447240299 0 0.021299656685025602 -0.090586892282225814 0 0.022669998525732177 -0.089989318004448579 0 0.02124434527854405 -0.088549931447240299 0 0.021299656685025602 -0.090586892282225814 0 0.019764173139260679 -0.09012449238539201 0 0.021299656685025602 -0.090586892282225814 0 0.020169398887937687 -0.091652592202360911 0 0.019764173139260679 -0.09012449238539201 0 0.021299656685025602 -0.090586892282225814 0 0.022669998525732177 -0.089989318004448579 0 0.023023522614231049 -0.091272244218115001 0 0.021299656685025602 -0.090586892282225814 0 0.023023522614231049 -0.091272244218115001 0 0.021649472525268682 -0.092124043797331065 0 0.02368448179216635 -0.090574710087876445 0 0.022669998525732177 -0.089989318004448579 0 0.023023522614231049 -0.091272244218115001 0 0.022693092081561474 -0.093334073000267859 0 0.023023522614231049 -0.091272244218115001 0 0.021649472525268682 -0.092124043797331065 0 0.021191252886284515 -0.093538256114028093 0 0.022693092081561474 -0.093334073000267859 0 0.021649472525268682 -0.092124043797331065 0 0.021299656685025602 -0.090586892282225814 0 0.021649472525268682 -0.092124043797331065 0 0.020169398887937687 -0.091652592202360911 0 0.02033150193211988 -0.093081945604051683 0 0.021191252886284515 -0.093538256114028093 0 0.021649472525268682 -0.092124043797331065 0 0.02033150193211988 -0.093081945604051683 0 0.021649472525268682 -0.092124043797331065 0 0.020169398887937687 -0.091652592202360911 0 0.02033150193211988 -0.093081945604051683 0 0.020169398887937687 -0.091652592202360911 0 0.018916454173570237 -0.092724156822489745 0 0.020169398887937687 -0.091652592202360911 0 0.018916454173570237 -0.092724156822489745 0 0.018825085130969265 -0.091302583492990891 0 0.018916454173570237 -0.092724156822489745 0 0.017403120437897903 -0.092067389807861832 0 0.018825085130969265 -0.091302583492990891 0 0.017410511147579452 -0.093971467695086727 0 0.018916454173570237 -0.092724156822489745 0 0.017403120437897903 -0.092067389807861832 0 0.017410511147579452 -0.093971467695086727 0 0.017403120437897903 -0.092067389807861832 0 0.015438666164192578 -0.093071725108033659 0 0.0179373239412235 -0.090246243196473161 0 0.015758776588056751 -0.090983743230704558 0 0.016721512864485966 -0.089271402019296744 0 0.017403120437897903 -0.092067389807861832 0 0.0179373239412235 -0.090246243196473161 0 0.018825085130969265 -0.091302583492990891 0 0.017403120437897903 -0.092067389807861832 0 0.0179373239412235 -0.090246243196473161 0 0.015758776588056751 -0.090983743230704558 0 0.0179373239412235 -0.090246243196473161 0 0.019764173139260679 -0.09012449238539201 0 0.018825085130969265 -0.091302583492990891 0 0.020169398887937687 -0.091652592202360911 0 0.019764173139260679 -0.09012449238539201 0 0.018825085130969265 -0.091302583492990891 0 0.012872589935201382 -0.092349274235333678 0 0.015438666164192578 -0.093071725108033659 0 0.015758776588056751 -0.090983743230704558 0 0.013930908906515937 -0.094053528119898644 0 0.012872589935201382 -0.092349274235333678 0 0.015438666164192578 -0.093071725108033659 0 0.017403120437897903 -0.092067389807861832 0 0.015438666164192578 -0.093071725108033659 0 0.015758776588056751 -0.090983743230704558 0 0.012872589935201382 -0.092349274235333678 0 0.015758776588056751 -0.090983743230704558 0 0.013195338597794953 -0.089483099428768809 0 0.0095613292319428802 -0.090248142727652192 0 0.010565847407127986 -0.089844800824052801 0 0.013195338597794953 -0.089483099428768809 0 0.015998591913357642 -0.088167877886506874 0 0.013412557225797832 -0.087605960365912464 0 0.015758776588056751 -0.090983743230704558 0 0.013195338597794953 -0.089483099428768809 0 0.016721512864485966 -0.089271402019296744 0 0.013195338597794953 -0.089483099428768809 0 0.016721512864485966 -0.089271402019296744 0 0.015998591913357642 -0.088167877886506874 0 0.015998591913357642 -0.088167877886506874 0 0.013412557225797832 -0.087605960365912464 0 0.015189317143748406 -0.085891250215601844 0 0.016721512864485966 -0.089271402019296744 0 0.015998591913357642 -0.088167877886506874 0 0.017952742559597244 -0.087847131530389477 0 0.02124434527854405 -0.088549931447240299 0 0.019764173139260679 -0.09012449238539201 0 0.018907281085727701 -0.088672464396911149 0 0.0179373239412235 -0.090246243196473161 0 0.019764173139260679 -0.09012449238539201 0 0.018907281085727701 -0.088672464396911149 0 0.0179373239412235 -0.090246243196473161 0 0.016721512864485966 -0.089271402019296744 0 0.018907281085727701 -0.088672464396911149 0 0.016721512864485966 -0.089271402019296744 0 0.018907281085727701 -0.088672464396911149 0 0.017952742559597244 -0.087847131530389477 0 0.017952742559597244 -0.087847131530389477 0 0.019555676545924251 -0.087257973292896529 0 0.018056632759617889 -0.086313283566086238 0 0.015998591913357642 -0.088167877886506874 0 0.017952742559597244 -0.087847131530389477 0 0.018056632759617889 -0.086313283566086238 0 0.018907281085727701 -0.088672464396911149 0 0.017952742559597244 -0.087847131530389477 0 0.019555676545924251 -0.087257973292896529 0 0.02124434527854405 -0.088549931447240299 0 0.018907281085727701 -0.088672464396911149 0 0.019555676545924251 -0.087257973292896529 0 0.027633115966509279 -0.085639110178132374 0 0.018056632759617889 -0.086313283566086238 0 0.023013186779844288 -0.082509108998097755 0 0.019555676545924251 -0.087257973292896529 0 0.020035551019817827 -0.085868409309706031 0 0.018056632759617889 -0.086313283566086238 0 0.023734711179382723 -0.082429445087519426 0 0.021135266278361747 -0.083800770220465573 0 0.018056632759617889 -0.086313283566086238 0 0.018269580121474782 -0.084502646226021799 0 0.023013186779844288 -0.082509108998097755 0 0.018269580121474782 -0.084502646226021799 0 0.023013186779844288 -0.082509108998097755 0 0.021809476122643709 -0.076898015915568871 0 0.019206277275193879 -0.083029021425980301 0 0.021532591431387717 -0.077685838199995361 0 0.018733706237154639 -0.084387919879166398 0 0.018126996117413818 -0.081134414386392684 0 0.022377736488388957 -0.07776057602549008 0 0.023013186779844288 -0.082509108998097755 0 0.021809476122643709 -0.076898015915568871 0 0.029560995254189686 -0.078093507543779819 0 0.027633115966509279 -0.085639110178132374 0 0.023013186779844288 -0.082509108998097755 0 0.029560995254189686 -0.078093507543779819 0 0.013412557225797832 -0.087605960365912464 0 0.012570874139016011 -0.085273062303933403 0 0.015189317143748406 -0.085891250215601844 0 0.012570874139016011 -0.085273062303933403 0 0.015189317143748406 -0.085891250215601844 0 0.01573099835900366 -0.083302499800951391 0 0.018049704612228684 -0.08556294809192122 0 0.019206277275193879 -0.083029021425980301 0 0.015998591913357642 -0.088167877886506874 0 0.018733706237154639 -0.084387919879166398 0 0.015189317143748406 -0.085891250215601844 0 0.015998591913357642 -0.088167877886506874 0 0.018056632759617889 -0.086313283566086238 0 0.018269580121474782 -0.084502646226021799 0 0.018733706237154639 -0.084387919879166398 0 0.015189317143748406 -0.085891250215601844 0 0.01573099835900366 -0.083302499800951391 0 0.018126996117413818 -0.081134414386392684 0 0.01573099835900366 -0.083302499800951391 0 0.015837331434344782 -0.078860787465604015 0 0.018733706237154639 -0.084387919879166398 0 0.018126996117413818 -0.081134414386392684 0 0.01573099835900366 -0.083302499800951391 0 0.010102320728373779 -0.082306719630568848 0 0.012570874139016011 -0.085273062303933403 0 0.01573099835900366 -0.083302499800951391 0 0.010102320728373779 -0.082306719630568848 0 0.01573099835900366 -0.083302499800951391 0 0.015837331434344782 -0.078860787465604015 0 0.010102320728373779 -0.082306719630568848 0 0.011403690457860676 -0.075153801306557078 0 0.015837331434344782 -0.078860787465604015 0 0.011403690457860676 -0.075153801306557078 0 0.015837331434344782 -0.078860787465604015 0 0.017914991955173841 -0.070662755861807577 0 0.015837331434344782 -0.078860787465604015 0 0.017914991955173841 -0.070662755861807577 0 0.022377736488388957 -0.07776057602549008 0 0.018126996117413818 -0.081134414386392684 0 0.015837331434344782 -0.078860787465604015 0 0.022377736488388957 -0.07776057602549008 0 0.010690054457359819 -0.068008577444112248 0 0.011403690457860676 -0.075153801306557078 0 0.017914991955173841 -0.070662755861807577 0 0.021809476122643709 -0.076898015915568871 0 0.025325925689652504 -0.069440779266022337 0 0.029560995254189686 -0.078093507543779819 0 0.021532591431387717 -0.077685838199995361 0 0.022987574547280395 -0.074165147854903871 0 0.017914991955173841 -0.070662755861807577 0 0.022377736488388957 -0.07776057602549008 0 0.025325925689652504 -0.069440779266022337 0 0.032174649580254573 -0.065454196100512965 0 0.025325925689652504 -0.069440779266022337 0 0.033345186243358853 -0.07245026851991819 0 0.025325925689652504 -0.069440779266022337 0 0.033345186243358853 -0.07245026851991819 0 0.029560995254189686 -0.078093507543779819 0 0.033345186243358853 -0.07245026851991819 0 0.029560995254189686 -0.078093507543779819 0 0.038596188068519825 -0.07672508567649991 0 0.032174649580254573 -0.065454196100512965 0 0.033345186243358853 -0.07245026851991819 0 0.039200298193103486 -0.070588124679868067 0 0.033345186243358853 -0.07245026851991819 0 0.038596188068519825 -0.07672508567649991 0 0.039200298193103486 -0.070588124679868067 0 0.038596188068519825 -0.07672508567649991 0 0.039200298193103486 -0.070588124679868067 0 0.045768050002412769 -0.072398429358440639 0 0.041879502720125576 -0.066005507924465037 0 0.039200298193103486 -0.070588124679868067 0 0.045768050002412769 -0.072398429358440639 0 0.025543903369768032 -0.054575327875330988 0 0.024007600141626423 -0.055761476790317781 0 0.025042202802100736 -0.057476180607981958 0 0.029074015980175585 -0.062576069051936009 0 0.027930013645933473 -0.071014877828321846 0 0.024007600141626423 -0.055761476790317781 0 0.025042202802100736 -0.057476180607981958 0 0.02396674644376201 -0.059630784308309745 0 0.038596188068519825 -0.07672508567649991 0 0.045768050002412769 -0.072398429358440639 0 0.045661770436777271 -0.081255048959184992 0 0.027930013645933473 -0.071014877828321846 0 0.027648084344861431 -0.078479280321628084 0 0.038596188068519825 -0.07672508567649991 0 0.045661770436777271 -0.081255048959184992 0 0.036841519749610946 -0.083503115382158349 0 0.02623021451190348 -0.061902617020743921 0 0.024643502611337704 -0.059453058286549898 0 0.023959253865208117 -0.059629776280462496 0 0.026293542384752306 -0.059204740447658083 0 0.025042202802100736 -0.057476180607981958 0 0.024643502611337704 -0.059453058286549898 0 0.025042202802100736 -0.057476180607981958 0 0.024643502611337704 -0.059453058286549898 0 0.02396674644376201 -0.059630784308309745 0 0.027878348255790494 -0.070904372607695498 0 0.027930013645933473 -0.071014877828321846 0 0.022381974875552484 -0.069232766391746747 0 0.027930013645933473 -0.071014877828321846 0 0.023005260240749108 -0.058389501041032105 0 0.022381974875552484 -0.069232766391746747 0 0.02623021451190348 -0.061902617020743921 0 0.023914954496326357 -0.063874151040440377 0 0.023959253865208117 -0.059629776280462496 0 0.023285491260276361 -0.086944249244945038 0 0.025288948713458926 -0.084331876025116881 0 0.022625075009443191 -0.085057951599647103 0 0.023285491260276361 -0.086944249244945038 0 0.025257380636928218 -0.08728965701372407 0 0.025288948713458926 -0.084331876025116881 0 0.023285491260276361 -0.086944249244945038 0 0.021494015125577321 -0.086567948187023583 0 0.022625075009443191 -0.085057951599647103 0 0.020035551019817827 -0.085868409309706031 0 0.021494015125577321 -0.086567948187023583 0 0.022625075009443191 -0.085057951599647103 0 0.023734711179382723 -0.082429445087519426 0 0.027648084344861431 -0.078479280321628084 0 0.019555676545924251 -0.087257973292896529 0 0.020035551019817827 -0.085868409309706031 0 0.021494015125577321 -0.086567948187023583 0 0.027633115966509279 -0.085639110178132374 0 0.029560995254189686 -0.078093507543779819 0 0.036841519749610946 -0.083503115382158349 0 0.029560995254189686 -0.078093507543779819 0 0.038596188068519825 -0.07672508567649991 0 0.036841519749610946 -0.083503115382158349 0 
</DataArray>
</PointData>
<CellData Scalars="region_id,cross_section_updated," Vectors="" Tensors="stress,">
<DataArray type="Float64" Name="region_id" format="ascii">
5 5 6 5 5 5 5 6 5 5 5 5 5 5 5 5 5 5 5 5 6 5 5 5 5 6 5 5 5 5 5 5 5 6 5 5 5 5 5 5 5 5 6 5 5 5 5 5 5 5 5 5 5 5 6 6 5 5 5 5 5 5 5 5 6 5 5 5 5 5 5 5 5 5 5 5 5 5 5 5 5 5 5 5 5 5 5 6 5 5 5 5 5 5 5 5 5 5 5 6 5 5 5 6 5 5 5 5 5 5 5 5 5 5 5 5 5 5 5 5 5 5 5 5 5 5 5 5 5 5 5 5 5 5 5 5 5 5 5 5 5 5 5 5 5 5 5 5 5 6 5 6 5 5 5 5 5 5 5 5 5 5 5 5 5 5 5 5 5 5 5 5 5 5 5 5 5 5 6 5 5 6 5 6 5 5 5 5 5 5 5 5 5 5 5 5 5 5 6 5 6 5 5 5 5 5 5 5 6 5 6 5 5 5 5 5 5 6 5 5 6 5 5 5 5 5 5 6 6 5 5 6 5 6 5 6 6 5 5 5 6 5 5 5 5 5 5 5 5 5 5 5 5 5 6 5 5 5 5 5 5 5 6 5 5 5 5 5 5 5 6 5 5 5 5 6 5 5 5 5 5 5 6 5 5 5 6 5 5 5 5 5 5 5 6 5 5 5 5 5 5 6 5 5 5 5 5 5 6 5 5 5 5 5 5 5 6 5 5 5 5 5 5 5 5 5 5 5 5 5 5 5 5 5 5 5 5 5 6 6 5 5 5 5 5 6 5 5 5 5 5 5 5 6 5 6 5 5 5 6 5 5 5 6 5 6 5 5 5 5 5 5 5 6 5 5 5 5 5 5 5 6 5 5 5 6 5 5 5 5 5 5 5 5 5 5 5 5 5 5 5 5 5 5 5 5 5 5 5 5 5 5 5 5 5 5 5 5 6 5 5 5 5 5 5 5 5 5 5 5 5 5 5 5 5 5 5 5 5 5 5 5 5 5 5 5 5 5 5 5 5 6 5 5 5 5 5 5 5 5 5 5 5 5 5 5 5 5 5 5 5 5 6 5 5 5 5 5 5 5 6 5 5 5 5 5 6 5 5 6 5 6 5 5 5 5 6 5 5 6 5 5 5 5 5 5 6 5 5 5 5 5 5 5 5 5 5 5 5 5 5 5 5 5 5 5 6 5 5 5 5 5 5 5 5 5 5 5 6 6 5 5 5 5 5 5 5 5 5 5 5 5 5 5 5 5 5 5 5 5 5 6 5 6 6 5 5 6 5 5 5 5 5 5 5 5 5 5 5 5 5 6 5 5 5 5 5 5 5 6 6 5 5 5 5 5 5 5 5 6 6 5 5 5 6 5 5 5 5 5 5 5 5 5 5 5 5 5 5 5 5 5 5 5 5 5 5 5 5 5 5 5 5 5 5 5 5 5 5 5 6 5 5 6 5 5 5 5 6 5 5 5 6 5 5 5 6 5 5 6 5 5 5 5 5 5 5 5 5 5 5 5 5 5 5 5 5 5 5 5 5 6 5 5 5 6 5 5 5 5 5 6 5 5 5 5 5 5 6 5 5 5 5 5 5 5 5 5 5 5 5 5 5 5 5 5 5 6 5 5 5 5 5 5 5 5 5 5 5 5 5 5 5 5 5 5 5 5 5 6 5 5 5 5 5 5 5 5 5 5 5 5 5 5 5 6 5 5 5 5 5 5 5 5 5 5 5 5 5 5 5 5 5 5 6 5 5 5 5 5 5 5 6 5 5 5 5 5 5 5 5 5 5 5 5 5 5 5 5 5 5 5 5 5 6 5 5 5 5 5 5 5 5 5 6 5 5 5 5 5 5 5 5 6 5 5 5 5 5 5 5 5 5 5 5 5 5 5 5 5 5 5 5 6 5 5 5 5 5 6 5 5 5 6 5 5 5 5 5 5 6 5 5 5 5 5 5 5 5 5 5 6 5 5 5 5 5 5 5 5 5 5 5 5 6 5 6 5 5 5 5 5 5 5 6 5 6 5 5 5 5 5 5 5 5 5 5 5 5 5 5 5 5 5 5 5 5 5 5 5 5 5 5 5 5 5 5 5 5 5 5 5 5 5 5 5 5 5 5 5 5 5 6 6 5 5 6 5 5 5 5 5 5 5 5 5 5 5 5 5 5 5 5 6 5 5 5 5 6 5 5 6 5 5 5 5 5 5 6 5 6 5 5 6 5 5 5 5 5 5 5 5 5 5 6 5 5 5 5 5 6 6 5 5 5 5 6 5 5 6 5 6 5 5 5 5 5 6 5 5 6 5 5 5 5 5 5 5 5 5 5 5 5 6 5 5 5 5 5 5 5 5 5 5 5 5 5 5 5 6 5 6 5 6 6 5 6 5 5 6 5 5 5 5 5 5 6 5 6 5 5 6 5 5 5 6 5 5 6 5 5 5 5 5 6 5 5 6 5 5 5 5 5 6 5 6 5 5 6 5 5 6 5 5 5 5 5 5 5 5 6 5 5 5 5 5 5 5 5 5 5 6 5 5 5 5 6 5 5 6 5 5 5 5 5 6 5 5 5 5 5 6 5 6 5 5 5 5 5 5 6 5 5 5 5 5 5 5 5 6 6 6 5 5 5 5 6 5 6 5 5 5 6 6 5 5 5 6 5 5 5 6 5 6 5 6 6 5 6 5 5 5 5 6 5 5 5 6 5 6 5 6 5 5 5 5 5 5 5 6 5 5 5 5 6 5 5 5 5 5 5 5 5 6 5 6 6 5 5 5 6 5 5 5 5 6 6 5 5 6 6 5 5 5 5 5 6 5 5 5 5 5 5 5 5 6 5 6 5 5 5 5 5 5 5 5 5 5 5 5 5 5 5 5 5 6 5 5 5 5 5 5 5 5 5 5 5 5 5 5 5 5 5 5 5 5 5 5 5 5 5 6 5 6 5 5 5 5 5 6 6 5 5 5 5 6 6 5 6 5 5 6 5 5 6 5 5 5 5 6 6 5 5 5 5 5 5 5 5 6 5 5 6 5 5 5 6 5 5 6 5 5 5 5 5 5 6 5 5 5 5 5 5 6 5 5 5 5 5 6 5 5 6 6 5 5 6 5 5 6 5 5 5 5 5 5 5 5 5 5 5 5 6 5 6 5 5 6 5 5 5 5 5 5 6 5 5 5 6 6 6 5 5 5 6 6 5 6 6 5 5 6 5 5 6 5 6 5 6 5 5 5 6 6 5 5 6 6 6 6 5 5 5 6 6 5 5 6 6 6 5 6 6 5 5 6 5 6 6 5 6 5 5 6 5 6 6 5 5 5 5 6 6 5 5 6 5 5 5 6 5 5 5 5 5 5 5 5 5 5 5 5 5 5 5 5 5 5 5 5 5 5 5 5 5 5 5 5 5 5 5 5 5 5 5 5 5 5 5 5 5 5 5 5 5 5 5 5 5 5 5 5 5 5 5 5 5 5 6 5 6 5 5 5 5 5 5 5 5 5 5 5 5 5 5 6 5 5 5 5 5 5 5 5 5 5 6 5 5 5 5 5 5 5 5 5 5 5 5 5 5 5 5 5 5 5 5 5 5 5 5 5 5 5 5 5 5 5 5 5 5 5 5 5 5 5 5 5 5 5 5 5 5 6 5 5 5 6 5 6 5 5 5 5 5 6 5 6 5 5 5 5 5 5 5 5 5 5 5 5 5 5 5 5 5 5 5 5 5 5 5 5 5 6 5 5 5 5 5 5 6 5 6 5 5 5 6 5 5 6 5 5 5 5 5 5 5 5 5 5 5 5 5 5 5 5 5 5 5 5 5 5 5 5 5 5 5 5 5 5 5 5 5 5 5 5 5 6 5 6 5 5 5 5 5 5 5 5 5 5 6 5 5 5 5 5 5 5 5 5 5 5 5 5 5 5 5 5 6 5 5 5 6 6 5 6 5 5 5 5 5 5 5 5 6 5 5 5 5 6 5 5 5 5 5 5 5 6 5 5 6 5 6 5 5 6 5 5 6 6 5 5 5 5 5 5 5 5 5 5 5 5 5 5 5 6 5 6 5 5 5 6 5 6 5 5 5 5 5 5 5 5 5 5 5 5 6 5 6 5 5 5 5 5 5 5 5 6 5 5 6 5 5 5 6 6 5 5 5 5 5 5 5 5 5 5 5 5 5 5 5 5 5 5 5 5 5 6 5 5 5 5 5 6 5 6 5 5 5 5 6 5 5 6 5 5 5 5 5 6 5 5 5 5 6 5 5 5 5 5 5 5 6 5 5 5 6 5 5 5 5 5 5 5 5 5 5 5 6 5 5 5 5 5 5 5 5 6 5 5 5 5 5 5 6 5 5 5 5 5 5 6 5 5 5 5 5 5 5 5 5 5 5 6 5 5 5 6 5 5 5 6 5 6 5 5 5 5 5 5 6 5 5 5 5 5 5 5 5 5 5 5 5 5 5 5 6 5 5 5 5 5 6 5 5 5 5 5 5 5 5 6 5 5 5 5 5 5 5 5 5 5 5 5 5 5 5 5 6 5 5 5 5 6 5 5 5 5 5 5 5 5 5 5 5 5 5 5 5 5 5 5 5 5 5 5 5 5 5 5 6 5 5 5 6 5 6 5 5 5 5 6 5 6 5 5 5 5 5 6 5 5 5 5 5 5 5 5 5 6 5 5 5 5 5 5 5 5 5 5 5 5 5 5 5 5 5 5 5 5 5 5 5 5 6 6 5 5 5 5 5 6 5 5 5 6 5 5 5 6 5 5 6 5 6 5 5 5 5 6 5 5 5 5 6 6 5 5 5 5 5 5 5 5 5 5 5 5 6 5 5 5 5 6 5 5 5 5 5 6 5 5 6 5 5 5 5 5 5 5 5 5 5 5 5 5 5 5 5 6 5 5 6 5 5 5 6 5 5 5 5 5 5 5 5 5 5 5 6 5 5 5 5 5 5 5 5 5 5 5 5 5 5 5 5 6 5 5 6 5 6 5 5 6 5 6 5 6 5 5 5 5 5 5 5 5 5 5 5 5 5 6 5 6 6 5 5 6 6 5 5 6 6 5 5 5 6 5 6 5 5 6 5 5 5 5 6 6 5 6 5 5 6 6 5 5 6 5 5 5 6 5 5 5 6 6 6 5 5 6 5 6 6 5 5 5 5 5 5 5 5 5 5 5 6 6 5 6 5 6 5 6 5 5 5 6 5 5 5 5 5 6 5 5 5 5 5 5 5 5 5 5 5 5 5 5 5 5 5 5 5 5 5 5 5 5 6 5 5 5 5 5 5 5 5 5 5 5 5 5 5 5 5 5 5 6 5 5 5 5 5 5 5 5 5 5 5 6 5 5 5 5 5 6 5 5 5 5 5 5 5 5 5 5 5 5 5 5 6 5 5 5 5 5 5 5 5 5 5 5 5 5 5 6 5 6 5 5 5 5 6 5 5 5 5 5 5 5 5 5 5 5 5 6 5 6 5 5 5 5 6 5 5 5 5 5 5 5 6 5 5 5 5 5 5 5 6 5 5 5 6 5 6 5 5 5 5 5 5 5 5 5 6 5 5 5 5 5 5 5 5 5 5 5 5 5 5 5 5 5 5 5 5 5 5 5 5 5 5 5 5 5 5 5 5 5 5 5 5 5 5 5 5 5 5 5 6 5 5 6 5 5 5 5 5 5 5 5 5 5 6 5 5 5 5 5 6 5 5 6 5 5 5 5 5 5 6 5 5 5 5 6 5 5 6 5 6 5 5 5 5 5 5 5 5 5 5 5 6 5 6 5 5 5 5 6 5 5 5 5 5 5 5 5 5 5 5 5 5 5 5 5 5 5 5 5 5 6 5 5 5 5 6 5 5 5 5 5 5 5 6 5 5 5 5 5 6 5 5 5 6 5 5 5 6 5 5 6 5 5 5 6 5 5 6 5 5 5 5 5 5 5 5 5 5 5 5 5 5 5 5 5 5 5 5 5 5 5 5 5 5 5 5 5 5 5 6 5 5 5 5 5 5 5 5 5 5 5 6 5 5 5 5 5 5 5 5 5 5 5 5 5 5 5 6 6 5 5 5 6 5 5 5 5 6 5 5 6 5 5 5 5 5 5 5 5 5 5 5 5 5 6 6 5 5 5 5 5 5 5 5 5 5 5 6 5 5 6 5 5 5 5 5 5 5 5 5 5 5 5 5 5 5 5 5 5 5 6 5 5 5 6 5 5 5 5 5 6 5 5 5 5 5 5 5 5 5 5 5 5 5 5 5 5 5 5 5 5 6 5 5 6 5 5 5 5 5 5 5 5 5 5 5 5 5 5 5 5 5 5 5 6 5 5 5 5 5 5 5 5 5 5 5 5 5 5 5 5 5 5 5 5 5 5 5 5 5 5 5 5 5 5 5 5 6 5 5 5 5 5 5 6 5 5 5 5 5 6 5 5 5 5 6 5 5 5 5 5 5 5 5 5 5 5 5 5 5 5 5 5 5 5 5 5 5 6 5 5 5 5 5 5 5 6 5 5 6 5 5 6 5 5 5 5 5 5 6 5 5 5 5 5 5 5 5 5 5 6 5 6 5 5 5 5 5 5 5 5 6 5 5 6 5 5 5 6 5 5 5 6 5 5 5 6 6 5 5 6 5 5 6 5 5 6 5 5 5 5 5 5 5 5 5 6 5 5 5 6 5 5 5 6 5 5 5 6 5 6 5 5 6 5 5 5 5 5 5 5 5 6 5 5 6 5 5 5 5 5 5 5 5 5 5 5 5 5 6 5 6 5 5 5 6 6 5 6 5 5 5 5 6 5 6 5 5 5 5 5 5 5 5 5 6 5 5 5 5 5 5 5 5 5 5 5 5 5 5 5 5 5 5 5 5 5 5 5 5 5 5 5 5 6 5 5 5 5 5 5 6 5 5 5 5 5 5 6 5 5 5 5 5 5 6 5 5 5 6 5 5 5 6 5 5 6 5 5 5 5 5 5 6 5 5 5 6 6 5 5 5 5 5 5 5 5 5 5 5 5 5 5 5 5 5 6 5 5 5 5 5 5 5 6 5 5 5 5 5 6 5 5 5 5 5 6 5 5 6 5 5 5 5 6 5 5 5 5 5 5 6 5 6 5 6 6 5 6 5 5 5 6 5 5 5 5 5 6 5 5 5 6 5 5 5 5 6 6 6 5 5 5 5 6 6 5 6 5 5 5 5 5 5 6 5 6 5 5 6 5 5 5 6 5 5 6 5 5 5 5 5 5 5 5 5 5 5 5 6 5 5 5 5 6 5 5 5 5 6 5 5 5 5 5 5 5 5 5 6 6 6 5 5 5 6 6 5 5 6 5 6 5 5 5 5 5 5 5 6 5 5 5 5 5 5 5 5 5 5 5 5 5 5 5 5 6 5 5 5 5 5 5 5 5 5 6 5 5 6 5 6 5 6 5 5 6 5 5 5 6 6 5 5 6 5 5 5 6 5 5 5 5 6 5 5 5 5 5 5 5 5 5 5 5 6 6 5 5 5 5 5 5 5 5 5 5 5 5 5 5 5 5 5 5 5 5 5 5 5 5 5 5 5 5 5 5 5 5 6 5 5 5 5 5 5 5 5 5 5 5 5 5 5 5 5 5 5 5 6 5 5 5 5 5 5 6 6 5 5 6 6 5 5 5 6 5 5 5 5 5 5 5 5 5 5 5 5 5 5 5 5 5 5 5 5 5 5 5 6 5 6 5 6 5 5 5 5 5 5 6 5 6 6 5 5 6 5 5 5 5 5 5 6 6 5 5 6 6 5 5 6 6 5 5 5 5 5 5 5 5 6 5 5 5 5 5 6 5 5 6 5 5 5 6 5 5 5 5 5 5 5 5 5 5 5 5 5 5 5 5 5 5 5 5 5 5 5 5 5 5 5 5 5 5 5 5 5 5 6 5 5 6 5 6 6 5 5 5 5 5 5 5 5 5 6 5 5 5 5 5 6 5 5 5 5 5 5 5 6 5 5 5 5 5 5 5 5 6 5 5 5 5 5 6 5 5 5 5 5 5 5 5 5 5 5 5 5 5 5 5 5 5 5 5 5 5 5 5 5 5 5 5 5 5 6 6 5 5 5 5 5 5 5 6 5 5 5 6 5 6 5 5 5 5 5 5 5 5 5 5 5 5 5 5 5 5 5 5 5 5 5 6 5 5 5 5 5 5 6 5 5 5 5 5 5 5 6 5 5 6 5 5 5 5 5 5 6 5 5 5 6 5 5 6 6 5 5 5 5 5 5 5 5 5 5 5 5 5 5 5 5 5 5 5 5 5 5 5 5 5 5 5 5 6 5 5 5 5 5 5 5 5 5 5 5 5 5 5 5 5 5 5 5 6 5 5 5 6 6 5 5 5 5 5 6 5 5 5 6 5 5 5 5 5 6 5 5 5 5 5 5 5 5 5 5 5 5 5 5 5 5 5 5 5 5 5 6 5 5 5 5 5 5 6 5 5 5 5 5 5 5 5 5 5 5 5 6 5 5 5 5 6 5 6 5 5 5 5 5 5 5 5 5 5 5 5 5 6 5 5 5 5 5 6 5 5 5 5 5 5 6 5 5 5 5 5 5 5 5 5 5 5 5 6 5 5 6 5 5 6 5 5 6 5 5 5 5 5 5 5 5 5 5 6 5 5 5 5 5 5 5 5 6 5 5 5 6 5 5 5 6 5 5 6 5 5 5 6 5 5 5 5 5 6 5 6 5 5 5 5 6 6 5 5 5 6 5 5 5 5 6 5 5 5 5 5 5 5 5 5 5 5 5 5 5 5 6 5 5 6 6 5 5 5 5 6 5 5 5 5 5 5 6 5 5 5 5 5 5 6 5 5 5 5 5 5 5 5 6 5 5 5 5 5 5 5 5 5 5 6 5 5 6 5 5 6 5 5 5 5 5 6 6 5 5 6 6 5 6 5 6 5 6 6 5 5 6 5 6 5 6 5 6 5 6 5 5 6 5 6 5 6 5 5 5 5 5 5 6 5 5 5 6 5 5 5 5 5 5 5 5 5 6 5 5 6 5 6 5 6 5 5 5 6 6 5 5 5 5 5 5 5 5 5 5 5 6 5 5 5 5 5 6 5 5 5 5 5 5 5 5 5 5 5 5 5 5 5 5 5 6 5 5 5 5 5 5 6 5 5 5 6 5 5 6 5 5 5 6 5 6 6 5 5 5 5 5 5 5 5 5 6 5 5 5 5 5 5 5 6 5 6 5 6 5 5 5 5 5 5 5 5 5 5 5 5 5 5 5 5 5 5 5 5 5 5 5 5 5 5 5 5 5 5 5 5 5 5 5 5 5 6 5 5 6 6 5 5 5 5 6 5 5 5 5 5 6 5 5 6 6 5 5 5 5 5 5 6 5 6 5 5 6 6 5 6 5 5 5 6 5 5 5 5 6 5 5 5 6 5 5 6 6 5 5 5 6 5 5 5 5 6 5 5 6 5 5 5 6 5 5 6 5 5 5 6 5 6 5 5 6 5 5 6 6 5 5 6 5 6 6 5 5 5 5 6 5 5 5 5 6 5 5 5 5 5 5 5 5 5 5 5 5 6 5 5 5 5 6 5 6 5 5 5 5 5 6 6 6 5 5 5 5 5 5 5 5 6 5 5 5 5 5 5 6 5 5 5 5 6 5 5 5 5 5 5 5 5 5 5 5 5 5 5 5 5 5 5 6 5 6 5 5 6 6 5 6 5 5 6 5 6 5 6 5 6 5 5 5 5 6 5 5 5 6 5 5 5 5 5 5 5 5 5 5 5 5 5 5 5 5 5 5 5 5 5 5 5 5 5 6 5 5 5 5 5 6 5 5 5 5 5 5 5 5 5 5 5 6 5 5 5 5 5 6 5 5 6 6 5 5 5 6 5 5 6 6 5 6 5 5 5 5 5 5 5 5 5 5 5 5 5 5 5 5 6 5 5 5 5 6 5 5 5 5 5 5 5 5 6 6 5 5 6 5 5 5 5 5 5 5 5 5 6 6 5 5 6 5 5 5 6 5 5 5 5 5 5 5 5 5 5 5 5 5 5 5 5 5 5 5 5 5 5 5 5 5 5 6 5 5 5 5 5 5 5 5 5 5 5 5 5 5 5 5 5 5 5 5 6 5 5 5 6 6 5 5 5 6 5 5 6 5 5 5 5 5 6 5 6 5 5 5 5 5 5 5 5 6 5 5 5 6 5 5 6 5 6 5 5 5 6 5 5 5 6 5 5 5 5 5 5 5 5 5 5 5 5 5 5 5 5 5 6 5 5 5 5 5 5 5 5 5 6 5 5 5 5 5 5 5 5 6 5 5 5 5 5 5 5 5 5 5 5 5 5 6 5 5 5 6 5 5 5 5 5 5 5 5 5 5 5 5 5 5 5 5 5 5 5 6 5 5 5 6 5 6 5 5 5 6 5 5 5 6 6 5 5 5 5 5 5 5 5 5 5 5 5 5 5 5 5 5 5 5 5 5 5 6 5 5 5 5 6 5 5 5 5 6 5 5 5 5 5 5 5 6 5 5 5 5 6 5 5 5 5 5 5 6 5 5 5 5 5 5 6 5 5 5 6 5 5 5 5 5 5 5 5 5 6 5 5 5 5 5 5 6 5 5 5 5 5 5 5 5 5 5 5 6 5 5 6 5 5 5 5 5 6 5 5 6 5 5 5 5 5 5 5 6 6 5 5 5 5 6 5 5 5 5 5 5 6 5 5 5 5 5 5 5 5 5 5 6 5 5 5 5 5 5 5 5 5 5 5 5 6 5 6 5 5 5 6 5 5 6 5 5 5 5 6 5 5 5 5 5 6 5 5 5 5 5 5 5 5 6 5 5 5 5 6 5 5 5 5 5 5 5 6 5 5 5 5 5 5 5 5 5 5 6 5 5 5 6 5 6 5 5 5 5 5 5 6 5 6 5 6 5 5 5 5 6 5 5 5 5 5 5 5 5 5 5 5 5 5 5 6 5 6 5 5 5 5 5 5 5 6 5 5 5 5 5 5 5 5 5 5 5 5 5 6 5 5 5 5 6 5 5 5 5 5 5 5 5 5 5 5 5 5 5 5 5 5 5 5 5 5 5 5 5 6 5 5 5 5 6 5 5 5 6 5 5 6 5 5 6 5 5 5 5 5 5 5 5 5 5 5 5 5 5 5 6 5 5 6 5 5 5 5 5 5 5 6 5 5 5 5 5 6 5 5 5 6 5 5 5 6 5 5 5 5 5 5 5 6 5 5 5 6 5 6 6 5 5 5 5 5 6 5 5 5 5 5 5 5 5 5 5 6 5 5 5 5 5 5 5 5 5 5 5 5 5 5 5 5 5 5 5 5 5 5 5 5 5 5 5 5 5 5 5 5 5 5 5 5 5 6 5 5 5 5 5 5 5 5 5 5 5 5 5 5 5 5 6 5 5 5 5 5 5 5 5 5 6 5 5 5 5 5 5 5 6 5 5 5 5 5 5 5 5 5 5 5 5 5 5 5 5 5 5 5 5 5 6 5 5 5 5 5 5 5 5 5 5 5 5 5 5 5 5 5 6 5 5 5 5 5 5 5 5 5 5 5 5 5 5 5 5 5 5 5 5 5 5 5 5 5 5 5 5 5 5 5 5 5 5 5 5 5 5 5 5 5 5 5 5 5 5 6 5 5 5 5 5 5 5 5 5 5 5 5 5 6 5 6 5 5 5 5 5 6 5 5 5 5 5 6 6 5 5 5 5 5 5 5 5 5 5 5 5 5 5 5 5 5 6 6 5 5 5 5 5 5 6 5 6 5 5 5 5 5 5 5 5 5 6 5 5 5 5 5 5 5 5 5 5 5 5 5 5 5 5 5 5 5 6 5 5 5 5 5 6 5 6 5 5 5 5 5 5 5 6 5 5 5 6 5 5 5 6 5 5 6 5 5 5 6 5 5 6 5 6 5 6 5 5 6 5 5 5 5 5 5 5 5 5 5 5 5 5 5 5 5 5 5 5 5 5 6 5 6 5 5 5 5 5 5 5 6 5 5 5 5 5 5 5 5 5 5 5 5 5 5 5 5 5 5 5 6 5 5 5 6 5 5 5 5 5 5 5 5 5 5 6 5 5 5 5 6 5 5 6 5 5 5 5 5 6 5 5 5 5 6 5 6 5 5 6 5 5 5 5 5 5 5 6 5 5 6 5 6 5 5 5 5 5 5 5 5 5 5 5 5 5 5 5 5 5 5 6 5 5 5 5 5 5 5 6 5 5 5 5 6 5 5 5 5 5 5 5 5 5 6 5 5 5 5 6 5 5 5 5 5 5 5 5 5 5 5 5 6 5 5 5 5 5 5 5 5 5 6 5 5 5 5 5 5 5 5 5 5 5 5 6 5 5 6 5 5 5 5 5 5 5 5 5 6 6 6 5 5 5 6 5 5 5 5 5 5 6 5 5 5 6 6 5 5 5 5 5 5 5 5 5 5 5 5 6 5 5 5 6 6 5 5 5 5 5 6 5 5 5 5 6 5 5 5 5 6 5 5 5 5 5 6 6 6 5 5 5 6 6 5 5 5 5 5 5 5 5 5 6 6 5 5 5 6 6 5 5 5 5 5 5 5 5 5 5 5 5 5 5 5 5 5 6 5 6 5 5 5 5 6 5 5 5 5 5 5 5 6 5 5 5 5 5 5 5 6 5 5 6 5 6 6 5 5 5 6 6 5 5 5 6 6 5 5 5 5 5 5 5 5 5 5 6 5 5 5 5 5 5 5 6 5 5 5 5 6 5 5 5 5 5 5 6 5 5 5 5 6 5 6 5 5 5 5 5 5 5 5 5 5 5 5 5 5 6 5 5 5 5 5 5 5 6 5 5 5 5 6 5 5 5 6 5 5 5 5 5 5 5 5 5 5 5 5 5 5 5 5 5 5 5 5 5 5 6 5 6 5 5 6 5 5 5 6 5 5 6 5 5 5 5 5 5 5 5 5 5 5 5 5 5 5 5 5 5 5 5 6 6 6 5 5 5 5 5 5 5 5 5 5 5 5 5 6 5 5 5 6 5 5 6 5 5 5 5 6 5 5 6 6 5 5 5 5 6 5 5 6 5 6 5 5 5 5 5 5 5 5 5 5 5 5 6 5 5 5 5 5 5 5 6 5 6 5 5 5 5 6 5 5 5 5 5 5 5 5 5 5 5 5 5 5 5 5 5 5 5 5 5 5 5 6 5 5 5 6 5 6 5 5 5 6 5 5 5 5 5 6 5 5 6 5 5 5 5 5 5 5 5 6 5 5 5 5 5 6 5 5 5 5 5 5 5 5 5 5 5 5 5 5 6 5 5 5 5 6 5 5 5 5 5 5 5 5 5 5 5 5 6 5 5 5 5 6 5 5 5 5 5 5 5 5 5 5 5 5 5 6 5 5 6 5 5 5 6 5 5 5 5 5 5 5 5 5 5 5 5 5 6 6 5 6 6 5 5 5 6 6 5 6 5 6 5 6 5 5 5 6 5 6 5 5 5 5 6 5 5 5 5 5 5 6 5 5 5 5 5 6 5 5 6 5 5 6 5 5 6 5 5 5 5 5 6 5 6 5 5 5 5 5 5 5 5 5 5 5 5 5 6 5 5 6 5 5 5 5 5 5 5 5 5 6 5 5 5 5 5 5 5 5 5 6 5 5 6 5 6 5 5 5 5 5 5 5 6 5 5 5 5 5 5 5 6 5 6 5 5 6 5 5 5 6 5 5 5 5 6 5 5 5 5 5 6 5 5 5 5 5 5 5 5 5 5 5 5 5 5 5 5 5 5 5 5 5 6 5 5 6 5 5 5 6 5 5 5 5 6 5 5 5 5 5 5 5 5 5 5 5 5 5 5 5 5 5 5 5 5 5 5 5 6 5 5 5 5 5 5 6 5 5 5 5 5 5 5 5 5 5 5 5 5 6 5 6 5 5 6 5 5 5 5 6 6 5 6 5 6 5 5 5 5 5 6 5 5 6 6 5 5 5 5 5 6 5 5 6 5 5 5 5 5 5 5 5 6 6 5 5 5 6 5 6 5 5 5 5 5 6 5 6 5 5 5 5 5 6 6 5 5 5 5 6 5 5 5 5 6 5 5 5 5 5 5 5 5 5 5 5 5 5 5 5 5 5 6 5 5 6 5 5 5 6 5 5 5 5 5 5 5 5 5 5 5 5 5 5 5 5 5 5 5 6 5 5 5 5 5 5 5 5 5 5 5 5 5 5 6 6 5 5 5 6 5 5 5 5 5 6 5 5 5 5 5 5 5 5 5 5 5 6 5 5 6 5 5 5 5 5 5 5 5 5 5 6 5 5 5 6 5 6 5 6 5 5 5 6 6 5 6 5 5 6 5 5 6 6 5 5 5 6 5 5 6 5 6 5 5 5 6 5 5 6 6 5 6 5 5 6 5 6 5 5 5 5 5 5 5 5 5 6 5 5 5 5 5 6 5 5 5 5 5 5 5 5 5 5 6 5 5 5 5 6 6 5 5 6 5 6 5 5 5 5 5 6 5 5 6 5 6 5 5 5 5 5 5 5 6 5 5 5 5 5 5 5 5 5 6 5 6 5 6 5 6 5 5 5 5 6 5 5 5 5 5 6 6 5 5 5 5 5 5 6 5 5 5 5 5 6 5 5 5 5 6 5 5 6 5 6 5 5 5 6 5 6 5 5 6 6 6 5 5 5 5 5 5 6 6 6 5 5 5 5 6 5 6 5 6 5 5 5 5 5 5 6 5 5 5 5 5 5 5 5 5 5 5 5 5 5 5 5 5 5 5 5 5 5 5 5 5 5 5 5 5 5 5 5 5 5 5 5 5 5 5 5 5 5 5 5 5 5 5 5 5 6 5 5 5 6 6 5 5 5 5 5 5 5 5 5 5 5 5 5 5 5 5 5 5 5 6 5 5 5 5 5 5 5 6 5 5 6 5 5 6 5 5 6 5 6 5 5 6 5 5 5 6 5 6 5 6 6 5 5 5 6 6 5 5 6 5 5 6 5 5 5 5 5 5 5 5 5 5 5 5 6 5 5 5 5 6 5 5 5 5 6 5 5 5 5 5 5 5 5 5 6 5 6 5 5 5 5 6 5 5 5 6 5 5 5 5 5 5 6 5 5 6 5 5 5 6 5 5 5 5 5 5 5 6 5 5 5 5 5 6 5 5 5 5 5 5 5 5 5 5 5 5 5 5 5 6 5 5 5 5 5 6 5 5 6 5 6 5 5 5 5 6 6 5 5 6 5 5 5 5 5 5 5 5 5 5 5 6 5 6 5 5 5 5 5 6 5 5 5 6 5 5 5 6 5 5 5 5 5 5 5 5 5 5 5 5 5 6 5 5 5 5 5 5 5 6 5 6 5 5 5 5 5 5 5 6 6 5 5 5 5 5 5 5 5 5 6 5 5 5 5 5 5 6 6 6 5 6 5 5 5 5 5 5 6 5 6 5 6 5 6 5 5 5 5 5 5 6 5 5 6 5 5 5 5 6 5 5 5 5 5 5 5 5 5 5 5 5 5 5 5 5 5 5 5 5 5 6 5 6 5 5 5 5 5 5 5 5 5 5 5 5 5 5 5 5 5 5 5 5 5 5 5 5 5 5 5 5 5 5 5 5 5 5 5 5 5 5 5 5 5 5 5 5 5 5 5 5 5 5 5 5 5 5 5 5 5 5 6 5 5 5 5 5 5 5 5 5 5 5 5 5 5 5 5 5 5 5 5 5 5 5 6 5 5 5 6 5 6 5 5 5 5 5 5 5 5 5 5 5 5 5 5 5 5 5 5 5 5 5 5 5 5 5 5 5 5 5 5 5 5 5 5 5 5 5 5 5 6 5 6 5 5 5 5 5 5 5 5 5 5 5 5 5 5 5 5 5 5 5 5 5 5 5 5 5 6 5 5 5 5 5 5 5 5 5 5 5 5 5 5 5 5 5 5 5 5 5 5 5 5 5 5 5 5 5 5 5 5 5 5 5 5 5 5 5 5 5 5 5 5 5 5 5 5 5 5 5 5 5 5 5 5 5 5 5 5 5 5 5 5 5 5 5 5 5 6 5 5 5 5 5 5 5 6 5 5 6 5 5 5 5 5 5 5 5 5 5 5 5 5 5 5 5 5 5 5 5 6 5 5 5 5 5 5 5 5 5 5 5 5 5 5 5 5 5 5 5 5 5 5 5 5 5 5 5 5 5 5 5 5 6 5 5 5 5 6 5 6 5 5 5 5 5 5 6 5 5 6 5 5 6 6 5 6 5 5 5 6 5 5 5 5 5 5 5 5 5 5 5 5 5 5 5 6 5 5 5 5 5 5 5 5 6 5 5 5 5 5 5 5 5 5 5 5 5 5 5 5 5 5 5 5 5 5 5 5 5 5 5 5 5 5 5 5 5 5 5 5 5 6 5 5 5 5 5 5 5 6 5 5 6 5 6 5 5 5 5 5 5 5 5 5 5 5 6 6 5 5 6 5 5 6 6 5 5 5 5 6 5 6 5 5 6 5 6 6 5 6 5 6 5 5 5 5 5 5 5 6 5 6 5 5 5 5 5 6 5 5 5 6 5 5 6 5 6 5 6 6 5 5 6 5 5 5 5 5 5 6 5 5 5 5 5 5 5 5 6 6 5 5 5 6 5 5 5 5 6 6 5 6 5 5 5 6 5 5 5 5 5 5 5 5 5 5 5 5 5 5 5 5 6 5 5 5 5 5 5 6 5 6 5 5 5 6 6 5 5 6 5 6 5 5 5 5 5 5 5 5 5 5 5 5 6 6 5 5 5 5 5 6 5 5 5 5 5 5 5 6 5 5 5 6 5 6 5 5 6 5 5 5 5 5 5 5 5 5 6 5 5 6 5 5 5 5 5 5 5 5 5 5 5 6 5 5 5 5 5 5 5 5 5 5 5 5 5 5 5 5 5 5 5 5 5 5 6 5 5 5 5 5 5 5 5 5 5 5 6 5 5 5 5 6 5 5 5 5 5 5 5 5 5 5 5 6 5 5 5 5 5 6 5 6 5 5 5 5 5 5 5 5 5 6 5 5 6 5 5 6 5 5 5 5 6 5 5 5 5 5 5 5 5 5 5 5 5 5 5 5 5 5 5 5 5 5 6 5 5 6 5 6 5 5 5 5 5 5 5 5 5 6 5 5 6 6 6 5 5 5 6 5 5 5 5 5 5 6 6 5 6 5 5 6 5 5 6 5 5 5 5 6 5 5 5 5 6 5 5 5 5 5 5 5 5 5 5 5 6 5 5 6 5 6 6 5 5 6 6 6 5 5 5 5 5 5 5 5 5 5 6 5 5 5 5 5 5 5 5 5 6 5 5 5 5 5 6 5 5 5 5 5 5 5 5 5 5 6 5 5 5 5 5 5 5 5 5 5 5 5 5 5 5 5 5 5 5 5 5 5 5 5 6 6 5 5 5 5 5 5 5 5 6 5 5 5 5 5 5 5 5 5 5 5 5 5 5 5 5 6 5 5 5 5 6 5 5 5 6 6 5 5 5 5 5 5 6 5 6 5 5 5 6 5 5 5 5 5 5 5 5 6 5 6 6 5 5 5 5 5 5 5 5 5 5 5 5 6 5 5 6 5 6 5 5 5 5 5 5 5 5 5 5 5 5 5 5 5 5 5 5 5 5 5 5 5 6 5 5 5 5 5 6 5 5 5 5 5 5 5 5 5 5 6 5 5 5 6 5 5 5 5 5 5 5 5 5 5 5 6 6 5 5 5 5 5 6 5 5 5 6 5 5 5 5 5 5 5 5 5 5 6 5 5 5 5 5 5 5 6 6 5 6 5 5 5 5 6 5 5 5 5 5 6 5 5 5 5 5 5 5 5 5 5 6 5 5 5 5 5 5 5 5 5 5 6 5 5 5 5 5 5 5 6 5 5 5 5 5 5 5 5 5 5 5 5 5 5 5 5 5 5 5 5 6 5 5 5 6 5 5 5 5 5 5 5 5 5 5 5 5 5 6 5 6 6 5 6 6 5 5 5 5 5 6 5 5 5 5 5 5 5 6 5 5 6 5 5 6 5 5 6 5 5 6 6 6 6 5 5 6 6 5 5 6 5 5 6 5 5 5 5 6 6 6 6 5 5 5 6 5 6 5 6 5 6 6 5 5 5 5 5 5 5 6 5 5 6 5 6 5 5 6 6 5 5 5 5 5 5 5 5 5 5 5 5 5 5 5 5 5 6 5 5 5 5 5 5 5 5 5 5 5 5 5 5 5 5 5 6 5 5 5 5 5 5 5 5 5 5 5 5 5 5 6 6 5 5 5 5 6 5 6 5 5 5 6 6 5 6 5 5 5 5 5 5 5 5 5 5 5 5 5 5 5 5 5 5 5 6 5 6 5 5 5 5 6 5 5 5 5 5 5 5 5 5 5 5 5 5 5 5 5 5 5 5 5 6 5 5 5 5 5 5 5 5 5 5 5 5 5 5 6 5 5 5 5 5 5 5 5 5 5 5 5 5 5 5 5 5 5 5 5 5 5 5 5 5 5 5 5 5 5 5 5 5 5 5 5 5 5 5 5 5 5 5 5 5 5 5 5 5 5 5 5 5 5 5 5 5 5 5 5 5 5 6 5 5 5 6 5 5 6 5 5 5 5 5 5 5 5 5 5 5 6 5 5 5 5 6 5 5 5 5 5 5 5 5 5 5 5 5 5 5 5 5 5 5 5 5 5 5 5 5 5 5 5 5 5 6 5 5 5 5 6 5 5 5 5 5 5 5 5 5 5 6 5 5 6 5 5 5 5 5 5 5 5 5 5 5 5 6 5 5 5 5 5 5 5 5 6 5 5 5 5 5 5 5 5 5 5 6 5 6 5 5 5 6 5 5 5 6 5 6 5 6 6 5 5 5 5 5 6 5 5 5 5 5 5 5 5 5 5 5 5 5 5 5 5 5 5 5 5 5 5 5 6 5 5 6 5 5 5 6 5 6 5 5 5 5 5 5 5 5 5 5 5 5 6 5 5 5 5 5 5 5 5 5 5 5 5 5 5 5 5 5 5 5 6 5 5 5 5 5 5 5 5 5 5 5 5 5 5 5 5 5 5 5 5 5 5 5 5 5 5 5 6 5 5 5 5 5 5 5 5 5 5 5 5 5 5 5 5 5 5 6 5 5 5 6 5 5 5 6 6 5 5 5 5 5 6 5 5 5 5 5 5 5 6 6 5 5 5 6 5 6 5 5 5 5 5 5 6 6 5 5 6 6 5 5 5 5 5 5 5 5 5 5 6 5 5 5 5 5 5 6 5 5 5 5 5 5 5 5 5 5 5 5 5 5 5 5 5 6 5 5 5 5 6 5 5 6 5 5 5 5 5 5 5 5 5 5 5 6 5 6 5 6 5 5 5 5 5 5 5 5 5 5 5 5 5 5 5 5 5 5 5 6 5 5 6 5 5 5 6 5 5 6 5 5 5 5 6 5 5 5 5 5 5 5 6 5 5 5 5 5 5 5 5 5 5 5 5 5 5 5 5 5 5 5 5 5 5 5 5 5 5 5 5 5 6 5 5 5 5 5 5 5 5 5 5 5 5 5 5 5 5 5 5 5 5 5 5 5 5 5 5 5 5 5 5 5 5 5 5 5 5 5 6 6 6 5 5 6 5 5 5 6 5 6 5 5 5 5 5 6 5 5 5 5 5 5 5 6 5 5 5 5 5 5 5 5 5 5 5 5 5 5 6 5 5 5 6 5 6 5 5 5 5 5 5 5 5 6 5 5 5 5 5 5 5 6 5 6 5 6 5 5 5 5 5 5 5 5 6 5 5 6 6 6 5 6 5 6 5 5 5 5 5 5 5 5 5 5 5 5 5 5 5 5 5 5 5 5 5 6 5 5 6 6 5 5 5 6 5 5 5 5 5 5 5 6 5 6 5 5 5 5 6 5 5 6 5 5 5 5 5 5 5 6 5 5 6 5 5 5 6 5 5 5 5 5 5 5 5 5 6 5 5 5 5 5 5 6 5 5 6 5 5 5 5 6 5 5 5 5 5 5 6 6 6 5 5 5 6 5 6 5 6 5 5 5 5 5 5 6 5 5 5 6 5 5 5 6 5 5 5 5 5 5 5 5 5 5 5 5 6 5 5 5 6 5 5 5 5 5 6 6 5 5 6 5 6 6 6 5 5 5 6 5 5 5 5 5 6 5 5 5 5 5 5 5 5 5 5 5 5 6 5 5 5 5 5 5 6 5 5 6 5 5 6 5 5 5 5 5 6 5 5 6 5 6 5 6 5 5 5 5 5 5 6 5 5 5 5 6 5 5 5 5 5 5 5 5 5 5 6 5 5 5 5 5 6 5 5 5 5 5 5 5 5 5 5 5 5 5 5 5 6 5 5 5 5 5 6 5 6 5 5 5 5 5 6 5 5 5 5 5 6 5 5 5 5 5 6 5 5 5 5 5 5 5 5 5 5 6 5 6 5 6 5 5 6 5 5 5 5 5 5 5 5 6 5 6 5 5 5 5 5 5 5 5 5 5 6 5 5 5 5 5 5 5 5 5 5 6 5 5 5 6 5 6 6 5 5 5 6 5 5 5 6 6 5 5 5 5 5 5 5 5 5 5 6 6 5 5 5 5 5 6 5 5 5 5 5 5 5 5 5 5 6 5 6 6 6 5 5 5 5 5 5 5 5 6 5 5 5 5 5 5 5 5 5 5 5 5 5 5 5 5 5 5 5 5 5 5 5 5 5 5 5 5 5 6 5 5 5 5 6 5 5 5 5 5 5 5 5 6 5 5 5 5 5 5 5 5 6 5 5 5 5 5 5 5 5 5 5 5 5 5 5 5 5 5 5 5 5 5 5 5 5 5 5 6 5 5 5 5 5 5 6 5 6 5 5 6 5 5 5 6 5 6 5 5 5 6 5 5 5 6 5 5 5 5 5 5 6 5 5 5 5 5 5 5 5 5 5 5 5 5 5 5 5 5 5 5 5 5 5 5 5 5 5 5 6 5 6 5 5 5 5 6 5 5 5 5 5 5 5 5 5 5 5 5 5 6 5 5 6 5 5 6 5 5 5 5 5 6 5 5 5 5 5 5 5 5 6 5 6 5 5 5 5 5 6 6 5 5 6 5 5 5 6 5 5 5 5 5 5 5 6 5 5 5 5 5 5 5 5 5 5 5 5 5 5 5 5 6 5 5 5 5 5 6 5 6 5 5 5 5 5 5 5 5 5 5 5 5 6 5 6 5 5 5 5 5 5 6 6 5 5 5 5 5 5 5 5 5 5 5 5 5 5 5 5 5 5 5 5 5 6 5 5 6 5 5 5 5 5 6 5 5 5 5 5 5 6 5 5 5 5 5 5 5 5 5 5 5 5 5 5 5 5 6 5 5 6 5 5 5 5 6 5 5 5 5 5 5 5 5 5 5 5 6 5 5 5 5 5 5 5 5 5 5 5 5 5 5 5 5 5 5 5 6 5 5 5 5 5 5 5 5 5 5 5 5 6 5 5 5 5 5 5 5 5 5 5 5 5 5 6 6 5 5 5 5 5 5 6 5 5 5 5 5 5 5 5 5 5 5 5 5 5 5 5 5 5 5 5 5 5 5 5 5 5 5 5 5 5 5 5 5 5 5 6 5 5 5 5 5 5 5 5 6 5 5 5 5 5 5 5 5 5 5 5 5 6 5 5 5 5 6 5 6 5 5 5 5 5 5 5 5 6 5 5 5 5 5 5 5 5 5 5 6 5 5 5 6 5 5 6 5 5 5 5 6 5 5 6 5 5 5 5 5 5 5 5 6 5 5 5 6 5 5 5 5 5 5 5 6 5 6 5 6 5 6 6 5 5 5 6 6 6 5 5 6 5 5 5 6 5 5 5 5 6 5 5 5 5 5 5 5 5 5 5 5 5 5 5 5 5 5 5 5 5 5 5 5 5 5 5 5 5 5 5 5 5 5 5 5 5 5 5 6 5 5 5 5 5 5 5 5 6 5 5 5 5 6 5 5 6 5 5 6 5 5 5 5 6 5 5 5 5 5 6 5 5 5 5 5 5 5 5 5 5 5 5 5 6 6 5 5 5 6 5 5 5 5 5 5 5 5 5 5 5 5 5 5 6 5 5 5 5 5 5 6 5 5 6 5 5 5 5 5 5 5 5 5 5 6 5 5 5 5 5 6 5 5 5 5 5 5 5 5 5 5 6 5 5 5 5 5 5 5 5 5 5 5 5 5 5 5 6 5 5 5 5 5 5 5 5 5 5 5 5 5 5 5 5 5 5 5 5 5 5 5 6 5 6 5 5 5 6 5 5 5 5 5 5 5 5 5 6 5 5 5 6 5 5 5 5 5 5 5 5 5 5 5 5 5 5 5 5 6 5 5 5 5 5 6 5 5 5 6 5 6 5 5 5 5 5 5 6 5 5 5 5 5 5 5 5 5 5 5 5 5 5 5 5 5 5 5 5 5 5 5 5 5 5 5 6 5 5 6 5 5 5 5 5 5 5 6 5 5 5 5 6 5 5 6 5 5 5 5 5 5 6 5 5 5 6 5 5 5 6 5 5 5 5 5 6 5 5 5 5 5 6 5 5 5 5 5 5 5 5 6 5 5 6 5 5 5 5 6 5 5 5 5 6 5 5 5 5 6 5 5 5 6 5 6 5 5 5 5 5 5 5 5 5 5 6 5 5 5 5 5 5 5 6 6 5 5 5 5 5 6 5 5 5 5 5 6 5 5 5 6 5 5 6 5 5 6 5 5 5 6 5 5 5 5 5 5 6 5 5 5 5 5 6 5 5 5 5 5 6 5 5 5 5 5 5 6 5 5 5 5 6 5 5 5 5 5 6 5 5 5 5 5 5 5 5 5 5 6 5 5 5 5 5 5 5 6 5 5 5 5 6 6 5 5 6 5 5 5 5 5 5 5 6 5 5 5 5 5 5 5 6 5 6 5 5 6 5 5 5 5 6 5 6 5 5 5 5 5 5 5 5 5 5 6 5 5 5 5 5 6 5 5 5 6 5 5 5 5 6 5 5 6 5 5 5 5 5 6 5 6 5 6 6 5 5 5 5 6 6 5 5 5 5 5 5 5 5 5 5 5 5 5 6 5 5 5 5 5 5 6 6 5 5 5 5 5 5 5 5 5 5 5 5 5 6 5 5 5 5 5 5 5 5 5 5 5 5 5 5 5 5 5 5 5 5 5 5 5 5 5 5 5 5 5 5 5 5 5 6 5 5 6 5 5 5 5 5 5 5 6 5 5 5 6 5 5 6 5 5 5 6 6 5 5 5 5 6 6 5 5 5 5 5 5 5 5 5 5 5 5 5 5 6 5 5 6 5 5 5 6 5 5 5 5 6 5 5 6 5 5 5 5 5 5 5 5 5 5 5 6 5 5 5 5 5 5 5 6 5 5 5 5 5 5 5 5 5 5 5 5 5 5 5 5 5 5 6 5 5 5 5 5 5 6 5 6 5 5 5 5 5 6 5 5 6 5 5 5 6 5 5 5 6 5 5 5 5 5 5 5 5 5 5 5 5 5 5 6 5 5 5 5 6 6 5 5 5 5 5 5 5 5 5 5 5 5 5 5 5 5 5 5 5 6 5 5 5 5 5 5 5 5 6 5 6 5 5 5 5 5 5 5 6 5 6 5 5 5 5 5 6 5 5 5 5 5 5 6 5 5 5 5 5 6 6 5 5 5 6 6 6 5 5 5 5 5 6 5 5 5 5 5 6 5 5 5 5 6 5 6 6 5 6 6 5 5 5 6 5 5 5 6 5 5 5 6 5 5 5 6 5 5 5 5 5 5 5 5 6 5 5 5 6 5 5 5 5 5 5 6 5 5 5 5 5 5 6 5 5 5 5 5 5 5 5 5 5 5 5 5 5 6 5 6 5 5 5 6 5 5 6 5 6 5 6 5 5 6 5 5 5 5 5 5 6 5 5 5 5 6 5 5 5 5 5 5 6 5 5 5 5 5 5 5 5 5 5 6 5 5 5 5 5 5 5 5 5 5 5 5 5 5 5 5 5 5 5 6 6 5 5 5 6 5 5 6 5 5 6 5 5 6 5 5 6 6 5 5 5 5 6 5 5 5 5 5 5 5 5 5 5 5 6 6 5 5 5 6 5 6 5 6 5 5 5 5 5 6 5 5 6 5 6 5 5 6 6 6 5 5 5 5 6 5 5 6 5 6 5 5 6 5 5 5 5 5 5 5 5 6 5 6 6 5 5 5 5 5 6 6 5 5 5 6 6 5 5 5 5 5 5 5 5 6 5 6 5 5 5 5 5 5 5 5 5 5 5 5 5 5 5 5 5 5 5 5 5 5 5 5 5 5 5 5 5 6 5 5 5 5 5 5 5 5 5 5 5 5 5 5 5 6 5 5 6 5 5 5 5 5 6 5 5 5 5 5 5 5 5 5 5 5 5 5 6 5 5 5 5 5 5 5 5 5 6 5 5 6 5 5 5 5 6 6 6 5 5 5 5 5 6 5 5 5 
</DataArray>
<DataArray type="Float64" Name="stress" NumberOfComponents="9" format="ascii">
352288.60780189349 -990161950.55387878 0 -990161950.55387878 5952682711.2414846 0 0 0 0 1109895.8988509253 -1663253.835319519 0 -1663253.835319519 352703670.22634888 0 0 0 0 -132567.64859773277 -1608202.2156061754 0 -1608202.2156061754 3016953.3155101091 0 0 0 0 -847618761.81542993 662476602.40653992 0 662476602.40653992 1625706213.4923401 0 0 0 0 -913611892.97077155 -809878050.54885101 0 -809878050.54885101 5974790864.3793335 0 0 0 0 270266950.31963718 -1645579628.5507736 0 -1645579628.5507736 1941532744.6676941 0 0 0 0 442509635.9970032 -1711697416.321579 0 -1711697416.321579 1328521604.4619408 0 0 0 0 -73855.762277420246 -1813717.4982358776 0 -1813717.4982358776 3150861.6086163223 0 0 0 0 688663151.24582005 -2283994568.3834763 0 -2283994568.3834763 2399049605.2138672 0 0 0 0 -380242.49336433411 -1068584793.385376 0 -1068584793.385376 3367553919.5281143 0 0 0 0 1188632.2295016269 -887140396.88081646 0 -887140396.88081646 1577259640.7501526 0 0 0 0 -163090682.89392436 -596408543.57449341 0 -596408543.57449341 2078325575.1079559 0 0 0 0 179616474.85007161 -380243075.20462036 0 -380243075.20462036 1830257965.1230164 0 0 0 0 171473861.87434351 -347106348.56588745 0 -347106348.56588745 1988194932.263855 0 0 0 0 4310563.7032361208 -297765828.86723328 0 -297765828.86723328 2319443964.8672333 0 0 0 0 -568370250.16521215 -1287984266.3989868 0 -1287984266.3989868 2685110484.8904648 0 0 0 0 -145259427.66623354 -595042076.4131012 0 -595042076.4131012 1751499768.8844891 0 0 0 0 -436074130.94041133 -207764176.91099548 0 -207764176.91099548 1802655054.5614624 0 0 0 0 -1029280456.3361405 426216530.04801559 0 426216530.04801559 712399898.00439453 0 0 0 0 -2612682118.5017109 -420442028.81378174 0 -420442028.81378174 2394035862.2397766 0 0 0 0 -85036.021646883222 -3018187.2977098897 0 -3018187.2977098897 5485307.0021685064 0 0 0 0 687616821.73662066 -1396046431.5363312 0 -1396046431.5363312 -418115436.87264252 0 0 0 0 100441656.97617328 -1587066941.5221481 0 -1587066941.5221481 2474341596.6840515 0 0 0 0 -905635789.19001937 -1652691010.5728455 0 -1652691010.5728455 2470066850.6798382 0 0 0 0 -905372551.55362391 -2459301560.6764526 0 -2459301560.6764526 5972691761.0267944 0 0 0 0 -560039.44671316259 -3894131.7459031548 0 -3894131.7459031548 5217687.3775310367 0 0 0 0 -2482512146.3727212 1170179069.4073048 0 1170179069.4073048 4283001726.4320984 0 0 0 0 476333254.57004589 -3153030191.2266617 0 -3153030191.2266617 2097378125.6742859 0 0 0 0 -2225642722.9558716 31861781.219429016 0 31861781.219429016 5971559725.1576843 0 0 0 0 -120301089.94851865 -289092001.51171875 0 -289092001.51171875 3395297710.9212646 0 0 0 0 -119526902.27177656 -994266757.83702838 0 -994266757.83702838 4645126911.8868408 0 0 0 0 -845466402.82051849 1340261338.286171 0 1340261338.286171 1371160037.816803 0 0 0 0 2387998523.5115023 -2678936358.7923622 0 -2678936358.7923622 9289532313.0034485 0 0 0 0 -571735.32109763834 2207882.8649624661 0 2207882.8649624661 7875417.8950720429 0 0 0 0 2528803295.386003 -2632309254.63414 0 -2632309254.63414 4034092947.9111176 0 0 0 0 589450652.57469904 -2079065418.6660156 0 -2079065418.6660156 5988908967.257762 0 0 0 0 1836259836.565289 -1530053080.7248917 0 -1530053080.7248917 2477239668.1394196 0 0 0 0 1890657232.5164194 -2269007612.9016953 0 -2269007612.9016953 2555267480.0495644 0 0 0 0 181620197.65074372 954218453.22654724 0 954218453.22654724 -1843757442.8766098 0 0 0 0 -605366059.74262452 4469172728.7790375 0 4469172728.7790375 -34698516.083251953 0 0 0 0 -345169594.43717742 313596744.26418304 0 313596744.26418304 323133286.37626648 0 0 0 0 -1780722771.9227655 -421505656.98232079 0 -421505656.98232079 396569173.92572021 0 0 0 0 -3722884.21294735 4192187.2052556574 0 4192187.2052556574 19482898.05903922 0 0 0 0 -2285387297.4834218 1445036307.3088913 0 1445036307.3088913 -281780744.14103699 0 0 0 0 -1179442616.7586613 74515573.868408203 0 74515573.868408203 23623496.883529663 0 0 0 0 -692549304.20025349 165009099.3110733 0 165009099.3110733 8992972.0334625244 0 0 0 0 -1134906245.6440449 96159301.414970398 0 96159301.414970398 126608586.21188354 0 0 0 0 -780704417.24349022 -6092692.3083343506 0 -6092692.3083343506 683867992.96847534 0 0 0 0 382289531.03978658 -916589009.15328979 0 -916589009.15328979 639807775.61732483 0 0 0 0 -362557142.0913589 -2749677995.6413879 0 -2749677995.6413879 1791903080.2735291 0 0 0 0 921611359.8942405 -2212261279.7713165 0 -2212261279.7713165 -439469440.64065552 0 0 0 0 1288297439.1971188 -2419879529.6693878 0 -2419879529.6693878 1744731572.398423 0 0 0 0 1262165167.1363273 -1339909825.4011192 0 -1339909825.4011192 1740872503.7364502 0 0 0 0 -1492283546.4168644 571648999.77441788 0 571648999.77441788 -172333797.73309326 0 0 0 0 -5940885.099889202 3808102.6299803257 0 3808102.6299803257 24043531.550196134 0 0 0 0 -3933335.7784736506 -2749065.3371820524 0 -2749065.3371820524 4269848.325212881 0 0 0 0 -965975708.93188071 -2817634797.7769728 0 -2817634797.7769728 2790538782.6767578 0 0 0 0 -1094929558.3414202 -1255468961.4519501 0 -1255468961.4519501 2239314711.8128052 0 0 0 0 650498673.31307888 147621229.98080444 0 147621229.98080444 -81164431.61567688 0 0 0 0 33536320.1562047 -226122859.00746155 0 -226122859.00746155 452553825.82337952 0 0 0 0 -1663763777.4944413 -93172226.181472778 0 -93172226.181472778 740142874.20809937 0 0 0 0 -1521506826.4804306 28399326.83332634 0 28399326.83332634 510002572.67276001 0 0 0 0 -1506175000.1247814 -904314001.58557129 0 -904314001.58557129 -624016837.20465088 0 0 0 0 -1373987149.6547053 -569634829.81398773 0 -569634829.81398773 190374766.54745483 0 0 0 0 -2920248.6341339648 -7320347.907136065 0 -7320347.907136065 27179757.022502974 0 0 0 0 -1056221459.5204525 -432352325.95521545 0 -432352325.95521545 -280161804.49160767 0 0 0 0 -752552672.98354101 179610531.01068115 0 179610531.01068115 -12119555.007354736 0 0 0 0 -718939496.01362669 303709263.61552811 0 303709263.61552811 233227626.70599365 0 0 0 0 -941435852.30340862 -91867676.401885986 0 -91867676.401885986 704104806.91958618 0 0 0 0 667857698.90672946 -594464814.27545929 0 -594464814.27545929 489143504.608078 0 0 0 0 -43261906.289124489 -747524039.18093872 0 -747524039.18093872 738565932.78456116 0 0 0 0 -589455327.1915102 -15336196.884216309 0 -15336196.884216309 264760127.10751343 0 0 0 0 -1170219437.3777771 4596776.4158172607 0 4596776.4158172607 551562318.79206848 0 0 0 0 -323820537.52023315 -859170034.64476013 0 -859170034.64476013 295727586.23783875 0 0 0 0 -212897608.11254549 -646857500.23866272 0 -646857500.23866272 601343016.76586151 0 0 0 0 -695587150.5484519 22975766.174980164 0 22975766.174980164 -198866767.78791809 0 0 0 0 -180148854.97855514 -534377451.83296967 0 -534377451.83296967 956209421.12799072 0 0 0 0 876377784.7264924 -929537602.39271545 0 -929537602.39271545 271208053.84475708 0 0 0 0 785997305.67830896 -623960197.53046417 0 -623960197.53046417 -47926175.388397217 0 0 0 0 407989744.65068007 -1010833980.4111252 0 -1010833980.4111252 396683115.86135864 0 0 0 0 -22052502.900557995 -534815894.1537323 0 -534815894.1537323 -588716.26739501953 0 0 0 0 435749153.20067406 -408217668.19979858 0 -408217668.19979858 -245894100.1089325 0 0 0 0 395360830.20235491 -960427041.70102692 0 -960427041.70102692 304302123.17843628 0 0 0 0 415488462.72243762 -859471037.77688599 0 -859471037.77688599 13041435.265123844 0 0 0 0 415211063.65664077 -646938311.11931908 0 -646938311.11931908 -91478972.664611816 0 0 0 0 -1575148174.2004042 -95765105.485839844 0 -95765105.485839844 359340925.69119263 0 0 0 0 -1156078474.1801691 -329850487.10629272 0 -329850487.10629272 292096338.51115417 0 0 0 0 -1401833.1757021951 -5839406.1267578267 0 -5839406.1267578267 19623239.122888878 0 0 0 0 -534414858.10491562 506277146.41830444 0 506277146.41830444 121545015.88833618 0 0 0 0 -409261351.18123913 557054740.13522339 0 557054740.13522339 280853596.84723663 0 0 0 0 -591641971.10100317 237522386.96020508 0 237522386.96020508 361929019.16519165 0 0 0 0 -519323085.4173336 35956871.993270874 0 35956871.993270874 -202421896.2111969 0 0 0 0 -55849405.658472121 224980338.8960495 0 224980338.8960495 479256395.26663208 0 0 0 0 -167255181.5273273 420461818.86226654 0 420461818.86226654 261680898.9715271 0 0 0 0 53914173.527575254 458576409.60359955 0 458576409.60359955 882801963.24728394 0 0 0 0 129302443.91536617 452669019.97659302 0 452669019.97659302 318924040.35997009 0 0 0 0 227623639.76169109 283273025.55796814 0 283273025.55796814 182798844.79699707 0 0 0 0 457089473.06522763 28313254.46522522 0 28313254.46522522 -10288939.484893799 0 0 0 0 432514320.58709359 505324376.26554871 0 505324376.26554871 389245164.03356934 0 0 0 0 -864821.02652609255 -138039.24214914488 0 -138039.24214914488 5869098.0801574141 0 0 0 0 110552.36690683196 124184615.50171661 0 124184615.50171661 -419648582.75408936 0 0 0 0 -115191899.47250623 39799211.828474045 0 39799211.828474045 -12069808.326904297 0 0 0 0 50260988.760540962 82672715.953346252 0 82672715.953346252 124700086.69810486 0 0 0 0 -148070.90665808145 539418.73077868996 0 539418.73077868996 2353215.6022208333 0 0 0 0 1010600494.4195584 510206173.69857788 0 510206173.69857788 86669950.244255066 0 0 0 0 -323117050.26277554 -181328669.8842392 0 -181328669.8842392 1369563146.8523254 0 0 0 0 1246255234.0537193 1009452333.1716919 0 1009452333.1716919 903358506.79006958 0 0 0 0 265125369.82202148 384174915.08641052 0 384174915.08641052 474082367.38208008 0 0 0 0 404057840.15939403 769125365.80729675 0 769125365.80729675 1276536083.4707336 0 0 0 0 61301177.108699799 348140778.28015137 0 348140778.28015137 1541697827.5029602 0 0 0 0 224770364.89896256 679931085.53440094 0 679931085.53440094 2757522364.5820007 0 0 0 0 142027391.50331914 268248393.37261963 0 268248393.37261963 1339359095.1686954 0 0 0 0 477270452.6266585 -390556271.06484985 0 -390556271.06484985 2124868351.8599854 0 0 0 0 -879701.49308126408 593977523.03395844 0 593977523.03395844 2848242770.9313049 0 0 0 0 723765112.49681497 -102009001.41227722 0 -102009001.41227722 1984160971.5718689 0 0 0 0 417150376.60499001 -62939635.14604187 0 -62939635.14604187 2059121304.1340332 0 0 0 0 -191365132.81110191 -501775659.87154388 0 -501775659.87154388 1911029913.6222992 0 0 0 0 69366723.592384756 -211094994.56266403 0 -211094994.56266403 1739812792.7372131 0 0 0 0 96528544.440002501 -326839384.58129883 0 -326839384.58129883 2187538235.2398224 0 0 0 0 -937474963.21009862 -698269555.46582794 0 -698269555.46582794 1829421449.431427 0 0 0 0 -229292302.41299772 -298345235.43852234 0 -298345235.43852234 1206224530.005249 0 0 0 0 -227949172.03869534 -652116832.73072815 0 -652116832.73072815 1827122547.3144836 0 0 0 0 1091711788.8403845 -1631569271.3103352 0 -1631569271.3103352 1096077999.2289734 0 0 0 0 -288752219.06717396 -518686985.84140015 0 -518686985.84140015 845414125.9134407 0 0 0 0 -105794486.77152872 -650717768.3807373 0 -650717768.3807373 848757814.56872559 0 0 0 0 -367947395.17705345 -150526764.66442871 0 -150526764.66442871 563626371.16413879 0 0 0 0 -172498444.91226465 42923687.792663574 0 42923687.792663574 744327769.21600342 0 0 0 0 -153421638.6433337 -131849379.85169506 0 -131849379.85169506 1356876145.9082642 0 0 0 0 16455532.468978882 68533223.991348267 0 68533223.991348267 817522285.67414856 0 0 0 0 -229228760.97789216 -313263527.84436035 0 -313263527.84436035 1810422567.4213867 0 0 0 0 293477227.55333769 -200217182.87311745 0 -200217182.87311745 -220271687.85856628 0 0 0 0 79430713.440278769 -507835281.72937775 0 -507835281.72937775 913699549.40040588 0 0 0 0 -102935923.93875921 -343406450.46997833 0 -343406450.46997833 1083077789.7438965 0 0 0 0 149406415.25807858 -206018072.46980286 0 -206018072.46980286 1306526765.5825272 0 0 0 0 54526650.863299429 -601560534.37862206 0 -601560534.37862206 1898450951.797287 0 0 0 0 190216171.71764624 -1360852648.8652916 0 -1360852648.8652916 2663922759.5267792 0 0 0 0 -137280578.02370051 -970848922.24916077 0 -970848922.24916077 2687476423.2508545 0 0 0 0 765922307.28367054 -921529667.59181976 0 -921529667.59181976 923560746.62628174 0 0 0 0 -477017682.8445006 -1665375930.9795456 0 -1665375930.9795456 5987292651.6222839 0 0 0 0 -831911309.83700299 -951644506.86597443 0 -951644506.86597443 4697068032.5505142 0 0 0 0 -681662652.11219239 -945380470.62289047 0 -945380470.62289047 4695211408.3315048 0 0 0 0 -507687928.15177763 -923614384.74618912 0 -923614384.74618912 3669876484.4815063 0 0 0 0 -909417065.47637689 -298208812.77376938 0 -298208812.77376938 4823489531.2589798 0 0 0 0 -1142008850.010067 -784707795.12365341 0 -784707795.12365341 5984028381.0664215 0 0 0 0 -902023678.2754364 -511310018.70378304 0 -511310018.70378304 4775823646.7472076 0 0 0 0 -189901336.50091743 -256445654.65896225 0 -256445654.65896225 2468874653.8389893 0 0 0 0 -409040449.72220135 111249796.90930939 0 111249796.90930939 3083225002.8157005 0 0 0 0 101856159.21275806 335405376.35437012 0 335405376.35437012 870169892.37719727 0 0 0 0 -170550510.82778215 555130265.50779724 0 555130265.50779724 2324323857.2642593 0 0 0 0 1205736.9417311612 1854895.0136696249 0 1854895.0136696249 1681699.5890344977 0 0 0 0 479112375.65501285 1220730415.5748901 0 1220730415.5748901 2228414454.0977783 0 0 0 0 1324190.7641034285 -1639708.3321775068 0 -1639708.3321775068 6391580.5573962033 0 0 0 0 -186341559.86808884 -470864796.228508 0 -470864796.228508 4419540998.5125046 0 0 0 0 -205057516.10399619 693182090.16703796 0 693182090.16703796 4023089153.8423309 0 0 0 0 -265296890.35797143 405094661.06734085 0 405094661.06734085 5983492618.3611832 0 0 0 0 -137005555.72148255 347352685.40441132 0 347352685.40441132 4442103268.0675812 0 0 0 0 420546136.85995293 1448237927.1556854 0 1448237927.1556854 5983641993.1259241 0 0 0 0 2082864685.7364254 209537625.41856384 0 209537625.41856384 4150738470.0211334 0 0 0 0 1856880798.4576654 1380931966.3215179 0 1380931966.3215179 2897025251.4719391 0 0 0 0 881925267.39123714 2127261425.9398804 0 2127261425.9398804 4353925417.3259277 0 0 0 0 264100928.9898988 2311911878.6497879 0 2311911878.6497879 4318961171.6708527 0 0 0 0 -236360365.82689136 1990399405.9451599 0 1990399405.9451599 6924567948.5803299 0 0 0 0 3845640908.4952888 1227892173.6818542 0 1227892173.6818542 5986887713.5598068 0 0 0 0 -558943767.06445789 4002886366.7066956 0 4002886366.7066956 4647058309.389389 0 0 0 0 307396090.14877248 1674987384.7049713 0 1674987384.7049713 2148902768.6084061 0 0 0 0 929270375.21663332 2360268414.031044 0 2360268414.031044 1600621536.5968933 0 0 0 0 55136366.925350666 -603468732.92259216 0 -603468732.92259216 2185318275.9317245 0 0 0 0 1060274464.9328812 703615491.95032501 0 703615491.95032501 848039424.83557129 0 0 0 0 1096005908.0266798 1190260005.2979202 0 1190260005.2979202 3726762450.5291595 0 0 0 0 1323760834.3590541 -1467059197.9609756 0 -1467059197.9609756 3209833973.5370693 0 0 0 0 2774687765.8414116 -1398642204.6813889 0 -1398642204.6813889 565408411.95317078 0 0 0 0 517199883.95923615 -708272976.03916931 0 -708272976.03916931 678126078.60419464 0 0 0 0 1233893636.6137893 -984385226.39964485 0 -984385226.39964485 692264755.90731812 0 0 0 0 647151348.57403231 -735296692.18856621 0 -735296692.18856621 1351357959.5187683 0 0 0 0 1851940926.3255162 -871095955.23273468 0 -871095955.23273468 399666684.73630524 0 0 0 0 1480257814.7725124 -1284168711.9086723 0 -1284168711.9086723 776073678.26065063 0 0 0 0 705438284.58861828 -88794191.074329376 0 -88794191.074329376 -53060886.985717773 0 0 0 0 -296628120.16345882 -151636924.17279053 0 -151636924.17279053 561287290.89447975 0 0 0 0 3926020.7713667192 -1911722.4368647933 0 -1911722.4368647933 14420387.388707981 0 0 0 0 321968024.41123581 19222208.027008057 0 19222208.027008057 -239753957.41107178 0 0 0 0 2688636687.7553477 -427311091.75857544 0 -427311091.75857544 69608167.722412109 0 0 0 0 497359.91146458313 267171.1714348495 0 267171.1714348495 351804.65191422496 0 0 0 0 2391685794.3268614 -1326634695.5941315 0 -1326634695.5941315 515348119.38893127 0 0 0 0 1333243.5373742953 -1467012.9912369158 0 -1467012.9912369158 1074284.1498591006 0 0 0 0 883926138.23878205 -595561251.57149434 0 -595561251.57149434 534610017.54470825 0 0 0 0 1173403517.67659 -1037882576.7313995 0 -1037882576.7313995 394313339.56141663 0 0 0 0 271307857.12342453 304470515.11576843 0 304470515.11576843 134227026.22360229 0 0 0 0 1864463636.9493656 -208873206.35411072 0 -208873206.35411072 -387496130.09301758 0 0 0 0 1143438060.4972191 675238406.90087891 0 675238406.90087891 -281654904.68303299 0 0 0 0 751770812.23314381 -343335740.93721008 0 -343335740.93721008 -209465677.54559326 0 0 0 0 703896693.29456091 -365937596.98357391 0 -365937596.98357391 -157735172.48309326 0 0 0 0 656301123.42164516 -747141517.18832397 0 -747141517.18832397 -96411814.555793762 0 0 0 0 258770800.06612968 -384139497.57841492 0 -384139497.57841492 -101508230.69023132 0 0 0 0 430102278.78831387 -580871687.92089844 0 -580871687.92089844 29831591.680633545 0 0 0 0 380704262.80333805 -201162593.61801529 0 -201162593.61801529 -283607317.11160278 0 0 0 0 98611932.200918198 -231275246.55024338 0 -231275246.55024338 20832491.904388428 0 0 0 0 35786820.55245018 -18887239.431434631 0 -18887239.431434631 -9499654.8269348145 0 0 0 0 12650565.757764816 -14741329.011924744 0 -14741329.011924744 -1800900.5562896729 0 0 0 0 6122603.4338686597 -8453022.4880170524 0 -8453022.4880170524 -7906607.3291691542 0 0 0 0 -11515732.322999954 -30592910.157577515 0 -30592910.157577515 6999264.8586273193 0 0 0 0 6074402.7429177035 -12779023.38240359 0 -12779023.38240359 13888736.165281206 0 0 0 0 18727055.539139748 -39541490.578979492 0 -39541490.578979492 307641.27819824219 0 0 0 0 -12134377.065673828 18548760.145904541 0 18548760.145904541 36710298.078636169 0 0 0 0 22246524.365024567 -17166058.963226318 0 -17166058.963226318 4256823.6729278564 0 0 0 0 21099657.956624985 -15134681.002555847 0 -15134681.002555847 33557446.957550049 0 0 0 0 -1084253.3176259995 -1061275.664604187 0 -1061275.664604187 23918618.716056824 0 0 0 0 17037546.104049683 -5277955.7468032837 0 -5277955.7468032837 18810479.590652466 0 0 0 0 54401137.882668972 -14791136.926288605 0 -14791136.926288605 -39027274.749252319 0 0 0 0 13082682.220006006 -1830409.0863690153 0 -1830409.0863690153 17894711.271996543 0 0 0 0 105848789.68760777 -308927505.09594727 0 -308927505.09594727 468570511.1229248 0 0 0 0 4020610.1707415245 -6389904.8776206784 0 -6389904.8776206784 15954263.702230006 0 0 0 0 -58703518.34271232 -69415099.103479385 0 -69415099.103479385 20758656.048751831 0 0 0 0 22841451.10375309 -6236204.0547103882 0 -6236204.0547103882 -5420377.1338348389 0 0 0 0 182213512.68106803 -124500772.54801941 0 -124500772.54801941 -2800080.2708969116 0 0 0 0 190822007.47821513 76291874.445070267 0 76291874.445070267 31205921.669006348 0 0 0 0 222027349.07835937 62380702.999717712 0 62380702.999717712 295424675.39447021 0 0 0 0 -52103349.504580259 -369922634.96658325 0 -369922634.96658325 243795482.67310429 0 0 0 0 8887897.6513073221 6378182.1286680698 0 6378182.1286680698 -168695.04303620756 0 0 0 0 -114927678.73575401 -91452532.633911133 0 -91452532.633911133 605454777.66048431 0 0 0 0 49408568.809438229 35139653.160274506 0 35139653.160274506 -14264221.170181274 0 0 0 0 26346263.920183353 172976.09835598618 0 172976.09835598618 15283430.626142323 0 0 0 0 34060432.785339355 -7211729.329864502 0 -7211729.329864502 31139991.896539688 0 0 0 0 18551636.35509491 -77925.007783889771 0 -77925.007783889771 33996389.268569946 0 0 0 0 28076961.287826538 -22740109.573535919 0 -22740109.573535919 35297251.514358521 0 0 0 0 50999413.980735779 -23229440.48261261 0 -23229440.48261261 46998521.911647797 0 0 0 0 33340421.606155396 -10777342.374809265 0 -10777342.374809265 56905414.243057251 0 0 0 0 31605512.178812027 -8546270.5752906799 0 -8546270.5752906799 47551912.214324951 0 0 0 0 19288704.988390036 -3603138.6381037533 0 -3603138.6381037533 24695602.304530367 0 0 0 0 4516163.8538378943 4991689.7627723608 0 4991689.7627723608 52900759.753716633 0 0 0 0 -6201781.8468074799 66586440.487628937 0 66586440.487628937 11889957.282875061 0 0 0 0 589052464.8490715 -415467633.00449371 0 -415467633.00449371 -187444840.35063934 0 0 0 0 -6563900.2979095913 5491503.5846895352 0 5491503.5846895352 15177019.752759349 0 0 0 0 32044377.288013458 587589274.85648346 0 587589274.85648346 548885547.06921768 0 0 0 0 11299031.477966975 7994393.0777514335 0 7994393.0777514335 23076923.05838304 0 0 0 0 649314060.3494339 -426916691.93398476 0 -426916691.93398476 -465811605.29544067 0 0 0 0 104761.01841409132 1947524.8325023167 0 1947524.8325023167 4740154.2098249868 0 0 0 0 13672666.627528675 4328171.7163796201 0 4328171.7163796201 15340124.281936634 0 0 0 0 102517588.08791959 -97274063.470603943 0 -97274063.470603943 -183790303.44420052 0 0 0 0 3732752.0347862244 3475351.2359199524 0 3475351.2359199524 9457119.9713058472 0 0 0 0 302785381.800493 140786526.40606689 0 140786526.40606689 41537539.680389404 0 0 0 0 11367692.566201035 12086902.270331852 0 12086902.270331852 26581084.296892419 0 0 0 0 -130630406.60158774 332044618.54266548 0 332044618.54266548 305731081.86238098 0 0 0 0 620355789.16406441 42143634.683952332 0 42143634.683952332 52358021.993606567 0 0 0 0 157938661.17461205 191223823.51167059 0 191223823.51167059 61398582.132106781 0 0 0 0 81175630.198623657 171822208.78138924 0 171822208.78138924 115213712.13779449 0 0 0 0 9510974.0154953003 154680736.14954185 0 154680736.14954185 113495686.51011276 0 0 0 0 7237685.8791022301 136441995.15954506 0 136441995.15954506 48051451.541606903 0 0 0 0 86874495.417987823 162999642.08740425 0 162999642.08740425 8050326.7921991348 0 0 0 0 142490003.2356987 153991053.74794006 0 153991053.74794006 2225889.3191413879 0 0 0 0 184718795.07277107 116668492.90279388 0 116668492.90279388 -75004162.624675751 0 0 0 0 272294715.69349861 134212864.99380684 0 134212864.99380684 -75431203.647651672 0 0 0 0 140732417.8788662 15534868.948721886 0 15534868.948721886 -11089363.054084778 0 0 0 0 -105686415.35822678 134013463.16724968 0 134013463.16724968 3975893.2642498016 0 0 0 0 39688315.002685547 89146965.160439968 0 89146965.160439968 -17549233.816448212 0 0 0 0 -243758.84754104912 12142140.401012629 0 12142140.401012629 67597575.720662162 0 0 0 0 23642674.99571991 -41767000.044464111 0 -41767000.044464111 72390669.026603699 0 0 0 0 7120386.2972259521 -45194522.06942749 0 -45194522.06942749 72315539.549743652 0 0 0 0 24063927.160057068 -36322504.980873108 0 -36322504.980873108 43351934.157806396 0 0 0 0 42314703.631607056 -68427133.190872192 0 -68427133.190872192 55377530.437927246 0 0 0 0 -9620417.1314506531 -55002025.205551147 0 -55002025.205551147 89007618.362335205 0 0 0 0 17766850.144552231 -59749174.771377563 0 -59749174.771377563 89789287.888519287 0 0 0 0 -412597290.54150391 -88070027.130683899 0 -88070027.130683899 148498194.67889404 0 0 0 0 -474218.2537134029 19901732.320262823 0 19901732.320262823 80179106.084846109 0 0 0 0 15005379.930770874 -396700153.6774292 0 -396700153.6774292 -129720638.15614319 0 0 0 0 -147507699.57538223 97531611.430654526 0 97531611.430654526 67319886.302804947 0 0 0 0 -187679739.6328125 191056148.50240946 0 191056148.50240946 18704709.7827034 0 0 0 0 -121757553.32595825 111100507.30620193 0 111100507.30620193 97719394.744138718 0 0 0 0 -122656089.79373932 90337964.496984482 0 90337964.496984482 154550913.82364845 0 0 0 0 -260420659.0238533 139302850.47486782 0 139302850.47486782 116088884.66264725 0 0 0 0 -186138132.78414154 67888390.111305237 0 67888390.111305237 70290059.691670418 0 0 0 0 -167136.81975250319 27012649.375472978 0 27012649.375472978 91436279.553577051 0 0 0 0 -137110217.85715866 32262882.799530029 0 32262882.799530029 1123443890.1593933 0 0 0 0 -1026473106.0940399 674282685.37979126 0 674282685.37979126 1489368410.9346466 0 0 0 0 762981473.35213661 -3340551.2098083496 0 -3340551.2098083496 -278511803.68994141 0 0 0 0 564122456.00762177 -245459815.29722595 0 -245459815.29722595 -291544967.56112671 0 0 0 0 1250010.5288634498 -4041624.9914780259 0 -4041624.9914780259 1933768.8259929717 0 0 0 0 -227165859.93380737 174607641.59934998 0 174607641.59934998 899895653.32756424 0 0 0 0 -60708250.596374512 153762264.27539062 0 153762264.27539062 406366320.47807121 0 0 0 0 -210803922.93876171 134758388.43223572 0 134758388.43223572 455398057.76135254 0 0 0 0 -58575090.11674881 47855957.284454346 0 47855957.284454346 496356266.31785583 0 0 0 0 323252456.12889767 123499122.97196198 0 123499122.97196198 -541173001.92745972 0 0 0 0 -858276208.61555672 -125365532.74466705 0 -125365532.74466705 801365423.46203613 0 0 0 0 1968419.3176785335 -2850007.2144741714 0 -2850007.2144741714 -1772407.851567328 0 0 0 0 -378814864.1389389 -62527754.280471802 0 -62527754.280471802 416214074.87182617 0 0 0 0 315232871.42795563 17992298.821807861 0 17992298.821807861 106202100.73840332 0 0 0 0 -2156528.2141189575 -178086763.43214417 0 -178086763.43214417 87148133.267103195 0 0 0 0 2798082.1847280618 -8566150.7027609441 0 -8566150.7027609441 6273149.8894148618 0 0 0 0 187537521.82250023 -101214414.38220215 0 -101214414.38220215 26029129.642852783 0 0 0 0 10083817.588447571 -28270340.020248413 0 -28270340.020248413 29169711.780273438 0 0 0 0 37232966.904265404 -45932427.479547501 0 -45932427.479547501 15032749.807189941 0 0 0 0 17088817.839690208 -23330823.642486572 0 -23330823.642486572 26994054.517608643 0 0 0 0 28612491.958564758 -36761754.538528442 0 -36761754.538528442 31836460.776194572 0 0 0 0 -99834812.315776825 -102378556.09790039 0 -102378556.09790039 9278680.7994689941 0 0 0 0 147140483.42580414 -139464089.51097107 0 -139464089.51097107 -150076044.98423767 0 0 0 0 4032208.7412511841 -10612268.582975 0 -10612268.582975 10368367.27718544 0 0 0 0 194724763.12484741 11573104.153488159 0 11573104.153488159 -101428623.30142212 0 0 0 0 -216784470.08439207 25588040.485694885 0 25588040.485694885 275284117.17037964 0 0 0 0 316056260.44444275 -437678414.68452454 0 -437678414.68452454 -302598726.24171448 0 0 0 0 -641345272.22304153 251175389.94198608 0 251175389.94198608 890620468.40882874 0 0 0 0 -53434067.512971878 -25476075.582199097 0 -25476075.582199097 -149533347.08553314 0 0 0 0 -474894694.8934164 -459161299.87876892 0 -459161299.87876892 -73776549.154602051 0 0 0 0 4265196.2640163321 -6098484.5536402836 0 -6098484.5536402836 -4428347.5480532944 0 0 0 0 21018762.880989075 -259481186.61161804 0 -259481186.61161804 49479610.111352921 0 0 0 0 159344619.49307775 -187464874.92484283 0 -187464874.92484283 -207772199.15383911 0 0 0 0 344765405.1739254 55662390.485656738 0 55662390.485656738 -127392551.69610214 0 0 0 0 11553454.362205803 306017130.61131287 0 306017130.61131287 -273972741.96714783 0 0 0 0 595801774.66737509 -47910354.406219482 0 -47910354.406219482 406844746.80126953 0 0 0 0 -101425755.60530996 -169183339.75405121 0 -169183339.75405121 1511218184.6916962 0 0 0 0 2022711.6351182247 1655353.090822421 0 1655353.090822421 499797.61826614407 0 0 0 0 58391004.811767578 417320776.12663269 0 417320776.12663269 661539694.31446838 0 0 0 0 6428216.3996462822 20516963.200378418 0 20516963.200378418 464043473.14572144 0 0 0 0 64047077.571315765 44557391.00668335 0 44557391.00668335 357474474.21078491 0 0 0 0 -13350137.65631485 68722514.416473389 0 68722514.416473389 359349038.68498802 0 0 0 0 54813700.945396423 95245320.070281982 0 95245320.070281982 399114636.42791748 0 0 0 0 151833913.18878555 115090607.39963531 0 115090607.39963531 193420309.89111328 0 0 0 0 -161833270.86445618 -77575253.084968567 0 -77575253.084968567 232984937.57623291 0 0 0 0 172528.07615285157 -65884.284175075591 0 -65884.284175075591 -524322.70068302751 0 0 0 0 135726302.98988724 40203671.161224365 0 40203671.161224365 -29731076.000656128 0 0 0 0 42606143.330702782 -1888488.7066802979 0 -1888488.7066802979 -162167744.55119705 0 0 0 0 49801960.842782974 41660284.032058716 0 41660284.032058716 195107101.68377686 0 0 0 0 62280417.066322327 39666356.419403076 0 39666356.419403076 194325314.23649597 0 0 0 0 -56936158.684619904 -18113489.837310791 0 -18113489.837310791 223812326.48352051 0 0 0 0 18137768.323509216 -3177087.1504821777 0 -3177087.1504821777 221400765.98384476 0 0 0 0 33776164.47187233 -15677638.176757812 0 -15677638.176757812 31149105.512268066 0 0 0 0 63257841.727630615 8789300.1343688965 0 8789300.1343688965 49458000.133361816 0 0 0 0 130377869.5427804 73860501.858493805 0 73860501.858493805 49491958.347167969 0 0 0 0 81244924.510528564 46184703.745605469 0 46184703.745605469 28272495.027282715 0 0 0 0 112991301.33133698 16429330.543182373 0 16429330.543182373 -28732516.5234375 0 0 0 0 91032982.720745087 26209503.374816895 0 26209503.374816895 -32856674.75453186 0 0 0 0 68494053.160407066 30554329.869262695 0 30554329.869262695 -54881291.861663818 0 0 0 0 104323096.45423126 25116276.855377197 0 25116276.855377197 -91497059.109863281 0 0 0 0 9323298.041015625 68025090.835266113 0 68025090.835266113 -79687958.900024414 0 0 0 0 70770995.062911987 12251905.193481445 0 12251905.193481445 -11831700.164489746 0 0 0 0 82856020.575480461 32624727.741020203 0 32624727.741020203 -119595633.97991943 0 0 0 0 63806067.211107254 58344422.322170258 0 58344422.322170258 -113843072.09442139 0 0 0 0 -23863408.447826385 100397145.03843689 0 100397145.03843689 -63455396.232299805 0 0 0 0 59326186.7827034 43994920.917907715 0 43994920.917907715 -74014285.217773438 0 0 0 0 -18535255.921260834 2389117.161026001 0 2389117.161026001 -11362396.749816895 0 0 0 0 -2495391.8349766321 6182616.0234633386 0 6182616.0234633386 940393.50902876258 0 0 0 0 -391681.72418903653 819988.63620788604 0 819988.63620788604 -814080.30696553737 0 0 0 0 -21120707.824576378 73023667.217025757 0 73023667.217025757 75986895.578659058 0 0 0 0 61711075.997278214 12641621.218093872 0 12641621.218093872 -58652156.701858521 0 0 0 0 -63063086.293624878 47090838.459896088 0 47090838.459896088 134657948.96105957 0 0 0 0 115427615.80736542 -6512430.1001586914 0 -6512430.1001586914 -59902058.090820312 0 0 0 0 -4651361.4230203629 233795904.30434418 0 233795904.30434418 -86085536.276977539 0 0 0 0 -3525058.962198338 6748879.1224725395 0 6748879.1224725395 7798268.6643348783 0 0 0 0 -1874508.4718508124 -9655356.463180542 0 -9655356.463180542 -2507094.5325622559 0 0 0 0 -21786484.012329757 -5700108.0283584595 0 -5700108.0283584595 7973182.7424926758 0 0 0 0 -35973880.211189359 -20647891.282836914 0 -20647891.282836914 15940819.245452881 0 0 0 0 -17502503.389138103 -25008683.002365112 0 -25008683.002365112 11944121.383850098 0 0 0 0 -511909.3603541851 -4955074.6716003418 0 -4955074.6716003418 6459890.3726501465 0 0 0 0 -93798413.163726807 33345990.31905365 0 33345990.31905365 85758811.802536011 0 0 0 0 -1657520.8857655525 22062960.610931396 0 22062960.610931396 17477093.928497314 0 0 0 0 -6515358.7048893459 -3133453.2168741319 0 -3133453.2168741319 23959920.109411493 0 0 0 0 -40450817.422142029 67650332.460662842 0 67650332.460662842 50875363.614280701 0 0 0 0 -13837677.146695755 21570406.817598969 0 21570406.817598969 14022732.675362617 0 0 0 0 23484696.536849976 37055197.547836304 0 37055197.547836304 21153639.453674316 0 0 0 0 -40711782.8177948 89543870.859863281 0 89543870.859863281 24158327.991622925 0 0 0 0 -53108071.177122116 88225379.866821289 0 88225379.866821289 24221152.417182922 0 0 0 0 -24512833.25412723 -16330865.674613304 0 -16330865.674613304 55860419.112389803 0 0 0 0 -49195013.768997192 -45804353.357795715 0 -45804353.357795715 -4494394.3182067871 0 0 0 0 -63549845.136297226 11957235.92855835 0 11957235.92855835 70408013.827583313 0 0 0 0 -48220354.897483826 -42866616.775665283 0 -42866616.775665283 -1819745.9104766846 0 0 0 0 2433179.9883026797 1211644.5051713362 0 1211644.5051713362 -409525.62571798265 0 0 0 0 -457626.17628288269 19882789.345016479 0 19882789.345016479 97459868.334564209 0 0 0 0 -426345.81884210388 165320.66769571602 0 165320.66769571602 20976.212945893407 0 0 0 0 -1413392.7755993605 41335998.627655029 0 41335998.627655029 114787557.8447876 0 0 0 0 -3929810.2252697945 13281386.344741821 0 13281386.344741821 129978634.34564209 0 0 0 0 -158225560.74460793 -158291329.76649475 0 -158291329.76649475 -144933141.56867981 0 0 0 0 -43201640.626361847 -32268903.522003174 0 -32268903.522003174 -2644481.8008117676 0 0 0 0 -41651113.163686752 -43451924.50592041 0 -43451924.50592041 -17921059.561806679 0 0 0 0 -42448656.587709904 -37069310.10515976 0 -37069310.10515976 -18039484.377380371 0 0 0 0 -105907499.98327637 10577176.704188347 0 10577176.704188347 123742176.88717651 0 0 0 0 -13832555.586302482 103225.38410021365 0 103225.38410021365 85694716.469707936 0 0 0 0 -99123636.761575699 -22494992.563468218 0 -22494992.563468218 109765037.43550491 0 0 0 0 -48246928.449033737 -48750367.116012573 0 -48750367.116012573 -9725768.4180297852 0 0 0 0 -133908993.7520752 16343227.843719482 0 16343227.843719482 125257222.32448959 0 0 0 0 -129595046.95198822 9347258.6534805298 0 9347258.6534805298 136033223.54646301 0 0 0 0 -153788471.39994812 34399302.294523239 0 34399302.294523239 134794258.90945053 0 0 0 0 -135027986.38513947 28661143.052402496 0 28661143.052402496 128527401.08010292 0 0 0 0 -364509699.41374683 521658936.55830765 0 521658936.55830765 -353440655.50228882 0 0 0 0 -5150185.7711412609 30302339.698248774 0 30302339.698248774 103539310.51919274 0 0 0 0 -140997542.20635986 23743807.347431183 0 23743807.347431183 141447783.32011127 0 0 0 0 -134936315.24822479 36496240.791054577 0 36496240.791054577 130458868.74840546 0 0 0 0 -137037548.54144287 26043025.865650177 0 26043025.865650177 126030868.52822447 0 0 0 0 -9207313.8271512575 7044587.7771487087 0 7044587.7771487087 13692566.154700905 0 0 0 0 -301899006.06026459 86277953.589874268 0 86277953.589874268 122819482.78063965 0 0 0 0 -303388482.77774048 201367320.57040405 0 201367320.57040405 -206819087.32666016 0 0 0 0 -130716510.01600266 209287651.97462463 0 209287651.97462463 -127798851.20684814 0 0 0 0 17733460.075218201 71528246.919311523 0 71528246.919311523 -189208834.75188446 0 0 0 0 -230935986.11021042 256672017.52593994 0 256672017.52593994 -261892279.11096191 0 0 0 0 124759327.90113831 -47246896.784515381 0 -47246896.784515381 -173032088.16265869 0 0 0 0 -6085589.6609687805 -47441372.989929199 0 -47441372.989929199 12403966.081451416 0 0 0 0 3548024.2118301392 -759765.93338012695 0 -759765.93338012695 16886840.301818848 0 0 0 0 -73905977.57522583 -136861522.96459961 0 -136861522.96459961 304233606.97512817 0 0 0 0 -95823864.278800964 -374644015.72891235 0 -374644015.72891235 807308971.49129105 0 0 0 0 -81806774.424180984 -217020731.94017029 0 -217020731.94017029 -13654194.87890625 0 0 0 0 612456235.89857483 -515647608.76307678 0 -515647608.76307678 -549653213.8604126 0 0 0 0 46035604.272301674 387176868.08017349 0 387176868.08017349 -712650208.79779053 0 0 0 0 -175902385.7956543 121283597.55885124 0 121283597.55885124 76325459.984583855 0 0 0 0 -138509101.65628052 52130542.872932434 0 52130542.872932434 97839105.179397583 0 0 0 0 -156470835.26972961 47826510.16680336 0 47826510.16680336 152581811.58006763 0 0 0 0 -193627128.05789757 76663045.466451168 0 76663045.466451168 174302445.63564301 0 0 0 0 -139712978.45710754 17290443.790706635 0 17290443.790706635 220667259.63487434 0 0 0 0 -153193113.23667908 73760902.117883205 0 73760902.117883205 253202082.37425613 0 0 0 0 -172973258.5604248 1576567.9008970261 0 1576567.9008970261 180552752.43743896 0 0 0 0 -166822003.83117676 16770665.835647583 0 16770665.835647583 197971064.63235664 0 0 0 0 -180996348.16622543 67293542.015463829 0 67293542.015463829 167348537.25772858 0 0 0 0 -165401761.53868103 23126670.710283279 0 23126670.710283279 164707953.99684167 0 0 0 0 -144754792.31044006 -4286363.1074810028 0 -4286363.1074810028 146519484.33265686 0 0 0 0 -152812043.87884521 -1982737.9397754669 0 -1982737.9397754669 162158964.6885004 0 0 0 0 -160888099.2355423 -4148450.3334488869 0 -4148450.3334488869 179476139.44518089 0 0 0 0 -158693383.48005676 -55208249.205136299 0 -55208249.205136299 154597464.6072731 0 0 0 0 -162657346.28667068 -33781011.111783028 0 -33781011.111783028 185602872.47481346 0 0 0 0 -139441861.51351929 -18041139.705207825 0 -18041139.705207825 143796437.04124451 0 0 0 0 -145871049.28953552 -31810984.05758667 0 -31810984.05758667 139826539.34918213 0 0 0 0 -152129046.38671875 -52381665.62484169 0 -52381665.62484169 138888570.30981994 0 0 0 0 -177388558.04475403 -127208000.44421244 0 -127208000.44421244 87474300.628282309 0 0 0 0 -6890149.2294306662 -13631898.256602265 0 -13631898.256602265 81067724.49136588 0 0 0 0 -131978059.50621033 -96559485.826246262 0 -96559485.826246262 54228466.247197151 0 0 0 0 -116146603.68870544 -45963406.038334846 0 -45963406.038334846 77752739.040962219 0 0 0 0 -164948721.29289246 -85243288.389377594 0 -85243288.389377594 129395007.11288989 0 0 0 0 -151875259.89152527 -73124110.066883087 0 -73124110.066883087 123494679.58359528 0 0 0 0 -146100936.07541275 -46023270.02765274 0 -46023270.02765274 126797534.3610878 0 0 0 0 -141121751.07400513 -108798346.87518501 0 -108798346.87518501 148749922.56622279 0 0 0 0 -137716166.98173523 -112938079.53552818 0 -112938079.53552818 106606189.13571525 0 0 0 0 -145298081.6809082 -92750676.608325958 0 -92750676.608325958 158195652.54753304 0 0 0 0 -130922187.86643982 -96084682.100341797 0 -96084682.100341797 174430635.40316391 0 0 0 0 -133149613.86271667 -82632633.710962296 0 -82632633.710962296 145152886.35443044 0 0 0 0 -160431428.53843689 -64244381.668337822 0 -64244381.668337822 227840128.34679604 0 0 0 0 -157018773.32862091 -49903573.922019958 0 -49903573.922019958 168276323.48418689 0 0 0 0 -173026367.4783138 -109503.71289488673 0 -109503.71289488673 259621893.07120514 0 0 0 0 -159292548.11315155 -38812031.161487579 0 -38812031.161487579 211037376.69403839 0 0 0 0 -135724180.42899704 -104262311.72305155 0 -104262311.72305155 250947335.47300243 0 0 0 0 -163648032.19657135 -43355077.475655556 0 -43355077.475655556 346057980.58816099 0 0 0 0 -128555422.41360092 -86659603.060420513 0 -86659603.060420513 208292169.45266533 0 0 0 0 -61379332.103248596 -170402419.44941282 0 -170402419.44941282 153310767.63857269 0 0 0 0 -95048434.259240627 -236897834.89905047 0 -236897834.89905047 441879547.88894653 0 0 0 0 -80648417.545681 -272420107.59216404 0 -272420107.59216404 206398139.22045016 0 0 0 0 -117176175.67292404 -129889493.05013847 0 -129889493.05013847 502952798.82736588 0 0 0 0 -122512697.15614605 -60360813.55782783 0 -60360813.55782783 339107489.52115631 0 0 0 0 -40124188.89831543 155424869.89290619 0 155424869.89290619 487358069.91133499 0 0 0 0 -115075400.92397308 62226911.766532898 0 62226911.766532898 301953753.10277843 0 0 0 0 -114548974.23635864 52344278.392904282 0 52344278.392904282 346050595.06537628 0 0 0 0 -58213775.268494129 118895785.22536242 0 118895785.22536242 221198794.87865829 0 0 0 0 -60035984.75289917 103637518.5969696 0 103637518.5969696 149077716.2292614 0 0 0 0 27813675.823829651 196827242.50852394 0 196827242.50852394 290064730.88358784 0 0 0 0 48581129.492254257 163646794.96054888 0 163646794.96054888 201206301.476017 0 0 0 0 91062012.7672472 211434084.95958519 0 211434084.95958519 213959887.73834229 0 0 0 0 43689498.027183309 4252980.9658813477 0 4252980.9658813477 694505669.03909302 0 0 0 0 31901134.9209987 -93848560.39870739 0 -93848560.39870739 615210309.50567627 0 0 0 0 -110998.21948954262 -46772.21212374419 0 -46772.21212374419 2506139.27228051 0 0 0 0 -32514278.658289254 12905864.806060791 0 12905864.806060791 807081520.91363525 0 0 0 0 -63194675.995874405 -61160754.673294067 0 -61160754.673294067 885877305.14257812 0 0 0 0 -40245233.535404205 -90195294.346191406 0 -90195294.346191406 760708429.61299133 0 0 0 0 -5520656.1724178791 -68977251.615242004 0 -68977251.615242004 692209959.53918457 0 0 0 0 -42343506.46267575 -144656076.01599121 0 -144656076.01599121 677493170.64431763 0 0 0 0 15594954.111851424 -118489597.07408905 0 -118489597.07408905 409909202.0072937 0 0 0 0 28683797.180513762 -113953517.44659424 0 -113953517.44659424 420831827.30856323 0 0 0 0 -9845753.9893222339 -120828159.98629761 0 -120828159.98629761 561562689.7734375 0 0 0 0 -16007802.991360158 -117579530.53868103 0 -117579530.53868103 590142387.90175629 0 0 0 0 22030517.896375574 -96844118.097923279 0 -96844118.097923279 579410348.84918213 0 0 0 0 11058908.356438905 -53982135.899375916 0 -53982135.899375916 419956609.73181152 0 0 0 0 -10158382.461720116 -72368458.168579102 0 -72368458.168579102 518143379.2929163 0 0 0 0 -11580156.288833506 -58721914.455108643 0 -58721914.455108643 590999817.52816772 0 0 0 0 -5572964.1340851039 -55381009.440124512 0 -55381009.440124512 516488677.42158318 0 0 0 0 7815473.4234363586 -93036109.850097656 0 -93036109.850097656 480146040.62088013 0 0 0 0 34127715.609027609 -29795670.129821777 0 -29795670.129821777 507206187.6858139 0 0 0 0 -82113.584532489942 -90191453.899620056 0 -90191453.899620056 569847767.77722168 0 0 0 0 104811023.37114245 -147086225.03749084 0 -147086225.03749084 243081151.43667603 0 0 0 0 -2309002.756282635 -33691271.776489258 0 -33691271.776489258 605823383.96398926 0 0 0 0 -34341054.921717979 -32063015.15713501 0 -32063015.15713501 609473691.06248474 0 0 0 0 -122033.24463345591 189850.55666872859 0 189850.55666872859 769307.36378816445 0 0 0 0 -35498764.312314942 -72288122.384735107 0 -72288122.384735107 672104506.29616404 0 0 0 0 -34005714.840892494 -37201009.393760681 0 -37201009.393760681 629514893.77633667 0 0 0 0 -25307060.961800244 -88990334.833938599 0 -88990334.833938599 613277566.03317261 0 0 0 0 10005535.060784116 -32366637.529602051 0 -32366637.529602051 29346730.095031738 0 0 0 0 -13960917.264854729 -11688363.95803833 0 -11688363.95803833 52355891.906254768 0 0 0 0 20776220.762700021 -6537713.3117599487 0 -6537713.3117599487 -15636222.305419922 0 0 0 0 -4674864.1382097006 2022160.9979553223 0 2022160.9979553223 11479779.319213867 0 0 0 0 70006.214794602507 -192047.97935080994 0 -192047.97935080994 232063.0346866399 0 0 0 0 -34742554.804949716 33460425.165756226 0 33460425.165756226 147793146.95373535 0 0 0 0 -4823.1172108495975 -17913408.304916382 0 -17913408.304916382 -54049022.221893311 0 0 0 0 41041261.705245867 -18252896.037246704 0 -18252896.037246704 -17114419.596069336 0 0 0 0 5380141.9746449143 8996896.3483581543 0 8996896.3483581543 -16092086.105079651 0 0 0 0 -10478217.405859932 7030060.1396942139 0 7030060.1396942139 -10468584.670196533 0 0 0 0 214206.01112419026 -667491.67842744244 0 -667491.67842744244 583053.55698701739 0 0 0 0 4591423.0784493685 -2159268.2743530273 0 -2159268.2743530273 -14365149.624847412 0 0 0 0 -10335863.750587812 -3155041.1480426788 0 -3155041.1480426788 1750438.5361938477 0 0 0 0 -1185001.0008381933 152308.95056319237 0 152308.95056319237 6895334.6793180108 0 0 0 0 231137558.59894338 46146680.219535828 0 46146680.219535828 23007561.091598511 0 0 0 0 -880038.97481145954 -2428722.6085302606 0 -2428722.6085302606 5961021.6818150431 0 0 0 0 127835335.0374645 255856639.03997421 0 255856639.03997421 214588279.91479492 0 0 0 0 68974223.70903337 281147661.38434601 0 281147661.38434601 346208864.63583374 0 0 0 0 75453243.058972359 270343897.77612305 0 270343897.77612305 292596448.88015747 0 0 0 0 75075240.331781864 232811543.20870972 0 232811543.20870972 283664517.63430786 0 0 0 0 800184.80655751762 -3751369.1716714725 0 -3751369.1716714725 4841786.3778036237 0 0 0 0 599423.80716839433 -18373391.141553879 0 -18373391.141553879 3927854.6662902832 0 0 0 0 22789389.462654054 7888179.525604248 0 7888179.525604248 8160639.1162872314 0 0 0 0 3184694.3665368725 -4445742.667402111 0 -4445742.667402111 3652040.9508534968 0 0 0 0 -222468418.25432968 -43985044.473922729 0 -43985044.473922729 322777322.35163879 0 0 0 0 -8709714.0514518619 -4935183.7962875366 0 -4935183.7962875366 19661510.568267822 0 0 0 0 -194814600.86164743 293800351.53815269 0 293800351.53815269 603820667.54815674 0 0 0 0 -181759261.05480719 376173396.56018066 0 376173396.56018066 336131910.77877808 0 0 0 0 58844667.208280563 234558915.81580353 0 234558915.81580353 337966838.6138916 0 0 0 0 -559497600.62165022 427188058.35582733 0 427188058.35582733 678468292.35482788 0 0 0 0 -217427.50848543236 -2688250.7734847218 0 -2688250.7734847218 7201552.1867436916 0 0 0 0 -719483322.60049295 524971640.15298462 0 524971640.15298462 1267031718.8583069 0 0 0 0 710774178.36252499 -939880994.18656921 0 -939880994.18656921 -1170244443.3200378 0 0 0 0 -451536005.44805527 -705989225.4263916 0 -705989225.4263916 2406286550.1739044 0 0 0 0 981804466.26199436 -1792308143.6660919 0 -1792308143.6660919 20909588.378860474 0 0 0 0 -521597816.70562458 105896225.6182251 0 105896225.6182251 514470539.98914337 0 0 0 0 -518546122.0359025 64931648.720840454 0 64931648.720840454 975406032.13916016 0 0 0 0 -580823622.24932694 -175212224.18262482 0 -175212224.18262482 241276432.06558228 0 0 0 0 -20408467.607745171 -526650610.16107178 0 -526650610.16107178 336726132.86076641 0 0 0 0 104359415.65206003 -411757146.28775024 0 -411757146.28775024 319254962.17636108 0 0 0 0 1105731288.3943975 -978236285.25428009 0 -978236285.25428009 235981383.95452881 0 0 0 0 327725956.52488256 -1198569391.2350616 0 -1198569391.2350616 1613763131.48703 0 0 0 0 -306893225.61048841 562806461.66168213 0 562806461.66168213 1871337041.6611176 0 0 0 0 901672326.96673965 685661491.30950928 0 685661491.30950928 -1612483590.7779541 0 0 0 0 557375609.99966812 1623063082.6824493 0 1623063082.6824493 93500576.878860474 0 0 0 0 -434101261.18006641 26780733.894271851 0 26780733.894271851 368205671.81595039 0 0 0 0 -99939773.926520884 -195131473.27770233 0 -195131473.27770233 -330318884.70529175 0 0 0 0 81803027.092183113 -114389777.48258972 0 -114389777.48258972 599947403.43234253 0 0 0 0 35030043.472826004 -272742579.84179688 0 -272742579.84179688 1009583824.6261292 0 0 0 0 -108049403.67165422 -243039164.24317932 0 -243039164.24317932 1157314546.2062988 0 0 0 0 5459861.14833734 1328126.7690494433 0 1328126.7690494433 1425964.4584756596 0 0 0 0 -43454434.776405811 159988348.03468323 0 159988348.03468323 1276937594.4261169 0 0 0 0 -143942356.97243643 -335732882.78662109 0 -335732882.78662109 1353359278.2515869 0 0 0 0 230756106.31825829 61833586.298461914 0 61833586.298461914 478545207.97433472 0 0 0 0 643350.1899433136 96470718.859985352 0 96470718.859985352 475736138.58402252 0 0 0 0 -21684869.40083313 -44999418.97883606 0 -44999418.97883606 965781445.64212036 0 0 0 0 -23872127.991840303 19582194.737624168 0 19582194.737624168 601346842.05340576 0 0 0 0 25892562.469229698 -78571858.251907349 0 -78571858.251907349 451194229.68481445 0 0 0 0 -110265496.07597733 56908765.129119873 0 56908765.129119873 558059173.65122986 0 0 0 0 66038844.418106675 -18679007.719398499 0 -18679007.719398499 732803419.87072754 0 0 0 0 2423892.681842804 -107503673.04389954 0 -107503673.04389954 788235028.38693237 0 0 0 0 -34200356.398783922 116744728.39468384 0 116744728.39468384 1168811144.4594116 0 0 0 0 1729248.0868338007 -77721.196277230978 0 -77721.196277230978 -172082.35774999857 0 0 0 0 4487614.5542949177 -1785803.584174715 0 -1785803.584174715 3166454.4858051939 0 0 0 0 -109619301.75836039 -90855483.586639404 0 -90855483.586639404 1731149993.5664215 0 0 0 0 239736821.83844948 -97490731.432312012 0 -97490731.432312012 40826770.884712696 0 0 0 0 565744884.19147468 70522971.908416748 0 70522971.908416748 847324902.88873291 0 0 0 0 168198222.86457181 -334287909.36639977 0 -334287909.36639977 727699313.80322266 0 0 0 0 42224917.473053932 -53135169.5909729 0 -53135169.5909729 833744444.80414581 0 0 0 0 89792969.026750565 111158579.26898193 0 111158579.26898193 535912274.64608765 0 0 0 0 131436506.09542084 -98686599.356735229 0 -98686599.356735229 346070277.83540344 0 0 0 0 -102324054.85710859 -64435576.72543335 0 -64435576.72543335 499811352.29977417 0 0 0 0 30520621.003357649 -253252519.99998474 0 -253252519.99998474 325484703.55462646 0 0 0 0 -84714199.29312551 -170250047.50003052 0 -170250047.50003052 818604329.92596436 0 0 0 0 -23910450.044823706 -205591057.44984436 0 -205591057.44984436 421465606.21206665 0 0 0 0 15199935.159786791 -176515867.12691021 0 -176515867.12691021 239121414.72912598 0 0 0 0 23627870.580150798 -83386620.826353073 0 -83386620.826353073 -39751260.842407227 0 0 0 0 -162078058.33771253 14581802.291229248 0 14581802.291229248 95500313.085144043 0 0 0 0 -179738885.84229755 -213743050.9022522 0 -213743050.9022522 325114147.56469727 0 0 0 0 -38480455.140854359 -244278561.95016479 0 -244278561.95016479 260177701.77163696 0 0 0 0 -99627741.703755736 11343990.453285217 0 11343990.453285217 -89165457.300292969 0 0 0 0 -24402106.249887496 145128467.86989927 0 145128467.86989927 111865980.91864014 0 0 0 0 57605111.124810219 -116177757.36300659 0 -116177757.36300659 -42738872.981277466 0 0 0 0 -183042810.72916415 -41653345.402443886 0 -41653345.402443886 -52149060.389221191 0 0 0 0 -177521748.06094456 -80154910.92791748 0 -80154910.92791748 -33825864.709533691 0 0 0 0 19063.535771516385 254423.40799475461 0 254423.40799475461 -12199.846903651953 0 0 0 0 -7301117.3501253128 29195437.270690918 0 29195437.270690918 -86941803.752441406 0 0 0 0 69048.560090538769 193459.87667568913 0 193459.87667568913 -124916.64995183051 0 0 0 0 844301.77718353458 2160744.1426836327 0 2160744.1426836327 -5887.7903473228216 0 0 0 0 -1407252.5000017136 1189672.7955331802 0 1189672.7955331802 2131029.0468444824 0 0 0 0 -134113114.8001377 -11786562.047924042 0 -11786562.047924042 53598818.109619141 0 0 0 0 -1479240.7524071168 -11151.443520172266 0 -11151.443520172266 1312854.6346341968 0 0 0 0 -102257288.66383624 9878908.8790283203 0 9878908.8790283203 -2733408.2844543457 0 0 0 0 -98096269.941542134 29594686.180740356 0 29594686.180740356 84305401.790344238 0 0 0 0 -17469049.132488906 -27770626.767379761 0 -27770626.767379761 52583217.043411255 0 0 0 0 41014878.398396492 121847049.64651489 0 121847049.64651489 262709920.28652954 0 0 0 0 31389895.594859123 -604180.27598571777 0 -604180.27598571777 -10761478.916793823 0 0 0 0 47470350.516487122 64458798.65814209 0 64458798.65814209 -6928416.5605163574 0 0 0 0 14368389.392643213 -12109919.754104614 0 -12109919.754104614 137034908.85168457 0 0 0 0 14989525.817521095 63662572.13230896 0 63662572.13230896 116789827.46395874 0 0 0 0 73510862.968734741 -22176612.224563599 0 -22176612.224563599 -2049539.6860046387 0 0 0 0 114635983.33276725 -3701108.0518569946 0 -3701108.0518569946 151356183.89224243 0 0 0 0 -28062883.976809502 -90129632.962097168 0 -90129632.962097168 -28718054.41506958 0 0 0 0 140172370.80875587 11809159.168945312 0 11809159.168945312 -52070418.654846191 0 0 0 0 39253795.734835625 -109809460.10609436 0 -109809460.10609436 -98285232.493347168 0 0 0 0 -668339.57128580101 2929018.3086929172 0 2929018.3086929172 714031.56049211323 0 0 0 0 -1005208.694237709 2029207.6144866943 0 2029207.6144866943 3457318.0149230957 0 0 0 0 -936214.33612012863 534700.10534667969 0 534700.10534667969 1258853.9094696045 0 0 0 0 -16442508.418246567 50350558.918587685 0 50350558.918587685 -58745885.580810547 0 0 0 0 43824013.84971714 -15028606.753112793 0 -15028606.753112793 -110040449.46990967 0 0 0 0 1360679.5231370926 3839563.2350463867 0 3839563.2350463867 -49524410.665939331 0 0 0 0 8892997.2210073471 60774925.489456177 0 60774925.489456177 -31419767.798576355 0 0 0 0 -4653182.6082117856 3023335.6932220459 0 3023335.6932220459 -7509800.1035079956 0 0 0 0 -3919660.0249527586 627143.25467234105 0 627143.25467234105 2268231.3907112181 0 0 0 0 -2787664.605732928 -96392.273293048143 0 -96392.273293048143 1443756.4622257128 0 0 0 0 -1077187.1696614623 14302661.339424133 0 14302661.339424133 -8466208.9701843262 0 0 0 0 21385913.208525777 -12188042.819503784 0 -12188042.819503784 1437100.7492980957 0 0 0 0 -7316915.8807334751 -1329699.5706539154 0 -1329699.5706539154 1038278.5340270996 0 0 0 0 -7167721.1799947023 18794489.728942871 0 18794489.728942871 11249749.60559082 0 0 0 0 -113780930.60929048 71545441.63659668 0 71545441.63659668 40490297.680847168 0 0 0 0 -30734392.673856974 46171291.19039917 0 46171291.19039917 8055379.0635375977 0 0 0 0 -96078111.623161793 29831080.219070435 0 29831080.219070435 16504470.459518433 0 0 0 0 -2620914.6957678795 95953.445358276367 0 95953.445358276367 2121329.2013092041 0 0 0 0 -1442713.1807802669 138066.81359957927 0 138066.81359957927 1467449.9912567586 0 0 0 0 -908434.45672669343 532.61620207410306 0 532.61620207410306 833263.85145765543 0 0 0 0 -2015577.1712272763 4439288.1302032471 0 4439288.1302032471 22319649.225708008 0 0 0 0 -26622097.490491748 4503822.1699371338 0 4503822.1699371338 3892252.1465682983 0 0 0 0 -84462161.656022727 86760601.667976379 0 86760601.667976379 -57555510.061805725 0 0 0 0 -1099687.3407049475 227978.6338019371 0 227978.6338019371 880912.90450103581 0 0 0 0 4047073.0719393492 1605485.8898010254 0 1605485.8898010254 -29255112.328697205 0 0 0 0 -97527290.486142159 23975377.369018555 0 23975377.369018555 47598402.670074463 0 0 0 0 -40974848.30039911 231246524.10641479 0 231246524.10641479 -121667593.44898605 0 0 0 0 40387854.318530954 -46537679.025878906 0 -46537679.025878906 109140262.45410156 0 0 0 0 14988863.029787108 43603598.758148193 0 43603598.758148193 69448283.673522949 0 0 0 0 -21165212.559346378 -21807460.75668335 0 -21807460.75668335 54623028.471977234 0 0 0 0 54933565.057940274 -64092858.681411743 0 -64092858.681411743 114974754.44290161 0 0 0 0 12791781.588736355 -93417122.532501221 0 -93417122.532501221 211826750.73144531 0 0 0 0 -1551644.2293793112 13476940.71546936 0 13476940.71546936 111083090.20672607 0 0 0 0 3029118.4971730709 -3134924.1246643066 0 -3134924.1246643066 81751788.505554199 0 0 0 0 40752626.652493328 -19216608.831954956 0 -19216608.831954956 169227436.88977051 0 0 0 0 56391052.699741863 -74713960.28881073 0 -74713960.28881073 190396655.60375977 0 0 0 0 26370537.77547469 -43084968.569595337 0 -43084968.569595337 236380485.74499512 0 0 0 0 42157008.683337599 -123766894.96411133 0 -123766894.96411133 283921067.82358551 0 0 0 0 11950368.20257514 -70314209.842269897 0 -70314209.842269897 403900637.47821045 0 0 0 0 7098006.5438752174 -164175022.2159729 0 -164175022.2159729 381322932.46008301 0 0 0 0 8374387.5085841417 -101846765.15971375 0 -101846765.15971375 355642205.16731262 0 0 0 0 37395526.254419483 -71106547.076693535 0 -71106547.076693535 230202711.449646 0 0 0 0 61551.268462087697 -22121929.48928833 0 -22121929.48928833 367700118.0057373 0 0 0 0 25401780.374510344 -46814985.248138428 0 -46814985.248138428 318550794.98170471 0 0 0 0 32801372.10556449 -110097338.34557343 0 -110097338.34557343 351328135.73147583 0 0 0 0 45392258.142885134 -31014543.804336548 0 -31014543.804336548 214366063.89981079 0 0 0 0 29417163.552666906 -60495013.413345337 0 -60495013.413345337 307202991.30323792 0 0 0 0 55434696.264976621 9371684.7478179932 0 9371684.7478179932 162054046.98803711 0 0 0 0 53534.025566383389 3459167.3477760023 0 3459167.3477760023 202207785.63461304 0 0 0 0 55998570.583379403 11525161.03062439 0 11525161.03062439 144825774.7193985 0 0 0 0 54956402.1624773 -55266517.397964478 0 -55266517.397964478 178244102.48330688 0 0 0 0 48290983.790627919 -7378900.7823944092 0 -7378900.7823944092 116953645.53384399 0 0 0 0 80939607.67445451 20121775.679092407 0 20121775.679092407 98292409.300872803 0 0 0 0 -4548.9491245448517 35143321.90447998 0 35143321.90447998 154615663.01173019 0 0 0 0 56272910.945504844 64877156.907150269 0 64877156.907150269 139093934.93228149 0 0 0 0 -34593809.584062487 16072118.502655029 0 16072118.502655029 117083479.14073944 0 0 0 0 -39733109.393335946 -52357805.618341446 0 -52357805.618341446 -5045188.5932617188 0 0 0 0 77284.097099028557 42746797.763824463 0 42746797.763824463 54179406.212554932 0 0 0 0 -27152076.247738734 13534785.985179901 0 13534785.985179901 324981004.40374756 0 0 0 0 -189253.47113894037 66679.058142185211 0 66679.058142185211 198798.62311177701 0 0 0 0 -24307357.06620428 129615386.19558716 0 129615386.19558716 301367204.9957428 0 0 0 0 66003954.330206841 253748955.2671051 0 253748955.2671051 168744325.7088623 0 0 0 0 -82219.907184788986 -80443.368420042098 0 -80443.368420042098 384535.09052166343 0 0 0 0 5309444.9556658715 57350869.910629272 0 57350869.910629272 10309671.045194626 0 0 0 0 106865994.78602228 147763180.17976379 0 147763180.17976379 253895636.5593338 0 0 0 0 33837209.507794499 53054845.06829834 0 53054845.06829834 151006928.73023987 0 0 0 0 -32532982.556287523 -26799846.11177063 0 -26799846.11177063 67026670.816177368 0 0 0 0 -125515.18469003114 -246119.23887677491 0 -246119.23887677491 828391.64335693419 0 0 0 0 102354849.21691775 -3616561.1270675659 0 -3616561.1270675659 41217370.194885254 0 0 0 0 -61211301.530283362 10977146.637863159 0 10977146.637863159 150496068.76913452 0 0 0 0 -31718995.059917614 63292699.342315674 0 63292699.342315674 122048023.01828003 0 0 0 0 -146803.38102063391 17655.487396724522 0 17655.487396724522 231450.74539206922 0 0 0 0 16135402.878941365 22333767.580627441 0 22333767.580627441 167145995.48228455 0 0 0 0 13360498.614911824 60161028.655517578 0 60161028.655517578 193987258.47332764 0 0 0 0 52461286.272172451 191433739.04066467 0 191433739.04066467 209335308.35639191 0 0 0 0 -108779.25211200697 -21323.363238118589 0 -21323.363238118589 155189.81013799459 0 0 0 0 7952654.7546014786 57193433.716110229 0 57193433.716110229 290397696.63809204 0 0 0 0 5478887.487515986 62729249.778427124 0 62729249.778427124 280081452.21359253 0 0 0 0 -45327.213631954481 51046.412717364728 0 51046.412717364728 204498.80821730196 0 0 0 0 13999896.403526723 23507490.909957886 0 23507490.909957886 95455148.997833252 0 0 0 0 5066159.1846851557 63647305.775863647 0 63647305.775863647 72423064.767196655 0 0 0 0 23001505.264229283 3945063.3626251221 0 3945063.3626251221 82617160.062286377 0 0 0 0 -5717412.9923790526 28918012.356239319 0 28918012.356239319 200344236.06643677 0 0 0 0 1540977.2400180474 25627408.844451904 0 25627408.844451904 200250623.56188869 0 0 0 0 -6785.1505318612271 2215919.3097381592 0 2215919.3097381592 174545366.68545532 0 0 0 0 -7641721.067824441 27908827.992019653 0 27908827.992019653 197914665.10211182 0 0 0 0 -15089.733430051601 -2322725.8591156006 0 -2322725.8591156006 238047660.67056274 0 0 0 0 -8434862.0451803561 -1530102.8871307373 0 -1530102.8871307373 250563493.54223633 0 0 0 0 5467070.4870381691 -21124321.158737183 0 -21124321.158737183 266604898.3130188 0 0 0 0 -7992063.2722636983 13669620.733184814 0 13669620.733184814 247913982.85472107 0 0 0 0 -10502290.196592392 6917835.1006040573 0 6917835.1006040573 241807947.43630981 0 0 0 0 -2875938.9432599917 17622089.805114746 0 17622089.805114746 253263323.77786255 0 0 0 0 -1862163.6254866719 20787007.372619629 0 20787007.372619629 255501370.01815796 0 0 0 0 -5388590.7480327189 -5091783.6019897461 0 -5091783.6019897461 289275322.79641724 0 0 0 0 7757241.2749894857 34441674.431999207 0 34441674.431999207 326240387.17102051 0 0 0 0 8908482.5815185308 33999841.685211182 0 33999841.685211182 269260845.63328552 0 0 0 0 -14626339.14634639 11790980.210327148 0 11790980.210327148 308988483.83633423 0 0 0 0 -3831096.7475847416 9775402.8374481201 0 9775402.8374481201 303500458.49969482 0 0 0 0 -9584013.5354691371 -8846516.5768470764 0 -8846516.5768470764 388136540.57183838 0 0 0 0 49168901.574279696 983214.23542022705 0 983214.23542022705 283606533.87586975 0 0 0 0 310786.49159407895 -1276.9304590895772 0 -1276.9304590895772 394757.38809067383 0 0 0 0 -769989.82769712806 -26834731.580413818 0 -26834731.580413818 341495495.61825562 0 0 0 0 5845370.8983938098 -31314667.788619995 0 -31314667.788619995 327002276.19358063 0 0 0 0 -12225392.399469398 -17703870.69467926 0 -17703870.69467926 304347014.32846069 0 0 0 0 224107.96016102144 74168.000473178923 0 74168.000473178923 528461.05343686417 0 0 0 0 -1888907.9276602119 -7603367.5988616943 0 -7603367.5988616943 287023104.66886902 0 0 0 0 66579151.635884404 13841694.902694702 0 13841694.902694702 349467323.34434128 0 0 0 0 -78842197.250790536 -72679284.681716919 0 -72679284.681716919 516410584.72076416 0 0 0 0 23732743.078667104 193657279.83074951 0 193657279.83074951 563137989.73265266 0 0 0 0 -47108542.713508427 20450082.749053955 0 20450082.749053955 24545168.736228943 0 0 0 0 372674.65014043666 381497.93735235929 0 381497.93735235929 1421962.6389636695 0 0 0 0 -55506451.744824052 -114134077.13380814 0 -114134077.13380814 252109835.33459473 0 0 0 0 -55349032.930171907 -130618631.75248718 0 -130618631.75248718 7853049.7135925293 0 0 0 0 30291995.692181885 -9548032.8189163208 0 -9548032.8189163208 128847827.20437622 0 0 0 0 -5950183.4421337247 21470425.944320679 0 21470425.944320679 153099596.43270874 0 0 0 0 8336843.3141463697 -17422066.462768555 0 -17422066.462768555 239858995.6134491 0 0 0 0 -46635248.863575213 -42861692.691537857 0 -42861692.691537857 434151512.03657532 0 0 0 0 45214.144767371945 73417.267256721854 0 73417.267256721854 583414.19086487591 0 0 0 0 42683.529698462953 32617527.109397888 0 32617527.109397888 272307496.19038391 0 0 0 0 -27855574.409705833 15940752.301513672 0 15940752.301513672 378097678.18505859 0 0 0 0 -23316404.828187346 35315518.521194458 0 35315518.521194458 246089142.02819824 0 0 0 0 -24582779.184616148 20542134.081573486 0 20542134.081573486 186660208.32422805 0 0 0 0 -44260913.728271037 41315111.080860138 0 41315111.080860138 264398087.00292969 0 0 0 0 -16227617.91749543 45358318.837783813 0 45358318.837783813 187085878.63339233 0 0 0 0 -15606889.152397275 40684285.552352905 0 40684285.552352905 106467113.20074463 0 0 0 0 -10711912.485356927 24475831.228088379 0 24475831.228088379 127897562.90621948 0 0 0 0 5949069.8618580103 39387563.258766174 0 39387563.258766174 130028909.05401611 0 0 0 0 -4517177.1130620539 47850462.087837219 0 47850462.087837219 184090363.05047607 0 0 0 0 35428509.797258914 40587783.639755249 0 40587783.639755249 181604887.15006638 0 0 0 0 37951368.654987901 74958559.649169922 0 74958559.649169922 116304352.55311584 0 0 0 0 40280192.155109733 56330104.919235229 0 56330104.919235229 186628649.53910446 0 0 0 0 29760945.046694919 57207348.642700195 0 57207348.642700195 186934599.39706039 0 0 0 0 -14169071.431196377 -35500.318115234375 0 -35500.318115234375 356109592.78408813 0 0 0 0 66126226.500673115 113768295.16958237 0 113768295.16958237 285578438.87759399 0 0 0 0 -7438110.7903379649 -9244089.5480499268 0 -9244089.5480499268 244273449.95305634 0 0 0 0 14467397.904326499 20757023.692718506 0 20757023.692718506 257853590.33032227 0 0 0 0 140925.73227018601 -31968.259033851326 0 -31968.259033851326 163949.86907314882 0 0 0 0 31290295.433914997 -15215629.377656937 0 -15215629.377656937 238370135.14160156 0 0 0 0 17863402.078184128 -2191443.5879821777 0 -2191443.5879821777 409599847.9817276 0 0 0 0 9628026.6187332869 -41652397.489349365 0 -41652397.489349365 356347759.79867554 0 0 0 0 2743916.73382622 62992091.429718018 0 62992091.429718018 291659177.46810913 0 0 0 0 -22354769.353562236 62640370.759735107 0 62640370.759735107 357739171.97370911 0 0 0 0 -27552639.787358165 77693603.411819458 0 77693603.411819458 533551846.86949158 0 0 0 0 -21835696.788103282 77914980.58732605 0 77914980.58732605 324904856.84829712 0 0 0 0 -41307762.215832949 -75498036.030792236 0 -75498036.030792236 334587595.61796951 0 0 0 0 113081981.44623852 -28911202.930877686 0 -28911202.930877686 410837448.13128662 0 0 0 0 48787749.658910573 49262350.301322937 0 49262350.301322937 352700268.06594849 0 0 0 0 -47785967.871657342 -28319950.046638489 0 -28319950.046638489 334945920.69793701 0 0 0 0 54861773.09175469 75361875.872833252 0 75361875.872833252 265035180.33203125 0 0 0 0 -124986618.17494544 -76277274.823097229 0 -76277274.823097229 207597029.21176147 0 0 0 0 -67733602.827341095 8425230.1019477844 0 8425230.1019477844 299400297.31652832 0 0 0 0 -60782850.058629453 -3317955.1772766113 0 -3317955.1772766113 297774953.13770294 0 0 0 0 2985705.8119755834 -15147087.2631073 0 -15147087.2631073 208034289.82427979 0 0 0 0 -4471380.720869422 8747396.6195297241 0 8747396.6195297241 204846724.42880249 0 0 0 0 15928397.924661309 58688001.354988098 0 58688001.354988098 166643312.59802246 0 0 0 0 -4060809.769117415 35844750.564254761 0 35844750.564254761 200649748.88260078 0 0 0 0 -22689671.191656649 62581258.489692688 0 62581258.489692688 163797629.712677 0 0 0 0 14924632.665783167 160850285.80047607 0 160850285.80047607 379789064.41479492 0 0 0 0 -48781.618704199384 -151386.24851923436 0 -151386.24851923436 474106.21157373488 0 0 0 0 42457045.593122244 -78031654.418884277 0 -78031654.418884277 -63574291.95123291 0 0 0 0 -26741682.274493694 -167668972.36875916 0 -167668972.36875916 44987784.565490723 0 0 0 0 14391279.203036129 -78460247.159622192 0 -78460247.159622192 61987693.308288574 0 0 0 0 -37342278.776430309 -136272659.26046753 0 -136272659.26046753 175619834.76733398 0 0 0 0 39747146.93954432 -33061028.022949219 0 -33061028.022949219 143257465.4003067 0 0 0 0 34220413.321148813 -24654083.332107544 0 -24654083.332107544 131612777.06585693 0 0 0 0 73753526.896698952 41223310.645050049 0 41223310.645050049 135611694.26939201 0 0 0 0 113230724.94021571 42339746.703552246 0 42339746.703552246 117717557.31793118 0 0 0 0 46151247.785472631 36810109.26083374 0 36810109.26083374 57981934.034034729 0 0 0 0 45886357.494284391 7684738.7812194824 0 7684738.7812194824 115289337.00714111 0 0 0 0 -43810109.695581436 87935082.142807007 0 87935082.142807007 101944348.18666077 0 0 0 0 48399682.285584569 9956045.2362670898 0 9956045.2362670898 -61820124.64372015 0 0 0 0 -51938805.82089299 72098558.894775391 0 72098558.894775391 222340092.00863647 0 0 0 0 -35750283.74940145 97260913.166885376 0 97260913.166885376 260635298.1128273 0 0 0 0 -12705806.438879907 8334953.7949981689 0 8334953.7949981689 242331767.73175049 0 0 0 0 -272145.57206048479 24053.734387943288 0 24053.734387943288 335927.45488552749 0 0 0 0 81131944.954542175 132081517.07405758 0 132081517.07405758 153330993.37191772 0 0 0 0 982184.96399250999 -76875268.215395927 0 -76875268.215395927 125779073.07269287 0 0 0 0 42512819.40802449 20713235.19581604 0 20713235.19581604 11347642.455413818 0 0 0 0 -21565933.381417155 -3026514.7576141357 0 -3026514.7576141357 210026999.88131714 0 0 0 0 -16871652.238823116 26111502.273033142 0 26111502.273033142 167627965.61651611 0 0 0 0 -6384408.5089836717 20224576.334976196 0 20224576.334976196 113907860.46716309 0 0 0 0 74040799.215969816 103949149.17451096 0 103949149.17451096 195768047.48291016 0 0 0 0 -33383013.992675245 30222609.870483398 0 30222609.870483398 270107106.39134216 0 0 0 0 6403819.0946547985 -34405364.752365112 0 -34405364.752365112 99385962.68939209 0 0 0 0 27671237.546450436 -11069261.015457153 0 -11069261.015457153 4587936.7121276855 0 0 0 0 10864453.580044389 2059949.1474456787 0 2059949.1474456787 29692456.970016479 0 0 0 0 4884702.6873925552 -18212316.545547485 0 -18212316.545547485 30286141.14755249 0 0 0 0 -17155498.382298768 4448837.4643707275 0 4448837.4643707275 75895446.01864624 0 0 0 0 -10652846.497617245 5184455.4519767761 0 5184455.4519767761 13229929.574707031 0 0 0 0 -10259989.796668872 459996.37488174438 0 459996.37488174438 58203536.893463135 0 0 0 0 12411219.057514489 36982217.04624939 0 36982217.04624939 67468511.592185974 0 0 0 0 -140781285.027825 -73872715.466316223 0 -73872715.466316223 59106663.131469727 0 0 0 0 -40731072.070070326 8455582.0451660156 0 8455582.0451660156 60537391.834823608 0 0 0 0 -1492484.4532272685 -5734812.2193352729 0 -5734812.2193352729 16050582.743932039 0 0 0 0 -2504209.7912769318 -51014608.31803894 0 -51014608.31803894 -20187760.398010254 0 0 0 0 19847609.825011194 36888660.054237366 0 36888660.054237366 74645517.454406738 0 0 0 0 5801896.1438679695 36459934.051498413 0 36459934.051498413 79098166.488769531 0 0 0 0 23852158.714056015 -21073769.825042725 0 -21073769.825042725 25542705.88482666 0 0 0 0 -10587883.907698274 4270053.0883283615 0 4270053.0883283615 100768282.16741943 0 0 0 0 -7230793.1397327185 -26503488.96421814 0 -26503488.96421814 12639296.911605835 0 0 0 0 -32411111.591960907 37246744.142166138 0 37246744.142166138 390801361.94421387 0 0 0 0 1798907.4533081548 1148628.2563607916 0 1148628.2563607916 -1169050.5210069194 0 0 0 0 38585387.282249451 74555390.11895752 0 74555390.11895752 213183722.60107422 0 0 0 0 46634598.867418289 60408652.07749939 0 60408652.07749939 139427205.53271484 0 0 0 0 16392257.752152443 22290706.972412109 0 22290706.972412109 97681238.743745804 0 0 0 0 37309730.768772125 -37417033.873077393 0 -37417033.873077393 113906399.41695404 0 0 0 0 23386263.6605196 -20257647.807144165 0 -20257647.807144165 97815791.407287598 0 0 0 0 52667301.994083405 -67524714.860198975 0 -67524714.860198975 82324012.689575195 0 0 0 0 22350738.180866241 -35230796.196014404 0 -35230796.196014404 238383304.8249054 0 0 0 0 -14632675.578922272 -58363098.573883057 0 -58363098.573883057 49211501.727142334 0 0 0 0 58654289.696877003 -49583533.238769531 0 -49583533.238769531 41287952.559082031 0 0 0 0 55858216.363883972 -58145157.31300354 0 -58145157.31300354 39360351.222991943 0 0 0 0 36360567.319517851 -33445407.564926147 0 -33445407.564926147 8657867.8840332031 0 0 0 0 -5450057.6324121952 -12739094.89730835 0 -12739094.89730835 -24200437.799621582 0 0 0 0 -96122553.91288805 -482203.22840881348 0 -482203.22840881348 46830407.237060547 0 0 0 0 7109440.4741997719 -47342884.387161255 0 -47342884.387161255 44507391.373535156 0 0 0 0 1065409.0426373482 -23461523.805961609 0 -23461523.805961609 18234760.048019409 0 0 0 0 -51816811.897890806 -71780312.139076233 0 -71780312.139076233 13204481.81362915 0 0 0 0 52671338.05794096 -117502714.2233696 0 -117502714.2233696 99342021.551300049 0 0 0 0 81519058.900892258 -68512263.028701782 0 -68512263.028701782 -1131356.7536315918 0 0 0 0 -19382822.949912071 -131567843.10771179 0 -131567843.10771179 96597716.988952637 0 0 0 0 44551919.823573589 -226427592.60515594 0 -226427592.60515594 230793432.39715576 0 0 0 0 -9131360.9219532013 -178262133.94729614 0 -178262133.94729614 231750867.73285913 0 0 0 0 525291.65954634023 -2187253.428016983 0 -2187253.428016983 3043543.3188700378 0 0 0 0 518787794.3408795 -326912497.9964447 0 -326912497.9964447 141199978.86956024 0 0 0 0 254898658.62241054 -73765225.199546814 0 -73765225.199546814 -38145125.924560547 0 0 0 0 -22698103.172239244 115968470.35752869 0 115968470.35752869 179614217.08004761 0 0 0 0 487589070.44102073 610599886.93771362 0 610599886.93771362 658034967.29611206 0 0 0 0 -96359987.693128094 57610614.885528564 0 57610614.885528564 243847916.83837891 0 0 0 0 -40579580.421072841 155502572.37390137 0 155502572.37390137 409198107.27639771 0 0 0 0 25816462.572595656 81712126.693099976 0 81712126.693099976 101244372.64185333 0 0 0 0 -28869034.490990102 87562219.08581543 0 87562219.08581543 248128926.1791687 0 0 0 0 54378772.019693516 128168350.59562683 0 128168350.59562683 176767225.63674927 0 0 0 0 306168.53556786268 -4819073.3625230379 0 -4819073.3625230379 9482358.8261531889 0 0 0 0 76305020.042182922 -101225558.45061946 0 -101225558.45061946 -13433341.518786192 0 0 0 0 -5901062.6248397827 -79935714.112163365 0 -79935714.112163365 17352356.705334425 0 0 0 0 -721315.98984527588 -129480690.07501507 0 -129480690.07501507 4318641.6240199432 0 0 0 0 -48832488.447727203 -169735727.06609774 0 -169735727.06609774 3530979.7554039955 0 0 0 0 -48307699.904060364 -97623959.00999701 0 -97623959.00999701 14265826.444636106 0 0 0 0 -85556490.911865234 -81152510.080493152 0 -81152510.080493152 16812137.474300623 0 0 0 0 -34000976.748725891 -120553052.35645771 0 -120553052.35645771 19322609.134108782 0 0 0 0 -140462868.67102242 -146237821.39608806 0 -146237821.39608806 28218241.068807125 0 0 0 0 -5648007.3708619215 -21550152.993000861 0 -21550152.993000861 86134576.685189128 0 0 0 0 -113316603.08165932 -79248962.824035645 0 -79248962.824035645 98335851.412872314 0 0 0 0 -92362099.618453979 -125034069.83865905 0 -125034069.83865905 52187255.491080284 0 0 0 0 -93512233.251831055 -106279652.76397347 0 -106279652.76397347 -3299794.571562767 0 0 0 0 -85595985.573917389 -117827393.80924129 0 -117827393.80924129 49174397.581905365 0 0 0 0 -137194252.42124939 -252334424.13183594 0 -252334424.13183594 113012097.76196289 0 0 0 0 -179072461.97454071 -76175897.580065012 0 -76175897.580065012 75636682.629083157 0 0 0 0 9382461.7606163025 53638901.298980713 0 53638901.298980713 -35389726.533607483 0 0 0 0 12989229.585166931 -173126833.26416016 0 -173126833.26416016 341204993.79623413 0 0 0 0 143870707.46758652 -248495725.21032715 0 -248495725.21032715 -161432768.73501587 0 0 0 0 18579962.64862442 -54733241.219329834 0 -54733241.219329834 87374154.205673218 0 0 0 0 -15285896.98286438 -62787136.116516113 0 -62787136.116516113 84391949.579620361 0 0 0 0 -117701464.53408432 -9848517.1114959717 0 -9848517.1114959717 75723322.989471436 0 0 0 0 -75899441.356330872 -64518480.579803467 0 -64518480.579803467 136674233.56123352 0 0 0 0 -84984980.361541748 -88770587.248401642 0 -88770587.248401642 172309587.46801758 0 0 0 0 -57489047.305089951 -145266061.31399536 0 -145266061.31399536 211909318.19592285 0 0 0 0 -119910211.73888779 -11458648.654396057 0 -11458648.654396057 140288021.6769104 0 0 0 0 -142919745.18558121 -93307107.398803711 0 -93307107.398803711 271586827.97377014 0 0 0 0 -188492917.56516266 -26910353.474838257 0 -26910353.474838257 216321911.73458862 0 0 0 0 -168148054.60335732 -21305487.027820587 0 -21305487.027820587 190852679.26269531 0 0 0 0 -10314006.940453853 36403173.62223842 0 36403173.62223842 87346682.251745477 0 0 0 0 -121168463.62561607 10208776.440483093 0 10208776.440483093 132117516.29598999 0 0 0 0 -46970323.418464661 -5013106.824420929 0 -5013106.824420929 134441723.38562012 0 0 0 0 -80300841.186407089 -51061372.598266602 0 -51061372.598266602 96690084.921520233 0 0 0 0 -31838532.427979469 -94909746.691810474 0 -94909746.691810474 17517232.645661831 0 0 0 0 -32661241.409729004 -99120600.37003088 0 -99120600.37003088 19033227.32574743 0 0 0 0 -8408560.7436172813 -26256538.649061698 0 -26256538.649061698 96527183.008021474 0 0 0 0 -1092181561.0731449 -1014087228.4621053 0 -1014087228.4621053 1037429748.5423685 0 0 0 0 59889774.218510628 -285352861.7932353 0 -285352861.7932353 198101295.56784153 0 0 0 0 -3310406618.0502815 -51267508.196424246 0 -51267508.196424246 832948452.84150314 0 0 0 0 -3441442.1810255172 2645470.5562581988 0 2645470.5562581988 4830191.2537361765 0 0 0 0 1920635274.8109894 544246265.35050058 0 544246265.35050058 -227516386.12129736 0 0 0 0 55211350.906982422 279817890.13360238 0 279817890.13360238 601384975.8527081 0 0 0 0 -156399478.40713501 -22675585.882804394 0 -22675585.882804394 874248697.68010139 0 0 0 0 -110602812.3738575 1856757.5333346128 0 1856757.5333346128 324829783.19726706 0 0 0 0 100994648.62743759 761914863.45790839 0 761914863.45790839 -86039163.010885119 0 0 0 0 -372244292.4663229 -148931265.36257654 0 -148931265.36257654 387001637.78309155 0 0 0 0 -16356205.332578637 -15981987.527048949 0 -15981987.527048949 38131512.268654719 0 0 0 0 16495260.359954834 25635760.035494745 0 25635760.035494745 149163777.52187467 0 0 0 0 23133253.516532898 4730886.8676965833 0 4730886.8676965833 167724806.83834475 0 0 0 0 64629699.443889618 24329485.005538225 0 24329485.005538225 125953177.10355067 0 0 0 0 62598659.570896149 77512080.97293663 0 77512080.97293663 154087410.08522224 0 0 0 0 -59214326.615432739 67786975.354809225 0 67786975.354809225 213000269.17495728 0 0 0 0 207031057.54967117 174508120.03364885 0 174508120.03364885 147671708.1670928 0 0 0 0 77284107.595374107 37891490.175702184 0 37891490.175702184 112623338.3163271 0 0 0 0 92063903.736534119 68750281.031634569 0 68750281.031634569 165069942.1963973 0 0 0 0 142192521.14405823 84200211.059667826 0 84200211.059667826 75518786.688621521 0 0 0 0 49376347.02407074 -14820207.704454184 0 -14820207.704454184 91259161.038592815 0 0 0 0 591230.63345785998 -1534467.6132194838 0 -1534467.6132194838 10475618.497386023 0 0 0 0 129406018.35894012 36841378.05464673 0 36841378.05464673 54519277.184089422 0 0 0 0 82524231.255393982 -14691477.496492386 0 -14691477.496492386 11183108.048827648 0 0 0 0 18189471.886766434 -67901054.564630866 0 -67901054.564630866 36265076.421740532 0 0 0 0 -68236781.89680481 -47597550.920142889 0 -47597550.920142889 120354157.97546628 0 0 0 0 -40452891.178863525 -35519673.99467659 0 -35519673.99467659 119910728.77257156 0 0 0 0 66887367.516724586 -5183760.7109392509 0 -5183760.7109392509 96398521.276207447 0 0 0 0 13635153.91469574 -22696678.250977516 0 -22696678.250977516 126003434.48212433 0 0 0 0 25904834.405151367 -21157151.948429585 0 -21157151.948429585 126177405.88171273 0 0 0 0 18177278.236549377 -7766698.7493076324 0 -7766698.7493076324 130108790.02725169 0 0 0 0 11136340.890512466 -8208696.8554141819 0 -8208696.8554141819 130183404.42795706 0 0 0 0 -56509223.139030457 -771770.25827026367 0 -771770.25827026367 149730637.43996751 0 0 0 0 -40425695.812606812 -1647625.241394043 0 -1647625.241394043 149079034.22248858 0 0 0 0 -472064.66889596172 6337473.9896109169 0 6337473.9896109169 45347236.573887981 0 0 0 0 -59909434.570838928 -6031896.8082306385 0 -6031896.8082306385 145874374.2842536 0 0 0 0 -6433883.0727012716 -5481191.1104469653 0 -5481191.1104469653 44859500.854530297 0 0 0 0 -70806570.030075073 -20410156.459429026 0 -20410156.459429026 132585897.24101543 0 0 0 0 -38577274.86555481 250898.94291830063 0 250898.94291830063 144982295.76569939 0 0 0 0 -189374677.33060932 -248573092.01548386 0 -248573092.01548386 323544200.16022873 0 0 0 0 492738080.77341747 186401698.80452394 0 186401698.80452394 100967905.20984459 0 0 0 0 -282223713.23453903 367791348.86759949 0 367791348.86759949 48665675.935173035 0 0 0 0 -168120424.80782509 109500313.51785278 0 109500313.51785278 -46468064.013519287 0 0 0 0 -225207999.98774242 34423088.819816589 0 34423088.819816589 353970123.99151611 0 0 0 0 -11894426.48385042 38388216.836796731 0 38388216.836796731 84419092.86803706 0 0 0 0 50396461.999490142 3511150.8757534027 0 3511150.8757534027 139078114.1402359 0 0 0 0 3012737.9677947452 -29457768.755228706 0 -29457768.755228706 82259022.123843864 0 0 0 0 -31470007.067155838 -14457985.850465298 0 -14457985.850465298 164890679.90870667 0 0 0 0 21772582.723914146 -85370323.402398586 0 -85370323.402398586 111894051.85597038 0 0 0 0 41946416.984137535 -43218872.498270273 0 -43218872.498270273 -58051035.474056244 0 0 0 0 -113027161.80183411 68743096.424897194 0 68743096.424897194 57713520.724372864 0 0 0 0 -21134299.97562027 -8172887.6273784637 0 -8172887.6273784637 105152539.63075829 0 0 0 0 -35214898.082441151 -12951129.446689606 0 -12951129.446689606 155082902.98283768 0 0 0 0 -73155789.610580444 -15230792.872421265 0 -15230792.872421265 157375123.38794136 0 0 0 0 -114341141.86623383 26613541.981559753 0 26613541.981559753 141461333.71940231 0 0 0 0 -139694620.06553268 -10675794.156580448 0 -10675794.156580448 221571596.15283203 0 0 0 0 -167526436.40714645 -44283490.135669708 0 -44283490.135669708 193098665.21968842 0 0 0 0 -68819658.600221634 -56739652.380588531 0 -56739652.380588531 184548318.06892776 0 0 0 0 31407750.958442688 -223306863.50989914 0 -223306863.50989914 168199642.20251846 0 0 0 0 -37653054.475158691 -112459418.01096344 0 -112459418.01096344 84691147.646320343 0 0 0 0 -180271908.9709065 -177014873.14305389 0 -177014873.14305389 333835510.82838821 0 0 0 0 -164256922.7653656 536039070.63743162 0 536039070.63743162 -596003210.21309948 0 0 0 0 -315274540.72268677 -140346443.0169239 0 -140346443.0169239 324484256.31132126 0 0 0 0 -14429895.074249268 46329551.202991486 0 46329551.202991486 -184103015.31889725 0 0 0 0 -543098916.4120636 211519794.84142685 0 211519794.84142685 386501831.16970348 0 0 0 0 -336626423.40539551 -62880989.563817978 0 -62880989.563817978 461864335.50317764 0 0 0 0 -114824544.59685516 71434455.235947609 0 71434455.235947609 107424297.92523956 0 0 0 0 -318706357.3984375 101370651.44634247 0 101370651.44634247 155281321.65420151 0 0 0 0 -287756180.88497162 324763615.80863762 0 324763615.80863762 -148047803.589468 0 0 0 0 -535658976.9548645 98040212.23056221 0 98040212.23056221 667143867.17854691 0 0 0 0 -1781919020.4428253 1908693635.3369913 0 1908693635.3369913 440343964.68899679 0 0 0 0 -1059943131.0884399 -1018013410.6048794 0 -1018013410.6048794 2054341229.5983448 0 0 0 0 -4337265785.9281616 1417945723.660924 0 1417945723.660924 4740669758.7461405 0 0 0 0 1595354202.2156067 -1944145143.20928 0 -1944145143.20928 1552837831.6748619 0 0 0 0 -4643485230.5162163 -486391471.74515641 0 -486391471.74515641 7439090697.4100456 0 0 0 0 -788687600.34613037 -3140190141.2715578 0 -3140190141.2715578 5056266031.3491936 0 0 0 0 426119131.65222168 -731096616.33978844 0 -731096616.33978844 391313179.8086586 0 0 0 0 332472533.13461304 -684183144.94763184 0 -684183144.94763184 385247240.42367411 0 0 0 0 -185316192.4029007 -453721210.54251289 0 -453721210.54251289 795391749.53922653 0 0 0 0 -556158067.78570557 -1364511040.5114498 0 -1364511040.5114498 2289730806.1209602 0 0 0 0 -904923450.84896088 -76224209.230535507 0 -76224209.230535507 654860538.45004272 0 0 0 0 273346770.5923233 -404904375.05323792 0 -404904375.05323792 189305917.1015892 0 0 0 0 79655824.932289124 -399885174.83107185 0 -399885174.83107185 198769032.83426666 0 0 0 0 35618173.463485241 -179708685.39068103 0 -179708685.39068103 -22922855.743835449 0 0 0 0 229464140.63814545 -129580730.76855087 0 -129580730.76855087 -132507152.43239975 0 0 0 0 782357955.87309265 -357823585.43527412 0 -357823585.43527412 -4681306.258895874 0 0 0 0 231547757.8070488 -115671400.77592897 0 -115671400.77592897 -108584735.36667633 0 0 0 0 -101872115.73475647 118228539.310359 0 118228539.310359 2526443.7534103394 0 0 0 0 328403769.59944916 84174554.027261734 0 84174554.027261734 -32403832.490093231 0 0 0 0 -165593710.305439 49432116.950193405 0 49432116.950193405 -45248657.822166443 0 0 0 0 328874819.25513077 513211741.34884077 0 513211741.34884077 511787180.48786831 0 0 0 0 1756391963.3104362 -1670920266.8241675 0 -1670920266.8241675 591036751.18256509 0 0 0 0 5802481.9930784125 1028330.4154740695 0 1028330.4154740695 18128713.781019304 0 0 0 0 4999803.9762266912 -5064517.3875611853 0 -5064517.3875611853 464638.68485725066 0 0 0 0 1072650376.7541618 -348830868.92176199 0 -348830868.92176199 205559341.14088058 0 0 0 0 -94916036.522269011 70550103.34161377 0 70550103.34161377 506230699.25927353 0 0 0 0 -175892.5499588321 1327332.7829408273 0 1327332.7829408273 12049310.802458968 0 0 0 0 249446301.1418311 -619500591.55709839 0 -619500591.55709839 -735729649.60202026 0 0 0 0 -28425519.749991775 119667304.7204895 0 119667304.7204895 379147150.22631836 0 0 0 0 -6219267.8030304909 23417830.453826904 0 23417830.453826904 272779251.68945312 0 0 0 0 -247955564.64068949 26050613.220733643 0 26050613.220733643 372916914.45205688 0 0 0 0 -121967631.96732372 73478150.003410339 0 73478150.003410339 -15505699.494049072 0 0 0 0 -404219801.77418959 -59241535.235900879 0 -59241535.235900879 1243758186.3132019 0 0 0 0 -132481868.83087528 -997076401.84347534 0 -997076401.84347534 505800240.32443237 0 0 0 0 173187903.31535244 -499916555.26831818 0 -499916555.26831818 789060256.64456177 0 0 0 0 -262832262.62668133 96171024.599029541 0 96171024.599029541 1364748638.5682983 0 0 0 0 902684223.28701317 1161840770.427124 0 1161840770.427124 101669808.90753174 0 0 0 0 -364985934.87744617 310705736.07453918 0 310705736.07453918 168985253.62978363 0 0 0 0 -160761636.591506 -165711882.63063431 0 -165711882.63063431 571565998.85235596 0 0 0 0 -185998541.40919113 148093441.87660217 0 148093441.87660217 288925047.83340454 0 0 0 0 -376530786.75097752 137795727.09197998 0 137795727.09197998 338553413.06819153 0 0 0 0 528601410.91693413 209213364.06984711 0 209213364.06984711 -1016680872.6301727 0 0 0 0 115531230.1993705 97028750.146408081 0 97028750.146408081 254652893.62496948 0 0 0 0 -3608880.6745963385 1508162.9867107123 0 1508162.9867107123 44653205.875363313 0 0 0 0 -13501837.028696217 92365028.095909595 0 92365028.095909595 467169584.04937744 0 0 0 0 513691946.66822129 85240609.815002441 0 85240609.815002441 -325986605.95889282 0 0 0 0 280649696.05876017 -214476439.16452026 0 -214476439.16452026 152025202.80316162 0 0 0 0 -44133061.680847526 -61084385.996063232 0 -61084385.996063232 530372372.76480103 0 0 0 0 -11596096.052662706 38171728.980271488 0 38171728.980271488 95766307.371523619 0 0 0 0 -232954623.90637839 -128640762.25352478 0 -128640762.25352478 688277569.30004883 0 0 0 0 -30919379.198019743 50701195.820007324 0 50701195.820007324 157787911.89922523 0 0 0 0 -12054292.984023677 -4286897.5262868553 0 -4286897.5262868553 25799938.684176594 0 0 0 0 60388245.405703381 -3717700.6430907249 0 -3717700.6430907249 134372301.91588211 0 0 0 0 -2685957.184841156 18930354.915634155 0 18930354.915634155 160485250.81134367 0 0 0 0 53489470.685572147 -27180033.352948189 0 -27180033.352948189 145244689.70878983 0 0 0 0 29882501.199867249 -21292938.822769165 0 -21292938.822769165 144187859.9648838 0 0 0 0 -40832754.030117959 -74344189.749526978 0 -74344189.749526978 31743754.821716309 0 0 0 0 -131933887.03574359 109398210.16001892 0 109398210.16001892 63528335.42375946 0 0 0 0 -10188850.565195974 31826964.004591249 0 31826964.004591249 85505801.427752003 0 0 0 0 108633096.38099742 364946778.1237793 0 364946778.1237793 -233023261.83737183 0 0 0 0 -11406316.043920962 26875625.096857022 0 26875625.096857022 82788735.762762964 0 0 0 0 -17216677.178836346 73842591.189483643 0 73842591.189483643 -95570195.330078125 0 0 0 0 16877400.860763073 6440590.5416412354 0 6440590.5416412354 32791487.694076538 0 0 0 0 -3480922.6629748913 -2021344.9255140275 0 -2021344.9255140275 20757108.247153729 0 0 0 0 13641155.337802231 10954610.747917175 0 10954610.747917175 34482716.39175415 0 0 0 0 -29712448.465514898 25538878.313644409 0 25538878.313644409 200067864.2701416 0 0 0 0 -15364432.057574987 -42573341.343063354 0 -42573341.343063354 227383620.6729126 0 0 0 0 -36584785.192562461 -4287358.6830024719 0 -4287358.6830024719 260321846.42471313 0 0 0 0 -18144611.584717594 26172459.367782593 0 26172459.367782593 399112219.1522522 0 0 0 0 -70487915.833148837 45854853.287887573 0 45854853.287887573 391767173.9185791 0 0 0 0 -63253467.695167542 75503341.094863892 0 75503341.094863892 212517622.89694214 0 0 0 0 -58702286.675343037 -25450861.582382202 0 -25450861.582382202 171196612.09379578 0 0 0 0 -41020885.629298806 5563147.1654200554 0 5563147.1654200554 108270931.83688354 0 0 0 0 -39771311.612136908 34970166.871412754 0 34970166.871412754 109193763.03695679 0 0 0 0 -1576057.17465977 7271154.5188409165 0 7271154.5188409165 20068662.838103432 0 0 0 0 -17503176.24986589 18783510.086891174 0 18783510.086891174 75629117.227416992 0 0 0 0 -17570.462215423584 -3051581.8981018066 0 -3051581.8981018066 11915071.841291428 0 0 0 0 2860844.7828130722 -3801265.3154907227 0 -3801265.3154907227 10685476.89251709 0 0 0 0 7702910.4120769501 -2722432.8770484924 0 -2722432.8770484924 46549503.373657227 0 0 0 0 3729211.7612347603 -9557082.9199256897 0 -9557082.9199256897 57879999.648468018 0 0 0 0 1283892.4332416481 -643219.58852858841 0 -643219.58852858841 15288957.316857025 0 0 0 0 -84832.439055875875 2481731.831565395 0 2481731.831565395 8459786.9057967663 0 0 0 0 -3513409.2364635468 -4670718.7356567383 0 -4670718.7356567383 34429190.293996811 0 0 0 0 4290407.4288067818 -10530738.198516846 0 -10530738.198516846 59372788.422271729 0 0 0 0 7535131.6661484241 -12549314.448745728 0 -12549314.448745728 54998577.936065674 0 0 0 0 -4591844.0402773023 -4576799.9016952515 0 -4576799.9016952515 104471977.40374756 0 0 0 0 -2041049.8559034725 2625129.4172258973 0 2625129.4172258973 46583193.721867487 0 0 0 0 -727786.6609377861 -16708482.915130615 0 -16708482.915130615 120558839.01675415 0 0 0 0 -3507241.4172430634 -4332823.6058006287 0 -4332823.6058006287 24638401.889709473 0 0 0 0 -8727865.8924143463 -391080.19153160602 0 -391080.19153160602 62477345.917380311 0 0 0 0 -4248940.8453621864 -6294554.7845306396 0 -6294554.7845306396 40647511.389923096 0 0 0 0 10733575.797806116 -23755257.452996276 0 -23755257.452996276 36261210.136574589 0 0 0 0 7113415.0351104736 -12105755.803909302 0 -12105755.803909302 38635674.528564453 0 0 0 0 33275985.663688898 -13605867.678878784 0 -13605867.678878784 147867156.50118637 0 0 0 0 19020650.58231163 -16459782.417175293 0 -16459782.417175293 37515747.527141571 0 0 0 0 7505287.0958175659 5519549.137298584 0 5519549.137298584 141152913.09550858 0 0 0 0 1199567.3377398252 -4532502.1128125191 0 -4532502.1128125191 75017490.429504395 0 0 0 0 2339089.3734973138 4955501.0247966722 0 4955501.0247966722 17456363.569289565 0 0 0 0 -33055224.84541893 -9856617.4270782471 0 -9856617.4270782471 110940631.54633331 0 0 0 0 24835948.891373038 -9413946.4658508301 0 -9413946.4658508301 76019577.679702759 0 0 0 0 -65629.553566072602 1323380.9051383883 0 1323380.9051383883 2665694.9135633665 0 0 0 0 -12665437.268558025 -2649832.2973327637 0 -2649832.2973327637 114137076.04532337 0 0 0 0 5784134.7959046364 -4204359.2568359375 0 -4204359.2568359375 34073239.618240356 0 0 0 0 -1244727.2029418945 -22166086.385269165 0 -22166086.385269165 115437091.90756226 0 0 0 0 -27931820.018293381 -33418131.219680786 0 -33418131.219680786 112141219.54766846 0 0 0 0 5465083.60493958 -39774490.106292725 0 -39774490.106292725 113839501.69558716 0 0 0 0 -135566771.92967033 -127868769.94958496 0 -127868769.94958496 186850269.4029541 0 0 0 0 -65364463.509143829 -13562436.341445923 0 -13562436.341445923 133377464.93063354 0 0 0 0 8131491.0092988014 -45681768.665895462 0 -45681768.665895462 104786855.4375 0 0 0 0 -28434645.327198029 -35316524.790817261 0 -35316524.790817261 141043536.66001129 0 0 0 0 19240830.39608717 -10403878.493883133 0 -10403878.493883133 75446494.473266602 0 0 0 0 162759044.71825409 -71305126.471786499 0 -71305126.471786499 89393549.836837769 0 0 0 0 -55518872.185878754 -12384498.113586426 0 -12384498.113586426 86528013.544586182 0 0 0 0 -2428989.1618562299 7767254.2090412136 0 7767254.2090412136 -2149159.0080096126 0 0 0 0 -9469652.5060977936 1602052.5179901123 0 1602052.5179901123 80080881.644012451 0 0 0 0 -37037455.480207443 -27261676.24584198 0 -27261676.24584198 102278967.17263794 0 0 0 0 -11565833.010511398 -23965511.568756104 0 -23965511.568756104 69900009.218467712 0 0 0 0 -16844559.391518116 -42656675.260875702 0 -42656675.260875702 77721498.617797852 0 0 0 0 -3788720.8148851395 -21639273.017791748 0 -21639273.017791748 99832812.117515564 0 0 0 0 -5552288.4699835777 -24941137.738294601 0 -24941137.738294601 115290471.81448364 0 0 0 0 -8273840.7809581757 -69483460.495727539 0 -69483460.495727539 48535680.48469162 0 0 0 0 61580267.828391075 -38171105.554656982 0 -38171105.554656982 59241679.920303345 0 0 0 0 52502379.853050709 -43472580.405773163 0 -43472580.405773163 75397503.493743896 0 0 0 0 9366874.191778183 -4316319.837638855 0 -4316319.837638855 36072864.402954102 0 0 0 0 6098347.0411281586 -13282048.51257515 0 -13282048.51257515 48378447.509963989 0 0 0 0 43411842.035709143 -26235224.695159912 0 -26235224.695159912 50084313.004394531 0 0 0 0 322214.60261774063 906144.08549499512 0 906144.08549499512 79306393.627182007 0 0 0 0 222797.2950553894 -1144716.5823364258 0 -1144716.5823364258 7085411.886932373 0 0 0 0 -362135.29491186142 14247952.280924082 0 14247952.280924082 19081733.83682251 0 0 0 0 -879232.55827346398 4257345.0351273343 0 4257345.0351273343 16339017.347833212 0 0 0 0 1247464.4169311523 -12670194.504226685 0 -12670194.504226685 39493569.126068115 0 0 0 0 -122367.17212838493 -349336.75000217557 0 -349336.75000217557 2451402.1721547395 0 0 0 0 7640974.529876709 -7029544.0955810547 0 -7029544.0955810547 26781952.551330566 0 0 0 0 3688522.4143194505 -1991766.6431896016 0 -1991766.6431896016 21734036.139668949 0 0 0 0 -1604288.4184112316 1662209.2774028443 0 1662209.2774028443 9668510.1034138054 0 0 0 0 6209559.1108131409 -2261418.3148193359 0 -2261418.3148193359 60847104.51524353 0 0 0 0 1305602.4304529754 4490827.0635400563 0 4490827.0635400563 19841951.343108397 0 0 0 0 16867348.485942364 -17419248.357192993 0 -17419248.357192993 99198861.323699951 0 0 0 0 42081229.789163113 -25623908.171463013 0 -25623908.171463013 75963557.445266724 0 0 0 0 -31649.308862427948 514451.21371046454 0 514451.21371046454 4582149.6932084709 0 0 0 0 7468791.8322677612 -6229454.3284454346 0 -6229454.3284454346 52940930.500175476 0 0 0 0 -10251272.191594124 -7652462.7593011856 0 -7652462.7593011856 45997103.338439941 0 0 0 0 -13747853.970287323 -1223736.4126739502 0 -1223736.4126739502 43142670.770500183 0 0 0 0 -66410480.256578445 -2116274.4490118027 0 -2116274.4490118027 80513758.246864319 0 0 0 0 -10700325.5052948 -62276403.046247482 0 -62276403.046247482 7653875.6849060059 0 0 0 0 -9434810.5095529556 3977348.3300647736 0 3977348.3300647736 30035812.306137085 0 0 0 0 -13678505.597007729 -5763184.3769532572 0 -5763184.3769532572 38867872.466191418 0 0 0 0 19790124.621669769 -106711853.33433151 0 -106711853.33433151 46331865.055604935 0 0 0 0 -10098295.907129411 -4895158.3892654637 0 -4895158.3892654637 13473559.144242676 0 0 0 0 59390561.99829483 66908512.671741486 0 66908512.671741486 -173119638.89894629 0 0 0 0 22166186.353866577 -108287834.52118874 0 -108287834.52118874 43742623.07346344 0 0 0 0 -9515689.2326388359 -16590896.554966891 0 -16590896.554966891 37380373.864987358 0 0 0 0 -18950676.446304321 13440495.302181244 0 13440495.302181244 40111348.844177246 0 0 0 0 -6500056.1400604248 -2290743.3913154602 0 -2290743.3913154602 36793182.971157074 0 0 0 0 -201214355.16390228 98954108.506149292 0 98954108.506149292 81932250.039031982 0 0 0 0 -15226321.318811111 7867191.0019543711 0 7867191.0019543711 46589497.661450848 0 0 0 0 -369095958.49713898 42146816.338928223 0 42146816.338928223 480907335.87900543 0 0 0 0 -32816708.80430603 37316111.051727295 0 37316111.051727295 -72058378.068695068 0 0 0 0 868638.62810835615 1078413.5438113734 0 1078413.5438113734 -2207229.8564641699 0 0 0 0 -371251865.26277542 -59396542.606216431 0 -59396542.606216431 202737957.48742676 0 0 0 0 6082443.8114433289 -42110729.85300827 0 -42110729.85300827 -16124603.196250916 0 0 0 0 -52661078.418504238 -86458757.331487656 0 -86458757.331487656 131920587.02137756 0 0 0 0 4187125.0332930088 -42785614.05928421 0 -42785614.05928421 100302618.41912842 0 0 0 0 -22105921.762298584 -31103659.226551056 0 -31103659.226551056 118912503.96856308 0 0 0 0 5112033.3722645696 -17530809.784313679 0 -17530809.784313679 19050584.979030825 0 0 0 0 1248434.1027297974 -11348689.261785984 0 -11348689.261785984 131621134.35196686 0 0 0 0 1064757.6227069497 -2801651.3569824696 0 -2801651.3569824696 70465997.708206177 0 0 0 0 2238308.1952405274 5221415.6852822714 0 5221415.6852822714 24710963.927836414 0 0 0 0 516274110.6335907 69281185.10546875 0 69281185.10546875 300562998.94766235 0 0 0 0 22253960.9255867 -315042979.95643616 0 -315042979.95643616 203633532.40068817 0 0 0 0 -222661371.80506706 114661222.64852524 0 114661222.64852524 59738655.560409546 0 0 0 0 222051271.53141022 144814820.6806221 0 144814820.6806221 -115841343.45198059 0 0 0 0 200868592.70251846 -283290689.0190506 0 -283290689.0190506 87545799.906341553 0 0 0 0 -2161450.8763510799 570835.47077584453 0 570835.47077584453 1015993.7018004209 0 0 0 0 34843056.041854858 106702448.41726303 0 106702448.41726303 -111074553.59357452 0 0 0 0 -11622779.249551222 4140998.2880516499 0 4140998.2880516499 41011799.871349171 0 0 0 0 -13776276.266716957 -5926220.2212677002 0 -5926220.2212677002 49313649.067770958 0 0 0 0 -19787683.987510681 18870597.40852356 0 18870597.40852356 42789749.530179024 0 0 0 0 -10442237.348001083 7256583.0199759249 0 7256583.0199759249 40578650.978661507 0 0 0 0 -11142263.693788528 -6182156.7532444 0 -6182156.7532444 45051079.316539764 0 0 0 0 -1627660.1513996124 4137206.0145778656 0 4137206.0145778656 56049791.716941833 0 0 0 0 -8985398.93200792 13215908.874551618 0 13215908.874551618 27650193.694992822 0 0 0 0 -180169.18414580822 -18872485.69837141 0 -18872485.69837141 72119072.768409729 0 0 0 0 26447023.264172673 -26606359.030046463 0 -26606359.030046463 89237732.023777008 0 0 0 0 -628037470.64370346 -166275650.78681946 0 -166275650.78681946 229083530.35469246 0 0 0 0 -230634345.08364487 -241475563.55426407 0 -241475563.55426407 -60125811.212646484 0 0 0 0 -271500342.99849224 -51833146.742847443 0 -51833146.742847443 205695961.80575562 0 0 0 0 -319563313.43529129 -76215018.187393188 0 -76215018.187393188 233632898.77277136 0 0 0 0 -216844030.21355247 91473244.028678894 0 91473244.028678894 161679548.17507935 0 0 0 0 -80032913.157083511 -43041807.524892807 0 -43041807.524892807 200848500.96385193 0 0 0 0 -11795096.912334215 11721319.975828024 0 11721319.975828024 27954887.030517157 0 0 0 0 -3293616.1916561127 -22005995.970329285 0 -22005995.970329285 75450499.999080658 0 0 0 0 -109543790.25378585 -82431426.918495178 0 -82431426.918495178 211955077.34587097 0 0 0 0 -62603712.333395123 -37921878.98730135 0 -37921878.98730135 198481723.36666107 0 0 0 0 -87296412.526644707 -98492659.033855438 0 -98492659.033855438 85610546.024055481 0 0 0 0 -74125678.551855087 -51425348.058197021 0 -51425348.058197021 96216040.474994659 0 0 0 0 34623162.334154963 -69982382.085090637 0 -69982382.085090637 156267282.7452774 0 0 0 0 372685.52946519852 3492421.2765989304 0 3492421.2765989304 54616066.183074951 0 0 0 0 -20194684.950758517 16689376.384678364 0 16689376.384678364 46227189.457099915 0 0 0 0 2321513.3560215235 -4702158.8770751953 0 -4702158.8770751953 42491540.262374878 0 0 0 0 -9863500.1407716274 -14658249.502746582 0 -14658249.502746582 67821507.033061981 0 0 0 0 -12938342.307179663 8065699.4254329745 0 8065699.4254329745 31377238.707903087 0 0 0 0 19381335.460103773 -38213617.007153034 0 -38213617.007153034 117062581.73279572 0 0 0 0 2692221.9825181961 -23940251.198719025 0 -23940251.198719025 45527167.996948242 0 0 0 0 -16155977.447086334 -19681925.075912476 0 -19681925.075912476 81630063.349754333 0 0 0 0 -16815999.415970802 -28508100.65785408 0 -28508100.65785408 61356057.409973145 0 0 0 0 -143991.80710141174 -8867817.6616292968 0 -8867817.6616292968 7346388.6257363521 0 0 0 0 -10789665.326460838 -66613669.882387161 0 -66613669.882387161 62515022.09703064 0 0 0 0 -71476653.251468658 -52229123.848068237 0 -52229123.848068237 101879235.93141747 0 0 0 0 -7583985.9016932203 -6927114.0750570372 0 -6927114.0750570372 3374892.5260854084 0 0 0 0 -13818160.769583844 14709988.33864975 0 14709988.33864975 60721352.819015503 0 0 0 0 -35797804.332386971 28992596.188364029 0 28992596.188364029 51673689.68572998 0 0 0 0 1165966.0946311951 27093313.269523621 0 27093313.269523621 27302822.873771667 0 0 0 0 33947627.966421127 -173113005.73952293 0 -173113005.73952293 50790729.519569397 0 0 0 0 8462007.7963860035 12936277.458023071 0 12936277.458023071 39539661.038726807 0 0 0 0 -4615879.2493362119 1913733.706183698 0 1913733.706183698 24879295.208474372 0 0 0 0 -12762142.614493847 -203118601.8970108 0 -203118601.8970108 72060313.117904663 0 0 0 0 -103357144.02008438 -178091239.71844482 0 -178091239.71844482 111193788.73862457 0 0 0 0 -213949304.58010864 319530880.90146637 0 319530880.90146637 242781666.93890381 0 0 0 0 -144192095.56558466 -199818822.41941166 0 -199818822.41941166 102576969.35957336 0 0 0 0 -386685050.27831268 -123404970.69734192 0 -123404970.69734192 98509743.784629822 0 0 0 0 -68505.016305088997 158300.26812692173 0 158300.26812692173 451650.83183635911 0 0 0 0 139165142.02477264 -48606273.06678009 0 -48606273.06678009 -24221996.693061829 0 0 0 0 -2874316.5375717059 -4146132.4252799749 0 -4146132.4252799749 2984533.0490781665 0 0 0 0 -981574901.92839432 190172643.80454254 0 190172643.80454254 -1832743.3076343536 0 0 0 0 -1151252086.2570248 -237315274.94747162 0 -237315274.94747162 183386574.25445557 0 0 0 0 199223680.20967627 -242307640.8681488 0 -242307640.8681488 82296753.973876953 0 0 0 0 -18266228.97772646 33565337.268692017 0 33565337.268692017 -160111269.4420929 0 0 0 0 -85138958.85507822 -4171433.0031433105 0 -4171433.0031433105 432874813.95101929 0 0 0 0 154929930.08159435 -351269087.17987061 0 -351269087.17987061 321234150.14929199 0 0 0 0 1325311.8876838009 -175334.14849995822 0 -175334.14849995822 903769.79175785184 0 0 0 0 60728941.636897326 193120925.99884033 0 193120925.99884033 -57729744.370018005 0 0 0 0 -19151582.590581179 -108412713.91025162 0 -108412713.91025162 49508434.067443848 0 0 0 0 307151952.31553841 -34366999.557472229 0 -34366999.557472229 -14917593.976593018 0 0 0 0 84015571.905554056 -5232175.5888442993 0 -5232175.5888442993 5482301.6531524658 0 0 0 0 112556447.52346087 -97830125.463890076 0 -97830125.463890076 25252787.047302246 0 0 0 0 -1229264.5797615051 -64386875.498725891 0 -64386875.498725891 46415433.323684692 0 0 0 0 -22128218.32049942 -44950286.362121582 0 -44950286.362121582 43223198.396026611 0 0 0 0 -198768350.19676495 50823987.048820496 0 50823987.048820496 40644764.058056593 0 0 0 0 -8307790.6803021487 10944359.224095901 0 10944359.224095901 14526833.893929929 0 0 0 0 -6309392.23173963 1334457.6684839875 0 1334457.6684839875 23409401.694484234 0 0 0 0 -12231681.854848122 1268461.4627029449 0 1268461.4627029449 40950268.728719696 0 0 0 0 -31925176.502063274 23079584.817382812 0 23079584.817382812 3563690.4169006348 0 0 0 0 -13852563.086378098 9388667.0771789551 0 9388667.0771789551 37038411.552810669 0 0 0 0 -2865655.8984651566 -8973451.5143966675 0 -8973451.5143966675 40849223.505475998 0 0 0 0 -111658868.43666553 -152933498.65963745 0 -152933498.65963745 83630680.739730835 0 0 0 0 -9948240.3454026002 5965774.7388269491 0 5965774.7388269491 16723701.778451651 0 0 0 0 -15379561.23503685 15034366.319717407 0 15034366.319717407 -10996300.955337524 0 0 0 0 -1645140.1974231433 -7739295.8592901491 0 -7739295.8592901491 33719230.792095616 0 0 0 0 -22502817.645171821 15666581.386295319 0 15666581.386295319 13914141.880889893 0 0 0 0 -879713.00508594513 -7493895.4719619751 0 -7493895.4719619751 35205916.455078125 0 0 0 0 -12908401.89239502 -108855557.56542587 0 -108855557.56542587 213792314.8923111 0 0 0 0 -20609226.644785002 641523.18186652288 0 641523.18186652288 39791254.748062707 0 0 0 0 -661733.96170813031 -3368359.0147562865 0 -3368359.0147562865 8243380.04633056 0 0 0 0 16031563.005191803 -66898617.584906101 0 -66898617.584906101 154779547.76891327 0 0 0 0 64866487.233642578 -59713091.029518127 0 -59713091.029518127 133127162.85688782 0 0 0 0 36078423.05329895 -23469082.132007599 0 -23469082.132007599 107182786.01976013 0 0 0 0 8536195.9528208002 -15139540.099413011 0 -15139540.099413011 16520951.489093643 0 0 0 0 26885141.206420898 -36901419.178840637 0 -36901419.178840637 108196727.97196198 0 0 0 0 7081446.3072662354 -21581480.147987366 0 -21581480.147987366 43683586.724369049 0 0 0 0 -3178805.4459004402 -10217246.556854248 0 -10217246.556854248 24764041.206180573 0 0 0 0 -2651739.0773813222 -10655917.750940695 0 -10655917.750940695 24175343.967261687 0 0 0 0 -175574.83043527603 3066315.5598449707 0 3066315.5598449707 37685902.25932312 0 0 0 0 2538466.8820281257 -10400810.010277886 0 -10400810.010277886 25936405.121523652 0 0 0 0 -1715878.9412059784 -5644874.3790893555 0 -5644874.3790893555 11271534.530921936 0 0 0 0 -4259935.7030125773 -3788924.7095778286 0 -3788924.7095778286 21232556.007182926 0 0 0 0 -16739190.653357008 -4903836.7762252707 0 -4903836.7762252707 34755597.628941379 0 0 0 0 -5054920.516204834 -16193096.697704315 0 -16193096.697704315 42820222.968322754 0 0 0 0 -153141.11963400361 218082.14097505808 0 218082.14097505808 3746749.062483497 0 0 0 0 -5572572.0022411346 -10719406.393188477 0 -10719406.393188477 48196872.059371948 0 0 0 0 -666566.63981437683 -16037138.195365906 0 -16037138.195365906 41235220.376026154 0 0 0 0 -314004140.8728931 437445398.31507874 0 437445398.31507874 109088771.26416016 0 0 0 0 -360951505.94197631 -96885350.536343575 0 -96885350.536343575 343313504.07174683 0 0 0 0 -3797474.111719327 5329065.7634659559 0 5329065.7634659559 17339871.175679803 0 0 0 0 429948175.07911307 -28179299.870552063 0 -28179299.870552063 115826836.3991394 0 0 0 0 48859642.67407155 109502440.23959351 0 109502440.23959351 195938139.56417847 0 0 0 0 -153073927.92136014 -93046793.850234985 0 -93046793.850234985 358459900.57366943 0 0 0 0 683092.96559127327 -216450.75636927038 0 -216450.75636927038 739478.62386351824 0 0 0 0 313785831.38503909 284680193.08627319 0 284680193.08627319 -517269639.46755219 0 0 0 0 -4440954.7590175942 -2194761.9806943573 0 -2194761.9806943573 40455268.460004061 0 0 0 0 -1721633.2020950317 -7021082.6471099854 0 -7021082.6471099854 51747267.064544678 0 0 0 0 -436135.79735765699 -3114764.7130976543 0 -3114764.7130976543 33346205.112092867 0 0 0 0 -18186667.631858051 793098.42613220215 0 793098.42613220215 59761868.782985687 0 0 0 0 3436021.7889951468 19270477.455810547 0 19270477.455810547 47933993.841308594 0 0 0 0 -14627667.859765768 16649923.409065247 0 16649923.409065247 79679959.027160645 0 0 0 0 25127025.842506289 -16040746.023101807 0 -16040746.023101807 9987317.6002960205 0 0 0 0 13863931.201168537 -393621636.9667511 0 -393621636.9667511 -1575856.1609191895 0 0 0 0 110311003.87212658 435490556.99069214 0 435490556.99069214 -23658323.916188717 0 0 0 0 491774749.10519755 269083229.92321396 0 269083229.92321396 -130876868.39550781 0 0 0 0 92723.062057586852 366173.74265305419 0 366173.74265305419 518293.84642478824 0 0 0 0 -26148197.487121344 -19199492.505744934 0 -19199492.505744934 34728277.820251465 0 0 0 0 -41720410.210913658 67860304.727981567 0 67860304.727981567 136094092.02720642 0 0 0 0 158463508.83533955 27167490.491516113 0 27167490.491516113 93901378.798187256 0 0 0 0 -324315095.01646185 199917592.68673706 0 199917592.68673706 167013595.30828857 0 0 0 0 3156548.2380034709 -7071630.4068032578 0 -7071630.4068032578 27230147.06966801 0 0 0 0 -68665346.335087299 -17351791.465591431 0 -17351791.465591431 -70257919.227661133 0 0 0 0 -274431919.48824143 -71167337.837278366 0 -71167337.837278366 107326032.36724854 0 0 0 0 -9593551.9693757892 -41015938.259109497 0 -41015938.259109497 40725750.320266724 0 0 0 0 -88460990.907542229 -35939958.121170044 0 -35939958.121170044 20126736.842498779 0 0 0 0 -34774829.363152742 53805993.864021301 0 53805993.864021301 36570453.231964111 0 0 0 0 -15389664.138823032 13555301.408981323 0 13555301.408981323 33151511.777542114 0 0 0 0 -68346018.127992153 -1929210.9708366394 0 -1929210.9708366394 37643844.005340576 0 0 0 0 -7209557.1614875793 -4548030.2578735352 0 -4548030.2578735352 24614281.310577393 0 0 0 0 -622635.47055234807 -844389.80755732208 0 -844389.80755732208 3518910.2157794163 0 0 0 0 7067908.7809042931 27465939.8956604 0 27465939.8956604 -1152684.0749969482 0 0 0 0 70632.933682121249 1999697.9104999905 0 1999697.9104999905 1861267.1245051622 0 0 0 0 89089.680222595343 1309029.0150639527 0 1309029.0150639527 3974247.2807808518 0 0 0 0 103813158.05887783 86576868.282993317 0 86576868.282993317 17087490.088195801 0 0 0 0 23261326.141352654 33554899.257171631 0 33554899.257171631 24418902.673912048 0 0 0 0 6099.0369154214859 1338089.0933380127 0 1338089.0933380127 11786283.199455261 0 0 0 0 516045.3664472769 -3493051.7150785848 0 -3493051.7150785848 9719352.1573561691 0 0 0 0 5582705.6926914454 -4595318.708694458 0 -4595318.708694458 32274454.39251709 0 0 0 0 -999122.7578650713 -403578.24200439453 0 -403578.24200439453 11244999.165740967 0 0 0 0 -992101.68919229507 192463.92645263672 0 192463.92645263672 11746693.269012451 0 0 0 0 -4990718.6152386367 -7871135.5754241943 0 -7871135.5754241943 38502980.974918365 0 0 0 0 534398.36963227263 -4401496.2452841401 0 -4401496.2452841401 13137916.813568991 0 0 0 0 260077.92348255438 -742504.50569586083 0 -742504.50569586083 7790833.5490158498 0 0 0 0 -329222.79037427902 386311.23379516602 0 386311.23379516602 11108557.968383789 0 0 0 0 -5736877.984397471 -6976720.2945098877 0 -6976720.2945098877 -28127430.434509277 0 0 0 0 -1866662.2796165892 -4064890.6957793832 0 -4064890.6957793832 33936533.73280178 0 0 0 0 -3958836.8988602883 -4313685.9151031077 0 -4313685.9151031077 11699174.11014536 0 0 0 0 -17901150.346786588 -11319936.670372009 0 -11319936.670372009 27260730.793945312 0 0 0 0 -7085973.1446283162 -5859121.8371391296 0 -5859121.8371391296 19899954.916259766 0 0 0 0 -7721621.0157670975 -29335709.17010498 0 -29335709.17010498 57339441.241973877 0 0 0 0 8727921.4052779675 -17371342.45916748 0 -17371342.45916748 12606251.734344482 0 0 0 0 -1217667.3360568732 -11777387.193252563 0 -11777387.193252563 35741368.063781738 0 0 0 0 -617886.77596693719 -1217627.4827094823 0 -1217627.4827094823 2923984.9355207682 0 0 0 0 10549037.274806947 9948674.1128387451 0 9948674.1128387451 25992734.543487549 0 0 0 0 7483418.5941665284 21321546.167247772 0 21321546.167247772 72731422.394927979 0 0 0 0 -4156824.6929317713 -704598.38046264648 0 -704598.38046264648 125469132.78353119 0 0 0 0 30837233.62273103 -31388485.229888916 0 -31388485.229888916 78984330.595611572 0 0 0 0 11705978.997204304 -45536055.356399536 0 -45536055.356399536 116266606.62969971 0 0 0 0 -9942674.4423605502 -6849295.7746047974 0 -6849295.7746047974 122966066.24954224 0 0 0 0 10692291.021992639 9825738.1560058594 0 9825738.1560058594 90619997.022094727 0 0 0 0 7666489.0905298889 17145248.951534271 0 17145248.951534271 -4411300.2641601562 0 0 0 0 27692.94286379253 88859.278176933527 0 88859.278176933527 83349.613278709352 0 0 0 0 1661891.9895362854 -10738624.658691406 0 -10738624.658691406 19359056.847564697 0 0 0 0 51094.377577848092 170265.7258079201 0 170265.7258079201 163746.29067665339 0 0 0 0 6841717.1063721776 20284556.023452759 0 20284556.023452759 37619006.800765991 0 0 0 0 4335682.8314914703 -3853702.9959106445 0 -3853702.9959106445 57974287.285728455 0 0 0 0 -3139006.8562830091 -18358516.012207031 0 -18358516.012207031 75213490.049682617 0 0 0 0 6096433.0830492591 -2412905.8536071777 0 -2412905.8536071777 28994837.768936157 0 0 0 0 -9078939.3306659237 5512682.1301727295 0 5512682.1301727295 94372326.893218994 0 0 0 0 -12663384.350913361 -559576.95979309082 0 -559576.95979309082 87317693.359375 0 0 0 0 -16198946.641318589 1289088.564666748 0 1289088.564666748 87504236.280090332 0 0 0 0 -16457960.752381444 56418.223068237305 0 56418.223068237305 121044634.53053284 0 0 0 0 -4132169.0838357522 -8250348.2543945312 0 -8250348.2543945312 66173088.951937675 0 0 0 0 4697006.8265536055 -15851678.111003876 0 -15851678.111003876 23711689.326293945 0 0 0 0 -2541495.8914909642 -337420.13232421875 0 -337420.13232421875 62591448.018325806 0 0 0 0 4255931.1332473755 -3506909.0031204224 0 -3506909.0031204224 62418511.470245361 0 0 0 0 12077736.204221174 13369984.200317383 0 13369984.200317383 94109147.415649414 0 0 0 0 25680191.278439246 -1607420.4083862305 0 -1607420.4083862305 81254284.715133667 0 0 0 0 10242354.074639995 -18629004.205184937 0 -18629004.205184937 67111796.129226685 0 0 0 0 -26128.967435819945 -10946608.66525732 0 -10946608.66525732 102270257.7300415 0 0 0 0 2481195.8085020967 35176986.158782959 0 35176986.158782959 70796648.03237915 0 0 0 0 -163641.01064662976 -272031.50378595293 0 -272031.50378595293 997382.37150420249 0 0 0 0 -310959.30245479941 16282292.390594482 0 16282292.390594482 8746334.5371704102 0 0 0 0 2399077.5808700956 3215464.4445037842 0 3215464.4445037842 148844489.82144165 0 0 0 0 8298459.428110674 -9974426.4610290527 0 -9974426.4610290527 90538155.813941956 0 0 0 0 33883682.240571752 -18097177.941339493 0 -18097177.941339493 63920454.024291992 0 0 0 0 36899609.778029993 -68216773.236175537 0 -68216773.236175537 141827316.30099297 0 0 0 0 -8462408.0276846774 -9333635.6358537674 0 -9333635.6358537674 14321158.281555176 0 0 0 0 -9109851.8241600208 -3473432.2311725616 0 -3473432.2311725616 18703977.039672852 0 0 0 0 -7274315.1828908473 -3851627.8869476318 0 -3851627.8869476318 17019918.697113037 0 0 0 0 4240115.3991107717 209900.24108123779 0 209900.24108123779 18679031.460571289 0 0 0 0 -174927.26377176493 -5391007.8918914795 0 -5391007.8918914795 16191720.780975342 0 0 0 0 -3984896.2866117284 -4588536.7280273438 0 -4588536.7280273438 18418344.101903915 0 0 0 0 18855.504442057038 -8619328.2219009399 0 -8619328.2219009399 21973383.708068848 0 0 0 0 -6339888.979449898 -2946126.7845916748 0 -2946126.7845916748 47082429.612731934 0 0 0 0 934976.20630410314 -1810290.80418396 0 -1810290.80418396 48191038.036773682 0 0 0 0 -626105.38590422273 -8336894.3326416016 0 -8336894.3326416016 42527269.478286743 0 0 0 0 -13024365.06202554 -6599022.9672775269 0 -6599022.9672775269 79938704.436340332 0 0 0 0 -12192744.012819953 -4567649.3369750977 0 -4567649.3369750977 81450705.896789551 0 0 0 0 -12130250.583997473 -7376270.0444335938 0 -7376270.0444335938 89608564.106773376 0 0 0 0 -3543127.9349792525 6081760.3794174194 0 6081760.3794174194 108897247.9786377 0 0 0 0 -5401586.8891020119 -31560750.424346924 0 -31560750.424346924 97823943.729431152 0 0 0 0 -6386252.4936460853 -18130718.805938721 0 -18130718.805938721 64075086.277709961 0 0 0 0 -13310869.636803627 -29130703.911590576 0 -29130703.911590576 55661358.99407959 0 0 0 0 -1446302.0306172818 -9886730.1893997192 0 -9886730.1893997192 42621514.32421875 0 0 0 0 3244505.5111977458 -36175495.103424072 0 -36175495.103424072 10661382.275146484 0 0 0 0 17918021.906770647 -17869793.377716064 0 -17869793.377716064 40661820.191833496 0 0 0 0 -428844.67520880105 -117713.5693276003 0 -117713.5693276003 2616228.1755703688 0 0 0 0 8560708.3703499734 -7283693.9802856445 0 -7283693.9802856445 4601256.4966812134 0 0 0 0 -856803.48745764222 -823597.92957738787 0 -823597.92957738787 3513808.4436524957 0 0 0 0 -16506801.933064938 -44829036.180908203 0 -44829036.180908203 21580140.769042969 0 0 0 0 -26498994.466361061 -7982049.8343811035 0 -7982049.8343811035 75585484.631103516 0 0 0 0 -20529912.145415589 -53832445.60369873 0 -53832445.60369873 44582713.47013855 0 0 0 0 -3628348.4073719978 67672.487854003906 0 67672.487854003906 20588213.532684326 0 0 0 0 -1776229.2177324593 699722.23532104492 0 699722.23532104492 14315037.713134766 0 0 0 0 -63336.099963840519 16827.290906786919 0 16827.290906786919 575801.97508959472 0 0 0 0 292583.62958535698 -191763.4898044616 0 -191763.4898044616 -467776.3827829808 0 0 0 0 -2709887.9044411182 18593826.171203613 0 18593826.171203613 37824867.659088135 0 0 0 0 74759270.18713975 10444552.693115234 0 10444552.693115234 16802939.725341797 0 0 0 0 8290419.4652006626 -13188495.269226074 0 -13188495.269226074 -476141.6689453125 0 0 0 0 -56147353.719874084 -14267506.315002441 0 -14267506.315002441 18484092.530864716 0 0 0 0 -1848736.9093699409 2925715.6587797999 0 2925715.6587797999 2728302.3433110565 0 0 0 0 451938.3497965585 -3073370.4968126267 0 -3073370.4968126267 5472353.6422884315 0 0 0 0 -346836.07946014404 -577109.14221191406 0 -577109.14221191406 4343051.7481689453 0 0 0 0 -2250542.228857195 2846462.3098831698 0 2846462.3098831698 13690721.20271749 0 0 0 0 2758813.2807824612 -14243413.504516602 0 -14243413.504516602 23885408.470703125 0 0 0 0 1101773.0137174129 -8262732.8920288086 0 -8262732.8920288086 41995170.186462402 0 0 0 0 804559.1300297156 -3323136.816760838 0 -3323136.816760838 12791287.539439924 0 0 0 0 -3857188.6416758895 -5641220.9211425781 0 -5641220.9211425781 32590248.96661377 0 0 0 0 1773059.2610274851 -17265048.98859787 0 -17265048.98859787 36691503.516967773 0 0 0 0 -1149504.0485488917 1457341.4138927981 0 1457341.4138927981 11100242.824802607 0 0 0 0 -3688787.0696626902 8514531.4243927002 0 8514531.4243927002 -10826295.674606323 0 0 0 0 1932339.1977475584 -11874374.99697876 0 -11874374.99697876 67231367.49041748 0 0 0 0 -2504987.3465552479 12533962.854232788 0 12533962.854232788 -2827337.4817504883 0 0 0 0 1374888.4485888481 -6484487.6654968262 0 -6484487.6654968262 25184970.795593262 0 0 0 0 1305863.7935601852 1945663.2216492519 0 1945663.2216492519 -1901848.999669835 0 0 0 0 -556045.98043113202 114549.92361017317 0 114549.92361017317 9143900.488294065 0 0 0 0 -2316163.4314906895 4149789.7361450195 0 4149789.7361450195 9398034.3628234863 0 0 0 0 -54983216.764919877 51066806.610443115 0 51066806.610443115 66757143.508460999 0 0 0 0 -7904218.9816283397 34365883.305156708 0 34365883.305156708 68730760.224197388 0 0 0 0 -33299123.598935515 4251119.4441223145 0 4251119.4441223145 89555688.993453979 0 0 0 0 -8641702.7844069004 -5651946.8367004395 0 -5651946.8367004395 74578702.082901001 0 0 0 0 -20178756.731114596 282915.37423706055 0 282915.37423706055 71694114.288009644 0 0 0 0 -66415518.90344125 13886625.952072144 0 13886625.952072144 114717311.30310059 0 0 0 0 36758295.873263419 -54021348.262817383 0 -54021348.262817383 115766390.58679199 0 0 0 0 48576.517974608672 426820.72671604156 0 426820.72671604156 2615212.0784471072 0 0 0 0 5729995.1098008752 -2464167.5185394287 0 -2464167.5185394287 -999619.18383789062 0 0 0 0 -1193842.0413006984 3024432.6347351074 0 3024432.6347351074 8915152.9330673218 0 0 0 0 -31205.127015501261 394808.80803809315 0 394808.80803809315 3394190.4578269012 0 0 0 0 -2268576.3804311529 -5393741.9591217041 0 -5393741.9591217041 14877848.595108032 0 0 0 0 19949204.864525236 37213226.167877197 0 37213226.167877197 57619398.502746582 0 0 0 0 -1193842.0413000428 203745.12051391602 0 203745.12051391602 6864070.3524246216 0 0 0 0 -311378.57645140332 1029571.7957498655 0 1029571.7957498655 1990410.8689578623 0 0 0 0 9099.6453481545705 -827435.31925964355 0 -827435.31925964355 2287736.972442627 0 0 0 0 -5801.9957064732371 -833432.54913330078 0 -833432.54913330078 2291431.230506897 0 0 0 0 302865.79513862001 552013.84451460838 0 552013.84451460838 717453.75353071094 0 0 0 0 62002390.157185078 87933818.662162781 0 87933818.662162781 107943314.96075439 0 0 0 0 55078405.603474483 56376398.536064148 0 56376398.536064148 32223754.640472412 0 0 0 0 -8735818.2132246792 -2165697.458366394 0 -2165697.458366394 80283115.313720703 0 0 0 0 20901094.912332252 39863609.514892578 0 39863609.514892578 131959323.23626709 0 0 0 0 168712.40831473266 37421975.655180119 0 37421975.655180119 160042762.22528076 0 0 0 0 30612452.013898268 30898714.013137817 0 30898714.013137817 120912868.87698746 0 0 0 0 -153676.54299597995 129882.98233568668 0 129882.98233568668 2842710.7190885451 0 0 0 0 -40463500.441791475 52930584.845657349 0 52930584.845657349 30459400.63192749 0 0 0 0 -27418786.763815448 22008139.503181458 0 22008139.503181458 63338790.101654053 0 0 0 0 -62324604.103550643 50962936.387809753 0 50962936.387809753 84797031.299530029 0 0 0 0 -39246987.844831467 -15274633.249099731 0 -15274633.249099731 114589779.38233948 0 0 0 0 -55455109.902168512 23355628.17754364 0 23355628.17754364 48599362.685180664 0 0 0 0 -4323163.2065938711 21486693.877555847 0 21486693.877555847 47667016.975372314 0 0 0 0 861771.80703756318 1390967.1451677531 0 1390967.1451677531 5128219.1147709787 0 0 0 0 -21057645.143330485 -18194788.383659363 0 -18194788.383659363 13122396.564422607 0 0 0 0 -2839623.7099056244 24086417.192718506 0 24086417.192718506 33527636.291992188 0 0 0 0 176862177.36804998 129032435.41168213 0 129032435.41168213 -27021756.850702286 0 0 0 0 -31868930.621249512 -62414162.194187164 0 -62414162.194187164 186186358.73699951 0 0 0 0 -24661556.527412057 11150350.204200745 0 11150350.204200745 86473215.334838867 0 0 0 0 -579042.2061178037 800838.16743168235 0 800838.16743168235 9686202.3140544873 0 0 0 0 -280263.18641233444 6858504.9759521484 0 6858504.9759521484 83651361.017486572 0 0 0 0 11104648.650495172 2619777.9046325684 0 2619777.9046325684 47254650.16015625 0 0 0 0 850900.85942301608 7203679.7412412986 0 7203679.7412412986 8252029.5986319156 0 0 0 0 -1178773.1433158703 2752288.4973945618 0 2752288.4973945618 14036566.832973167 0 0 0 0 -45820885.052963972 -67673446.196502686 0 -67673446.196502686 4676563.3227233887 0 0 0 0 -222498.01281550527 4533163.8228683472 0 4533163.8228683472 47501539.951446533 0 0 0 0 -1967582.6058969232 -5504121.7892779484 0 -5504121.7892779484 16387035.487908017 0 0 0 0 -5672575.4300066903 -2389428.8930382729 0 -2389428.8930382729 52285792.8125 0 0 0 0 -6763511.4586653709 18950825.727905273 0 18950825.727905273 86155423.381698608 0 0 0 0 -261734.28294538718 -158650.25707750022 0 -158650.25707750022 2001007.8090421781 0 0 0 0 30164360.495005131 38358346.949508667 0 38358346.949508667 71420893.59262085 0 0 0 0 15711191.731272399 35506593.803833008 0 35506593.803833008 71882973.172657013 0 0 0 0 2435928.4583945274 51476236.492279053 0 51476236.492279053 128794722.82452774 0 0 0 0 4578650.262116909 37589812.010437012 0 37589812.010437012 87777113.6328125 0 0 0 0 -15938772.181041241 51664339.517211914 0 51664339.517211914 86388899.430057526 0 0 0 0 -8744881.7494155169 56863623.161743164 0 56863623.161743164 110318423.37321472 0 0 0 0 -443232.85190987587 49483498.577087402 0 49483498.577087402 69268435.0262146 0 0 0 0 1058719.0249729753 44156217.421760559 0 44156217.421760559 39114922.340087891 0 0 0 0 -11351401.175424099 39727014.792633057 0 39727014.792633057 84162463.051849365 0 0 0 0 -11377197.019627094 40719618.838058472 0 40719618.838058472 97119469.023193359 0 0 0 0 -2070392.0237435102 27919488.406890869 0 27919488.406890869 65557108.725540161 0 0 0 0 -1422779.6502938271 25169872.509124756 0 25169872.509124756 56948292.594238281 0 0 0 0 -753764.71260295669 5437816.8501969948 0 5437816.8501969948 18904561.948250744 0 0 0 0 9294416.5166035891 24755363.254257202 0 24755363.254257202 6383234.9789428711 0 0 0 0 -1243148.0416350388 2523328.2999426359 0 2523328.2999426359 6397839.0838136375 0 0 0 0 -4371437.9815030098 2601864.7619628906 0 2601864.7619628906 5214651.6463985443 0 0 0 0 -4025299.3521134853 3329720.0948562622 0 3329720.0948562622 5400269.7336425781 0 0 0 0 -2489431.4145747605 4301941.8961561173 0 4301941.8961561173 8271871.6045544446 0 0 0 0 -3498870.3256282806 -1277662.5479278564 0 -1277662.5479278564 11451620.893493652 0 0 0 0 6500134.0251579285 7875902.9420166016 0 7875902.9420166016 18155388.697692871 0 0 0 0 -368411.64039134979 -1391930.5990600586 0 -1391930.5990600586 19312910.743347168 0 0 0 0 13986237.825158596 44480352.802597046 0 44480352.802597046 44598993.19720459 0 0 0 0 14188590.049599409 38312100.866485596 0 38312100.866485596 39880243.824081421 0 0 0 0 -19780768.725842953 11436544.907745361 0 11436544.907745361 37192672.120117188 0 0 0 0 -1954207.8014114804 2574459.1376705654 0 2574459.1376705654 2950558.9949693084 0 0 0 0 -3640452.2305311859 20282025.833320618 0 20282025.833320618 44540237.109619141 0 0 0 0 -3136202.2301624585 1853320.0197196007 0 1853320.0197196007 16965237.232574463 0 0 0 0 -3250005.3721868992 2986496.2668151855 0 2986496.2668151855 11320309.45674324 0 0 0 0 -1886339.9463914987 3534411.4808082432 0 3534411.4808082432 15183412.602497816 0 0 0 0 485155.46357094531 5721284.9515746534 0 5721284.9515746534 17413545.147175405 0 0 0 0 -77264.339945043961 137211.49955262989 0 137211.49955262989 150046.25118663907 0 0 0 0 -28897976.790276527 3352710.5611419678 0 3352710.5611419678 66268838.020568848 0 0 0 0 -20691637.399220705 6644972.9697113037 0 6644972.9697113037 41776582.870300293 0 0 0 0 -5118329.7352695465 1305621.2730712891 0 1305621.2730712891 10102419.710632324 0 0 0 0 -6529962.9128121557 -1282166.416199483 0 -1282166.416199483 21784596.784774557 0 0 0 0 -2604674.9114768719 1436667.866725482 0 1436667.866725482 12819140.142557785 0 0 0 0 388864.32035702467 -2632763.3335494995 0 -2632763.3335494995 19245355.273376465 0 0 0 0 -2071169.6139414147 8069239.4979423843 0 8069239.4979423843 13403640.419386402 0 0 0 0 905172.05890289415 5489187.4201481268 0 5489187.4201481268 18858574.392250746 0 0 0 0 -21357867.862322569 24060905.651672363 0 24060905.651672363 30994059.708328247 0 0 0 0 -30967165.508975863 21686053.013946533 0 21686053.013946533 53680329.229919434 0 0 0 0 2293660.8133792849 -3694135.3025170192 0 -3694135.3025170192 11960105.788782723 0 0 0 0 -1562333.1392269135 939975.60983276367 0 939975.60983276367 2980353.5798187256 0 0 0 0 569657.99894714355 -2189827.87109375 0 -2189827.87109375 4565018.0544433594 0 0 0 0 82366.450246473774 2251619.5202406496 0 2251619.5202406496 24399907.318355907 0 0 0 0 33602.811328887939 -2314718.2502746582 0 -2314718.2502746582 11124635.918334961 0 0 0 0 -1041812.6692577724 2336657.049974218 0 2336657.049974218 21515193.083481453 0 0 0 0 -10894.195512533188 -1961937.5396347046 0 -1961937.5396347046 9259867.0250244141 0 0 0 0 -832566.64262993447 -4477826.0956381038 0 -4477826.0956381038 15347849.361177862 0 0 0 0 -3149737.5920772552 -70962.343902587891 0 -70962.343902587891 8525641.9274597168 0 0 0 0 -2695410.6466832161 1996781.0544128418 0 1996781.0544128418 7339842.1674499512 0 0 0 0 -2190273.8945636749 2746057.2974853516 0 2746057.2974853516 16826134.032104492 0 0 0 0 -2295018.8068227121 6638523.2025878076 0 6638523.2025878076 5451782.5985774845 0 0 0 0 -2256135.7005346068 7717848.656043496 0 7717848.656043496 8884213.7707314491 0 0 0 0 -5762168.22539711 7103160.6710357666 0 7103160.6710357666 5045475.1823730469 0 0 0 0 -5365728.5752716064 2340870.3132324219 0 2340870.3132324219 9388353.2853393555 0 0 0 0 -3716883.5776407043 4583274.594296135 0 4583274.594296135 11864920.251213491 0 0 0 0 -3079257.0245617037 5269812.4595596194 0 5269812.4595596194 13138399.334428348 0 0 0 0 -424988.90961892303 -2582037.5614735037 0 -2582037.5614735037 11428125.635347735 0 0 0 0 -744029.07373063033 -3839256.6683438271 0 -3839256.6683438271 17293873.652792692 0 0 0 0 -2981092.7176809311 4338929.4271240234 0 4338929.4271240234 6062493.7777709961 0 0 0 0 -3570845.8685436249 3672398.8998718262 0 3672398.8998718262 6287503.0521240234 0 0 0 0 -4487258.818063736 958842.29925537109 0 958842.29925537109 6360786.5269470215 0 0 0 0 -2137767.4808026473 -1977550.3097203746 0 -1977550.3097203746 21558423.294626877 0 0 0 0 -1470569.2710170618 7072040.2164663123 0 7072040.2164663123 4728209.5022959113 0 0 0 0 -2372296.4311904907 1101541.5055236816 0 1101541.5055236816 6104383.6293487549 0 0 0 0 -7399232.7289311886 7268837.3940658569 0 7268837.3940658569 6212822.19140625 0 0 0 0 -2220877.8604298821 8184570.7625511587 0 8184570.7625511587 9182230.6175953299 0 0 0 0 -372303.69128931873 -1880340.0037124306 0 -1880340.0037124306 27747488.342364222 0 0 0 0 1792636.8318367179 -253720.84639858082 0 -253720.84639858082 4246081.4255203903 0 0 0 0 -5506302.1766986847 25603217.02948761 0 25603217.02948761 22313117.620002747 0 0 0 0 -2397964.0569577012 8789509.2040480636 0 8789509.2040480636 2747726.9469595402 0 0 0 0 -1983909.4448781181 4651030.0484871119 0 4651030.0484871119 9384669.7507335246 0 0 0 0 37409288.310712814 33408891.138305664 0 33408891.138305664 3502382.9665527344 0 0 0 0 -12544992.524212301 3525577.485786438 0 3525577.485786438 5183105.8846435547 0 0 0 0 -2057075.3543128953 3478262.7382555576 0 3478262.7382555576 12388701.53298901 0 0 0 0 -26375028.285144806 76897642.755615234 0 76897642.755615234 43559701.355282068 0 0 0 0 71320.366806805483 -3311444.6836530007 0 -3311444.6836530007 7370334.0866390467 0 0 0 0 -461510.89980127272 3140522.2124507874 0 3140522.2124507874 9823723.6160346717 0 0 0 0 -1347768.9407792091 -3541462.6035385132 0 -3541462.6035385132 12668031.811645508 0 0 0 0 75765.720102215477 -1327184.1451250613 0 -1327184.1451250613 19727954.747813091 0 0 0 0 -1356584.1056752205 -1314537.102104187 0 -1314537.102104187 12568383.983917236 0 0 0 0 -5747396.9499788284 1252695.4846191406 0 1252695.4846191406 25746219.916503906 0 0 0 0 -835386.53103804344 -2079186.2237149402 0 -2079186.2237149402 13669434.688606013 0 0 0 0 -1788891.2764579058 -3267670.6059017181 0 -3267670.6059017181 11893348.172119141 0 0 0 0 156329.41102527315 3893327.6319164112 0 3893327.6319164112 13495419.117468253 0 0 0 0 77637.583212097175 -1929906.4356724694 0 -1929906.4356724694 13780696.443686295 0 0 0 0 9742735.6112484932 -15488420.677482605 0 -15488420.677482605 28217303.891021729 0 0 0 0 -11539815.6302284 -14086288.098937988 0 -14086288.098937988 -87657377.651306152 0 0 0 0 12880311.299017906 40982620.736450195 0 40982620.736450195 -22055259.981658936 0 0 0 0 -8677.7525675296783 633904.57713317871 0 633904.57713317871 5027670.5749511719 0 0 0 0 -121659.07446823135 -565472.6211983636 0 -565472.6211983636 9164630.1349315494 0 0 0 0 -377463.03164200555 1153596.0435589701 0 1153596.0435589701 23180922.735628758 0 0 0 0 -14218144.643502146 29052530.338775635 0 29052530.338775635 -16624237.214660645 0 0 0 0 -184304.6713539958 -2391366.0975036621 0 -2391366.0975036621 25733678.529159546 0 0 0 0 -2073799.3782808406 1430957.7809360027 0 1430957.7809360027 3059726.6412970126 0 0 0 0 44452193.539765298 72580388.413742065 0 72580388.413742065 -65633858.260131836 0 0 0 0 47095398.529439926 -6579365.0182495117 0 -6579365.0182495117 -10777067.999572754 0 0 0 0 16625258.681355625 -112488094.44404411 0 -112488094.44404411 168248675.66665649 0 0 0 0 490435.71792512515 581199.00860153884 0 581199.00860153884 -585292.54568247497 0 0 0 0 -25582928.822460055 -30060955.49017334 0 -30060955.49017334 -17975053.382429123 0 0 0 0 -126996922.22594541 -96500980.884399414 0 -96500980.884399414 302338442.18179321 0 0 0 0 101685887.55151677 111910965.94280243 0 111910965.94280243 17530037.60144043 0 0 0 0 6361286.4470324516 135237804.2772522 0 135237804.2772522 156976315.90254211 0 0 0 0 -43987534.268844068 44232972.551589966 0 44232972.551589966 44031562.074768066 0 0 0 0 34529670.135018587 66203375.918365479 0 66203375.918365479 -29208232.514389038 0 0 0 0 11182669.013785601 47431228.199432373 0 47431228.199432373 5608853.4262084961 0 0 0 0 155010887.72187042 99563530.383171082 0 99563530.383171082 225808949.24635315 0 0 0 0 154196523.25994301 152737175.94101334 0 152737175.94101334 191191354.08845711 0 0 0 0 211261667.21256828 70600797.525557518 0 70600797.525557518 148139559.39367676 0 0 0 0 235843898.01914597 39492530.104957581 0 39492530.104957581 222955205.96982384 0 0 0 0 116096110.89319611 12233959.853046417 0 12233959.853046417 218434847.06112289 0 0 0 0 185956963.25689697 13979507.188518524 0 13979507.188518524 148255781.88135529 0 0 0 0 185351534.7973299 -96076974.465652466 0 -96076974.465652466 287047270.04718018 0 0 0 0 315154828.90579605 -25434577.035015106 0 -25434577.035015106 260007884.39698601 0 0 0 0 383533924.02061462 -82572077.385730743 0 -82572077.385730743 373241592.52522755 0 0 0 0 244793906.67452049 -30281428.972837448 0 -30281428.972837448 360611106.44685364 0 0 0 0 344190593.92320251 57141619.290683746 0 57141619.290683746 353928417.83560848 0 0 0 0 263466245.28458142 125514687.05212831 0 125514687.05212831 226253685.21947479 0 0 0 0 224555461.51042366 24398491.847854614 0 24398491.847854614 347702075.61735535 0 0 0 0 207394005.19575119 37091566.107164383 0 37091566.107164383 333824459.33291435 0 0 0 0 262184058.07640076 166931463.99868202 0 166931463.99868202 189991382.66168976 0 0 0 0 122174306.62978745 141605497.64408112 0 141605497.64408112 207006933.15052795 0 0 0 0 -65840948.775884628 177192121.56652451 0 177192121.56652451 209535597.38497162 0 0 0 0 -5294156.1102581024 227068193.84397888 0 227068193.84397888 130521076.76945496 0 0 0 0 139175862.41086507 216418236.30072784 0 216418236.30072784 86149916.362960815 0 0 0 0 120161397.73919487 226689348.83134842 0 226689348.83134842 89368411.305847168 0 0 0 0 -25251425.165857315 313998629.33949661 0 313998629.33949661 140983427.80091476 0 0 0 0 -27210814.685192108 346724551.35159969 0 346724551.35159969 294553534.0838089 0 0 0 0 48593028.730670929 202759060.54461861 0 202759060.54461861 167225276.47425842 0 0 0 0 202900190.82561398 162036351.59486198 0 162036351.59486198 172296882.60964966 0 0 0 0 110136761.22037315 239180726.7076683 0 239180726.7076683 160811578.37218285 0 0 0 0 116651837.47166538 111431942.70075321 0 111431942.70075321 146398968.95126343 0 0 0 0 65314752.16813755 232589540.34853077 0 232589540.34853077 213948332.51996613 0 0 0 0 -58993688.797739029 194475329.80187225 0 194475329.80187225 203731693.48340988 0 0 0 0 -70303602.950310349 253284678.05326724 0 253284678.05326724 304634856.80688477 0 0 0 0 -81735543.761397362 -9404366.1880741119 0 -9404366.1880741119 77828353.366725922 0 0 0 0 26624122.752959251 64133553.587604523 0 64133553.587604523 35321302.40499115 0 0 0 0 -3466468.7780761719 133617671.41446304 0 133617671.41446304 241543219.40125847 0 0 0 0 94872510.101418495 18466702.474493027 0 18466702.474493027 -15840510.768997192 0 0 0 0 13312324.462276459 87865985.518278122 0 87865985.518278122 106290468.04156494 0 0 0 0 136083633.17006302 132571547.2256546 0 132571547.2256546 118094594.56497669 0 0 0 0 53597513.740003586 65554848.200521469 0 65554848.200521469 149364938.67482758 0 0 0 0 56080771.067626953 4441521.18592453 0 4441521.18592453 147612878.62086487 0 0 0 0 40663948.216373444 54979992.442245483 0 54979992.442245483 69868349.900102615 0 0 0 0 127052108.86404991 32478711.919010162 0 32478711.919010162 74530142.989646912 0 0 0 0 112388539.81805229 16309492.253276825 0 16309492.253276825 69006765.237651825 0 0 0 0 51823842.0703969 -40028545.869321585 0 -40028545.869321585 40395164.479202271 0 0 0 0 -8681725.8014202118 43609193.959762573 0 43609193.959762573 -21663562.025213242 0 0 0 0 -10569582.66299057 -93981068.036699295 0 -93981068.036699295 -73364284.335147858 0 0 0 0 73617691.907121658 -61656564.086231232 0 -61656564.086231232 -226107390.04740906 0 0 0 0 2059143092.8400762 -2902789985.8550835 0 -2902789985.8550835 -105453392.57816315 0 0 0 0 18633969.121498108 -59752016.335826874 0 -59752016.335826874 39524365.416893005 0 0 0 0 53652584.0389328 23479660.977607727 0 23479660.977607727 -36188118.875471115 0 0 0 0 -2797307.8496627808 22734260.136878967 0 22734260.136878967 -77516620.854377747 0 0 0 0 -64865488.978782654 68476082.254806519 0 68476082.254806519 -88841776.808511734 0 0 0 0 -2710662745.3642654 901867847.92300987 0 901867847.92300987 -2446886616.9769821 0 0 0 0 100634286.3597908 -92157993.334960938 0 -92157993.334960938 -50771901.348796844 0 0 0 0 9700172.1056308523 -3635192.9205198046 0 -3635192.9205198046 690805.74618069734 0 0 0 0 22861350.041687012 -149061824.07073212 0 -149061824.07073212 -48070913.056873322 0 0 0 0 2832053.6450673682 -285370.65577442572 0 -285370.65577442572 674986.82662860386 0 0 0 0 -158927306.88559151 -39268095.29302597 0 -39268095.29302597 24131260.420776367 0 0 0 0 -55315561.8761549 -103554604.60645294 0 -103554604.60645294 51792131.768844604 0 0 0 0 6090954.151550293 -57046649.302616119 0 -57046649.302616119 76345208.546901703 0 0 0 0 3450399.2484207153 -122096184.92614746 0 -122096184.92614746 152282016.22663879 0 0 0 0 19969545.023319244 -26352628.592479706 0 -26352628.592479706 206181457.65095901 0 0 0 0 5643017.2090771496 -156825432.75878662 0 -156825432.75878662 76653199.694854736 0 0 0 0 42250413.857143402 -184746961.63298798 0 -184746961.63298798 299971531.5329628 0 0 0 0 15739095.600781441 -174920809.53412795 0 -174920809.53412795 311909043.57150269 0 0 0 0 1873930.7239842415 -75157629.46184516 0 -75157629.46184516 200568072.80891418 0 0 0 0 93374875.99962616 -174202644.17551041 0 -174202644.17551041 251878507.68040085 0 0 0 0 34522458.848041534 -70745215.78383255 0 -70745215.78383255 163767213.36207199 0 0 0 0 133616100.35855103 -66102904.298805237 0 -66102904.298805237 159689814.61972618 0 0 0 0 22088189.328191042 -5974976.6081986427 0 -5974976.6081986427 69739612.261665344 0 0 0 0 232917499.69421959 85163666.600767136 0 85163666.600767136 -1488771677.4289188 0 0 0 0 8708016.1802400537 -1896277.8632369209 0 -1896277.8632369209 2643114.1931324252 0 0 0 0 -117239508.40729094 -39834232.352237701 0 -39834232.352237701 -1518854107.457859 0 0 0 0 366439305.11549616 -861732365.51855087 0 -861732365.51855087 -3180696263.3738289 0 0 0 0 64576604.547935486 -13472329.617412567 0 -13472329.617412567 6330013.8284912109 0 0 0 0 -24491456.289497375 -255863289.4979248 0 -255863289.4979248 434258820.06391144 0 0 0 0 75196627.410007477 -377698118.8346138 0 -377698118.8346138 573937976.27208376 0 0 0 0 123780340.4808445 -365523941.58037949 0 -365523941.58037949 504956110.08345795 0 0 0 0 -101394874.66227913 47760452.831363678 0 47760452.831363678 502265655.35325623 0 0 0 0 292387689.25303936 -670918813.23668289 0 -670918813.23668289 991068056.15237427 0 0 0 0 -11165434.77374649 -207176001.0681982 0 -207176001.0681982 1195570722.4831543 0 0 0 0 773760833.32899094 -703104816.16629791 0 -703104816.16629791 467473231.01127243 0 0 0 0 4047918.4033358884 -766489.28022704646 0 -766489.28022704646 -281253.44641997386 0 0 0 0 388182254.60102177 -308990318.51589298 0 -308990318.51589298 148374597.91442871 0 0 0 0 283564006.23975563 -506454631.02258492 0 -506454631.02258492 467829247.46620607 0 0 0 0 189100043.81291437 -383489709.03025341 0 -383489709.03025341 307770791.1582489 0 0 0 0 191212983.81030464 -371657529.79690742 0 -371657529.79690742 373629636.2443161 0 0 0 0 72856098.803009033 -356611728.97515869 0 -356611728.97515869 457483359.59838295 0 0 0 0 196659134.54014587 -330771930.61127663 0 -330771930.61127663 341264018.78932762 0 0 0 0 198662020.32634163 -334817482.93706894 0 -334817482.93706894 348336343.45799637 0 0 0 0 182110744.53361511 -274362488.79167366 0 -274362488.79167366 248478093.25914001 0 0 0 0 222765709.4394908 -246019643.80023241 0 -246019643.80023241 167163757.15467072 0 0 0 0 202598004.70896149 -161919253.95959091 0 -161919253.95959091 303352329.34884262 0 0 0 0 145273222.7353425 -184253546.79450607 0 -184253546.79450607 295833871.41972351 0 0 0 0 201771553.51560211 -68030225.25894928 0 -68030225.25894928 219991864.98993683 0 0 0 0 95488913.076177597 -77063966.690505981 0 -77063966.690505981 221616738.06843567 0 0 0 0 42291536.91759491 -114121705.15833282 0 -114121705.15833282 264770157.96146393 0 0 0 0 30762603.918233871 -221536920.98028755 0 -221536920.98028755 366129828.43608856 0 0 0 0 113718080.37163162 -243583420.17060852 0 -243583420.17060852 330847194.50780487 0 0 0 0 132179822.55238533 -276193520.3385334 0 -276193520.3385334 359597329.97239494 0 0 0 0 201838486.74250412 -264865594.58810711 0 -264865594.58810711 350597722.73110962 0 0 0 0 167082260.16958046 -348968078.25955582 0 -348968078.25955582 352314020.48815918 0 0 0 0 218005035.91752243 -306349484.37871933 0 -306349484.37871933 370759458.76643372 0 0 0 0 214281792.82595253 -316018092.87893105 0 -316018092.87893105 414185934.96444702 0 0 0 0 301750981.716362 -283767354.53545761 0 -283767354.53545761 351219694.99719048 0 0 0 0 247317409.83645248 -194148525.88393211 0 -194148525.88393211 386481931.24283218 0 0 0 0 272903978.99867058 -217258730.29323578 0 -217258730.29323578 340700862.16047478 0 0 0 0 331297738.0423851 -63220290.200149536 0 -63220290.200149536 292872373.37470627 0 0 0 0 348736399.63533783 -161557604.05089378 0 -161557604.05089378 518498798.40226746 0 0 0 0 462318345.87664604 -206809398.98436165 0 -206809398.98436165 380000000.76419067 0 0 0 0 530552443.49703979 -195101916.53567505 0 -195101916.53567505 523013741.74822998 0 0 0 0 255804979.5953474 -244184539.22751713 0 -244184539.22751713 401259499.0076828 0 0 0 0 260099958.75019073 -275990496.9462471 0 -275990496.9462471 548816576.21610641 0 0 0 0 161173008.43206024 -182795878.51704216 0 -182795878.51704216 860836733.10738564 0 0 0 0 433628857.48400736 83535252.090675831 0 83535252.090675831 496169921.3293457 0 0 0 0 114997324.80137444 -28645269.622346878 0 -28645269.622346878 431446724.40452099 0 0 0 0 432792916.6914959 -35233861.590867996 0 -35233861.590867996 1845885277.1362762 0 0 0 0 987090163.66620255 -166382312.59810257 0 -166382312.59810257 678874291.08282089 0 0 0 0 559825474.61111665 -55497402.805522919 0 -55497402.805522919 663741196.70366669 0 0 0 0 526357248.9930954 -303830182.45238113 0 -303830182.45238113 542041165.53168488 0 0 0 0 122084279.74893713 -176251129.14394522 0 -176251129.14394522 263288080.559021 0 0 0 0 5327519.5594863892 -116754810.60116386 0 -116754810.60116386 266130779.40723038 0 0 0 0 170592985.60119534 -265334316.11763287 0 -265334316.11763287 526330080.64375305 0 0 0 0 119927453.6017952 -167835889.53553772 0 -167835889.53553772 347714539.11131805 0 0 0 0 86316886.680966377 -45597082.511055946 0 -45597082.511055946 423949094.90603638 0 0 0 0 20405400.765115738 51290160.499429703 0 51290160.499429703 281693989.56921875 0 0 0 0 36309249.262060165 89179809.7085495 0 89179809.7085495 164703190.240448 0 0 0 0 18729832.473116398 122223003.2661705 0 122223003.2661705 173089682.97558594 0 0 0 0 153916526.61177635 236992076.27972603 0 236992076.27972603 350164084.82849884 0 0 0 0 -553776.66939253826 336502.21994144749 0 336502.21994144749 415777.96531305462 0 0 0 0 86918916.234119415 52273814.547267914 0 52273814.547267914 165058341.09357452 0 0 0 0 433878995.86592484 387629325.27310181 0 387629325.27310181 181255128.69041967 0 0 0 0 38717009.62575531 123081713.09199333 0 123081713.09199333 154196475.07137775 0 0 0 0 -1577819.7330971416 1045117.7741330201 0 1045117.7741330201 713962.22164203785 0 0 0 0 704692253.55602264 285641768.56167603 0 285641768.56167603 84071151.384807587 0 0 0 0 386317.65335486515 -173613.38355868682 0 -173613.38355868682 1645768.33352427 0 0 0 0 1144249044.0852757 800783883.33832741 0 800783883.33832741 648699336.27497482 0 0 0 0 272704242.93076324 423160407.3982048 0 423160407.3982048 822037631.44525146 0 0 0 0 135929733.09249687 81180338.113088608 0 81180338.113088608 136788122.61766052 0 0 0 0 341929546.02242374 238938834.18290305 0 238938834.18290305 164600360.43568802 0 0 0 0 334585150.15547943 214813456.26480675 0 214813456.26480675 140898166.71472168 0 0 0 0 1094313.3715464384 -777074.04968583677 0 -777074.04968583677 4301038.8369995095 0 0 0 0 -93719891.166579008 -73821633.976235747 0 -73821633.976235747 9089222.136762619 0 0 0 0 4783358.4768118048 -1160132.4621059517 0 -1160132.4621059517 3058486.9163205596 0 0 0 0 6717686.2551651001 -17165967.734930038 0 -17165967.734930038 129073969.90009117 0 0 0 0 -101099849.85492516 -45794252.398458481 0 -45794252.398458481 203934314.26385498 0 0 0 0 -19563733.109327316 -178416495.29255247 0 -178416495.29255247 1474325131.0518799 0 0 0 0 -97267959.720572472 11537204.614627838 0 11537204.614627838 1051293591.057972 0 0 0 0 212362904.1758709 8706633.2729091644 0 8706633.2729091644 132169111.03257561 0 0 0 0 50999478.524760246 -546394564.1206975 0 -546394564.1206975 1052036960.5873604 0 0 0 0 -80078137.934720993 101431889.99748039 0 101431889.99748039 1425121228.6230669 0 0 0 0 674901171.34673691 288695578.16790199 0 288695578.16790199 931406328.59705734 0 0 0 0 53205861.657310486 -203166664.8444519 0 -203166664.8444519 1169141804.6268406 0 0 0 0 233635794.58987427 -299578784.61841011 0 -299578784.61841011 827298202.98149109 0 0 0 0 305167325.99596596 -31713176.566156387 0 -31713176.566156387 542872292.10766602 0 0 0 0 246527315.75685501 -12957122.196079254 0 -12957122.196079254 641885769.31597519 0 0 0 0 292451313.44327372 68774344.373539329 0 68774344.373539329 345509570.46478653 0 0 0 0 288735190.2052775 -45610320.748409688 0 -45610320.748409688 536178126.76461792 0 0 0 0 319947323.48549652 35506822.287376404 0 35506822.287376404 823030426.65227604 0 0 0 0 433832110.39176941 -1321667.6693878174 0 -1321667.6693878174 456710211.00790405 0 0 0 0 580473262.13567734 -23185706.146884918 0 -23185706.146884918 458931186.07709503 0 0 0 0 125967624.53361297 44202703.778511047 0 44202703.778511047 330551339.89017105 0 0 0 0 148724810.74584723 141765694.67241096 0 141765694.67241096 165056208.15936661 0 0 0 0 224209265.2490654 114507114.46965599 0 114507114.46965599 379725990.18106079 0 0 0 0 404514555.06944656 -121652704.11676407 0 -121652704.11676407 468109161.62344933 0 0 0 0 606707798.04243851 -257816885.75290871 0 -257816885.75290871 410335309.06945717 0 0 0 0 329461680.87629175 -478043769.96395159 0 -478043769.96395159 1144061651.6888428 0 0 0 0 237477428.3921988 198584232.0946188 0 198584232.0946188 469998542.18798828 0 0 0 0 -65890113.019452095 -493817159.95531654 0 -493817159.95531654 855147918.83169746 0 0 0 0 2390426.0187631231 -137697.89119053632 0 -137697.89119053632 472560.50440698117 0 0 0 0 464974863.35597897 -513074884.82450914 0 -513074884.82450914 342913330.02011108 0 0 0 0 229076572.11904335 -82476632.240746498 0 -82476632.240746498 -148396653.66621113 0 0 0 0 186261555.71002483 -814736629.39093399 0 -814736629.39093399 476243838.48346901 0 0 0 0 16973163.67551136 -1057673515.9025121 0 -1057673515.9025121 82405739.865433574 0 0 0 0 -79954392.665654182 -889113485.65530014 0 -889113485.65530014 1084869274.7753792 0 0 0 0 -223752979.31826615 -63197309.780666351 0 -63197309.780666351 511623.22934913635 0 0 0 0 -1929508.7110488603 -3913754.7463284521 0 -3913754.7463284521 18247874.872640468 0 0 0 0 -1015350376.1995754 -379558942.03454399 0 -379558942.03454399 230891141.77005768 0 0 0 0 -641216.07596847694 -1089662.3766259723 0 -1089662.3766259723 6578844.2906603999 0 0 0 0 1436216488.6764331 1804123540.0968778 0 1804123540.0968778 1285215262.9962807 0 0 0 0 321193956.84593773 309526072.65714884 0 309526072.65714884 334967926.37011528 0 0 0 0 -54468660.071987152 447175710.28963709 0 447175710.28963709 514617923.10660934 0 0 0 0 16300165.9203283 -17694005.65494334 0 -17694005.65494334 16754165.931532849 0 0 0 0 -48733165.741655111 353628115.70825946 0 353628115.70825946 877172617.55895042 0 0 0 0 84297261.516771317 425959058.89217663 0 425959058.89217663 494807143.48088741 0 0 0 0 -2828808.1993120974 -7872209.5440841662 0 -7872209.5440841662 26931256.935360111 0 0 0 0 -175613842.49717903 -89926384.037398338 0 -89926384.037398338 240240802.42036438 0 0 0 0 30919692.107967377 -45518609.980638504 0 -45518609.980638504 692973212.73094559 0 0 0 0 -9593728.6435718536 102142021.68125439 0 102142021.68125439 273419560.00536537 0 0 0 0 45637890.1951828 -220580480.89764404 0 -220580480.89764404 -1545578.8515625 0 0 0 0 -698634263.74123335 -114195896.64294243 0 -114195896.64294243 117315270.38263702 0 0 0 0 -533967945.22670078 128970942.49839973 0 128970942.49839973 213348173.04683685 0 0 0 0 -177926960.65539932 178723584.40115547 0 178723584.40115547 357520988.7535336 0 0 0 0 -298220831.2189455 3020813.550901413 0 3020813.550901413 153213828.98686218 0 0 0 0 -196283564.59614372 -116286783.43745804 0 -116286783.43745804 319666909.15509033 0 0 0 0 -248114838.03700733 27755946.581321716 0 27755946.581321716 2560347.8630228043 0 0 0 0 -425648224.38635635 -446326628.05474472 0 -446326628.05474472 -85388937.897033691 0 0 0 0 -219111058.91157532 -249245044.63412857 0 -249245044.63412857 -19487884.488922119 0 0 0 0 72647779.933555603 -438533682.2677536 0 -438533682.2677536 19881574.708564758 0 0 0 0 -186214288.43730927 -359135384.14523697 0 -359135384.14523697 328590789.30351257 0 0 0 0 -52134049.229789734 -431651928.38825893 0 -431651928.38825893 33606910.805679321 0 0 0 0 -86383867.189622879 -360013819.53247452 0 -360013819.53247452 75122437.565734863 0 0 0 0 -351451399.9444809 -475096742.86389923 0 -475096742.86389923 93587314.903343201 0 0 0 0 -102345416.73970413 -345949676.03513336 0 -345949676.03513336 68296945.432605743 0 0 0 0 62719809.408813477 -256531655.00870514 0 -256531655.00870514 18023013.366007328 0 0 0 0 67604036.296737671 -421129931.88248825 0 -421129931.88248825 15552924.127151489 0 0 0 0 -17373777.748321533 -324585645.4696312 0 -324585645.4696312 13235682.882728577 0 0 0 0 58396841.321578979 -224100513.08395386 0 -224100513.08395386 -121102089.63607836 0 0 0 0 153196193.90623474 -334320476.46380615 0 -334320476.46380615 -109532281.67731571 0 0 0 0 142043894.30721283 -356694041.75228882 0 -356694041.75228882 -53506977.592556 0 0 0 0 123646935.64525223 -562685116.89582443 0 -562685116.89582443 322011195.72024536 0 0 0 0 391362986.82392883 -397510464.56381989 0 -397510464.56381989 -104877796.38823318 0 0 0 0 144882036.39001286 -131130539.33296327 0 -131130539.33296327 -330151308.96421814 0 0 0 0 143215476.06550598 -655460124.28657341 0 -655460124.28657341 -178259602.34492397 0 0 0 0 -274684229.4317894 -111886402.67701721 0 -111886402.67701721 -112549975.6446228 0 0 0 0 -301458200.25820923 -341637036.91264153 0 -341637036.91264153 -202028361.77375031 0 0 0 0 414166519.76986694 65414175.02935791 0 65414175.02935791 569707788.06705475 0 0 0 0 626275095.78441238 271937459.5323 0 271937459.5323 561865284.12254333 0 0 0 0 201918108.1076622 265871978.385571 0 265871978.385571 795927203.78063202 0 0 0 0 260947952.1934967 17629981.219142914 0 17629981.219142914 -65216839.629262924 0 0 0 0 248264642.1088562 -258461474.5739727 0 -258461474.5739727 324804957.74676514 0 0 0 0 -258514993.69628525 81310474.930309296 0 81310474.930309296 -12772698.662319183 0 0 0 0 270421715.15222359 207774275.62707376 0 207774275.62707376 -192821657.84365082 0 0 0 0 3559836.9466326684 -3408202.1505339649 0 -3408202.1505339649 -6695915.4760823455 0 0 0 0 -1167033582.8562431 -1778764598.2998896 0 -1778764598.2998896 -879478747.60328341 0 0 0 0 5954652.9140339717 -5692541.8605081141 0 -5692541.8605081141 5332914.6484588115 0 0 0 0 68627762.153757095 1555927682.4051607 0 1555927682.4051607 2749916177.6448174 0 0 0 0 -3262945827.9275055 -1992644468.0469742 0 -1992644468.0469742 2739584622.1394844 0 0 0 0 4468987644.2780762 -521634875.74040794 0 -521634875.74040794 -2031880744.9723587 0 0 0 0 144365507.02116394 -729048991.22624207 0 -729048991.22624207 745191277.82039261 0 0 0 0 68136395.917953491 -149303783.31097794 0 -149303783.31097794 2486362986.5444794 0 0 0 0 66332076.90354161 -538315959.86512995 0 -538315959.86512995 709521059.02557373 0 0 0 0 -23088531.114837646 -329090961.9384079 0 -329090961.9384079 442053324.70152092 0 0 0 0 288185494.42995644 879477034.2708149 0 879477034.2708149 1796988231.2491608 0 0 0 0 2130196026.8356171 2690917406.850172 0 2690917406.850172 3143860929.9208813 0 0 0 0 752863309.32998657 499628108.74551773 0 499628108.74551773 -317345512.67737579 0 0 0 0 290348.32872227207 -921858.8050191123 0 -921858.8050191123 1259168.5218373882 0 0 0 0 221345062.49832153 387512407.24825287 0 387512407.24825287 -232668270.42024469 0 0 0 0 498099289.81706238 489159952.06066418 0 489159952.06066418 -303532912.38115263 0 0 0 0 -190553694.99384308 47582432.851703644 0 47582432.851703644 65148362.421812057 0 0 0 0 -221503574.90817642 188432616.57870865 0 188432616.57870865 349126839.18519974 0 0 0 0 -462258900.94338799 47310759.09963131 0 47310759.09963131 382720223.04117203 0 0 0 0 70474545.662338257 294134896.56931686 0 294134896.56931686 255517742.63589096 0 0 0 0 -43087510.69982338 -397727618.11846828 0 -397727618.11846828 335146132.64370728 0 0 0 0 -366719474.66566086 105427783.36751556 0 105427783.36751556 897721995.23857498 0 0 0 0 -501158064.4098587 72965675.43812561 0 72965675.43812561 237824586.51660919 0 0 0 0 -381700712.335186 6950830.8403892517 0 6950830.8403892517 269487801.99777985 0 0 0 0 5275650.2269763947 -17827177.041397095 0 -17827177.041397095 50205079.928878784 0 0 0 0 3292449.5251617432 -860877.1529712677 0 -860877.1529712677 49392315.136180878 0 0 0 0 80415467.573513031 198775506.44596219 0 198775506.44596219 58315440.051483035 0 0 0 0 25647226.532004356 -51973620.859082401 0 -51973620.859082401 -53356746.355249405 0 0 0 0 -579656.42541885376 -26470736.955318928 0 -26470736.955318928 38505857.734239578 0 0 0 0 6249830.1809310913 10848368.972857475 0 10848368.972857475 -38039765.837518692 0 0 0 0 27474930.652481079 24292560.90908742 0 24292560.90908742 -54029258.860544816 0 0 0 0 -3409856.9181217048 11687879.402421791 0 11687879.402421791 28634392.016257234 0 0 0 0 804770.32274627686 -18190985.488445282 0 -18190985.488445282 62754669.330612183 0 0 0 0 -33726283.011629105 -44801381.303446293 0 -44801381.303446293 83601322.302088916 0 0 0 0 -115813623.66313934 97441049.970516205 0 97441049.970516205 60443537.579877853 0 0 0 0 -818619.6732710097 33166.588915837929 0 33166.588915837929 2313737.650708023 0 0 0 0 1272844.7704897416 -804543.77056115959 0 -804543.77056115959 9132419.272560088 0 0 0 0 135042986.61441422 116235998.96315384 0 116235998.96315384 -156895341.32382774 0 0 0 0 7356590.1068663988 -13113442.146168102 0 -13113442.146168102 1272099.9431714159 0 0 0 0 10333069.726230621 -14704526.784268856 0 -14704526.784268856 -1797021.3289308548 0 0 0 0 -25794029.857416153 -48706142.106437683 0 -48706142.106437683 -80230617.943618774 0 0 0 0 6956937.3731117249 3194550.0963749886 0 3194550.0963749886 -43649983.920192719 0 0 0 0 47296954.190414429 12082962.498537064 0 12082962.498537064 -43002090.419061422 0 0 0 0 -12830698.198755264 56577145.888038635 0 56577145.888038635 -48561999.533119202 0 0 0 0 -18361065.134513855 -28477944.751471519 0 -28477944.751471519 -54195793.916023254 0 0 0 0 132478501.61292219 -48508078.212620735 0 -48508078.212620735 -58496542.615570068 0 0 0 0 114625833.7358501 81684850.801443219 0 81684850.801443219 -49620215.250059128 0 0 0 0 -419342.41557159647 -1245015.861817074 0 -1245015.861817074 4036051.7737192996 0 0 0 0 150694313.80257225 -617707053.62895584 0 -617707053.62895584 772255285.13625813 0 0 0 0 385319798.1570816 -248972260.20927334 0 -248972260.20927334 174125750.8566823 0 0 0 0 -474388905.15122986 -212350197.62405396 0 -212350197.62405396 575084720.59123826 0 0 0 0 -820690752.94951248 -292920383.48371029 0 -292920383.48371029 1200517029.6001844 0 0 0 0 1124048.4500759039 1862212.699256097 0 1862212.699256097 1696646.5557979448 0 0 0 0 135354558.32383347 314594171.0948422 0 314594171.0948422 -165693937.19304514 0 0 0 0 -547712472.84603882 -64431697.220727921 0 -64431697.220727921 1363493934.6990414 0 0 0 0 637822967.86965179 1737226489.4658203 0 1737226489.4658203 789548122.18341827 0 0 0 0 244578927.1152935 301062708.05842972 0 301062708.05842972 -727627343.41397858 0 0 0 0 -20667132.490974426 251968442.94368362 0 251968442.94368362 579407036.63174772 0 0 0 0 -37212386.662887573 80735854.560100555 0 80735854.560100555 60266882.094773293 0 0 0 0 41549305.11076355 14258549.459682465 0 14258549.459682465 52182167.422328949 0 0 0 0 -4594037.5645019282 1417054.7945947479 0 1417054.7945947479 7552925.6958148014 0 0 0 0 -12153934.126247525 -378172468.116032 0 -378172468.116032 -603657267.84221268 0 0 0 0 7362023.2924842834 -9530821.2713432312 0 -9530821.2713432312 41250619.475845337 0 0 0 0 -1640132.4652186953 -13468942.49653855 0 -13468942.49653855 34754603.013320565 0 0 0 0 -84195.658187866211 -6358436.3938026428 0 -6358436.3938026428 52209140.3034935 0 0 0 0 -3029333.1374399923 -10254223.677680397 0 -10254223.677680397 34215130.25122606 0 0 0 0 11006785.368679047 -121461369.77456093 0 -121461369.77456093 329351505.03875256 0 0 0 0 -3230801.8109970093 -12412891.988825798 0 -12412891.988825798 41215004.858276367 0 0 0 0 1798295.5360120651 -6215760.7145444406 0 -6215760.7145444406 -1507390.8971332181 0 0 0 0 -358253401.76675606 375664999.77619243 0 375664999.77619243 2465543066.0991192 0 0 0 0 -3748057.2744102478 -2806284.5391654968 0 -2806284.5391654968 31991796.461072922 0 0 0 0 -16936809.802498497 -9133535.8356443029 0 -9133535.8356443029 33828629.469485477 0 0 0 0 14793.324228338897 -411684.39003665047 0 -411684.39003665047 1985962.2808114178 0 0 0 0 -6031465.934261322 -11619134.461172104 0 -11619134.461172104 40941430.542499542 0 0 0 0 -412632345.60795975 -164917072.80293274 0 -164917072.80293274 -513947460.3239994 0 0 0 0 -495131792.22179818 66650517.703277111 0 66650517.703277111 8719776.4571685791 0 0 0 0 612967686.83708572 -1501661029.7029343 0 -1501661029.7029343 301414637.81760788 0 0 0 0 107199559.90942955 832668976.05902863 0 832668976.05902863 -1080774901.0348377 0 0 0 0 -53907194.676730156 675662414.11176109 0 675662414.11176109 605030506.40224457 0 0 0 0 -55620876.711681366 483865815.69521332 0 483865815.69521332 -97346091.671410561 0 0 0 0 -113405878.78289986 195226202.66414642 0 195226202.66414642 13785288.405558586 0 0 0 0 -113428150.07851177 197418989.43508586 0 197418989.43508586 -109794571.64358521 0 0 0 0 -249141773.8696022 176310008.6402607 0 176310008.6402607 150109324.49230587 0 0 0 0 -1166097.0888290405 233014289.65072632 0 233014289.65072632 10021832.143863678 0 0 0 0 -133171147.20430088 72184627.852231979 0 72184627.852231979 67778401.985801697 0 0 0 0 -436788839.46281147 29333949.902004242 0 29333949.902004242 65653913.488555908 0 0 0 0 -375095365.31163406 49774504.932134628 0 49774504.932134628 162419555.68625164 0 0 0 0 -420636144.24513459 123659097.9776516 0 123659097.9776516 43862495.651702881 0 0 0 0 -3161904.9306949363 -14443934.857040089 0 -14443934.857040089 32128090.523193479 0 0 0 0 -231233665.41080952 109668266.66500378 0 109668266.66500378 -35161723.969764709 0 0 0 0 1704376.8194242343 -17267405.146104757 0 -17267405.146104757 5845633.8862598967 0 0 0 0 -107125168.20077324 -167540260.46347618 0 -167540260.46347618 -19693229.778749466 0 0 0 0 36265646.615898132 -28495435.822961807 0 -28495435.822961807 -132936404.61227798 0 0 0 0 -6107003.9773340225 -8292842.7376236916 0 -8292842.7376236916 2069982.7451410294 0 0 0 0 1227093.1795272846 -7328415.4292699313 0 -7328415.4292699313 8388299.120213462 0 0 0 0 -54305411.026958466 15619967.275344849 0 15619967.275344849 -9617611.09678936 0 0 0 0 -2231234.5727220881 -4874388.9981872998 0 -4874388.9981872998 4800699.9784878353 0 0 0 0 -239375974.19284821 -26208149.50497818 0 -26208149.50497818 163118880.74337769 0 0 0 0 396300989.51210403 -217150834.95358276 0 -217150834.95358276 -777684698.6493721 0 0 0 0 -359701505.95567584 173955070.58571053 0 173955070.58571053 -65678513.051082611 0 0 0 0 -345408712.46627808 -258466995.93134308 0 -258466995.93134308 479214880.54659271 0 0 0 0 -294442576.37911797 301950442.25233269 0 301950442.25233269 199559813.91483307 0 0 0 0 -293287347.31351471 483424595.47598076 0 483424595.47598076 1265669582.1853027 0 0 0 0 -217152102.85056114 43529808.363526821 0 43529808.363526821 377718283.64573288 0 0 0 0 269797721.80004883 407386250.12142372 0 407386250.12142372 196475065.66281891 0 0 0 0 512199712.99434853 759855311.14334154 0 759855311.14334154 645853011.3841362 0 0 0 0 28101738.049242496 168177485.93752432 0 168177485.93752432 364873498.95015717 0 0 0 0 -379269802.03854942 220894000.45351791 0 220894000.45351791 542231723.1941433 0 0 0 0 -383315032.48308372 392585114.0212574 0 392585114.0212574 -228340008.69254589 0 0 0 0 -486184.95861875266 -259796.92941334192 0 -259796.92941334192 948859.56590653583 0 0 0 0 409905589.75359917 701966873.91897202 0 701966873.91897202 1109560761.4175797 0 0 0 0 -544980.8078401105 488716.5452615195 0 488716.5452615195 3749996.1387198269 0 0 0 0 384036425.68050313 -587468243.23855734 0 -587468243.23855734 776898841.58934021 0 0 0 0 -479992771.92867184 1609742277.9598684 0 1609742277.9598684 951250862.67419434 0 0 0 0 -529981601.51987839 17370314.303909302 0 17370314.303909302 2262798413.4672127 0 0 0 0 -348469637.37975866 -264897696.01514745 0 -264897696.01514745 1923734086.1244354 0 0 0 0 -234892192.76333714 244173974.48314285 0 244173974.48314285 472423327.23104858 0 0 0 0 -368346129.54190636 318679148.81734085 0 318679148.81734085 554085192.09237814 0 0 0 0 -86253055.611178398 -14244444.16071701 0 -14244444.16071701 442302226.53554797 0 0 0 0 115268242.99781132 -62844039.847597122 0 -62844039.847597122 54916719.51071167 0 0 0 0 -991619.91023631208 -417066.015450757 0 -417066.015450757 4951561.6784621663 0 0 0 0 412019.56436920166 -564323.11753845215 0 -564323.11753845215 6909429.5519542694 0 0 0 0 -2849791.6102552414 -670837.94506454468 0 -670837.94506454468 8947580.7290763855 0 0 0 0 -5102230.7660816042 -4612552.0070378743 0 -4612552.0070378743 12137513.923808828 0 0 0 0 -3478107.6612901688 -599012.90545082092 0 -599012.90545082092 8859861.3730735779 0 0 0 0 -273494988.99088478 -116183662.51051569 0 -116183662.51051569 -37606668.981966019 0 0 0 0 -6099419.3138103485 1617334.3781375885 0 1617334.3781375885 7968628.5936514139 0 0 0 0 -2995500.5806673076 298003.74438960245 0 298003.74438960245 12342086.021713104 0 0 0 0 -2024963.0577379025 3185278.4046509685 0 3185278.4046509685 8293651.6632884201 0 0 0 0 -446381750.01567 70203161.044170171 0 70203161.044170171 228566856.20957947 0 0 0 0 -3802743.3370046616 -1780118.7878932953 0 -1780118.7878932953 7722225.4111633301 0 0 0 0 -66993964.544437408 109648942.74009037 0 109648942.74009037 321949923.96051216 0 0 0 0 -319661235.87473679 -119485464.27821636 0 -119485464.27821636 571599535.53074551 0 0 0 0 -70375600.591216087 -272695107.52247334 0 -272695107.52247334 149858139.74941826 0 0 0 0 -332786211.48077011 -8939675.5535621643 0 -8939675.5535621643 30244704.065134048 0 0 0 0 -58181102.493092775 275186855.37259674 0 275186855.37259674 1370341654.7340164 0 0 0 0 239666109.49258423 -582249648.87759495 0 -582249648.87759495 1011919226.5178699 0 0 0 0 -20241021.618835449 -107181255.86711979 0 -107181255.86711979 325424635.32192802 0 0 0 0 340047601.39140701 -76623230.174184799 0 -76623230.174184799 -204319113.01928139 0 0 0 0 105468909.95067215 -319091288.72180939 0 -319091288.72180939 80629384.926017761 0 0 0 0 -212069512.61057663 -122433323.80605793 0 -122433323.80605793 -26477041.547800064 0 0 0 0 22858137.598825455 12569413.162200451 0 12569413.162200451 -263686129.86036301 0 0 0 0 -146548481.03846359 -268735036.93948364 0 -268735036.93948364 -121976364.33710575 0 0 0 0 -4538873.1717815399 82187401.946925402 0 82187401.946925402 -258829852.88502502 0 0 0 0 170264059.09823227 106391626.00063324 0 106391626.00063324 -409633092.36257362 0 0 0 0 -242383094.39006996 -188555438.87047529 0 -188555438.87047529 121722010.08509445 0 0 0 0 -227112474.74185944 -229263078.71369743 0 -229263078.71369743 142053445.25327206 0 0 0 0 -123423813.51475143 -217160440.88748503 0 -217160440.88748503 -95289592.82488738 0 0 0 0 -208422324.42992687 -215188193.50254893 0 -215188193.50254893 -95279418.65946579 0 0 0 0 47011194.445358276 -163134912.82274055 0 -163134912.82274055 -353058939.63051987 0 0 0 0 -3572397.1173968948 -3327180.3987200535 0 -3327180.3987200535 13608048.955309119 0 0 0 0 -130736894.75533867 -153157887.88666058 0 -153157887.88666058 -102974708.36855316 0 0 0 0 -422365584.30934525 -420938590.94200611 0 -420938590.94200611 -455085783.80637336 0 0 0 0 -134607989.09254837 -282174852.66299677 0 -282174852.66299677 -389229626.85055351 0 0 0 0 -205161254.05366898 -359927286.7909534 0 -359927286.7909534 -597916600.89099169 0 0 0 0 -334960051.90236282 -156726853.39431 0 -156726853.39431 -187938654.61856461 0 0 0 0 -273880.7973354375 -458959.42845590226 0 -458959.42845590226 366198.78009479586 0 0 0 0 -348904975.14942932 364754037.35917759 0 364754037.35917759 -472626373.5770449 0 0 0 0 -1501129.9194546323 -533060.28255461238 0 -533060.28255461238 2215920.625201839 0 0 0 0 -219385661.52034378 333721435.56819057 0 333721435.56819057 -512525347.919981 0 0 0 0 -640500506.91194534 39723049.137795925 0 39723049.137795925 -249153405.106736 0 0 0 0 -609664771.42040253 -319264277.27688313 0 -319264277.27688313 -283472927.71422243 0 0 0 0 296986530.77778625 271176688.2240783 0 271176688.2240783 -721790128.25464988 0 0 0 0 785343.96107169241 901890.76115177851 0 901890.76115177851 144870.75586623815 0 0 0 0 222400655.05091286 -273820354.05675066 0 -273820354.05675066 80610309.980141491 0 0 0 0 -606249518.63206863 -74571408.711567938 0 -74571408.711567938 184961103.94734526 0 0 0 0 -269220.58681098465 4728744.8984296052 0 4728744.8984296052 6736656.2461928036 0 0 0 0 -11639370.573307037 2131769.3183908463 0 2131769.3183908463 7150996.3391494751 0 0 0 0 -373850759.81341267 275046151.77682197 0 275046151.77682197 27253001.461571217 0 0 0 0 -100702192.09193325 -349882848.10870361 0 -349882848.10870361 -140540291.00788498 0 0 0 0 -91958872.287846565 -253789680.74891472 0 -253789680.74891472 -194181159.92925262 0 0 0 0 -457214323.27370453 -192333809.75495338 0 -192333809.75495338 -42388500.785102844 0 0 0 0 -2926466.8985791453 2662315.569578059 0 2662315.569578059 13747356.351890264 0 0 0 0 -8320622.0532922745 3079178.3560743332 0 3079178.3560743332 4359047.9191055298 0 0 0 0 -193004394.51618958 198831589.38711858 0 198831589.38711858 517766410.21717978 0 0 0 0 -78930779.558847427 -13193654.383447945 0 -13193654.383447945 352831299.53359413 0 0 0 0 108666559.12110138 309016673.19290257 0 309016673.19290257 468557173.0190773 0 0 0 0 12098613.02092728 -15761350.638882151 0 -15761350.638882151 2986812.5967259621 0 0 0 0 -45839361.044109344 239677501.38167381 0 239677501.38167381 306748761.92417336 0 0 0 0 59476180.170036316 67018710.516420603 0 67018710.516420603 419664122.78904688 0 0 0 0 178421882.71143341 91189950.254057407 0 91189950.254057407 383661963.97254896 0 0 0 0 147017732.28936768 383152342.79257154 0 383152342.79257154 352359197.28615415 0 0 0 0 428879166.84511948 294893036.46061277 0 294893036.46061277 67249769.57972908 0 0 0 0 180950519.71545422 29306316.584007099 0 29306316.584007099 -76284466.710991859 0 0 0 0 201254134.18861771 -230158870.03839087 0 -230158870.03839087 244328393.89991158 0 0 0 0 2025846.114134077 -676707.4249248798 0 -676707.4249248798 5037743.7095823959 0 0 0 0 140261628.37133026 113522421.19975799 0 113522421.19975799 267510359.87498197 0 0 0 0 19778807.072217941 -104796018.80213274 0 -104796018.80213274 437584479.04523087 0 0 0 0 -436432519.69762135 694864742.56542456 0 694864742.56542456 542309405.54626369 0 0 0 0 2294959.9141678959 3752077.8514879728 0 3752077.8514879728 3028236.7075921656 0 0 0 0 223262711.21435356 -306555710.81325042 0 -306555710.81325042 -237615618.98734951 0 0 0 0 400617280.55833435 164725239.36057997 0 164725239.36057997 -404670354.36444235 0 0 0 0 -619594244.92554092 -740244388.26574063 0 -740244388.26574063 1043384996.562439 0 0 0 0 786533200.42658997 1138867664.6618795 0 1138867664.6618795 -83020414.493153095 0 0 0 0 1219684818.6524277 -299866780.73433781 0 -299866780.73433781 -19422606.397220612 0 0 0 0 -634343768.72848892 991320751.86465406 0 991320751.86465406 183100880.38090324 0 0 0 0 57823253.319574356 -16441208.535836697 0 -16441208.535836697 -285942020.95987511 0 0 0 0 152741163.67742157 129122421.95071507 0 129122421.95071507 -63580425.853400946 0 0 0 0 171039704.53790283 117462041.45349693 0 117462041.45349693 -402550915.81579876 0 0 0 0 334859635.46671295 21851539.793487668 0 21851539.793487668 -575313176.16546798 0 0 0 0 -354484706.24247837 -79112455.65131101 0 -79112455.65131101 115037577.9830991 0 0 0 0 1981154.9881149 2775883.2485777186 0 2775883.2485777186 1485896.5831573356 0 0 0 0 77173461.534534454 -110630784.56324792 0 -110630784.56324792 38842179.93887639 0 0 0 0 67076622.374176025 -198602794.17606866 0 -198602794.17606866 131505509.86975455 0 0 0 0 29402121.004412651 -138769910.17484179 0 -138769910.17484179 171655499.99711037 0 0 0 0 202085135.17576599 -368619134.04638487 0 -368619134.04638487 -156060250.6135608 0 0 0 0 397626606.07994938 37656333.406516567 0 37656333.406516567 64156360.79461503 0 0 0 0 110849404.15627289 -120798831.77297175 0 -120798831.77297175 32761981.472603738 0 0 0 0 127097735.40198112 -36619808.981174871 0 -36619808.981174871 224858861.94690108 0 0 0 0 -155649009.87051201 -8560574.2005496025 0 -8560574.2005496025 261392957.57401597 0 0 0 0 84351.165036361665 -243742.91027229093 0 -243742.91027229093 -140933.09513867868 0 0 0 0 -19705193.740379333 12461972.451115966 0 12461972.451115966 210611045.5465256 0 0 0 0 -26932902.185073853 53398724.746884346 0 53398724.746884346 156546504.06973743 0 0 0 0 -149860470.11300659 -232959619.24969107 0 -232959619.24969107 -6346426.6651885509 0 0 0 0 -128473143.92238998 97391335.799138665 0 97391335.799138665 480808832.33517694 0 0 0 0 -57401225.428735733 -37297674.143912077 0 -37297674.143912077 242362969.34896946 0 0 0 0 165293047.6313591 -216165005.02506411 0 -216165005.02506411 500046.86167263985 0 0 0 0 240886.2470761314 -529475.59385789651 0 -529475.59385789651 -309075.30246872536 0 0 0 0 53431355.89881134 -162427247.4823662 0 -162427247.4823662 178431688.61670828 0 0 0 0 -98367532.355463982 -248784177.36319649 0 -248784177.36319649 303671813.68396258 0 0 0 0 46318201.477205276 -85906485.378540993 0 -85906485.378540993 217592449.24771428 0 0 0 0 39715144.108646393 -116198738.4688388 0 -116198738.4688388 256538181.25342393 0 0 0 0 87913837.635486603 -99947236.967261791 0 -99947236.967261791 125968028.62707984 0 0 0 0 184573250.66650772 -153974405.70184296 0 -153974405.70184296 151354980.63895655 0 0 0 0 512887.66145860963 -472070.01114458637 0 -472070.01114458637 -340200.00025130622 0 0 0 0 202580331.28325105 -10421748.582847238 0 -10421748.582847238 195844506.86077833 0 0 0 0 120434748.1603756 493016925.33762836 0 493016925.33762836 710486534.91367483 0 0 0 0 357294693.36797333 421654488.05503941 0 421654488.05503941 339187151.98149204 0 0 0 0 263777082.45315933 222695330.12216401 0 222695330.12216401 106948794.73305273 0 0 0 0 476289904.77228165 417948344.73243952 0 417948344.73243952 -390861234.78009498 0 0 0 0 287353644.53124237 225239551.68011451 0 225239551.68011451 429230498.68527269 0 0 0 0 229461203.64689445 -104456610.69118428 0 -104456610.69118428 5474058.3884167373 0 0 0 0 -81353349.869342804 -345560314.3495121 0 -345560314.3495121 -166397231.94285512 0 0 0 0 -104500698.04574966 -473777468.44314194 0 -473777468.44314194 -109388388.63160276 0 0 0 0 76934451.45192802 -96616422.637904227 0 -96616422.637904227 -358158944.95406628 0 0 0 0 -454571942.96523666 115613629.50695395 0 115613629.50695395 -85949258.19364208 0 0 0 0 -271147.40745394491 -4779022.4808246 0 -4779022.4808246 5775535.2076859558 0 0 0 0 -473706882.10716438 238787664.03894848 0 238787664.03894848 205904907.72380495 0 0 0 0 -172945472.10497093 105522230.45046866 0 105522230.45046866 87633295.635259628 0 0 0 0 -359640848.37013245 -151441804.45591354 0 -151441804.45591354 -241791615.84820223 0 0 0 0 -9421.3379630364943 1489424.9313862082 0 1489424.9313862082 -283843.71032636659 0 0 0 0 335914856.94709247 990861078.28009808 0 990861078.28009808 2675974814.3138657 0 0 0 0 355034073.66605949 134539740.24051762 0 134539740.24051762 -818907879.20983315 0 0 0 0 399902335.46866417 162199890.85769653 0 162199890.85769653 -237593157.56856537 0 0 0 0 -1523148.7130742092 1095950.491657245 0 1095950.491657245 9331247.0576253068 0 0 0 0 -19644937.606675029 10971375.393302441 0 10971375.393302441 1905279.8511962891 0 0 0 0 -324579.99843863898 8819669.5594524294 0 8819669.5594524294 7689837.747402437 0 0 0 0 -1383236591.5719657 -119332765.22794831 0 -119332765.22794831 1073876606.8056831 0 0 0 0 -100145213.8157444 305761951.58997357 0 305761951.58997357 -52898977.745887041 0 0 0 0 -168729253.42482376 -247798237.54386091 0 -247798237.54386091 332400878.33111572 0 0 0 0 -473364081.42140007 -14033007.446969151 0 -14033007.446969151 262687513.14989066 0 0 0 0 65793581.164478302 -21587763.058754683 0 -21587763.058754683 420508742.03620672 0 0 0 0 61199497.0969944 -198553044.44949141 0 -198553044.44949141 244166632.89254594 0 0 0 0 385430.42408621497 -206760.37082035234 0 -206760.37082035234 -189085.09332182619 0 0 0 0 102071812.52613068 -239258241.38956845 0 -239258241.38956845 142055920.92050558 0 0 0 0 289897375.95598984 -185559260.66097432 0 -185559260.66097432 103091225.25084877 0 0 0 0 167210082.71060944 -130162251.1579783 0 -130162251.1579783 58011841.44873786 0 0 0 0 -117886112.1471715 -72035592.992449939 0 -72035592.992449939 1292333835.2387404 0 0 0 0 -102866824.50347519 -51202365.960892677 0 -51202365.960892677 417751844.77707529 0 0 0 0 111694577.5429287 27028261.097495317 0 27028261.097495317 301821401.59231162 0 0 0 0 379766.24033546448 288483863.60980248 0 288483863.60980248 827380524.92414737 0 0 0 0 9730721.280418396 279363947.22543335 0 279363947.22543335 491753726.76859331 0 0 0 0 -100034195.59160995 419994430.92771864 0 419994430.92771864 674227568.09846687 0 0 0 0 -98559599.934883118 515924247.77349257 0 515924247.77349257 1047388603.3103614 0 0 0 0 -315812837.77939987 352180299.67675233 0 352180299.67675233 924460390.55345345 0 0 0 0 319539301.71302032 1498621025.5409088 0 1498621025.5409088 1668873544.2136869 0 0 0 0 -347115970.16326022 443855511.6996873 0 443855511.6996873 2689663172.8158746 0 0 0 0 660979430.5239172 -292131254.05805373 0 -292131254.05805373 150135045.30065942 0 0 0 0 124203076.94447136 -351360353.27541292 0 -351360353.27541292 140799685.61162138 0 0 0 0 1161673.5143557014 4489475.7919796612 0 4489475.7919796612 4919623.4001309816 0 0 0 0 -16819813.119875908 -685052840.56999993 0 -685052840.56999993 1769498024.8281865 0 0 0 0 1002891092.0075779 1637133723.1777227 0 1637133723.1777227 762167272.15829587 0 0 0 0 960963123.21289158 1727261370.6522486 0 1727261370.6522486 597666170.97617435 0 0 0 0 -379538840.84850693 -1139965452.532618 0 -1139965452.532618 1999763274.2033694 0 0 0 0 67797848.598769188 -85958593.032407761 0 -85958593.032407761 59038064.37399292 0 0 0 0 1169236.8412915515 4857331.4822281506 0 4857331.4822281506 11754046.780309597 0 0 0 0 -1110381628.6128747 -262852220.09079698 0 -262852220.09079698 1028407273.0436778 0 0 0 0 171148032.83415508 -36832259.370414734 0 -36832259.370414734 45217804.487464905 0 0 0 0 325939662.58574104 -195143802.15987778 0 -195143802.15987778 60652667.494465828 0 0 0 0 97055440.504624367 -93062740.880571365 0 -93062740.880571365 55666204.862178802 0 0 0 0 191402488.84339046 -155845220.71201324 0 -155845220.71201324 97394646.584964752 0 0 0 0 -218179743.44739437 373448230.03427124 0 373448230.03427124 686166751.97746134 0 0 0 0 78401381.386348248 -320555336.47864914 0 -320555336.47864914 422170535.27814484 0 0 0 0 1301146703.678792 1782267992.8587608 0 1782267992.8587608 372713844.83645821 0 0 0 0 409081.46298634826 2893994.105939866 0 2893994.105939866 4848496.6847108379 0 0 0 0 286185310.06376553 -92474070.093069077 0 -92474070.093069077 36574571.504341125 0 0 0 0 623147907.56355667 -434108161.98486805 0 -434108161.98486805 359073583.5554924 0 0 0 0 -111171291.78516591 187022928.43792677 0 187022928.43792677 106497396.3305397 0 0 0 0 -130017281.51524901 -66859801.804950714 0 -66859801.804950714 310230296.1579361 0 0 0 0 -234133501.39827412 -184194922.57937622 0 -184194922.57937622 203565490.14825821 0 0 0 0 97052994.583212376 -94199772.41990757 0 -94199772.41990757 151178875.5136013 0 0 0 0 -111981661.91651106 -155946260.75263977 0 -155946260.75263977 190626170.73918056 0 0 0 0 -88830086.918848515 -101831750.96831894 0 -101831750.96831894 171434235.47671032 0 0 0 0 -229201076.31599581 234028788.80408287 0 234028788.80408287 218180752.31751633 0 0 0 0 -79339528.975196302 -127897226.21362877 0 -127897226.21362877 44462938.665641785 0 0 0 0 -144845869.91163397 369820446.98694706 0 369820446.98694706 -156451628.67388535 0 0 0 0 -139366100.18551314 -9838372.9943999052 0 -9838372.9943999052 5136872.4077510834 0 0 0 0 -161088538.89192224 146659474.72219849 0 146659474.72219849 -88627002.347496033 0 0 0 0 -10411531.322566986 93003852.832538605 0 93003852.832538605 -86752338.57857132 0 0 0 0 -43463956.398825645 -130179924.7821846 0 -130179924.7821846 20266005.02627182 0 0 0 0 340446998.02061272 337759213.53533936 0 337759213.53533936 426075100.25060081 0 0 0 0 -459575.8634121957 -1629307.0960007291 0 -1629307.0960007291 -387457.81718531251 0 0 0 0 -42891725.946474075 310784569.5472126 0 310784569.5472126 -349578420.83926964 0 0 0 0 657938423.47675991 545444640.03979683 0 545444640.03979683 209629007.49674225 0 0 0 0 -163561119.28108501 764116217.60533237 0 764116217.60533237 1382262384.76931 0 0 0 0 529363944.57861948 257655977.04689789 0 257655977.04689789 80523130.694076538 0 0 0 0 2530019.8479720009 1291176.8342626467 0 1291176.8342626467 -701380.04059339315 0 0 0 0 -66679546.195200443 -43053296.674566269 0 -43053296.674566269 1602647548.49226 0 0 0 0 130793645.69069481 747986666.57286263 0 747986666.57286263 2454813709.7105827 0 0 0 0 2366224369.9525642 406897849.43592453 0 406897849.43592453 112840356.43737793 0 0 0 0 54770120.327643394 332162637.23749447 0 332162637.23749447 225587782.27991867 0 0 0 0 -52490872.611680984 1003599587.8607349 0 1003599587.8607349 1134436584.8478603 0 0 0 0 192252437.6814785 230474062.30166054 0 230474062.30166054 188565675.56480408 0 0 0 0 734615927.43323851 630787924.96867752 0 630787924.96867752 393247271.70230103 0 0 0 0 217860372.64419746 29675188.729192734 0 29675188.729192734 -61972475.959114075 0 0 0 0 77402390.930855751 -3879253.4694213867 0 -3879253.4694213867 376098815.41712952 0 0 0 0 -154088943.78155899 -214806764.35893631 0 -214806764.35893631 -68449526.242842615 0 0 0 0 -78828.47801399231 -164846656.74609375 0 -164846656.74609375 113400172.14609528 0 0 0 0 352714887.15112352 103560723.62962532 0 103560723.62962532 68830883.638335705 0 0 0 0 186527697.13489658 417911497.47251654 0 417911497.47251654 630776998.29954529 0 0 0 0 659224431.25878716 -16477684.072891235 0 -16477684.072891235 979633720.88222599 0 0 0 0 391809866.95299232 982402244.33725119 0 982402244.33725119 1175604026.2672348 0 0 0 0 113100957.15471458 548784483.06262207 0 548784483.06262207 683040168.43184376 0 0 0 0 -56222746.68773818 661146858.85567474 0 661146858.85567474 647017284.5267601 0 0 0 0 382683468.21186054 435838257.46178246 0 435838257.46178246 220601602.01537323 0 0 0 0 54104212.611984491 1047687.3091278076 0 1047687.3091278076 321319653.31391144 0 0 0 0 119234841.61036777 126830050.57794952 0 126830050.57794952 -2376228.5174255371 0 0 0 0 19275744.467601538 81554635.361904144 0 81554635.361904144 -330980944.82050323 0 0 0 0 -196888381.61424971 -127973059.7077713 0 -127973059.7077713 -96385775.566139221 0 0 0 0 -59666284.790541649 -73839658.051776886 0 -73839658.051776886 -795468201.45204926 0 0 0 0 -361741469.96492386 111925114.29413605 0 111925114.29413605 180848372.13123035 0 0 0 0 -40339960.369129419 325008776.5034008 0 325008776.5034008 -8746964.7610702515 0 0 0 0 -816722747.49606061 127267792.06572342 0 127267792.06572342 145363013.21531677 0 0 0 0 6098640.997488739 -6759253.61593962 0 -6759253.61593962 6748407.0162685337 0 0 0 0 -146695199.03113174 -335608235.54467773 0 -335608235.54467773 -674167088.66604614 0 0 0 0 39638215.796954155 -17180216.242856979 0 -17180216.242856979 -114517870.75515366 0 0 0 0 -339797794.87781858 -399108546.94955254 0 -399108546.94955254 -571012464.97835541 0 0 0 0 35686.982608591206 -238042.76562465355 0 -238042.76562465355 595655.15965503827 0 0 0 0 23280420.209700108 49110711.145101547 0 49110711.145101547 -6502374.2455368042 0 0 0 0 1037899.0324604558 -136130.87696691416 0 -136130.87696691416 4742665.8586293701 0 0 0 0 -14813081.595193863 27785692.91327095 0 27785692.91327095 35359313.247940168 0 0 0 0 333778.92106723785 -2102794.8215694427 0 -2102794.8215694427 10972845.091513634 0 0 0 0 132881952.01472974 -31246923.266166687 0 -31246923.266166687 -345264356.64308167 0 0 0 0 45422560.100326538 -335445497.89310837 0 -335445497.89310837 -453161897.14366531 0 0 0 0 497019.37508701999 -6193584.1400960609 0 -6193584.1400960609 6841057.4612217443 0 0 0 0 453089044.79197884 366871539.69594193 0 366871539.69594193 -788171507.6581707 0 0 0 0 2042930.3710581567 143822.98151073232 0 143822.98151073232 235792.81545587536 0 0 0 0 805582515.40240693 200885418.26337051 0 200885418.26337051 1526703938.1834259 0 0 0 0 -23960595.469744682 98025783.813968658 0 98025783.813968658 2637363078.1617584 0 0 0 0 232349868.24795151 498391064.80971527 0 498391064.80971527 3143407845.082119 0 0 0 0 333924670.54332733 -383500398.31938171 0 -383500398.31938171 463286242.08448362 0 0 0 0 234429919.64181995 912289912.50196075 0 912289912.50196075 3115620417.7327957 0 0 0 0 1909514.3460770026 248536.12690269947 0 248536.12690269947 -449359.07206677645 0 0 0 0 -162364226.1015358 438409956.33886719 0 438409956.33886719 2161463608.5932999 0 0 0 0 590128328.84770584 831678468.675354 0 831678468.675354 1963392907.5182495 0 0 0 0 -56077650.174172282 -243639001.22967243 0 -243639001.22967243 1623041816.5403748 0 0 0 0 115736716.94465637 -622196790.42841339 0 -622196790.42841339 1809727691.613101 0 0 0 0 293477660.75038338 -438749192.59375763 0 -438749192.59375763 1630564988.0919571 0 0 0 0 270096339.61698341 -872024584.9546051 0 -872024584.9546051 1447215694.8695221 0 0 0 0 351194374.11025095 -537319873.51442909 0 -537319873.51442909 999368882.52364349 0 0 0 0 311934349.09394264 -13128318.545337677 0 -13128318.545337677 1117227387.6229639 0 0 0 0 210531427.87741709 -41969889.246623993 0 -41969889.246623993 -1265657360.957098 0 0 0 0 10185087.291910874 -6166924.3857524022 0 -6166924.3857524022 3393933.6347440705 0 0 0 0 305060451.17446166 -740993749.92998743 0 -740993749.92998743 481152166.41917419 0 0 0 0 -349271892.11031008 494374722.28940582 0 494374722.28940582 627126844.98935699 0 0 0 0 265532039.95131397 266108648.60245895 0 266108648.60245895 -115447422.65739822 0 0 0 0 254273325.57844925 975641500.24595642 0 975641500.24595642 1304956365.9184098 0 0 0 0 542021148.73111343 -120760224.68090439 0 -120760224.68090439 1142825784.7151489 0 0 0 0 160951382.03547621 599484701.36449814 0 599484701.36449814 571025236.46243668 0 0 0 0 182167096.58661747 641241572.58508301 0 641241572.58508301 552109286.80309868 0 0 0 0 152450306.14491415 637796399.41535187 0 637796399.41535187 406747484.08809471 0 0 0 0 79244016.646501064 618392367.52689075 0 618392367.52689075 588996139.72946167 0 0 0 0 8594151.8212528229 301215012.37969208 0 301215012.37969208 783961223.26350021 0 0 0 0 415517043.54963541 416300629.80729389 0 416300629.80729389 182236558.09318542 0 0 0 0 29965974.282773972 180584149.08139038 0 180584149.08139038 305316679.27673149 0 0 0 0 98092451.77910614 155215455.51797295 0 155215455.51797295 162199089.07334137 0 0 0 0 780031892.71186161 858695898.26267815 0 858695898.26267815 -50360177.293746948 0 0 0 0 174856450.15657043 264477576.56495285 0 264477576.56495285 93935840.538566589 0 0 0 0 194012874.46141577 229590010.22463608 0 229590010.22463608 -111534636.09828949 0 0 0 0 -199271418.37797546 267123483.99380207 0 267123483.99380207 -85476836.957374573 0 0 0 0 -88392898.089071274 18105667.001377106 0 18105667.001377106 -248802864.5935173 0 0 0 0 3206981.1217167377 242863567.08122373 0 242863567.08122373 -93885656.72946167 0 0 0 0 -21473343.066267014 99636807.79253006 0 99636807.79253006 98280419.205905914 0 0 0 0 37296362.685771942 73080481.476051331 0 73080481.476051331 81072911.647996902 0 0 0 0 25240929.077667236 68197166.495355606 0 68197166.495355606 108660484.743927 0 0 0 0 -3398103.8029441833 3458502.9581127167 0 3458502.9581127167 5230195.7712192535 0 0 0 0 8591626.4290533066 3641161.0352268219 0 3641161.0352268219 69825449.456291199 0 0 0 0 -2703689.6925946604 1254177.8543300051 0 1254177.8543300051 1476251.9660094585 0 0 0 0 -2393283.0108974352 3289984.6221540645 0 3289984.6221540645 4194796.8384592347 0 0 0 0 -47321686.660286903 41314838.81801033 0 41314838.81801033 172305708.20656824 0 0 0 0 -710677.82086467743 689532.49573135376 0 689532.49573135376 2387466.7486190796 0 0 0 0 37518876.734700203 -11138857.513424873 0 -11138857.513424873 -31593988.141403198 0 0 0 0 -2176125.9477062225 1249557.4426898956 0 1249557.4426898956 3087470.7075386047 0 0 0 0 -1739019.1193256378 480339.20752334595 0 480339.20752334595 3797626.8645057678 0 0 0 0 -1967848.8433131047 3915308.4226424294 0 3915308.4226424294 2041215.2214952521 0 0 0 0 -36380527.684089303 -45807980.206763744 0 -45807980.206763744 328424604.13497543 0 0 0 0 62824165.393707275 129749755.50660515 0 129749755.50660515 210294860.57141113 0 0 0 0 13837312.555408001 134410516.35067272 0 134410516.35067272 217597566.08761597 0 0 0 0 -1810630.0739111775 573476.12737360224 0 573476.12737360224 3229362.804076951 0 0 0 0 -989136.1657409668 -729981.87518310547 0 -729981.87518310547 6276211.4780578613 0 0 0 0 55303782.964518547 -43490672.732988358 0 -43490672.732988358 47922580.671020508 0 0 0 0 -537702.46443748474 -24845.742698669434 0 -24845.742698669434 5277512.7222099304 0 0 0 0 -2888811.1936748996 -1946833.1720435563 0 -1946833.1720435563 302933.15687964438 0 0 0 0 -128364077.68398285 -53951131.757658958 0 -53951131.757658958 -24225795.896434784 0 0 0 0 2929348.8311367035 108277702.05726051 0 108277702.05726051 206532825.47986221 0 0 0 0 4596287.2221474731 4135515.1551574329 0 4135515.1551574329 -164076.76552669518 0 0 0 0 11503839.285046577 2634204.1123046875 0 2634204.1123046875 -80368023.872661591 0 0 0 0 -1979348.0952381194 -482901.42907567602 0 -482901.42907567602 1971048.8332488919 0 0 0 0 -19421425.996166229 -9167293.8343048096 0 -9167293.8343048096 -872639.94536590576 0 0 0 0 -18550578.064882278 29969366.329524994 0 29969366.329524994 -5169399.2837724686 0 0 0 0 -7738572.4861316681 -1519074.5819168091 0 -1519074.5819168091 -14816232.701553345 0 0 0 0 -3326225.295419693 3261414.2588596344 0 3261414.2588596344 -7742471.7307052612 0 0 0 0 -668037.41234146012 40780.360518689267 0 40780.360518689267 245145.11363016255 0 0 0 0 -11073385.521678925 -3893194.578707695 0 -3893194.578707695 19892149.57087326 0 0 0 0 758626.48674488068 3260897.0755233765 0 3260897.0755233765 5770525.125869751 0 0 0 0 -5923495.618200779 39256.907532691956 0 39256.907532691956 4249966.3400650024 0 0 0 0 -15018279.049646854 18420241.247423172 0 18420241.247423172 -3316340.1329956055 0 0 0 0 -748484.8118985733 -232964.55628750753 0 -232964.55628750753 -3524131.7576520061 0 0 0 0 1252120.3633035952 587695.7725280663 0 587695.7725280663 -2978379.9740647431 0 0 0 0 1924872.6597242355 -29203170.405853271 0 -29203170.405853271 39572625.576980591 0 0 0 0 -6045176.1610937119 -25913839.854763031 0 -25913839.854763031 45869774.596588135 0 0 0 0 -23141145.178891182 -34436671.096475601 0 -34436671.096475601 103467930.57266998 0 0 0 0 -53052322.261819839 -22105005.28360939 0 -22105005.28360939 124443617.52114296 0 0 0 0 -33249432.806158543 -17661334.537825584 0 -17661334.537825584 84444999.649719238 0 0 0 0 -134067168.66556549 29040283.391036987 0 29040283.391036987 343039196.94539452 0 0 0 0 -19535545.31760788 29882577.10250473 0 29882577.10250473 46648417.070272446 0 0 0 0 -66774310.472270966 -982602.77677154541 0 -982602.77677154541 133007163.57245064 0 0 0 0 -66471415.75553751 -9280973.8124160767 0 -9280973.8124160767 113996107.70721054 0 0 0 0 -19183961.740281105 76914048.505804062 0 76914048.505804062 112957489.86011124 0 0 0 0 -1149714.8780193329 1460258.5172271729 0 1460258.5172271729 1642792.7636756897 0 0 0 0 -384628.61183166504 3090190.7807693481 0 3090190.7807693481 -3286527.3538923264 0 0 0 0 -84927.297104443423 -67541.205681342632 0 -67541.205681342632 522161.62947183428 0 0 0 0 -44960.835119247437 1811202.3368930817 0 1811202.3368930817 -9858198.6379814148 0 0 0 0 320055.65565490723 5900004.1848239899 0 5900004.1848239899 -5525062.0005321503 0 0 0 0 13659986.105082273 -373114.73409461975 0 -373114.73409461975 25085156.621421814 0 0 0 0 625394.65556716919 5995975.0961742401 0 5995975.0961742401 -8549924.7684383392 0 0 0 0 620202.06868031202 155578.82755722385 0 155578.82755722385 -1141671.6161220539 0 0 0 0 26003553.926904678 -68251916.536997795 0 -68251916.536997795 100626086.06906509 0 0 0 0 74202321.176952362 -33989660.88662529 0 -33989660.88662529 20224543.333395958 0 0 0 0 34624641.94442749 17116534.16103363 0 17116534.16103363 -17657784.045843124 0 0 0 0 62828398.688407421 79631723.872111797 0 79631723.872111797 19296656.494216919 0 0 0 0 -18902548.823543549 9707592.9056529999 0 9707592.9056529999 19607734.31943512 0 0 0 0 -1521262.9387432653 2352424.2411279874 0 2352424.2411279874 3477690.2785735596 0 0 0 0 103602098.61761665 43649860.38956356 0 43649860.38956356 28343455.179618835 0 0 0 0 247120202.68162394 168350593.70601273 0 168350593.70601273 112870242.79701233 0 0 0 0 -608449.00912815542 1040519.4388427543 0 1040519.4388427543 1318343.8330211826 0 0 0 0 69063274.68248105 -160975761.9551959 0 -160975761.9551959 188376204.48921585 0 0 0 0 153555891.33889294 -80369644.636333466 0 -80369644.636333466 49178441.226724625 0 0 0 0 20841938.418057919 111292083.67964935 0 111292083.67964935 198277538.18808365 0 0 0 0 25863205.540067673 70925489.488256454 0 70925489.488256454 340266050.58492088 0 0 0 0 65050400.248023987 -123774408.53816319 0 -123774408.53816319 234338448.67609167 0 0 0 0 69716966.448563576 18498909.740410805 0 18498909.740410805 26926395.24750042 0 0 0 0 19143092.430027008 -66727503.488997459 0 -66727503.488997459 104477974.48304939 0 0 0 0 -9181622.4891223907 -22367306.9409585 0 -22367306.9409585 117852918.07513046 0 0 0 0 219341612.15779209 -65781912.473770618 0 -65781912.473770618 70138061.045162201 0 0 0 0 189483873.660519 87271162.950219393 0 87271162.950219393 -3014601.8569030762 0 0 0 0 12063363.331929207 96930840.315320969 0 96930840.315320969 56648459.438106537 0 0 0 0 39138019.049745321 69103577.743151665 0 69103577.743151665 84415004.874983788 0 0 0 0 13428808.221656799 20407319.789710999 0 20407319.789710999 34347243.17675066 0 0 0 0 20552163.771666259 -42173120.947774172 0 -42173120.947774172 57989896.701366425 0 0 0 0 -11783177.68653059 -130484740.77348137 0 -130484740.77348137 164327966.97231483 0 0 0 0 98666514.820076704 -275280092.2914443 0 -275280092.2914443 350489198.21378708 0 0 0 0 -855468.10434547008 2375593.6613121405 0 2375593.6613121405 1451124.2034543194 0 0 0 0 20513101.181400776 18262852.826909065 0 18262852.826909065 -1314187.6173915863 0 0 0 0 -48547494.889678001 -179814395.55321026 0 -179814395.55321026 130077669.86063766 0 0 0 0 800793.49653711088 897052.73288924154 0 897052.73288924154 -256204.89419405255 0 0 0 0 1085669.3435928822 -180552315.38051319 0 -180552315.38051319 178621149.0835228 0 0 0 0 1369240.9136471748 144325423.97589445 0 144325423.97589445 -76885194.979891777 0 0 0 0 -43079309.124190331 -22031174.703121185 0 -22031174.703121185 23523246.463080406 0 0 0 0 1353177.1591840172 1584499.7094698849 0 1584499.7094698849 -350312.90941029601 0 0 0 0 -131822592.03357887 79949404.027206421 0 79949404.027206421 34949847.884498596 0 0 0 0 -18826265.866796494 -108410544.73544312 0 -108410544.73544312 183875229.3813839 0 0 0 0 214092740.82956886 22300636.910701752 0 22300636.910701752 -121966644.95228004 0 0 0 0 -191690770.81426692 94422364.699826241 0 94422364.699826241 100008463.53248787 0 0 0 0 -42239303.800217628 -56047490.817983627 0 -56047490.817983627 295053269.15697479 0 0 0 0 -46140816.880215645 -10278420.804685593 0 -10278420.804685593 38469066.433991432 0 0 0 0 -28177519.410612881 -71318968.58362937 0 -71318968.58362937 150923139.00073242 0 0 0 0 -28118200.190703392 -68868280.412611008 0 -68868280.412611008 114527650.3456192 0 0 0 0 -56399432.895406246 -104982568.93930244 0 -104982568.93930244 117711878.99796963 0 0 0 0 -53885622.821210146 -133181540.18792868 0 -133181540.18792868 232553939.36048126 0 0 0 0 -194320422.01806784 124941750.36456394 0 124941750.36456394 90477932.560932159 0 0 0 0 803034.74922150932 904015.98871605424 0 904015.98871605424 -333231.71555472352 0 0 0 0 -148086085.19118381 23386757.221899986 0 23386757.221899986 254109240.97073746 0 0 0 0 -19186649.862718999 -46363872.118943095 0 -46363872.118943095 131934866.22410583 0 0 0 0 88100795.60105896 -49273521.298402786 0 -49273521.298402786 81704760.696569443 0 0 0 0 -26210466.894613743 4060540.5951099396 0 4060540.5951099396 78622790.268249512 0 0 0 0 19486209.396992363 -30692407.547026873 0 -30692407.547026873 26522396.745204926 0 0 0 0 27882526.689583898 -64991659.011632919 0 -64991659.011632919 109232564.12061691 0 0 0 0 125908455.86877966 -68808400.539053917 0 -68808400.539053917 41474384.026517868 0 0 0 0 -879207.1726654768 -94695032.120866776 0 -94695032.120866776 48887202.918839931 0 0 0 0 -68843794.714770198 -85831928.810655832 0 -85831928.810655832 -8116763.4832344055 0 0 0 0 -36913898.433161199 38181095.197161674 0 38181095.197161674 -78462074.123441696 0 0 0 0 -38921323.190902472 -20227844.014404297 0 -20227844.014404297 95218557.972728729 0 0 0 0 180248241.8499012 -84100027.339956284 0 -84100027.339956284 -23901035.223678589 0 0 0 0 185383546.54037297 -36447648.572771788 0 -36447648.572771788 91637055.911949158 0 0 0 0 87933901.318874359 -48497354.125089645 0 -48497354.125089645 157559750.65670013 0 0 0 0 66339884.199323177 2934523.134771347 0 2934523.134771347 -17173538.287532806 0 0 0 0 158853191.94371891 -122658851.82178783 0 -122658851.82178783 100210502.77780724 0 0 0 0 1371005.9060651918 1638752.8843002054 0 1638752.8843002054 -1375575.8289812151 0 0 0 0 -38307645.918107986 -157971876.63811985 0 -157971876.63811985 -349072879.08234024 0 0 0 0 -63755359.193907738 13223646.89915514 0 13223646.89915514 50927113.048788071 0 0 0 0 2749265.8107868657 6457106.5434884522 0 6457106.5434884522 14884136.685202178 0 0 0 0 -1948780.7546892166 89821672.456643105 0 89821672.456643105 132213423.74141026 0 0 0 0 4162860.880138366 9882355.1925400272 0 9882355.1925400272 8916297.467935238 0 0 0 0 102925.18303203583 5519767.8848047256 0 5519767.8848047256 3322244.8062329292 0 0 0 0 24412691.097302437 43625889.407247543 0 43625889.407247543 -32787886.287510872 0 0 0 0 3922615.8681222214 3381496.686987441 0 3381496.686987441 11867516.869334282 0 0 0 0 11240693.448854446 8091031.9307355881 0 8091031.9307355881 -27049302.815512657 0 0 0 0 4241687.9956475692 5183308.678798506 0 5183308.678798506 -4346479.2762668561 0 0 0 0 35633.414445877075 5441779.3474636078 0 5441779.3474636078 861472.21286010742 0 0 0 0 3796402.2783702849 2440133.0325285611 0 2440133.0325285611 9465645.825896997 0 0 0 0 3006720.8542852849 3436614.745267868 0 3436614.745267868 7580280.5476894379 0 0 0 0 1561865.5222259536 5964923.3888148069 0 5964923.3888148069 4883294.1222057343 0 0 0 0 1670766.6030043364 21385303.879170716 0 21385303.879170716 8589630.1868667603 0 0 0 0 820641.78993070126 3543199.5272777081 0 3543199.5272777081 6923719.1967077255 0 0 0 0 -3033144.8230493069 -69384317.643000603 0 -69384317.643000603 110850678.01414871 0 0 0 0 19684809.094176292 -74538831.038684845 0 -74538831.038684845 48791708.4569664 0 0 0 0 -25655314.395669341 -35528954.154305458 0 -35528954.154305458 50270152.845254898 0 0 0 0 48825166.72974062 -65568633.519101143 0 -65568633.519101143 56363381.702188492 0 0 0 0 63692116.109560966 -64547475.716409683 0 -64547475.716409683 50666596.288287163 0 0 0 0 48855687.712171555 -65343085.372276306 0 -65343085.372276306 52425063.338716507 0 0 0 0 49333192.614165783 -49242245.820800781 0 -49242245.820800781 67126945.698856354 0 0 0 0 12451440.788603783 -74110463.593971252 0 -74110463.593971252 57335735.731731057 0 0 0 0 17057758.306541979 -16898604.042193413 0 -16898604.042193413 50217150.455115795 0 0 0 0 3858228.1265018298 1413395.9852840109 0 1413395.9852840109 1692090.31556399 0 0 0 0 2203749.32523036 1180610.5991499722 0 1180610.5991499722 -1501350.5223124921 0 0 0 0 3673132.4365114914 3990242.8434281866 0 3990242.8434281866 1050634.7117278313 0 0 0 0 -16754.635521630058 2206346.2516022623 0 2206346.2516022623 8124970.8144612126 0 0 0 0 -3421.5295910835266 21104525.812198639 0 21104525.812198639 18115505.337331772 0 0 0 0 -21393979.946185172 2226229.7576332092 0 2226229.7576332092 230176511.72460365 0 0 0 0 1656437.4504607383 2074375.7799537096 0 2074375.7799537096 2718357.3657184737 0 0 0 0 -649557.1004480432 -320155.67806802224 0 -320155.67806802224 3313776.652190045 0 0 0 0 10550952.867865384 -12698745.853984833 0 -12698745.853984833 114026333.6921581 0 0 0 0 2345712.2156944275 4806979.3262634277 0 4806979.3262634277 7308494.5326118469 0 0 0 0 -115524.23773638345 -10821.002660623286 0 -10821.002660623286 385014.08306996478 0 0 0 0 -528437.52427701978 381613.5152399966 0 381613.5152399966 6267464.6058417 0 0 0 0 -1195783.1688246727 -345162.25822973251 0 -345162.25822973251 3449185.1540489197 0 0 0 0 -3904294.8248023987 9388931.0657424927 0 9388931.0657424927 6462684.7258663177 0 0 0 0 -706499.07713651657 -804258.17479276657 0 -804258.17479276657 3883836.2884745598 0 0 0 0 1409016.4477654204 1057819.4402262103 0 1057819.4402262103 6979775.5198730137 0 0 0 0 -1596830.2712101936 -777358.87261676788 0 -777358.87261676788 3745115.4781737328 0 0 0 0 -1607687.0863797856 -1260449.6143497583 0 -1260449.6143497583 10928516.727720678 0 0 0 0 -1238300.6471180916 -336365.5540471077 0 -336365.5540471077 3741250.2259340286 0 0 0 0 741046.74896147102 3256734.877348423 0 3256734.877348423 13096664.896624565 0 0 0 0 1753621.3127128426 1473583.1635913581 0 1473583.1635913581 3900186.1989014046 0 0 0 0 3961668.9766482115 -6355518.5337418914 0 -6355518.5337418914 -12256069.461840391 0 0 0 0 -602373.40711045265 -3996297.4010956287 0 -3996297.4010956287 687347.93653774261 0 0 0 0 -764529.71090042591 -1233296.707527101 0 -1233296.707527101 3224300.6382570267 0 0 0 0 -1205925.5648918152 -503912.76842987537 0 -503912.76842987537 2172833.9231687784 0 0 0 0 -59980.159589038783 759923.74651650887 0 759923.74651650887 5722511.393486781 0 0 0 0 1723568.9458982232 -1703420.423421799 0 -1703420.423421799 1276608.455223612 0 0 0 0 -990007.73740959167 5875530.5297141075 0 5875530.5297141075 12617246.922997475 0 0 0 0 1130086.8671067597 6335043.8364544176 0 6335043.8364544176 12625147.0615342 0 0 0 0 -22312449.095344543 15716610.731559753 0 15716610.731559753 60188372.774452209 0 0 0 0 2386316.6983058453 4037472.5201749802 0 4037472.5201749802 6847271.582496047 0 0 0 0 -32830.656479670433 3024867.959221242 0 3024867.959221242 10489423.089702347 0 0 0 0 -1260139.2388358654 -2704573.9230864607 0 -2704573.9230864607 38041.455791961402 0 0 0 0 2566625.6103671789 6164771.732542038 0 6164771.732542038 9775044.7793011665 0 0 0 0 1143172.3388764858 4919594.7024517059 0 4919594.7024517059 12730051.655133247 0 0 0 0 602501.89536325331 2214293.2414054433 0 2214293.2414054433 10138102.840783179 0 0 0 0 -322657.45230364799 1168878.5956786871 0 1168878.5956786871 14016552.249490738 0 0 0 0 7414516.3849408627 3261839.711432457 0 3261839.711432457 -3734158.1970443726 0 0 0 0 6574947.763920784 -41769562.981532097 0 -41769562.981532097 20280345.535634041 0 0 0 0 -2182068.1370157702 -316160.89804707281 0 -316160.89804707281 13134673.052065898 0 0 0 0 -71728.929226875305 2944301.7784557343 0 2944301.7784557343 13732176.30524826 0 0 0 0 -6916711.1145687103 -22620799.024401665 0 -22620799.024401665 -6206138.1784415245 0 0 0 0 -2059764.1977231503 -1388646.4979972839 0 -1388646.4979972839 1876958.0085258484 0 0 0 0 -313322.92784388963 -1021126.9683767164 0 -1021126.9683767164 4362348.7876233701 0 0 0 0 -2003011.4071505941 1305856.8356784484 0 1305856.8356784484 9701890.9363954775 0 0 0 0 -2374308.1273796349 2766139.5552113079 0 2766139.5552113079 23092597.508636124 0 0 0 0 -26318263.869691931 -2494502.8164552338 0 -2494502.8164552338 -16332240.666809082 0 0 0 0 -1933820.6458126903 -1333707.2739868164 0 -1333707.2739868164 1681130.6532745361 0 0 0 0 -1677690.4929533931 4287895.9174721399 0 4287895.9174721399 18825108.569002468 0 0 0 0 -108346360.51835966 -23549001.359510899 0 -23549001.359510899 63148822.678916931 0 0 0 0 -1379773.6355121036 6897603.8064520182 0 6897603.8064520182 22051959.961034354 0 0 0 0 -932642.56951080868 -3713880.6001835796 0 -3713880.6001835796 -76891.204402961768 0 0 0 0 -49876095.850187168 -11132057.02016823 0 -11132057.02016823 35761893.017313004 0 0 0 0 -78045491.242375374 13195392.868679047 0 13195392.868679047 -27586707.548635006 0 0 0 0 -30417359.384040833 -28704125.142989159 0 -28704125.142989159 50915235.613420486 0 0 0 0 -30791976.863573074 -21172791.433392525 0 -21172791.433392525 33215458.990629196 0 0 0 0 -44905427.976116657 -25192912.030112267 0 -25192912.030112267 125439102.37291527 0 0 0 0 34498074.354562804 -8785587.4723268151 0 -8785587.4723268151 45982815.180915833 0 0 0 0 29975107.359925032 -47534440.226191103 0 -47534440.226191103 16788213.958911896 0 0 0 0 -45336768.103983402 -1598917.9195775986 0 -1598917.9195775986 -28978603.364609718 0 0 0 0 -90301857.915474892 -59014604.865461349 0 -59014604.865461349 44816431.434934616 0 0 0 0 -26184947.231026173 -5707975.2926969528 0 -5707975.2926969528 23122233.721633911 0 0 0 0 -72701034.638136864 26484091.333339483 0 26484091.333339483 41456099.701710224 0 0 0 0 -834270.797388857 2719284.5990820713 0 2719284.5990820713 3128092.3477416672 0 0 0 0 2855266.334691342 2444220.6768655609 0 2444220.6768655609 526655.27392379707 0 0 0 0 -25872020.635832787 -13519304.169353604 0 -13519304.169353604 -24961854.870200157 0 0 0 0 -643594.61411799071 2715251.1443100525 0 2715251.1443100525 4858939.7942339368 0 0 0 0 -811163.67854690552 1581779.5196032524 0 1581779.5196032524 778133.21075820923 0 0 0 0 2832337.367992552 1847928.6703505823 0 1847928.6703505823 464447.3237235616 0 0 0 0 -16702996.498369098 13727512.967034578 0 13727512.967034578 -1860941.1530447006 0 0 0 0 -614205.75547973206 -1498925.34715968 0 -1498925.34715968 5799103.6270171003 0 0 0 0 56787826.477621317 -12807899.857694626 0 -12807899.857694626 569402.20177268982 0 0 0 0 16886907.93072176 -9348612.8089675903 0 -9348612.8089675903 6271861.7060189247 0 0 0 0 -508221.8969745636 2734111.8003282547 0 2734111.8003282547 7138837.0521354675 0 0 0 0 -364934.40086199215 -1120890.2018620027 0 -1120890.2018620027 1215891.7468157413 0 0 0 0 112722620.74881411 -63939053.892449379 0 -63939053.892449379 13529939.40398562 0 0 0 0 3058104.5207037926 24106371.801590919 0 24106371.801590919 27497602.198238373 0 0 0 0 42511.227621555328 -9733501.2978100777 0 -9733501.2978100777 -49963356.311599731 0 0 0 0 74696194.41006279 -2156659.2840948105 0 -2156659.2840948105 -55502107.124051094 0 0 0 0 448583936.20358276 300717804.59575748 0 300717804.59575748 158027926.46947861 0 0 0 0 1466854.1835169983 1338250.0984061365 0 1338250.0984061365 -201922.44730971009 0 0 0 0 329839669.1300478 216068974.06188178 0 216068974.06188178 71660768.428007126 0 0 0 0 -57249555.07011795 -46423122.962210506 0 -46423122.962210506 37907384.921596289 0 0 0 0 129929642.69128036 -20434294.323628902 0 -20434294.323628902 -38398874.508827209 0 0 0 0 95034842.459962845 7375397.935025394 0 7375397.935025394 2810379.8326123953 0 0 0 0 49208388.95794487 7592793.3810763359 0 7592793.3810763359 4632145.1567292213 0 0 0 0 69691246.851721764 79281296.0886572 0 79281296.0886572 44372705.211782455 0 0 0 0 -21614216.206291199 3405779.7815623879 0 3405779.7815623879 16907749.944377542 0 0 0 0 140487615.26478577 131213659.94151926 0 131213659.94151926 79804461.187605739 0 0 0 0 -94960503.582803726 42494947.68402338 0 42494947.68402338 78317025.971602336 0 0 0 0 -32721248.964258194 140546300.40898466 0 140546300.40898466 228479087.43234062 0 0 0 0 -35919562.38945961 261669439.99676406 0 261669439.99676406 117980123.59332514 0 0 0 0 173918191.51091003 206262402.47887421 0 206262402.47887421 131137516.10668087 0 0 0 0 129573504.60561562 147120947.19711781 0 147120947.19711781 316068471.87724876 0 0 0 0 151147253.97621441 179045487.99899566 0 179045487.99899566 106073876.73753548 0 0 0 0 207132424.9241066 -172971953.4256134 0 -172971953.4256134 433786423.31228161 0 0 0 0 215336946.49216461 -196081528.48683167 0 -196081528.48683167 -473415438.13228416 0 0 0 0 505161338.01452637 200906248.17028284 0 200906248.17028284 -97911465.051171303 0 0 0 0 353697590.67609406 779807150.93532085 0 779807150.93532085 -1620875741.4071112 0 0 0 0 -189281783.14449692 860094696.81248963 0 860094696.81248963 -292718683.07670164 0 0 0 0 -140641032.17839432 573777338.57168746 0 573777338.57168746 374806117.82842278 0 0 0 0 -141659415.72019577 512665092.30226487 0 512665092.30226487 123271698.48970747 0 0 0 0 161307432.6820488 394474203.52803326 0 394474203.52803326 -204292781.11373115 0 0 0 0 -200217132.76694036 698416335.29508173 0 698416335.29508173 409193798.03737736 0 0 0 0 202187310.55981064 -180121848.75409627 0 -180121848.75409627 -73250676.241641045 0 0 0 0 -273264.51638237573 -598662.62354892772 0 -598662.62354892772 4003238.2503182674 0 0 0 0 -22083261.478744507 -61267954.498724937 0 -61267954.498724937 121125646.74960899 0 0 0 0 -22893335.188468933 -7867479.9123077393 0 -7867479.9123077393 68920045.277130127 0 0 0 0 -16981745.237617493 -60918716.636991501 0 -60918716.636991501 120492216.62524128 0 0 0 0 -24209168.120857239 -85431032.808702469 0 -85431032.808702469 86959071.453667164 0 0 0 0 -25115102.043922424 -19107076.674966812 0 -19107076.674966812 6918829.1206552722 0 0 0 0 -14710029.091371536 -131609654.0878675 0 -131609654.0878675 211151995.37103271 0 0 0 0 -45209747.467010498 -113947495.20181131 0 -113947495.20181131 291673927.00788689 0 0 0 0 -4221978.4779014587 -838443254.66382992 0 -838443254.66382992 -1118128242.8686104 0 0 0 0 -80066193.772483826 -148312454.93447685 0 -148312454.93447685 298709742.02114296 0 0 0 0 -173582488.06483459 -234835236.98643589 0 -234835236.98643589 518047826.23350334 0 0 0 0 -289188628.63800812 469109910.92016256 0 469109910.92016256 1073995443.3253989 0 0 0 0 -358699546.72550201 28460806.231509447 0 28460806.231509447 1432763051.385704 0 0 0 0 -21003737.353099823 326576987.2888428 0 326576987.2888428 315832527.51996386 0 0 0 0 -275081771.98973846 179764022.59729099 0 179764022.59729099 243684609.98302388 0 0 0 0 -281221813.55218506 263149563.82156014 0 263149563.82156014 800046910.951756 0 0 0 0 -296877591.50952148 542332940.51834464 0 542332940.51834464 392404135.09794068 0 0 0 0 -352321670.90690613 143298886.92704701 0 143298886.92704701 639814354.94118977 0 0 0 0 104108222.68383837 -67279492.167078018 0 -67279492.167078018 -74472782.130927086 0 0 0 0 5888187.3689421993 -3680662.3174498458 0 -3680662.3174498458 2519151.064671156 0 0 0 0 -73144100.642763138 -267254637.58575511 0 -267254637.58575511 -57485755.372995853 0 0 0 0 -258606211.29789734 -455564333.46633053 0 -455564333.46633053 733260621.11629772 0 0 0 0 5052620.9720201492 -37642284.808640957 0 -37642284.808640957 -44609279.291493893 0 0 0 0 482042120.59084034 135060555.99075234 0 135060555.99075234 -362962020.49268293 0 0 0 0 -265883870.19633102 -447075263.20276928 0 -447075263.20276928 1088756571.2184358 0 0 0 0 -757313.91486358643 13095192.581235886 0 13095192.581235886 61233589.059334755 0 0 0 0 -29167591.86306715 -42150134.250061393 0 -42150134.250061393 20030607.249132156 0 0 0 0 -21221033.662445605 4895676.576287657 0 4895676.576287657 99748652.975968361 0 0 0 0 55929301.245206833 119407950.44615173 0 119407950.44615173 51975296.094513416 0 0 0 0 -54816147.498270035 16851725.817560673 0 16851725.817560673 288557866.17940378 0 0 0 0 -168536699.55510998 43284726.634063721 0 43284726.634063721 12816838.410989761 0 0 0 0 104889.84763135121 -1134210.0288456404 0 -1134210.0288456404 6255867.7343640523 0 0 0 0 -38070189.369389534 70451418.117540359 0 70451418.117540359 62081659.029743195 0 0 0 0 -57133756.496849537 -9226817.1860499382 0 -9226817.1860499382 19479488.079393387 0 0 0 0 -66925731.245247841 25927400.55714941 0 25927400.55714941 -6582080.3458747864 0 0 0 0 6097553.9201984406 35171812.953019619 0 35171812.953019619 -73537274.552522182 0 0 0 0 33356817.355619431 67306348.601666212 0 67306348.601666212 -50899390.222705364 0 0 0 0 2434936.7277658843 -2905067.8236895064 0 -2905067.8236895064 4481660.7578854095 0 0 0 0 161922833.09850883 317055447.96521854 0 317055447.96521854 406675786.66221237 0 0 0 0 273481910.09505081 229109989.27804756 0 229109989.27804756 137818779.36124814 0 0 0 0 617744936.70611572 211052145.98420143 0 211052145.98420143 606899.36448669434 0 0 0 0 342426380.0424099 340051249.17935944 0 340051249.17935944 311475265.36972618 0 0 0 0 308149924.64200592 354564023.98868179 0 354564023.98868179 312102933.85127789 0 0 0 0 733210479.57401657 866347828.62487078 0 866347828.62487078 927010885.01112652 0 0 0 0 -14579171.649528503 158394650.79872036 0 158394650.79872036 386927013.25685644 0 0 0 0 140128999.43053627 430983505.44171715 0 430983505.44171715 863285493.21976852 0 0 0 0 -89923011.521800995 -174542369.50974798 0 -174542369.50974798 805541862.23184013 0 0 0 0 -54821131.031730652 -109724739.81529784 0 -109724739.81529784 372636589.51451969 0 0 0 0 208934588.93941116 131135273.75838947 0 131135273.75838947 556638838.26131487 0 0 0 0 -499787905.76298523 -194291048.91628242 0 -194291048.91628242 678548288.05136204 0 0 0 0 507941430.68134117 -396209346.2551136 0 -396209346.2551136 1485724841.1889687 0 0 0 0 86627575.444284439 519324986.50754905 0 519324986.50754905 2011133051.2390413 0 0 0 0 3232416.1872187946 -577574.08878275659 0 -577574.08878275659 -553739.16365400259 0 0 0 0 1048493775.9315162 825801696.11403823 0 825801696.11403823 412691926.28428411 0 0 0 0 56611883.852014065 302177800.59507775 0 302177800.59507775 683675294.63733387 0 0 0 0 -27582526.115348339 98908078.388180256 0 98908078.388180256 98810996.639291763 0 0 0 0 408680813.23574638 -237545671.74542904 0 -237545671.74542904 -66585633.490812778 0 0 0 0 1074415529.0999355 245320123.96412206 0 245320123.96412206 8440381.1903209686 0 0 0 0 358338485.06346893 -47965389.731409073 0 -47965389.731409073 -18183350.798581839 0 0 0 0 79285394.598325729 -69497750.298288345 0 -69497750.298288345 95492242.403144836 0 0 0 0 296614162.38083935 21228952.56333065 0 21228952.56333065 6315694.4162311554 0 0 0 0 -7872330.7989349365 17669843.52947998 0 17669843.52947998 10057921.324907303 0 0 0 0 -9270323.0887336731 25204598.089580536 0 25204598.089580536 48514936.682957649 0 0 0 0 14648610.309427261 -34725052.758266449 0 -34725052.758266449 63838621.556630135 0 0 0 0 -32421943.947233677 17524626.580972672 0 17524626.580972672 24240852.159645081 0 0 0 0 -3266898.5729598999 1360188.9610786438 0 1360188.9610786438 -6540219.5166358948 0 0 0 0 24579850.279943466 997502.43228149414 0 997502.43228149414 -10826206.330978394 0 0 0 0 -1462503.694357615 2513090.666041377 0 2513090.666041377 1987921.1419680063 0 0 0 0 -32110710.452449083 14411400.489659309 0 14411400.489659309 3585578.6785202026 0 0 0 0 13395092.313485693 -124606.72650805383 0 -124606.72650805383 -4003416.9825159172 0 0 0 0 -27320340.426359653 29870004.245828629 0 29870004.245828629 -147974.62641525269 0 0 0 0 9678838.4451189041 16837620.348026276 0 16837620.348026276 -34760816.187226295 0 0 0 0 36095073.034295082 75779850.072372437 0 75779850.072372437 -138939846.23840094 0 0 0 0 -31299433.313201189 24223823.77341938 0 24223823.77341938 12977570.823936462 0 0 0 0 8709948.8432194069 -388666.0948394048 0 -388666.0948394048 -1806381.302541164 0 0 0 0 28046023.090019226 245946461.49191666 0 245946461.49191666 796840364.34027922 0 0 0 0 21586797.642252922 409281929.55509961 0 409281929.55509961 612273409.33813572 0 0 0 0 24452289.303323746 387404724.47743845 0 387404724.47743845 779298064.59341073 0 0 0 0 84876428.036624908 450834653.39356422 0 450834653.39356422 534173387.36836338 0 0 0 0 141964885.69850922 715190455.300179 0 715190455.300179 542631444.17914963 0 0 0 0 60134725.746772766 375874567.75723267 0 375874567.75723267 307866838.85598516 0 0 0 0 46347266.547649384 67365641.808832169 0 67365641.808832169 114574219.92560387 0 0 0 0 -13448712.807929993 103470845.24618196 0 103470845.24618196 415454327.22604179 0 0 0 0 231847259.39445877 372000359.90064621 0 372000359.90064621 -14952915.824487686 0 0 0 0 143358471.47849655 110745184.41824055 0 110745184.41824055 77222243.963721275 0 0 0 0 -19886887.404865265 -19178589.385960579 0 -19178589.385960579 52238634.703725338 0 0 0 0 7905276.5880383849 -809279.46323442459 0 -809279.46323442459 -2258238.9838180542 0 0 0 0 4925892.1142457174 3156033.8560546204 0 3156033.8560546204 -1181280.0375523269 0 0 0 0 -77606066.423439026 -135559103.38399839 0 -135559103.38399839 -197820283.47538185 0 0 0 0 2001275.6049193908 -1437070.4074880036 0 -1437070.4074880036 -1808136.4603837589 0 0 0 0 105028799.76451874 47413936.357683182 0 47413936.357683182 -44637623.023527145 0 0 0 0 69739170.348762512 91534607.987729549 0 91534607.987729549 85661326.809700966 0 0 0 0 1198743702.6903725 1495248621.1695614 0 1495248621.1695614 6788717.0673055649 0 0 0 0 318155613.60507584 531851213.94598579 0 531851213.94598579 217746354.21282005 0 0 0 0 1668285.091038513 828361.15809044149 0 828361.15809044149 -1095254.6099746618 0 0 0 0 534627181.63045979 68766225.421973825 0 68766225.421973825 -795316313.61834908 0 0 0 0 152110627.76241398 702838599.92246652 0 702838599.92246652 71618955.682228088 0 0 0 0 430288539.46875763 -165141673.56892252 0 -165141673.56892252 -554472155.75396633 0 0 0 0 383046294.84633064 146911115.49520826 0 146911115.49520826 -873010385.54398251 0 0 0 0 1604549391.757761 -837010562.88272262 0 -837010562.88272262 -81814824.206477165 0 0 0 0 -71209399.88980484 -80823553.636060715 0 -80823553.636060715 7206019.9790477753 0 0 0 0 13721210.913078308 14370666.111394882 0 14370666.111394882 6485802.2793540955 0 0 0 0 11300642.629867272 3113729.4211981767 0 3113729.4211981767 4424390.6380325695 0 0 0 0 -3528226.4188737869 305674437.03400564 0 305674437.03400564 -245292818.2788868 0 0 0 0 10280223.170312405 12060520.455726624 0 12060520.455726624 7549111.6556549072 0 0 0 0 14848333.09217453 13500909.97060585 0 13500909.97060585 6655204.98229599 0 0 0 0 8030140.3786182404 14800389.781024933 0 14800389.781024933 8980860.9450492859 0 0 0 0 14867815.603415489 15241039.070339203 0 15241039.070339203 7886421.8441619873 0 0 0 0 25608763.352054596 16413464.792518616 0 16413464.792518616 2576466.3759536743 0 0 0 0 22834321.9284935 9637015.859413147 0 9637015.859413147 8016903.044883728 0 0 0 0 369034.46365825785 -1075969.5940947831 0 -1075969.5940947831 -522511.27707901457 0 0 0 0 14840874.376020432 16682224.213790894 0 16682224.213790894 21819185.108091354 0 0 0 0 8459579.4219394922 9442371.3206481934 0 9442371.3206481934 14049346.142120361 0 0 0 0 10396445.184719443 3882844.9321193695 0 3882844.9321193695 -301281.44338989258 0 0 0 0 3301133.1159342448 8417657.1544905491 0 8417657.1544905491 1137838.8451058306 0 0 0 0 23505489.010642052 14019039.387630463 0 14019039.387630463 902027.46551513672 0 0 0 0 -184049.40526238742 -67491.352674631402 0 -67491.352674631402 32239.654968217015 0 0 0 0 32949109.230864525 14888455.517436981 0 14888455.517436981 1751698.9279403687 0 0 0 0 29873350.579158783 20923012.937141418 0 20923012.937141418 9181470.935295105 0 0 0 0 22953205.420524597 12815481.68006897 0 12815481.68006897 172179.23202514648 0 0 0 0 27405915.806568146 15873109.661991119 0 15873109.661991119 1529275.8100814819 0 0 0 0 26013257.459976196 16632914.585416794 0 16632914.585416794 1146813.0869674683 0 0 0 0 26079065.414947033 15199645.444565773 0 15199645.444565773 2577992.6013183594 0 0 0 0 27293922.010201931 16065137.850971222 0 16065137.850971222 3118867.3123855591 0 0 0 0 25996175.727020741 17187920.375473022 0 17187920.375473022 8565733.1205368042 0 0 0 0 24551472.325161725 11021662.034260988 0 11021662.034260988 8804498.8075180054 0 0 0 0 -1117871.7474706657 5612988.0695221834 0 5612988.0695221834 2439857.6872700304 0 0 0 0 25810600.35192585 15037280.0376091 0 15037280.0376091 5017115.4215354919 0 0 0 0 25540827.013659954 16442620.464439392 0 16442620.464439392 4655704.4370117188 0 0 0 0 27502381.725512028 15822858.535133362 0 15822858.535133362 4834070.5977840424 0 0 0 0 24215781.495545983 15835210.074316025 0 15835210.074316025 5895004.4875030518 0 0 0 0 25920029.505246639 16009348.102302551 0 16009348.102302551 1817878.2094078064 0 0 0 0 25179204.284710884 14046761.020019531 0 14046761.020019531 9096818.6545410156 0 0 0 0 28922099.310907364 9439076.1935005188 0 9439076.1935005188 5933615.662902832 0 0 0 0 30278307.0944767 14034614.026412964 0 14034614.026412964 9035956.3144989014 0 0 0 0 27499874.028441668 12903815.922077179 0 12903815.922077179 13312187.420852661 0 0 0 0 21527374.034378052 15659014.355934143 0 15659014.355934143 21675279.153356936 0 0 0 0 28521006.342211723 16076238.932284355 0 16076238.932284355 8799948.0757522583 0 0 0 0 27155647.96077776 14532947.489646912 0 14532947.489646912 15126898.578315735 0 0 0 0 21586598.249282837 10443203.553119659 0 10443203.553119659 8447616.5034236908 0 0 0 0 21546732.649640977 16133423.583368897 0 16133423.583368897 21774123.891181946 0 0 0 0 19214381.205053329 17625286.749465942 0 17625286.749465942 -8529060.1781845093 0 0 0 0 25845524.641238213 15045274.278964996 0 15045274.278964996 3379298.1385288239 0 0 0 0 21459028.34441185 20201286.316682816 0 20201286.316682816 2065489.0365142822 0 0 0 0 14221362.959932327 24016659.330043793 0 24016659.330043793 53121778.536079407 0 0 0 0 6692638.8191394806 26795516.255493164 0 26795516.255493164 52097711.266033173 0 0 0 0 9179334.8814105988 24872287.619441986 0 24872287.619441986 45175086.395759583 0 0 0 0 26127187.023329016 29432675.99827677 0 29432675.99827677 38013589.192565918 0 0 0 0 14419300.464643478 32963402.432380676 0 32963402.432380676 57395311.491298676 0 0 0 0 4752730.9879627228 13585028.812526703 0 13585028.812526703 69474057.55305481 0 0 0 0 884509.3316488266 -11726583.434969902 0 -11726583.434969902 20274554.763511658 0 0 0 0 7193029.6310060024 11369881.437192917 0 11369881.437192917 37834446.689834595 0 0 0 0 21999809.227485657 16227647.263717651 0 16227647.263717651 21782276.845116138 0 0 0 0 22098319.085783005 15748518.840621948 0 15748518.840621948 21675242.518674724 0 0 0 0 26027552.049268723 23500177.544242859 0 23500177.544242859 33837710.273620605 0 0 0 0 26121317.600960732 17107650.233058929 0 17107650.233058929 33074844.275047302 0 0 0 0 35242015.936287165 14794642.307546616 0 14794642.307546616 -628393.06192016602 0 0 0 0 32054105.944447756 24539958.580165863 0 24539958.580165863 21277602.04164505 0 0 0 0 37280288.415460825 19536132.12021637 0 19536132.12021637 6761253.4898681641 0 0 0 0 32394083.506967306 32139711.026622772 0 32139711.026622772 44478059.09362793 0 0 0 0 39246672.474919558 20787974.972675323 0 20787974.972675323 33460367.716426849 0 0 0 0 16058692.460390091 20939435.06867981 0 20939435.06867981 37792484.795303345 0 0 0 0 19745657.331759453 40817689.624980927 0 40817689.624980927 63295447.624137878 0 0 0 0 17075129.821796417 33933161.503303528 0 33933161.503303528 50813028.948730469 0 0 0 0 53591408.629263639 40511287.10830307 0 40511287.10830307 36393943.599502563 0 0 0 0 -1910533.8141317368 20699608.789741516 0 20699608.789741516 50612275.41721344 0 0 0 0 -6058082.6472411156 8935948.2455482483 0 8935948.2455482483 49882762.746210098 0 0 0 0 4564044.3572969437 9052471.5235519409 0 9052471.5235519409 30281270.528564453 0 0 0 0 11659392.415875435 22197841.313793182 0 22197841.313793182 46707832.747329712 0 0 0 0 21011824.936286926 19814402.601402283 0 19814402.601402283 21721237.808898926 0 0 0 0 -979854.35123655945 1166274.0013693999 0 1166274.0013693999 7545556.2629199382 0 0 0 0 4131327.0999057265 12861478.177070674 0 12861478.177070674 40478984.418441772 0 0 0 0 14995463.395038605 7076645.331237793 0 7076645.331237793 19575371.814788818 0 0 0 0 -3642576.1128028901 1962341.2761328444 0 1962341.2761328444 10805440.286509253 0 0 0 0 -18256111.429536283 29879622.672554016 0 29879622.672554016 19111769.584709167 0 0 0 0 12886410.883624077 20220969.327991486 0 20220969.327991486 41200161.450042248 0 0 0 0 -14001171.157921411 31557616.437818702 0 31557616.437818702 2219904.9122314453 0 0 0 0 -712755.43810904026 5196343.6119232178 0 5196343.6119232178 12302170.82762146 0 0 0 0 -5242478.4134330451 28241316.679523468 0 28241316.679523468 -30684567.230300903 0 0 0 0 2105668.4432468414 47149634.253734589 0 47149634.253734589 -21819070.536600113 0 0 0 0 -7844626.671541214 97901871.96030426 0 97901871.96030426 -100972844.34559631 0 0 0 0 -18238351.191492081 87662494.290897369 0 87662494.290897369 -100856169.26647186 0 0 0 0 16403647.07989645 2403438.0522499084 0 2403438.0522499084 -60347853.540847778 0 0 0 0 -16013411.968578339 29565455.435596466 0 29565455.435596466 47074530.891792297 0 0 0 0 -829250.36325720744 -9554.8032691758126 0 -9554.8032691758126 2869123.2673333287 0 0 0 0 -15411978.787976623 37744422.244010925 0 37744422.244010925 57461279.932754517 0 0 0 0 16050484.924709558 78076685.369365692 0 78076685.369365692 86673548.207870483 0 0 0 0 189519613.9744978 162687539.94399261 0 162687539.94399261 71272755.20797348 0 0 0 0 10486481.442793846 20682280.155525208 0 20682280.155525208 47662876.295833588 0 0 0 0 -18520368.825169563 -48075567.58121109 0 -48075567.58121109 50480409.160821438 0 0 0 0 -1350354.9590670248 1663442.3866997613 0 1663442.3866997613 2155870.8920816295 0 0 0 0 47817034.391424179 160919791.77521992 0 160919791.77521992 189303405.25219727 0 0 0 0 -229070049.05632591 34047505.850551605 0 34047505.850551605 269267787.21347046 0 0 0 0 -1756836.2304160821 151172.98147959076 0 151172.98147959076 3643637.0097643286 0 0 0 0 13532901.242814064 34662146.743713379 0 34662146.743713379 -178397210.61904907 0 0 0 0 10497640.601276398 106847819.47912598 0 106847819.47912598 -155498077.5534153 0 0 0 0 97722646.482641816 97123426.25553298 0 97123426.25553298 -59172833.501419067 0 0 0 0 16449267.415358543 -73715512.567893982 0 -73715512.567893982 -159608833.73796844 0 0 0 0 108726692.36579561 165639166.05384159 0 165639166.05384159 173626803.58432007 0 0 0 0 274329505.41245651 92849448.042324066 0 92849448.042324066 -329429947.4842186 0 0 0 0 -4345752.006940634 2770595.8913012836 0 2770595.8913012836 1999105.42549574 0 0 0 0 -14077014.75635767 4770857.9371967316 0 4770857.9371967316 26038348.932577133 0 0 0 0 26958103.075419754 42881922.692020535 0 42881922.692020535 14148858.458938599 0 0 0 0 47275030.318750143 56184013.600450039 0 56184013.600450039 62708623.872642517 0 0 0 0 103479151.53295612 40974366.44793129 0 40974366.44793129 49800981.737030029 0 0 0 0 -1492333.0982279337 205218.49490469135 0 205218.49490469135 1405433.6381192766 0 0 0 0 7778995.6526999474 2005661.0482139587 0 2005661.0482139587 -5853812.4429779053 0 0 0 0 21962854.498888459 29435050.221959829 0 29435050.221959829 7857929.4938049316 0 0 0 0 -2576822.8841184089 5657187.3966209674 0 5657187.3966209674 2109533.2280739713 0 0 0 0 -18368981.082375526 -56747697.805397034 0 -56747697.805397034 14948264.66047287 0 0 0 0 -3700574.3360207211 1508883.6534299348 0 1508883.6534299348 3849698.8885387573 0 0 0 0 17645314.645304918 -13393320.708864212 0 -13393320.708864212 -21306931.648506165 0 0 0 0 -27851346.878780127 2602316.1532886028 0 2602316.1532886028 38080222.212127686 0 0 0 0 109341360.59400105 14254744.852346689 0 14254744.852346689 27108390.45848465 0 0 0 0 58376152.53128624 36895905.493980408 0 36895905.493980408 -3067267.0045394897 0 0 0 0 212872533.62025452 -4262526.0184555054 0 -4262526.0184555054 -1075584.2550449371 0 0 0 0 110727555.51553726 -18936912.634506226 0 -18936912.634506226 16290564.424716949 0 0 0 0 314350432.20543671 62957078.80848217 0 62957078.80848217 -35985769.800182343 0 0 0 0 238261996.652071 106070695.99586678 0 106070695.99586678 13360440.873023987 0 0 0 0 152288549.87526989 59844228.672079086 0 59844228.672079086 -5488732.3391418457 0 0 0 0 15379305.402863264 -43999421.470958948 0 -43999421.470958948 -29092702.779441833 0 0 0 0 135159695.04644203 -6536365.6691837311 0 -6536365.6691837311 -23741997.070309639 0 0 0 0 -3796678.0484261611 819938.02298797481 0 819938.02298797481 3937343.7003807127 0 0 0 0 -31654898.630746841 41556315.43050766 0 41556315.43050766 45872338.565073013 0 0 0 0 -4103575.737051826 1994261.1657580901 0 1994261.1657580901 2306449.380293522 0 0 0 0 86559322.812156677 102717361.28868484 0 102717361.28868484 -7060698.8339309692 0 0 0 0 53233450.424907684 133870709.83457947 0 133870709.83457947 52420570.95602417 0 0 0 0 64924070.338672876 -22502273.821255445 0 -22502273.821255445 -94870083.978973389 0 0 0 0 223800844.93020058 156494566.6215229 0 156494566.6215229 3932767.4306869507 0 0 0 0 -2099754.5324648442 304105.51075862907 0 304105.51075862907 2176127.4825814068 0 0 0 0 -50400997.387066364 -86486989.793838263 0 -86486989.793838263 -49579795.790473938 0 0 0 0 227233330.56878662 167647050.20974064 0 167647050.20974064 -55533251.703395844 0 0 0 0 38647439.018127441 172970610.46336746 0 172970610.46336746 -51430156.291614532 0 0 0 0 238356216.57648087 155453306.11699486 0 155453306.11699486 -53418742.283401489 0 0 0 0 251841825.01863098 164342281.94535637 0 164342281.94535637 -102524744.13803291 0 0 0 0 257963683.44612885 135867845.22205734 0 135867845.22205734 -44085509.122533798 0 0 0 0 252285586.675457 151479480.58559799 0 151479480.58559799 -32131063.221092105 0 0 0 0 224896593.53931427 166079855.32022572 0 166079855.32022572 -33021049.750518799 0 0 0 0 328345160.21947479 114826139.70334625 0 114826139.70334625 -39631824.247098923 0 0 0 0 232377189.99559307 123655612.41714478 0 123655612.41714478 -39183753.520298004 0 0 0 0 358405549.36940002 101496497.65992546 0 101496497.65992546 -36637696.467093468 0 0 0 0 280848199.24271202 103492517.54870129 0 103492517.54870129 -17197183.017929077 0 0 0 0 239435801.98398972 229572415.25126457 0 229572415.25126457 137916383.00260305 0 0 0 0 393923577.83573723 211917742.46482515 0 211917742.46482515 377477.94178771973 0 0 0 0 237045042.44100571 214451042.30125046 0 214451042.30125046 67174942.889633179 0 0 0 0 260531580.86011696 168007107.34600925 0 168007107.34600925 66923.652042388916 0 0 0 0 641389541.54164124 -315987480.58644104 0 -315987480.58644104 -146343737.15286255 0 0 0 0 500756368.51539612 -349012843.75492096 0 -349012843.75492096 -12783147.754692078 0 0 0 0 216145608.62145042 21402188.503898621 0 21402188.503898621 -285411195.74702454 0 0 0 0 613845947.94584274 154387366.06237793 0 154387366.06237793 -254381715.46666718 0 0 0 0 338697153.69236088 152556783.03402424 0 152556783.03402424 -22988216.744094849 0 0 0 0 7395678.1527022114 -1467917.8756847698 0 -1467917.8756847698 -2014643.5411076825 0 0 0 0 103480782.33480361 351274671.18153644 0 351274671.18153644 -543934397.91493988 0 0 0 0 822840863.458395 -191452576.38153839 0 -191452576.38153839 -400203358.51950836 0 0 0 0 35370588.106664658 -254896515.35181427 0 -254896515.35181427 18107480.476520538 0 0 0 0 154203015.41511154 142015525.61639023 0 142015525.61639023 551165817.30131912 0 0 0 0 3458995.9895251021 -1342828.5829842873 0 -1342828.5829842873 -1394623.0632758681 0 0 0 0 316418820.26927948 170504228.01377106 0 170504228.01377106 -115751145.59329605 0 0 0 0 627375993.45636678 367751787.78516191 0 367751787.78516191 9288867.4525527954 0 0 0 0 277039015.92488623 280776886.94286919 0 280776886.94286919 -53307531.27306366 0 0 0 0 60140938.426923752 296517994.23653412 0 296517994.23653412 6949312.3241271973 0 0 0 0 117068506.31830454 -17115739.89302063 0 -17115739.89302063 -126618712.03824615 0 0 0 0 -47245952.410137177 161434912.99789429 0 161434912.99789429 -37606498.976284027 0 0 0 0 -168942900.39141655 -104071270.69823837 0 -104071270.69823837 240663078.36022568 0 0 0 0 -2176895.4644851303 839907.36816714332 0 839907.36816714332 1462315.863701731 0 0 0 0 -150147777.36167336 143399159.84977341 0 143399159.84977341 58476598.362207413 0 0 0 0 68931030.456668854 -1115989.0764961243 0 -1115989.0764961243 -33598246.899500847 0 0 0 0 27793092.895237923 -83350701.173482895 0 -83350701.173482895 -192119463.78070068 0 0 0 0 69458354.598770618 19651686.362421036 0 19651686.362421036 -6549705.6686477661 0 0 0 0 75196912.098642349 58705493.005908966 0 58705493.005908966 -236363259.14736652 0 0 0 0 8991522.7731330898 -83696.679357625544 0 -83696.679357625544 -1122289.7369364966 0 0 0 0 -14223139.799762726 35208956.46478653 0 35208956.46478653 141057910.46856308 0 0 0 0 -199241931.86371326 320285768.13933563 0 320285768.13933563 -96396158.583816528 0 0 0 0 393729658.86900139 321561807.79592896 0 321561807.79592896 -112855597.93220139 0 0 0 0 -430839.80585875246 3629008.1334046535 0 3629008.1334046535 7936580.6065607667 0 0 0 0 -215778201.80417448 269742033.36087513 0 269742033.36087513 -162589402.69009399 0 0 0 0 -629304289.01025808 200474367.75452805 0 200474367.75452805 10719956.019416809 0 0 0 0 -299647505.40732503 -875622495.70263863 0 -875622495.70263863 1780159048.6279907 0 0 0 0 5372616.0936294654 101464.44765514322 0 101464.44765514322 585267.05991602316 0 0 0 0 780767503.92234099 742767437.8571701 0 742767437.8571701 -680115422.83579254 0 0 0 0 -346167265.43604422 442181479.32241058 0 442181479.32241058 734678288.12409592 0 0 0 0 2243853.1715363935 36367.535466287285 0 36367.535466287285 119555.24594588578 0 0 0 0 100886848.08412585 -48658376.89064312 0 -48658376.89064312 2105862.2649307251 0 0 0 0 96017778.909094334 -33592168.190979004 0 -33592168.190979004 12756219.430606842 0 0 0 0 45151260.115594387 62155523.469341278 0 62155523.469341278 -8448080.1424865723 0 0 0 0 110909.57372874534 3244268.1037846059 0 3244268.1037846059 2906455.2865075544 0 0 0 0 77251612.628807068 -9397561.1259422302 0 -9397561.1259422302 -5198329.4847640991 0 0 0 0 78723658.033253193 -7136451.8743057251 0 -7136451.8743057251 -118274884.16324615 0 0 0 0 -322572.29888223717 1368291.6177281979 0 1368291.6177281979 1216027.8985756114 0 0 0 0 90537012.996245384 -4489221.6398849487 0 -4489221.6398849487 -119551278.903862 0 0 0 0 -30911525.529229641 101052714.13220215 0 101052714.13220215 -95831700.266296387 0 0 0 0 15972390.527627945 59723379.504096985 0 59723379.504096985 -61560335.98884201 0 0 0 0 159410005.71501136 78358790.318183899 0 78358790.318183899 -89966433.743614197 0 0 0 0 95183718.364457443 109259094.35483456 0 109259094.35483456 -162277816.89942932 0 0 0 0 148258145.33171749 7403226.620010376 0 7403226.620010376 -13804083.738548279 0 0 0 0 20872191.395005107 117006385.14867783 0 117006385.14867783 -70627711.79001236 0 0 0 0 618293.02892780304 132024575.37097931 0 132024575.37097931 -71762533.577813864 0 0 0 0 35240566.663399041 113497813.35136986 0 113497813.35136986 -99082679.196311951 0 0 0 0 -53209425.083776832 92810439.641563416 0 92810439.641563416 -47771355.602790833 0 0 0 0 -155707653.88164425 158745910.17529869 0 158745910.17529869 -30046721.4164505 0 0 0 0 -2776045.1307958364 155755332.67403412 0 155755332.67403412 -38662280.559150696 0 0 0 0 -604930358.35663843 264113206.28796196 0 264113206.28796196 18334533.593292236 0 0 0 0 33808502.628171444 413902833.21227264 0 413902833.21227264 -132619436.0704422 0 0 0 0 369840134.17582464 -52341804.433826447 0 -52341804.433826447 -87333968.687461853 0 0 0 0 582507487.029598 331389578.79395986 0 331389578.79395986 -136528202.91867828 0 0 0 0 455765766.50644571 -275708199.09857178 0 -275708199.09857178 135641222.50015259 0 0 0 0 -1179553893.5789893 153785452.81681061 0 153785452.81681061 694368784.78858566 0 0 0 0 366553331.64524639 -250156039.4249773 0 -250156039.4249773 -97729353.621520996 0 0 0 0 590054601.16872883 298545737.26315212 0 298545737.26315212 420169077.82426453 0 0 0 0 173396734.77052134 -230686082.25925827 0 -230686082.25925827 -11608662.887435913 0 0 0 0 590752371.76116216 -581208635.59566593 0 -581208635.59566593 204645750.14121246 0 0 0 0 -1087670427.5737062 -329886032.26959991 0 -329886032.26959991 246277410.57896614 0 0 0 0 901202635.89247465 -1526397701.766346 0 -1526397701.766346 630011199.89083099 0 0 0 0 367007536.84502977 135709409.38124704 0 135709409.38124704 -134315479.27838898 0 0 0 0 -740936756.45084596 -1523017938.6596279 0 -1523017938.6596279 5978194950.5140457 0 0 0 0 711386896.10584545 -2137466381.6854649 0 -2137466381.6854649 2714506070.2040024 0 0 0 0 -883289474.0302496 -183856936.56641674 0 -183856936.56641674 5966532361.7411118 0 0 0 0 -844831632.63836133 -444507888.42083931 0 -444507888.42083931 3016065650.7914352 0 0 0 0 -54383371.275097609 -675695767.97936249 0 -675695767.97936249 1013875276.7990532 0 0 0 0 -276436157.95921791 883569843.01739502 0 883569843.01739502 -819932305.71244812 0 0 0 0 -56707.385138669459 -234250.84133857861 0 -234250.84133857861 8805714.923441872 0 0 0 0 -418231077.98790044 965674766.31911087 0 965674766.31911087 1329421536.2114906 0 0 0 0 -314659105.47653067 -1983196150.0200653 0 -1983196150.0200653 5984010646.1165419 0 0 0 0 -361198049.21403933 -1036611682.9702034 0 -1036611682.9702034 2377104063.0284424 0 0 0 0 -615823293.52304828 301760616.65741348 0 301760616.65741348 513348705.42194366 0 0 0 0 -277725066.27484727 -140639686.9059639 0 -140639686.9059639 262114943.77377319 0 0 0 0 -487862066.47243559 72961129.659828186 0 72961129.659828186 128759509.33850098 0 0 0 0 -359425755.45782131 -221242130.83226395 0 -221242130.83226395 422212977.95834351 0 0 0 0 143193130.78936887 -323693248.2336998 0 -323693248.2336998 318487323.63090897 0 0 0 0 -523647059.7847268 205273157.956954 0 205273157.956954 1404465329.9822464 0 0 0 0 -376656506.41511142 -419128571.17235947 0 -419128571.17235947 1057111239.4304199 0 0 0 0 -419054344.410146 -640144231.32841492 0 -640144231.32841492 171933802.22129822 0 0 0 0 -671001.7715346925 92637.52399776876 0 92637.52399776876 4867373.4432975203 0 0 0 0 1986751470.0501394 2301839591.7809982 0 2301839591.7809982 100453410.37479019 0 0 0 0 -237198453.62862587 392813799.62641144 0 392813799.62641144 -177042320.82325745 0 0 0 0 -228674696.12955642 332266310.7129364 0 332266310.7129364 220080033.48898315 0 0 0 0 163946783.974617 204154736.12059021 0 204154736.12059021 46475931.530830383 0 0 0 0 209404516.9294796 118315067.0976181 0 118315067.0976181 838591616.3938446 0 0 0 0 302375926.02540779 559299946.46208954 0 559299946.46208954 895685382.64363098 0 0 0 0 -473524619.13165665 -382212456.9539566 0 -382212456.9539566 -367659374.07266998 0 0 0 0 -423113062.69454765 17582469.50415802 0 17582469.50415802 1003735910.5063324 0 0 0 0 -1146374995.0250788 -531460491.48538208 0 -531460491.48538208 1543717425.2094269 0 0 0 0 -696887391.39988136 -467092805.64256287 0 -467092805.64256287 615612685.03968811 0 0 0 0 -431982330.56478119 217192194.01992416 0 217192194.01992416 2066982320.6741943 0 0 0 0 -647311640.57416725 -943898922.2359848 0 -943898922.2359848 1506854525.8041153 0 0 0 0 -745024019.09960127 -609041024.95064926 0 -609041024.95064926 407307540.71589661 0 0 0 0 1066236649.8814901 1270957176.1816864 0 1270957176.1816864 878345844.04524231 0 0 0 0 -1207909135.2870684 -871005793.66161346 0 -871005793.66161346 796045889.21756744 0 0 0 0 -1217131.2355249696 -516961.44560868479 0 -516961.44560868479 13250320.55506086 0 0 0 0 -1117661.9200641273 1778595.6814954169 0 1778595.6814954169 4819794.6596816555 0 0 0 0 -560549489.71614218 488211090.89855194 0 488211090.89855194 2362029437.4342728 0 0 0 0 -548287628.64307117 -9177678.014339447 0 -9177678.014339447 65122917.849586487 0 0 0 0 -542815841.9522748 372967490.09419155 0 372967490.09419155 -111688091.67462921 0 0 0 0 441270.73684498726 708774.65281080455 0 708774.65281080455 11415803.530722693 0 0 0 0 468262729.02700448 1530493552.0579205 0 1530493552.0579205 4045855483.1424026 0 0 0 0 707291702.72939992 1369213310.8332291 0 1369213310.8332291 1946085144.8239441 0 0 0 0 -437536444.06966728 236963075.58110428 0 236963075.58110428 5973531495.114769 0 0 0 0 1881065001.9138973 -4357501245.5137806 0 -4357501245.5137806 3091445728.858963 0 0 0 0 1557236.0212225646 1952825.2556109484 0 1952825.2556109484 9286803.418704465 0 0 0 0 2251691504.3320789 -1816112863.8355179 0 -1816112863.8355179 962614504.55429077 0 0 0 0 -722371107.28591013 2448168711.9311676 0 2448168711.9311676 -1507512368.5107574 0 0 0 0 3128064.6428452991 271181.50526958704 0 271181.50526958704 6793563.5839875862 0 0 0 0 1329723507.083828 1387151961.3773651 0 1387151961.3773651 441065807.04491782 0 0 0 0 -1826917554.0113173 -618775874.04742622 0 -618775874.04742622 5322202325.0686188 0 0 0 0 4097911695.1057129 1364841769.9822235 0 1364841769.9822235 -3044542432.1414185 0 0 0 0 1394178420.0851655 -2192821609.5478516 0 -2192821609.5478516 3682299900.8520012 0 0 0 0 3487987851.0273395 -2522888569.1430435 0 -2522888569.1430435 4919250712.4946594 0 0 0 0 1155960762.7627082 -2177790768.7999496 0 -2177790768.7999496 5971844850.1255388 0 0 0 0 868956072.57085621 -1221534370.6148911 0 -1221534370.6148911 4884271900.4175568 0 0 0 0 -3620678.9616830349 -1417719941.5631943 0 -1417719941.5631943 4187336620.9073944 0 0 0 0 549658970.24613214 -1887885240.6723175 0 -1887885240.6723175 4530584379.0497513 0 0 0 0 818817138.04045129 -1240481353.3631744 0 -1240481353.3631744 4371384727.3865204 0 0 0 0 1286579962.3785336 -1690782158.2299881 0 -1690782158.2299881 1404590620.9233856 0 0 0 0 658611674.86518288 -317070218.27073669 0 -317070218.27073669 194039593.86315918 0 0 0 0 4023338040.9494915 345383192.43346405 0 345383192.43346405 -1442016745.6266174 0 0 0 0 3656736.8855043608 3836867.0002453644 0 3836867.0002453644 6921707.219911769 0 0 0 0 3303040.6885774299 747174.37553437799 0 747174.37553437799 1904593.8063777015 0 0 0 0 -399743248.0332737 -337220252.94082642 0 -337220252.94082642 2970521088.9511871 0 0 0 0 3394826235.1378403 2208614477.2437897 0 2208614477.2437897 -2754704588.4186707 0 0 0 0 1107888345.6312447 1356469768.9188538 0 1356469768.9188538 2505779687.4173355 0 0 0 0 1393524860.4010315 1208727091.7346191 0 1208727091.7346191 1939047387.5257568 0 0 0 0 1539784307.6308861 -2162020961.0802612 0 -2162020961.0802612 403251910.94892883 0 0 0 0 3335869930.3610544 405074536.05606079 0 405074536.05606079 293005355.26856995 0 0 0 0 771389298.94123459 -197193255.25125122 0 -197193255.25125122 184352081.54393959 0 0 0 0 1259175589.0230694 178049964.59589005 0 178049964.59589005 -22390468.126083374 0 0 0 0 952464111.65466881 -336151856.48163605 0 -336151856.48163605 -21156972.871505737 0 0 0 0 -96793073.381353498 93254862.820922852 0 93254862.820922852 786250466.52120972 0 0 0 0 109302798.2450428 -308149012.15005493 0 -308149012.15005493 605347814.40802002 0 0 0 0 8319319.6758314399 9500759.2826105542 0 9500759.2826105542 18300719.990567893 0 0 0 0 -777117117.39917421 -723904531.65663195 0 -723904531.65663195 -223018900.6376915 0 0 0 0 -617521199.83917999 -592994094.57399464 0 -592994094.57399464 -421465810.64237785 0 0 0 0 -893488.0070709167 -3195620.9319099067 0 -3195620.9319099067 9885412.6656284481 0 0 0 0 -368948105.68292415 -279816105.45696741 0 -279816105.45696741 -29366451.303489685 0 0 0 0 -366705519.67439651 -50506998.177940369 0 -50506998.177940369 92907.419815063477 0 0 0 0 -540373798.22647095 -509223074.87602901 0 -509223074.87602901 -784023654.55855751 0 0 0 0 -169616266.02566528 -98804052.05153656 0 -98804052.05153656 53365260.025054932 0 0 0 0 -241187030.41373444 -132825190.15631104 0 -132825190.15631104 1205236.9014434814 0 0 0 0 -62849462.099872589 -59363275.345733643 0 -59363275.345733643 -15293149.470451832 0 0 0 0 -126490105.80427933 25217759.570179939 0 25217759.570179939 123281015.95139313 0 0 0 0 -63130367.279054642 -16259484.962028503 0 -16259484.962028503 9787133.2319259644 0 0 0 0 -37227448.741841078 180455807.14257503 0 180455807.14257503 111213073.02832031 0 0 0 0 -52942021.395903587 61155512.384725571 0 61155512.384725571 -23222272.053621292 0 0 0 0 -153090497.56559658 42165445.281448364 0 42165445.281448364 -3824603.3612976074 0 0 0 0 -261555411.63513184 -44487364.774787903 0 -44487364.774787903 15511433.759488106 0 0 0 0 -219476265.17704391 -114600562.42995453 0 -114600562.42995453 -180622479.98530579 0 0 0 0 -246581077.0930481 -108783089.92938232 0 -108783089.92938232 -100829648.9426384 0 0 0 0 -459683387.45327568 -182198697.43342209 0 -182198697.43342209 -20568437.938098907 0 0 0 0 -214227891.97911024 77506459.115331411 0 77506459.115331411 32037022.734840393 0 0 0 0 -283691889.08675385 -18238273.13671875 0 -18238273.13671875 -18047254.469732285 0 0 0 0 -172971014.82486629 -154196447.59939414 0 -154196447.59939414 195298278.19731039 0 0 0 0 -638601318.03310013 2774385.4687778801 0 2774385.4687778801 696948560.03391981 0 0 0 0 -1290710.5176338824 -5319185.5535002062 0 -5319185.5535002062 15396762.65457852 0 0 0 0 -243179147.02560806 -33236861.097558975 0 -33236861.097558975 -148790745.53195953 0 0 0 0 -841472691.28131104 -159017414.76122069 0 -159017414.76122069 -439678655.39511108 0 0 0 0 315522675.27380371 26536957.490997791 0 26536957.490997791 -866827548.26907945 0 0 0 0 50643.760463478044 -244802.1246875443 0 -244802.1246875443 226790.10190184659 0 0 0 0 -95420244.088542938 643810103.60935736 0 643810103.60935736 403752599.55922222 0 0 0 0 458011720.61949158 497641792.95495939 0 497641792.95495939 903912499.48084903 0 0 0 0 -61277164.219764709 88970087.090501904 0 88970087.090501904 692422823.64380932 0 0 0 0 124022114.56835556 -83339186.422370613 0 -83339186.422370613 332768589.76812029 0 0 0 0 -78798963.569606781 242403901.8841967 0 242403901.8841967 668867325.2564007 0 0 0 0 -3450715.4930060823 1668275.406959645 0 1668275.406959645 473275.1820290091 0 0 0 0 105695593.31874847 39430038.265049696 0 39430038.265049696 201118831.83970594 0 0 0 0 -27059834.264694214 29409595.949498057 0 29409595.949498057 584686646.51485288 0 0 0 0 11186730.214172363 13828814.907759488 0 13828814.907759488 326081410.05271554 0 0 0 0 24178807.433517456 90127055.381264448 0 90127055.381264448 384782096.42247993 0 0 0 0 6302955.9906692505 10776062.37181139 0 10776062.37181139 414007399.4510954 0 0 0 0 2259127.457359314 27206343.731976151 0 27206343.731976151 161408170.38860953 0 0 0 0 36071478.85370636 102835200.13764685 0 102835200.13764685 159239968.26028442 0 0 0 0 24373568.036880493 82109878.854098558 0 82109878.854098558 301639644.51379305 0 0 0 0 -4626853.5710525513 317613230.2330386 0 317613230.2330386 517608723.42885876 0 0 0 0 35189302.812225342 22545143.085032046 0 22545143.085032046 585053846.9300189 0 0 0 0 -161004500.44491196 29254702.736937553 0 29254702.736937553 269711581.83963078 0 0 0 0 -52722122.50970459 167699817.85268658 0 167699817.85268658 332931624.27499914 0 0 0 0 65670966.306610107 42254486.397804856 0 42254486.397804856 -38376570.808948338 0 0 0 0 9870446.1830749512 217936155.68849957 0 217936155.68849957 77715692.513565496 0 0 0 0 147143998.30558014 281306396.89678663 0 281306396.89678663 270613482.98849106 0 0 0 0 132786072.04345644 -6664547.4277060609 0 -6664547.4277060609 265747612.26646328 0 0 0 0 -12130797.448730469 -4302408.5168485641 0 -4302408.5168485641 3871194.9687976837 0 0 0 0 -3000332.2520713806 21603594.117160559 0 21603594.117160559 -19465846.124408722 0 0 0 0 -16828503.850372314 169168.39299249649 0 169168.39299249649 16055713.495622158 0 0 0 0 -13070538.392715454 2073203.7344715595 0 2073203.7344715595 7481755.2099990845 0 0 0 0 641537.28348409478 -3160572.1417399487 0 -3160572.1417399487 4791935.8335969346 0 0 0 0 -305595837.03099823 -1301956355.3214607 0 -1301956355.3214607 357442845.80651093 0 0 0 0 -1568512659.5835228 432290733.08124304 0 432290733.08124304 -650089630.25610638 0 0 0 0 -797144.90571541153 -626730.11855430715 0 -626730.11855430715 3566663.4347540392 0 0 0 0 -10020583.591880798 -1999376.3359596729 0 -1999376.3359596729 -11505694.857998848 0 0 0 0 -58304986.143909454 -12699166.54716444 0 -12699166.54716444 -10478752.743798524 0 0 0 0 -14596797.025772095 35058850.443909168 0 35058850.443909168 -11742014.726461172 0 0 0 0 -42240130.516960144 26797411.507760048 0 26797411.507760048 4162043.2511825562 0 0 0 0 -51617894.7619133 31748642.452158928 0 31748642.452158928 19501034.052505493 0 0 0 0 -24045433.83684063 41780771.478054106 0 41780771.478054106 15694466.074415207 0 0 0 0 -49818734.332473755 38660035.08027935 0 38660035.08027935 42080122.39157033 0 0 0 0 -79736781.440002441 21139419.554111481 0 21139419.554111481 40356017.199491501 0 0 0 0 -51872916.828961372 28869117.734686375 0 28869117.734686375 17161780.329648972 0 0 0 0 -56913445.908554077 40064099.055651665 0 40064099.055651665 6842949.7929730285 0 0 0 0 -98980179.574617386 43907521.311970353 0 43907521.311970353 41610357.140022278 0 0 0 0 -26713189.930122375 11172104.098805428 0 11172104.098805428 32791684.217336655 0 0 0 0 -61643724.594596863 41447314.771080971 0 41447314.771080971 39123661.206911087 0 0 0 0 -32901291.499435425 22113966.008140564 0 22113966.008140564 36181321.177782536 0 0 0 0 -35760543.887517929 -2428504.0842204094 0 -2428504.0842204094 77323976.270332336 0 0 0 0 -29892756.107170105 30161907.73986578 0 30161907.73986578 52829480.81832695 0 0 0 0 -112036378.81975174 702890.03226447105 0 702890.03226447105 37016637.921863556 0 0 0 0 -63222692.601761103 251669514.51206124 0 251669514.51206124 849293434.74455261 0 0 0 0 -941000298.47985077 -1066645970.3497982 0 -1066645970.3497982 1631419038.6822205 0 0 0 0 337132.99834314594 -2752227.5527860019 0 -2752227.5527860019 6846747.9264307637 0 0 0 0 1059556656.0558014 -1434107881.4380665 0 -1434107881.4380665 -2027119372.3822987 0 0 0 0 348348766.82526398 -1171103977.5421 0 -1171103977.5421 1130197704.6574345 0 0 0 0 -199210330.69203949 -101735418.96154976 0 -101735418.96154976 1499436111.7631149 0 0 0 0 -104750856.69195175 7504290.6349086761 0 7504290.6349086761 649495280.2709074 0 0 0 0 -62485298.633075714 103312079.27669239 0 103312079.27669239 732096491.34391785 0 0 0 0 89576293.49079895 248588025.16542816 0 248588025.16542816 382204810.12714005 0 0 0 0 -79704094.503339827 77112443.014490336 0 77112443.014490336 712098354.6434288 0 0 0 0 -170506009.32032394 174306929.01266098 0 174306929.01266098 630913287.03810883 0 0 0 0 -199233032.98375702 136812456.7448101 0 136812456.7448101 937356920.61538506 0 0 0 0 -206817991.28516388 -26106747.988806248 0 -26106747.988806248 748039754.75895309 0 0 0 0 -63436518.651781559 266576003.42744112 0 266576003.42744112 327231374.03131866 0 0 0 0 -72236760.463119507 289131802.99317169 0 289131802.99317169 263549779.73181915 0 0 0 0 -94297817.826366425 41262894.341300964 0 41262894.341300964 492090617.09613228 0 0 0 0 32585497.503940582 27337109.94701767 0 27337109.94701767 -34994457.041030884 0 0 0 0 -67085916.193683624 -21545970.101480484 0 -21545970.101480484 89052647.5909729 0 0 0 0 -9183790.9999008179 227032595.51836205 0 227032595.51836205 -117055485.36704254 0 0 0 0 -67908884.125564575 -252141339.24184418 0 -252141339.24184418 -284323750.366539 0 0 0 0 79894308.390647888 65554574.542922974 0 65554574.542922974 -337722933.21026516 0 0 0 0 87677766.82015419 120611211.83747864 0 120611211.83747864 131429851.38011932 0 0 0 0 66251153.365132093 224117445.11024594 0 224117445.11024594 388716648.90961456 0 0 0 0 119854910.31233978 69739915.212020874 0 69739915.212020874 110009201.63288879 0 0 0 0 -35926705.277410507 17352340.447393417 0 17352340.447393417 300465654.38809204 0 0 0 0 19398002.557407379 183023987.82441807 0 183023987.82441807 390708482.42856216 0 0 0 0 410048071.66272306 258829842.56974506 0 258829842.56974506 381714554.72157669 0 0 0 0 -17146492.746543884 -7076615.6003952026 0 -7076615.6003952026 687259568.86164093 0 0 0 0 233356555.85993004 -57804122.19664669 0 -57804122.19664669 625505592.52431774 0 0 0 0 -78619222.888546377 108804231.1946733 0 108804231.1946733 955005488.57220459 0 0 0 0 158893815.60035229 427808527.76516724 0 427808527.76516724 807008219.68540192 0 0 0 0 67044848.886753321 209499478.35096264 0 209499478.35096264 603048009.98449898 0 0 0 0 -6676108.3864078522 243419145.18488884 0 243419145.18488884 588064507.06370258 0 0 0 0 49134108.36137104 393959011.71778584 0 393959011.71778584 848345861.31623554 0 0 0 0 60441813.393088579 -109481671.47288895 0 -109481671.47288895 143629283.08702087 0 0 0 0 -531908.40232085786 1259552.044537642 0 1259552.044537642 1382848.4612687007 0 0 0 0 101138032.54153991 308396418.83047104 0 308396418.83047104 230825097.48774624 0 0 0 0 202282323.67894197 279332403.84505129 0 279332403.84505129 194962320.57446671 0 0 0 0 153371012.37283552 323886594.06430531 0 323886594.06430531 234881103.83568954 0 0 0 0 106676527.2624898 165358733.061903 0 165358733.061903 479724192.7715826 0 0 0 0 96201732.825744599 294914572.45405847 0 294914572.45405847 180027119.80033112 0 0 0 0 -136157399.43310261 41431683.935697556 0 41431683.935697556 102469051.65680122 0 0 0 0 -767365.96897652361 6830855.1899999399 0 6830855.1899999399 22044287.381398078 0 0 0 0 -70559495.58088541 643114.01951360703 0 643114.01951360703 95759034.622774124 0 0 0 0 1132921.1236670017 90364812.909210205 0 90364812.909210205 439914042.88165569 0 0 0 0 2734366.2468657494 36590623.913957596 0 36590623.913957596 65248821.477074623 0 0 0 0 133199458.33110046 192507167.14873123 0 192507167.14873123 87051701.087676108 0 0 0 0 221865582.43301034 153694719.73109627 0 153694719.73109627 28311226.24007225 0 0 0 0 -434170.16945880384 6416631.6875300352 0 6416631.6875300352 21637847.230406992 0 0 0 0 77944170.453446925 159554944.4574925 0 159554944.4574925 78501212.694629669 0 0 0 0 83169066.336912483 247673515.48485231 0 247673515.48485231 62243774.590679169 0 0 0 0 275783838.47422612 291819684.11740017 0 291819684.11740017 69706134.320987701 0 0 0 0 502129558.62086487 153964737.84353733 0 153964737.84353733 -62651405.8319664 0 0 0 0 -51357.508040128814 5139555.9443882629 0 5139555.9443882629 20065641.471551914 0 0 0 0 -121365078.42963409 253066306.37322998 0 253066306.37322998 100804541.79018402 0 0 0 0 106624277.51906395 199212508.54408646 0 199212508.54408646 84336740.8042202 0 0 0 0 65393823.417117596 337551445.23894954 0 337551445.23894954 134385284.44486237 0 0 0 0 139012149.16923928 252404742.67007637 0 252404742.67007637 185822307.04255295 0 0 0 0 51932080.486982346 277218149.9224968 0 277218149.9224968 81523931.571371078 0 0 0 0 157066887.602561 391361513.97308826 0 391361513.97308826 19234504.726604462 0 0 0 0 170724371.19652951 326830886.28123665 0 326830886.28123665 32618621.816939831 0 0 0 0 -269861222.46872139 252627582.51905441 0 252627582.51905441 70292692.134905815 0 0 0 0 59887937.62723732 283457873.08123398 0 283457873.08123398 49588745.733535767 0 0 0 0 -194133854.48668575 194118345.49880123 0 194118345.49880123 91151271.298065186 0 0 0 0 -556823808.62694693 68501758.631650925 0 68501758.631650925 88555967.411994934 0 0 0 0 104633626.24666095 420133972.23819733 0 420133972.23819733 16662612.542285919 0 0 0 0 -333088589.30903471 455451167.7562027 0 455451167.7562027 136943500.17553711 0 0 0 0 -357390398.78193092 317229219.87299347 0 317229219.87299347 106804761.50605965 0 0 0 0 312565335.09084755 820572834.29057693 0 820572834.29057693 37805571.42963028 0 0 0 0 -1917624456.1248407 393703266.22853851 0 393703266.22853851 282516460.95059395 0 0 0 0 -937515748.64845467 -177178101.58996725 0 -177178101.58996725 64250679.946586609 0 0 0 0 -1852753736.8820381 -975228820.89350367 0 -975228820.89350367 -417159277.12759399 0 0 0 0 -621191445.57916784 512217354.21681213 0 512217354.21681213 192946939.22259521 0 0 0 0 664454804.02455068 52047904.197128296 0 52047904.197128296 -918849.84439086914 0 0 0 0 556543199.75525618 468574654.69616795 0 468574654.69616795 -125920094.14704132 0 0 0 0 540776005.35227871 282209552.61577606 0 282209552.61577606 118262951.57840538 0 0 0 0 660084.43580368161 3393842.6223923909 0 3393842.6223923909 16342741.094225723 0 0 0 0 772810334.2449851 153619361.45596313 0 153619361.45596313 91519463.242416382 0 0 0 0 1333474490.1928358 3791369.6637306213 0 3791369.6637306213 -47589053.4401474 0 0 0 0 1288881755.3711927 999857687.4562006 0 999857687.4562006 797237100.60165405 0 0 0 0 126812973.19464493 238601445.63121223 0 238601445.63121223 2604246714.7599411 0 0 0 0 -521278699.30010927 91600153.591007233 0 91600153.591007233 2571994576.2278595 0 0 0 0 3077631261.5858502 2141047547.1431293 0 2141047547.1431293 1956608545.0968933 0 0 0 0 200335632.6751405 1675123424.2730913 0 1675123424.2730913 5974392955.5821114 0 0 0 0 1584929.3025027551 2014471.1153061027 0 2014471.1153061027 6933864.4995075241 0 0 0 0 -2268232820.6845655 -103192182.25673676 0 -103192182.25673676 451148113.97410583 0 0 0 0 -883911655.79598141 -754106323.93451405 0 -754106323.93451405 -295189540.92334747 0 0 0 0 -6206253.3141049808 2203882.9134994084 0 2203882.9134994084 11960868.80533582 0 0 0 0 -696606960.6246506 137120343.61211395 0 137120343.61211395 1576822203.1430006 0 0 0 0 -2250084702.3091216 94885602.080837727 0 94885602.080837727 27842896.000862122 0 0 0 0 -1594814.7114718526 -340703.28840534016 0 -340703.28840534016 2152035.8200908303 0 0 0 0 -568688192.5086062 360194810.9285965 0 360194810.9285965 -456314922.69525146 0 0 0 0 -555015528.34572935 204628437.40088654 0 204628437.40088654 1044867181.2673111 0 0 0 0 173143991.79636025 86738492.925109863 0 86738492.925109863 839459103.83989334 0 0 0 0 -1512894898.9871159 -454516445.21920681 0 -454516445.21920681 5976990057.1931152 0 0 0 0 -1461984441.169529 -2548205247.3214264 0 -2548205247.3214264 2891343938.6179819 0 0 0 0 -931434863.183285 -419902412.84670544 0 -419902412.84670544 2806266000.448616 0 0 0 0 -4305053.319658218 1618043.5001099017 0 1618043.5001099017 6615683.5055752471 0 0 0 0 -5103909.813419437 2341461354.8712335 0 2341461354.8712335 5978811885.89678 0 0 0 0 -1358825466.0646455 -2702805727.2753611 0 -2702805727.2753611 987724963.8230896 0 0 0 0 -417007186.57891232 131065924.62986374 0 131065924.62986374 1568559800.2925987 0 0 0 0 -369717741.43925285 316322302.76924133 0 316322302.76924133 1540542431.5339966 0 0 0 0 -428634832.1487689 -897093142.2660799 0 -897093142.2660799 5971739506.0162926 0 0 0 0 889366690.64879012 -1212627449.2931552 0 -1212627449.2931552 823400241.63320923 0 0 0 0 -17276160.599657059 165079943.25853062 0 165079943.25853062 807324398.71247101 0 0 0 0 558716989.06671131 -451962778.62593651 0 -451962778.62593651 -136382340.80596161 0 0 0 0 -584593794.76897562 297448545.52578926 0 297448545.52578926 1543427467.6050992 0 0 0 0 -88304793.269067764 56441439.12127763 0 56441439.12127763 3948817.0136649311 0 0 0 0 -12443869.802706199 8531753.9519902617 0 8531753.9519902617 3026602.0528009422 0 0 0 0 -727106393.4552803 -239990611.61422634 0 -239990611.61422634 10931382.890184402 0 0 0 0 -3533873.1773644574 -6193172.0758379726 0 -6193172.0758379726 19991719.298176706 0 0 0 0 24518990.310139656 -49091920.317414246 0 -49091920.317414246 -29373642.089381456 0 0 0 0 8678194.3439323902 41065946.905097768 0 41065946.905097768 -64199845.503499985 0 0 0 0 21522757.058187962 -27125796.339289516 0 -27125796.339289516 24759048.624268055 0 0 0 0 18598266.395332336 -59394300.649653792 0 -59394300.649653792 183059899.56803256 0 0 0 0 -368580797.30595493 -22329071.88650322 0 -22329071.88650322 -13574603.927841187 0 0 0 0 -427234477.07925797 -689099.66146087646 0 -689099.66146087646 33021950.372737885 0 0 0 0 -14835745.013846397 1135720.3004346192 0 1135720.3004346192 -7756897.0969371796 0 0 0 0 -200763985.79752541 -27545607.676345363 0 -27545607.676345363 43318010.246287465 0 0 0 0 -1283286.3010366932 807516.12404428981 0 807516.12404428981 150291.38436394907 0 0 0 0 83319858.679542542 -52156547.894937038 0 -52156547.894937038 81611948.839852095 0 0 0 0 77789161.807312012 -39381420.098223269 0 -39381420.098223269 -42735728.090233862 0 0 0 0 -13878504.681130746 9564730.9995541032 0 9564730.9995541032 2332885.2383868853 0 0 0 0 22232645.14188385 45888868.493950427 0 45888868.493950427 -4920198.3462231159 0 0 0 0 116483680.60327148 -3400040.7505167723 0 -3400040.7505167723 22439013.253406286 0 0 0 0 -117506814.74088335 123078765.92166805 0 123078765.92166805 -120499297.37633896 0 0 0 0 -6275024.8794442192 -4243944.7211515475 0 -4243944.7211515475 17416564.785071127 0 0 0 0 -16848318.722414017 -7271525.5479527116 0 -7271525.5479527116 15425177.055785179 0 0 0 0 -9797828.3783359528 -5746714.1518297195 0 -5746714.1518297195 11238555.834639549 0 0 0 0 -18265129.657502174 -234790.37128090858 0 -234790.37128090858 20530123.952049851 0 0 0 0 -3837512.7046351596 -5144957.7549769972 0 -5144957.7549769972 12920725.766690912 0 0 0 0 -443550644.22449589 -290123874.73057365 0 -290123874.73057365 695490006.32278061 0 0 0 0 49657457.347745419 169199935.67866707 0 169199935.67866707 -130524128.4363842 0 0 0 0 442168903.30194664 -108014961.44851995 0 -108014961.44851995 -618370302.59394073 0 0 0 0 -6300273.0786847575 -1602241.2623716237 0 -1602241.2623716237 -110823.42052445188 0 0 0 0 950873.59560060874 -790586.73343066731 0 -790586.73343066731 10965144.35538052 0 0 0 0 -1159095.5694733646 -2161503.6718292236 0 -2161503.6718292236 5976757697.8580465 0 0 0 0 -12323796.959058762 -3332392.6574978828 0 -3332392.6574978828 20553376.468316555 0 0 0 0 -7166897.5397200612 -129949.45548501704 0 -129949.45548501704 10320359.64767806 0 0 0 0 665244113.4085381 1883804954.5486095 0 1883804954.5486095 5318577549.1632242 0 0 0 0 17121896.862539671 1073319761.9320054 0 1073319761.9320054 5976083323.8767529 0 0 0 0 -7107135.0802637562 -250276.19847987313 0 -250276.19847987313 9003425.4302445948 0 0 0 0 -2388341.4614919871 491561118.78815246 0 491561118.78815246 4188187130.9569349 0 0 0 0 422398251.05559832 2118464166.9731808 0 2118464166.9731808 5984073344.0220928 0 0 0 0 -689184.83455858205 -354496.78526675468 0 -354496.78526675468 5919506.3455430996 0 0 0 0 646428329.24557793 825322283.7903738 0 825322283.7903738 3305008631.2477932 0 0 0 0 -2680342.4299659729 4359632.4495658875 0 4359632.4495658875 27223504.471137524 0 0 0 0 -7743157.8353328705 2480913.2059826851 0 2480913.2059826851 29600202.068306684 0 0 0 0 -5270386.3153595924 4129146.3969057798 0 4129146.3969057798 19359566.183157444 0 0 0 0 -11875956.845464706 -4939994.1688885689 0 -4939994.1688885689 24895823.996689796 0 0 0 0 -1134031298.8113661 475139675.1750164 0 475139675.1750164 5982329050.7984343 0 0 0 0 -1101551529.4730771 -223385466.80745602 0 -223385466.80745602 5409300132.357563 0 0 0 0 -886061916.17784977 1894809384.6787415 0 1894809384.6787415 6267372818.1313934 0 0 0 0 340472392.8828721 1780605345.8948174 0 1780605345.8948174 6018424195.6730185 0 0 0 0 -340351.53103422944 -426725.46745752916 0 -426725.46745752916 3023987.4487059051 0 0 0 0 -325843203.51525021 -44778577.697664261 0 -44778577.697664261 4015219866.4759049 0 0 0 0 -59786174.00705868 1187582577.921361 0 1187582577.921361 4202947574.9759331 0 0 0 0 -10677331.226498604 -4225049.9119875431 0 -4225049.9119875431 38953184.709332466 0 0 0 0 -7473059.515157775 -2052273.3517860267 0 -2052273.3517860267 10089418.396796666 0 0 0 0 486367.96077919006 -3115755.4414608479 0 -3115755.4414608479 34828419.773237109 0 0 0 0 -10097314.179834366 3240675.8078466654 0 3240675.8078466654 32295056.398303986 0 0 0 0 1025673119.8995754 -542503425.25307846 0 -542503425.25307846 2662650226.4564571 0 0 0 0 -8713636.3752092943 -3883389.6458211304 0 -3883389.6458211304 12716805.968172248 0 0 0 0 -6887009.4676761627 -2465138.0813200474 0 -2465138.0813200474 22102003.834254265 0 0 0 0 -1960237.1082191467 10077571.044335842 0 10077571.044335842 6596172.8916859627 0 0 0 0 -8188796.3287467957 13585816.933984756 0 13585816.933984756 26148521.594594479 0 0 0 0 -902016.20946764131 329628.38891161699 0 329628.38891161699 228894.90549576795 0 0 0 0 -10145746.718906403 2257731.1410250664 0 2257731.1410250664 3827688.9981513023 0 0 0 0 -2764273.9226511139 805448.69182661735 0 805448.69182661735 587700.01671055518 0 0 0 0 -8957846.6811227798 -3767280.6074359417 0 -3767280.6074359417 2425303.1455459595 0 0 0 0 -26789788.115419388 9772399.9463214874 0 9772399.9463214874 8625354.8263731003 0 0 0 0 -5938565.7883598208 -3017385.9556417591 0 -3017385.9556417591 6634614.9367731605 0 0 0 0 -27802878.155305147 -50175445.929490358 0 -50175445.929490358 90749426.484262466 0 0 0 0 -7276304.8530368805 -7484983.9541606903 0 -7484983.9541606903 13052540.09829855 0 0 0 0 -8441794.9353675842 -8380386.7469391823 0 -8380386.7469391823 37459832.073117256 0 0 0 0 2966406.6449942589 -15138604.395041466 0 -15138604.395041466 7799966.323507309 0 0 0 0 -2823700.2988624573 -5507189.325712204 0 -5507189.325712204 1105574.0478115082 0 0 0 0 -6587521.0358448029 -2118114.5900182724 0 -2118114.5900182724 2761265.204552412 0 0 0 0 -9217830.4426298141 -7645401.6267266273 0 -7645401.6267266273 13289079.429396868 0 0 0 0 -9170409.5395812988 -7094101.6383662224 0 -7094101.6383662224 8089666.3225169182 0 0 0 0 -8339413.0977637554 -1944363.4600331073 0 -1944363.4600331073 8530446.0138261728 0 0 0 0 62221714.626529694 13940458.466838896 0 13940458.466838896 -6171787.4586610496 0 0 0 0 -47455568.691617012 59603560.102900043 0 59603560.102900043 264149670.62195218 0 0 0 0 -2538099.2575010043 1146105.5105524156 0 1146105.5105524156 202664.49805494928 0 0 0 0 -5129712.6973800659 28481692.147303104 0 28481692.147303104 -34985205.614949226 0 0 0 0 120620912.88134384 149372708.07997203 0 149372708.07997203 215615888.22436237 0 0 0 0 -44804284.691242218 139053956.55799794 0 139053956.55799794 551985566.21304011 0 0 0 0 -86435952.643571854 117716571.70147729 0 117716571.70147729 454243433.55111432 0 0 0 0 -62527238.752002716 167800420.82016969 0 167800420.82016969 312493287.54154778 0 0 0 0 6337313.973651886 106896773.29397058 0 106896773.29397058 145702701.71588773 0 0 0 0 103645668.70920253 -3123327.5408524424 0 -3123327.5408524424 260629525.08949232 0 0 0 0 -62616729.552139282 73596342.498582363 0 73596342.498582363 323067693.2129631 0 0 0 0 -70468277.780082703 16225901.772084832 0 16225901.772084832 248481758.25714016 0 0 0 0 -20823122.662246704 -18966283.97627306 0 -18966283.97627306 105645488.23922682 0 0 0 0 -21022380.110176086 27307237.201260448 0 27307237.201260448 54628643.162455797 0 0 0 0 -7422027.949256897 -4953708.7150812149 0 -4953708.7150812149 1957277.9011044502 0 0 0 0 15296148.653297424 -52448174.961101413 0 -52448174.961101413 96318970.477891088 0 0 0 0 -7659420.0165377315 -1250948.8291143277 0 -1250948.8291143277 6848360.9984200979 0 0 0 0 -4512992.2697601318 6733122.0431138277 0 6733122.0431138277 19238733.986117184 0 0 0 0 -829454.69779183529 -91868.822434016503 0 -91868.822434016503 775271.40923100454 0 0 0 0 -8634763.8743038177 -1858119.8366155624 0 -1858119.8366155624 616554.73442220688 0 0 0 0 -3197923.2903079987 -1255601.9823675156 0 -1255601.9823675156 2276547.9094142914 0 0 0 0 -24949815.35959816 -21981788.122694492 0 -21981788.122694492 30465433.902729034 0 0 0 0 -3396378.1183474343 -3076535.739301166 0 -3076535.739301166 2189764.5435867039 0 0 0 0 -3642485.9947083006 -3576966.1631605085 0 -3576966.1631605085 3345479.7676607864 0 0 0 0 18890945.814926147 -24273147.108306408 0 -24273147.108306408 70048815.442177773 0 0 0 0 -4981326.7630203851 -2033767.8745467737 0 -2033767.8745467737 4716448.2086256705 0 0 0 0 78042729.954601288 -37435564.579937935 0 -37435564.579937935 -26203562.794623375 0 0 0 0 66791754.960816622 -117675657.12115097 0 -117675657.12115097 18652133.912136078 0 0 0 0 86385144.947795868 -59680572.494801044 0 -59680572.494801044 39607506.837940693 0 0 0 0 128130226.24729252 -81419852.953386068 0 -81419852.953386068 17344822.474201202 0 0 0 0 -1201781.6241809074 -1130362.9547263607 0 -1130362.9547263607 1328870.2778162626 0 0 0 0 112112150.77023125 -49103504.352857828 0 -49103504.352857828 -7895209.9995326996 0 0 0 0 -2293851.8502169917 -1500842.6361622512 0 -1500842.6361622512 3808556.9365697531 0 0 0 0 201535799.47864342 265116629.17199719 0 265116629.17199719 105882298.89597225 0 0 0 0 42925873.615036011 20441173.991578937 0 20441173.991578937 88192391.396576881 0 0 0 0 155684546.91011047 129518132.9469502 0 129518132.9469502 190582759.4625206 0 0 0 0 30771283.660728455 77986792.191069365 0 77986792.191069365 215115667.20862913 0 0 0 0 -76022479.312465668 214361754.22444534 0 214361754.22444534 186280410.6225481 0 0 0 0 557240126.95236778 310506038.94006729 0 310506038.94006729 185325586.97828007 0 0 0 0 21996624.736927032 360747303.63854146 0 360747303.63854146 110094419.84823799 0 0 0 0 193319516.12265396 -190825743.13399506 0 -190825743.13399506 -182260524.4618237 0 0 0 0 -121084555.85137177 315916533.49528337 0 315916533.49528337 281372824.66815472 0 0 0 0 -581649.49238848407 -488997.72531801462 0 -488997.72531801462 1114934.3933412195 0 0 0 0 519488024.73325729 -63934365.2315979 0 -63934365.2315979 -37708972.118463516 0 0 0 0 214219441.15103742 -146706033.0607574 0 -146706033.0607574 -13625910.301786423 0 0 0 0 213461382.85820007 -18256210.957011223 0 -18256210.957011223 -84895.390406608582 0 0 0 0 157784722.18890762 245386521.02958608 0 245386521.02958608 624051715.19483924 0 0 0 0 305492105.61686897 -276020769.46276498 0 -276020769.46276498 135943309.89092064 0 0 0 0 -72007448.036079407 -16146969.749829769 0 -16146969.749829769 392897633.4778204 0 0 0 0 109760534.81624222 -131275041.52248526 0 -131275041.52248526 744582869.00592518 0 0 0 0 66350631.285758972 14596584.2449646 0 14596584.2449646 319608431.23437119 0 0 0 0 -77366056.792694092 -9171351.7012190819 0 -9171351.7012190819 330007813.06219053 0 0 0 0 -85101349.537642002 104391012.11712068 0 104391012.11712068 210859936.87962341 0 0 0 0 -61768691.071670532 73386820.007032394 0 73386820.007032394 158555316.214252 0 0 0 0 -73725601.39226532 125162872.46376133 0 125162872.46376133 105553835.19383597 0 0 0 0 -51932402.045783997 18688358.674892902 0 18688358.674892902 168464144.57472706 0 0 0 0 -73577009.427101135 35319847.147891521 0 35319847.147891521 205519194.27748489 0 0 0 0 -59414665.182373047 57165861.746687889 0 57165861.746687889 119627991.20148897 0 0 0 0 -27792894.288085938 -20008400.301280975 0 -20008400.301280975 178820223.71904659 0 0 0 0 -37701929.957504272 21309441.073709011 0 21309441.073709011 100551382.79371834 0 0 0 0 -22351900.600738525 8466489.8597556353 0 8466489.8597556353 81255980.359992981 0 0 0 0 -18720376.979850769 49294418.543795586 0 49294418.543795586 49918021.240210056 0 0 0 0 -24955081.025202751 36946253.945338011 0 36946253.945338011 40470788.305005074 0 0 0 0 -20114935.147941589 60949271.257639408 0 60949271.257639408 55516476.032335997 0 0 0 0 -19369579.632631302 28825993.071466483 0 28825993.071466483 69739522.572897911 0 0 0 0 -8368692.8866615295 79242025.367609024 0 79242025.367609024 -58504639.14151001 0 0 0 0 -9439774.2328643799 62660167.503493309 0 62660167.503493309 -4924519.581404686 0 0 0 0 -14440794.908975124 35645013.905659974 0 35645013.905659974 -15675095.422686577 0 0 0 0 -15114993.774162292 41030281.887713432 0 41030281.887713432 -23201662.787878513 0 0 0 0 -29199697.861904144 15015170.35542357 0 15015170.35542357 -41332706.788074493 0 0 0 0 70194984.750606537 31422554.785842896 0 31422554.785842896 -362816730.23013496 0 0 0 0 -1036047.3766601346 283042.51809663232 0 283042.51809663232 163729.33835454972 0 0 0 0 -13802828.227556229 314466890.7508688 0 314466890.7508688 -136682666.78458118 0 0 0 0 -48027224.880355835 -38995435.520446301 0 -38995435.520446301 13254858.355518341 0 0 0 0 -96135483.779823303 -15465198.000109673 0 -15465198.000109673 59779648.527458191 0 0 0 0 -69813691.083530426 -50114824.059010506 0 -50114824.059010506 62318201.531085491 0 0 0 0 -135958385.82112503 -73626865.795702934 0 -73626865.795702934 60982198.846682191 0 0 0 0 -40615320.173938036 -135152189.38857657 0 -135152189.38857657 86547953.359444618 0 0 0 0 -498944.94292144617 -956709.91853430402 0 -956709.91853430402 1874444.9601189941 0 0 0 0 -98894538.820672989 -22976576.449707031 0 -22976576.449707031 18829835.53929615 0 0 0 0 -15182853.468345642 -33520049.413008213 0 -33520049.413008213 2221990.0154623985 0 0 0 0 94184119.221761703 28705587.928090334 0 28705587.928090334 -112958071.233603 0 0 0 0 -398500609.67225266 -32209032.661755085 0 -32209032.661755085 269541929.9128499 0 0 0 0 28997509.369183898 -37317955.281623274 0 -37317955.281623274 -37115050.5154562 0 0 0 0 23167091.930019379 -111906057.09548235 0 -111906057.09548235 96430926.891890526 0 0 0 0 -521440.80403042492 -1148765.9825164219 0 -1148765.9825164219 1567701.8092362741 0 0 0 0 -144734965.63062978 770437.04430741072 0 770437.04430741072 37721490.805704117 0 0 0 0 62290631.89824295 -145818064.72426319 0 -145818064.72426319 -30515994.149021506 0 0 0 0 -65569510.772659302 -105403945.27797604 0 -105403945.27797604 38811923.965102196 0 0 0 0 65759647.369403839 -118159020.05811119 0 -118159020.05811119 7740418.5730829239 0 0 0 0 74594838.206161499 -86049608.633883476 0 -86049608.633883476 34627514.959147453 0 0 0 0 58137678.248277664 -118434838.22104931 0 -118434838.22104931 33673283.996337891 0 0 0 0 -258643.46592543228 -649705.91173125524 0 -649705.91173125524 640708.00984585658 0 0 0 0 219031227.19598007 -183450572.63777208 0 -183450572.63777208 78589066.986961365 0 0 0 0 -141282100.32911682 64763005.458010674 0 64763005.458010674 40183698.528354645 0 0 0 0 -101873613.99011612 10741504.457279205 0 10741504.457279205 10391678.956820965 0 0 0 0 -6530658.6491235998 -6077866.1943249181 0 -6077866.1943249181 10072501.526136555 0 0 0 0 -103479682.37939548 9958632.5005514622 0 9958632.5005514622 38095566.619625092 0 0 0 0 -134360217.17577362 -414478.88939523697 0 -414478.88939523697 35387839.356626511 0 0 0 0 -5036566.8670558929 44085878.154054642 0 44085878.154054642 88714265.610216618 0 0 0 0 -3663108.8831126112 3208504.3351716986 0 3208504.3351716986 8544311.0623488352 0 0 0 0 -138340181.29228497 10072083.586707592 0 10072083.586707592 152541161.13075829 0 0 0 0 -23246691.060342789 -100170150.6768961 0 -100170150.6768961 125136669.98158884 0 0 0 0 -10931545.536390876 -6320746.9640663173 0 -6320746.9640663173 16684530.030503927 0 0 0 0 -70679870.828289986 -42409657.777927399 0 -42409657.777927399 59176539.618221283 0 0 0 0 -18398928.191280365 11993994.996058464 0 11993994.996058464 70517568.979606628 0 0 0 0 9154610.5307273865 -42461390.347426414 0 -42461390.347426414 21461227.874233246 0 0 0 0 100134.718334198 -100760493.0138483 0 -100760493.0138483 225623822.59817886 0 0 0 0 66735575.908349991 35324065.25647831 0 35324065.25647831 40782884.784974098 0 0 0 0 829062.58001333475 -39276363.79215017 0 -39276363.79215017 -30697943.066986084 0 0 0 0 -10315680.503794936 -1872270.8713970603 0 -1872270.8713970603 13446259.886099987 0 0 0 0 -3598899.8416347504 68807195.404519081 0 68807195.404519081 918276.70973420143 0 0 0 0 545934370.18234921 -1635931747.5879936 0 -1635931747.5879936 3525687824.0058689 0 0 0 0 1128594074.9272461 -604677374.46338272 0 -604677374.46338272 -616245322.89057159 0 0 0 0 -16393189.038456382 -5829177.6826161183 0 -5829177.6826161183 16555519.541593002 0 0 0 0 -3818467.6697586467 3039416.3148995768 0 3039416.3148995768 11461742.485751461 0 0 0 0 1970135558.3738863 775625600.58168316 0 775625600.58168316 7439609186.7535782 0 0 0 0 1557050000.0391095 899364848.20189667 0 899364848.20189667 362428463.93936348 0 0 0 0 507678557.69353312 -1799275194.7264938 0 -1799275194.7264938 5912297456.9028091 0 0 0 0 32652102.619281061 -1073474485.9955826 0 -1073474485.9955826 5986721749.9561768 0 0 0 0 -759093102.05038488 -66294631.655381203 0 -66294631.655381203 4911703872.3134727 0 0 0 0 -815373341.42294848 558898942.50832367 0 558898942.50832367 3926767461.7734375 0 0 0 0 268814865.99484289 885011519.72664642 0 885011519.72664642 798558570.719841 0 0 0 0 -452517135.78067875 747808056.96497154 0 747808056.96497154 2278991359.6061325 0 0 0 0 2756781511.892436 758873245.54524803 0 758873245.54524803 5986075501.4926071 0 0 0 0 -1069445754.1519077 2151624496.1306458 0 2151624496.1306458 6356230444.1864052 0 0 0 0 1580442748.6662595 3031539009.365375 0 3031539009.365375 3298688563.3873138 0 0 0 0 -967540973.23691034 1200196858.5466824 0 1200196858.5466824 3804424922.3660507 0 0 0 0 -1104804332.1833553 895168681.36542511 0 895168681.36542511 5983603390.5086861 0 0 0 0 -606697139.85182893 68519259.097114563 0 68519259.097114563 4426064045.2989445 0 0 0 0 -679277998.16492915 930566637.62810135 0 930566637.62810135 3961083929.0024261 0 0 0 0 328910303.07642263 -582961921.58057785 0 -582961921.58057785 931069184.50725937 0 0 0 0 621469424.12060571 746107809.58046913 0 746107809.58046913 700889710.57791138 0 0 0 0 -400245.89191731223 1138936.6176323928 0 1138936.6176323928 5501294.5718531348 0 0 0 0 345088522.90430063 -1083500000.7442741 0 -1083500000.7442741 4522008622.1417427 0 0 0 0 -443167460.32805455 472414413.43593788 0 472414413.43593788 5209062747.9933472 0 0 0 0 -217133193.54070973 -1161272420.0092926 0 -1161272420.0092926 5101989301.3618927 0 0 0 0 472258985.07230383 -378581837.61271286 0 -378581837.61271286 5983316393.2234535 0 0 0 0 -789389316.361408 -1172645490.0998306 0 -1172645490.0998306 5130716342.6415787 0 0 0 0 -973027111.83321941 -1126631723.8482475 0 -1126631723.8482475 5985340100.1842117 0 0 0 0 -785968250.47223759 -349025411.32692635 0 -349025411.32692635 4328879849.3162537 0 0 0 0 -652467.25014023029 -212952.93253340572 0 -212952.93253340572 4784802.7846312001 0 0 0 0 -90033054.6223616 -53999759.991195679 0 -53999759.991195679 1325720.0587310791 0 0 0 0 -251988377.44470024 -758629891.23690033 0 -758629891.23690033 1605853486.0175018 0 0 0 0 -38426325.580612898 -689226653.15415955 0 -689226653.15415955 833909708.62161255 0 0 0 0 -264015827.94395804 47880536.721847534 0 47880536.721847534 96453595.714294434 0 0 0 0 -714182409.78481722 754166413.85823822 0 754166413.85823822 4042890101.5465012 0 0 0 0 -619662.61055118404 11323242.72387258 0 11323242.72387258 24056383.723887496 0 0 0 0 -92487645.77489233 -342909914.07406235 0 -342909914.07406235 -15461735.70111084 0 0 0 0 299380135.17143345 -226046629.55882263 0 -226046629.55882263 -603076036.92801666 0 0 0 0 -40616665.642479897 294612501.43444824 0 294612501.43444824 1436597006.255949 0 0 0 0 885190380.825351 332712835.28087997 0 332712835.28087997 -240728099.70729065 0 0 0 0 -457347825.33530307 269534334.07720184 0 269534334.07720184 -110023511.34819412 0 0 0 0 -297790.52124497725 353305.43059508875 0 353305.43059508875 1825358.3860410363 0 0 0 0 126034569.46632719 153586026.03882599 0 153586026.03882599 -211493071.23970032 0 0 0 0 -166529482.98365712 572394658.36078644 0 572394658.36078644 51790979.006317139 0 0 0 0 -1961087.0860479656 10189152.906855594 0 10189152.906855594 20584681.877371646 0 0 0 0 91765886.821066618 -13816853.767154694 0 -13816853.767154694 -88972412.962135315 0 0 0 0 -59222737.39367497 56203099.446327209 0 56203099.446327209 66599817.644897461 0 0 0 0 14261504.672251463 69484686.008882523 0 69484686.008882523 65592174.214187622 0 0 0 0 39845397.43836689 5943026.5319671631 0 5943026.5319671631 -13419758.206726074 0 0 0 0 1495794.5225881669 383112.53556554765 0 383112.53556554765 -2338979.7127979323 0 0 0 0 -27394047.943334579 36128329.618515015 0 36128329.618515015 95116312.861869812 0 0 0 0 -28593252.838521004 41234305.866008759 0 41234305.866008759 80512585.963806152 0 0 0 0 -22012364.457667828 38819205.002342224 0 38819205.002342224 61631201.547831059 0 0 0 0 -46447014.29015255 22846819.370422363 0 22846819.370422363 63004480.972332001 0 0 0 0 -3370265.3025932312 34415809.18803978 0 34415809.18803978 37500942.965833664 0 0 0 0 -23580507.532587051 7274596.4568214417 0 7274596.4568214417 67474562.152297974 0 0 0 0 -7989581.9555264525 12993185.488461945 0 12993185.488461945 51002055.218693137 0 0 0 0 -25467542.709188461 9822511.155711174 0 9822511.155711174 74802848.835217476 0 0 0 0 -8292591.0159781622 -3844099.282810878 0 -3844099.282810878 21849502.817521643 0 0 0 0 -17581291.838389397 10232259.732800722 0 10232259.732800722 73734860.411081314 0 0 0 0 -7370939.7219875958 15238221.716627557 0 15238221.716627557 48584646.53282097 0 0 0 0 -3628252.1156481672 12056188.550824955 0 12056188.550824955 27904326.436752021 0 0 0 0 -11684200.361918449 35603739.343658447 0 35603739.343658447 21664879.914138794 0 0 0 0 -1803167.3206324126 -993236.41942033917 0 -993236.41942033917 1495322.0834597424 0 0 0 0 1088605434.2490335 380199988.45519257 0 380199988.45519257 -158833478.29386902 0 0 0 0 -263113595.38677216 -252061058.61647797 0 -252061058.61647797 334328266.28700447 0 0 0 0 1671550112.8277788 817252012.30178213 0 817252012.30178213 85616169.500137329 0 0 0 0 3778172.5471033147 2312640.6691466495 0 2312640.6691466495 1915550.347524263 0 0 0 0 165137834.35452324 43575457.070404053 0 43575457.070404053 -6800454.0931243896 0 0 0 0 -130537202.29847993 -17045529.823623657 0 -17045529.823623657 5958971943.9323854 0 0 0 0 -314820492.81340027 -109058801.8384552 0 -109058801.8384552 -24503650.94342041 0 0 0 0 -285320919.74127388 -92145714.770782471 0 -92145714.770782471 -19964358.247467041 0 0 0 0 -310225502.51126099 -114100972.33927155 0 -114100972.33927155 -22556107.252914429 0 0 0 0 4808636.1985239964 6970821.9959277026 0 6970821.9959277026 7057765.1714052483 0 0 0 0 -1493577.8500599861 6292679.6382827759 0 6292679.6382827759 117529.92558288574 0 0 0 0 -1489317.1063961983 6501254.4473876953 0 6501254.4473876953 7413967.7618122101 0 0 0 0 1261882826.256892 -3341672659.1339684 0 -3341672659.1339684 5979682254.2139359 0 0 0 0 -858799.34338801273 1324490.5539303087 0 1324490.5539303087 4013155.2663770914 0 0 0 0 143195557.12710628 -1603494739.0562515 0 -1603494739.0562515 3505734192.0442734 0 0 0 0 -152992000.48626792 -1690820021.9063034 0 -1690820021.9063034 5081203963.7572098 0 0 0 0 220470843.39813754 -864812955.11950684 0 -864812955.11950684 3530850705.6194181 0 0 0 0 218299772.47946134 -843500567.87284851 0 -843500567.87284851 3389506343.3186264 0 0 0 0 2510181.5653427625 4558091.7422531694 0 4558091.7422531694 3347080.3989536911 0 0 0 0 -282510.8527170223 4856133.7236707546 0 4856133.7236707546 14442691.88000067 0 0 0 0 -280665.41725983424 7946284.1149099208 0 7946284.1149099208 9179312.9281319827 0 0 0 0 12117171.215968013 26702972.259170532 0 26702972.259170532 10839459.131759644 0 0 0 0 -5091718.1559572816 3028916.2086677551 0 3028916.2086677551 39923448.91709137 0 0 0 0 4496738.1066590548 -1978235.7748260498 0 -1978235.7748260498 36199077.944450378 0 0 0 0 -479191.85376906395 713813.70411682129 0 713813.70411682129 8892894.8378143311 0 0 0 0 -203942.86359809415 4389402.6296968944 0 4389402.6296968944 10719100.336531833 0 0 0 0 1131612.6867938021 -1652264.0490140244 0 -1652264.0490140244 10524923.688712679 0 0 0 0 6614488.1090877056 1008319.5647201538 0 1008319.5647201538 47902809.574905396 0 0 0 0 3104174.2206359459 -3221473.5655296594 0 -3221473.5655296594 5970637.4265156128 0 0 0 0 47500493.649059296 -17436306.25460434 0 -17436306.25460434 -31512810.266868591 0 0 0 0 -1805956.1409695148 12143699.806060791 0 12143699.806060791 72521264.112701416 0 0 0 0 154541.21937948465 9206196.6496887207 0 9206196.6496887207 66949204.829376221 0 0 0 0 481179.15899121761 9205076.2092285156 0 9205076.2092285156 70369689.629318237 0 0 0 0 4638817.2516324781 15389882.326660931 0 15389882.326660931 63016881.591491699 0 0 0 0 1440428.9967522621 4285290.3793640137 0 4285290.3793640137 68693038.969940186 0 0 0 0 1102096.0088048389 339855.94351824 0 339855.94351824 -2176166.6124298945 0 0 0 0 9727132.8193563223 2824215.6549987793 0 2824215.6549987793 -9102750.2564697266 0 0 0 0 -9779104.5495941993 1333263.0179930404 0 1333263.0179930404 18304187.109569311 0 0 0 0 292467025.06414795 99897920.065917969 0 99897920.065917969 42026975.231201172 0 0 0 0 9498233.6662318707 17179760.529724121 0 17179760.529724121 67471265.392150879 0 0 0 0 -1257264.0554444946 -235629.19531398639 0 -235629.19531398639 6223695.4915830344 0 0 0 0 -4245303.5996474624 -6153872.7993469238 0 -6153872.7993469238 34295518.546897888 0 0 0 0 -5337014.0490128994 14829651.041397095 0 14829651.041397095 85771458.611801147 0 0 0 0 -8583621.0700514317 3653891.366317749 0 3653891.366317749 87881903.564376831 0 0 0 0 -6494244.2087646574 72633.394461441785 0 72633.394461441785 5778499.3879553685 0 0 0 0 -4669697.7704843879 -6692093.0637054443 0 -6692093.0637054443 68872719.644456863 0 0 0 0 -7170417.0267081559 -4140154.0178852081 0 -4140154.0178852081 83679733.707901001 0 0 0 0 4736327.5835122745 -4165404.1055450365 0 -4165404.1055450365 4086107.4037538469 0 0 0 0 29730849.508912563 8817770.5358276367 0 8817770.5358276367 44807293.751091003 0 0 0 0 -7785409.2506999671 7754158.3004117012 0 7754158.3004117012 40571674.553955078 0 0 0 0 -39648015.810397148 10375897.371282578 0 10375897.371282578 223510064.17634583 0 0 0 0 -53673493.280047417 39661440.731330872 0 39661440.731330872 212642216.6423645 0 0 0 0 -66380143.525183678 43466164.799518585 0 43466164.799518585 199964190.27598572 0 0 0 0 -15035576.060484886 2212268.1852283478 0 2212268.1852283478 38708141.109985352 0 0 0 0 -36545143.703918695 -19851278.244445801 0 -19851278.244445801 234236970.4937439 0 0 0 0 -8085215.0598039627 62873959.335391998 0 62873959.335391998 201791761.52923584 0 0 0 0 6497180.5541172028 50927429.895271301 0 50927429.895271301 208224664.47639465 0 0 0 0 62177393.724178791 205040799.75055695 0 205040799.75055695 391655565.77097893 0 0 0 0 -6246941.4674867392 -85655242.252141953 0 -85655242.252141953 328367177.43698883 0 0 0 0 136807982.86505246 89622766.037631989 0 89622766.037631989 -6151481.1154174805 0 0 0 0 933599.7115479263 -637345.43980884925 0 -637345.43980884925 -1399924.5428313389 0 0 0 0 80916011.590958595 -100473577.35597801 0 -100473577.35597801 37135427.464202881 0 0 0 0 54025428.632072687 -42155241.332853317 0 -42155241.332853317 -29382091.306686401 0 0 0 0 6015163.3379011154 -12508439.529663086 0 -12508439.529663086 27151429.354263306 0 0 0 0 25631328.104876995 -5298910.2282981873 0 -5298910.2282981873 -14894003.434631348 0 0 0 0 -7086948.3181618955 -7637789.4754933938 0 -7637789.4754933938 16289825.891553763 0 0 0 0 -5082092.693985939 -7098579.1382713318 0 -7098579.1382713318 9454833.1711406708 0 0 0 0 -3859917.9933300018 -4985608.5609741211 0 -4985608.5609741211 5408573.4441299438 0 0 0 0 16507779.746796608 -5519702.329246521 0 -5519702.329246521 -41016791.013465881 0 0 0 0 -20487348.109989166 -904030.82984924316 0 -904030.82984924316 -14129356.859848022 0 0 0 0 -7374768.9355754014 -8902853.1491028443 0 -8902853.1491028443 12520970.616081912 0 0 0 0 -9231771.5348377228 -11072203.57891655 0 -11072203.57891655 8364088.6516723633 0 0 0 0 -11370154.692414761 5039076.5936088562 0 5039076.5936088562 -20267452.501342773 0 0 0 0 -10296728.816128731 -7251657.2876930237 0 -7251657.2876930237 21181575.325885773 0 0 0 0 -13153290.935993195 -4127461.171081543 0 -4127461.171081543 -10833075.846130371 0 0 0 0 -33574083.435901642 -3387688.0910491943 0 -3387688.0910491943 -10343258.549781799 0 0 0 0 -20892856.203281403 10346280.2838974 0 10346280.2838974 -5070805.7113800049 0 0 0 0 16941826.423504353 43110864.861598969 0 43110864.861598969 203322534.18165588 0 0 0 0 -17576120.866523743 -19808686.464115143 0 -19808686.464115143 -16315536.97026062 0 0 0 0 1554034.7809209824 70628512.728820801 0 70628512.728820801 214720597.71601677 0 0 0 0 2139555.7324978281 -2398335.4404930845 0 -2398335.4404930845 -4346618.1596174613 0 0 0 0 -2523299.6832353985 -1228792.930670388 0 -1228792.930670388 16031155.861630898 0 0 0 0 -7236750.0714919465 -7088581.4915322941 0 -7088581.4915322941 14908265.137115322 0 0 0 0 -8294666.0657570362 -9932069.8831300735 0 -9932069.8831300735 -18312532.617370605 0 0 0 0 -7644230.7366161346 -7386500.4788742065 0 -7386500.4788742065 40852720.024246216 0 0 0 0 3241135.4758806229 -992429.62049102783 0 -992429.62049102783 -7629000.9588623047 0 0 0 0 10708.308485271467 -1247038.1361686566 0 -1247038.1361686566 -296034.67951672524 0 0 0 0 -84153.312818674836 -398088.8785382323 0 -398088.8785382323 189227.60308853816 0 0 0 0 -1379346.1850495338 -2063235.7078208923 0 -2063235.7078208923 2793462.4056434631 0 0 0 0 -556654.37086677551 97747.466190338135 0 97747.466190338135 1113376.8830413818 0 0 0 0 -361508.62990424596 -438870.50557754561 0 -438870.50557754561 1236900.6854184121 0 0 0 0 -27332467.248145103 1933600.2311172485 0 1933600.2311172485 209141218.54624939 0 0 0 0 -2129555.8300979817 -2969721.6201504469 0 -2969721.6201504469 5052367.9760456048 0 0 0 0 -8934594.1742596626 14326992.744995117 0 14326992.744995117 177049501.02841187 0 0 0 0 -46448204.286421776 44321427.973442078 0 44321427.973442078 -23845904.764802933 0 0 0 0 -24084293.800068855 -6815955.7124252319 0 -6815955.7124252319 77432514.347198486 0 0 0 0 4417209.2783212662 -92364058.826820374 0 -92364058.826820374 -39968927.76951313 0 0 0 0 -883704.30284309387 -46475687.406411171 0 -46475687.406411171 32705141.494119167 0 0 0 0 -97738023.213503838 3437591.3650817871 0 3437591.3650817871 69813841.013961792 0 0 0 0 -49424478.230161667 1001477.1101531982 0 1001477.1101531982 65956511.956985474 0 0 0 0 -4407892.2764300359 -11091962.629693855 0 -11091962.629693855 40347302.512297288 0 0 0 0 -18066455.486903667 17623500.049346924 0 17623500.049346924 57636555.646896362 0 0 0 0 -72979176.107607603 33315570.852527618 0 33315570.852527618 91299742.290054321 0 0 0 0 -20964695.057325125 4697787.6510772705 0 4697787.6510772705 145221077.15491104 0 0 0 0 -1715225.7924465537 71919583.627691269 0 71919583.627691269 126453694.02322388 0 0 0 0 -18410854.262279361 21711373.767519474 0 21711373.767519474 104475770.09182739 0 0 0 0 35245991.555322945 89301843.090522766 0 89301843.090522766 62360143.127497673 0 0 0 0 39317210.873895019 149436559.1660614 0 149436559.1660614 215113040.80328369 0 0 0 0 -44879750.426068366 4743048.294670105 0 4743048.294670105 385282342.68325806 0 0 0 0 18519901.807073116 -143686366.59584808 0 -143686366.59584808 220107933.47345734 0 0 0 0 -43963889.748163074 -8412311.6667613983 0 -8412311.6667613983 140813867.64733887 0 0 0 0 -11312429.630969048 -11116142.039199829 0 -11116142.039199829 46038902.289215088 0 0 0 0 -6000571.744641304 -32725672.206985474 0 -32725672.206985474 99996264.152078629 0 0 0 0 -22911197.686712265 -37327915.081069946 0 -37327915.081069946 178318509.14427185 0 0 0 0 -35169224.74412322 -99283848.418457031 0 -99283848.418457031 184989859.73500252 0 0 0 0 -31173096.658887148 -106832137.50564194 0 -106832137.50564194 199175066.27113342 0 0 0 0 10619371.71428299 -122429062.88994598 0 -122429062.88994598 101300892.54428101 0 0 0 0 1070936.4325550431 -2054885.3655795604 0 -2054885.3655795604 -5344032.6552564278 0 0 0 0 -44664141.583280414 -6872852.8515758514 0 -6872852.8515758514 81376321.008117676 0 0 0 0 -38685330.609404683 -40394278.648314476 0 -40394278.648314476 199546389.06594849 0 0 0 0 -183119374.21734905 110415522.72773743 0 110415522.72773743 -239815109.52024841 0 0 0 0 157514.15633106232 -47219808.754959106 0 -47219808.754959106 74650462.091712952 0 0 0 0 -9351497.7525422573 -53940285.14995575 0 -53940285.14995575 72016631.527297974 0 0 0 0 -7337493.8698886037 -97149924.108818054 0 -97149924.108818054 159000746.96096802 0 0 0 0 4531739.4078090191 -19634257.33240509 0 -19634257.33240509 -27695586.878463745 0 0 0 0 39613554.405637145 -24273480.202308655 0 -24273480.202308655 -9197867.9460449219 0 0 0 0 -19527764.454486132 -15534332.065467834 0 -15534332.065467834 -9412291.7230608463 0 0 0 0 4285152.0123866871 -6554443.9529766068 0 -6554443.9529766068 -18305693.888104118 0 0 0 0 -3618935.2630801201 -60290054.827796936 0 -60290054.827796936 -30167431.452157021 0 0 0 0 -73317394.050343275 -45339795.855476379 0 -45339795.855476379 -62961962.336334229 0 0 0 0 -9868929.4494199865 -9527876.8158005327 0 -9527876.8158005327 41359655.444799282 0 0 0 0 -3322802.9988365173 -4142512.5022277832 0 -4142512.5022277832 8510336.5051593781 0 0 0 0 849690.1517736502 -4103185.5998537354 0 -4103185.5998537354 4147665.3185783736 0 0 0 0 3448638.1082687378 -1144340.2787246704 0 -1144340.2787246704 -6612362.749786377 0 0 0 0 1515182.000840039 -5098478.8732108045 0 -5098478.8732108045 -9892717.4502055869 0 0 0 0 7888791.1589622498 -15040987.386872292 0 -15040987.386872292 47987446.083747864 0 0 0 0 5479042.269651413 -7651750.4885296822 0 -7651750.4885296822 91535333.819806576 0 0 0 0 -5168597.435604535 -14998723.98000503 0 -14998723.98000503 30013253.206384711 0 0 0 0 -17297723.121629119 -132062070.70949554 0 -132062070.70949554 -82500127.999176025 0 0 0 0 -7364354.2821493149 4305034.9098863602 0 4305034.9098863602 69940672.100372314 0 0 0 0 5415551.086479187 26847561.380853653 0 26847561.380853653 27369427.080482483 0 0 0 0 -937598.62322862633 -53903.360500304028 0 -53903.360500304028 2969901.4621673413 0 0 0 0 396426.10021237656 6868128.6475939807 0 6868128.6475939807 28943743.059973769 0 0 0 0 1858752.2302284241 -15823410.878417015 0 -15823410.878417015 55999355.227636337 0 0 0 0 -8158220.5775527954 -18893988.019337654 0 -18893988.019337654 84401880.350225925 0 0 0 0 -2288948.006060753 1635682.1946971228 0 1635682.1946971228 14060490.645019509 0 0 0 0 5799058.5397891998 523959.58985567093 0 523959.58985567093 34741967.52924633 0 0 0 0 -19440145.481367111 -12586041.343509674 0 -12586041.343509674 31528312.334757805 0 0 0 0 -42767942.722878456 -279795077.56761169 0 -279795077.56761169 254951594.8757019 0 0 0 0 -4149905.4070094125 -13257433.987478931 0 -13257433.987478931 34772980.772021033 0 0 0 0 -25005276.980293274 -21843788.610943317 0 -21843788.610943317 43622353.792386532 0 0 0 0 -126154212.0136528 9575900.8036103249 0 9575900.8036103249 93878759.107223988 0 0 0 0 -13791079.442352295 4952947.8180217743 0 4952947.8180217743 63500162.11366272 0 0 0 0 -17616956.623775482 -36358460.384809494 0 -36358460.384809494 12453351.163349152 0 0 0 0 -652535.11344644427 259353.64737707144 0 259353.64737707144 3852384.7047952376 0 0 0 0 -47206443.679807663 29339139.190205455 0 29339139.190205455 200812962.15189934 0 0 0 0 -66007218.157463074 -24215612.853727221 0 -24215612.853727221 143109173.14155388 0 0 0 0 4783516.1695289612 -2886243.8166260719 0 -2886243.8166260719 85132164.945104599 0 0 0 0 -4642471.4053382874 -19539568.489004135 0 -19539568.489004135 132401464.56091809 0 0 0 0 -2560828.2642002106 -19956599.0111866 0 -19956599.0111866 99601232.279647827 0 0 0 0 -12267897.852020264 -13992450.458195686 0 -13992450.458195686 81261505.969177485 0 0 0 0 11397649.266038895 -8924993.7706599236 0 -8924993.7706599236 31627897.335843086 0 0 0 0 -5813997.356388092 -1583408.430996418 0 -1583408.430996418 65223174.80881691 0 0 0 0 -10322048.171758652 -21593722.287561655 0 -21593722.287561655 39780358.96024704 0 0 0 0 12009481.015007019 -6011402.3111906052 0 -6011402.3111906052 64498059.132456779 0 0 0 0 1553381.5878839493 -459504.37576961517 0 -459504.37576961517 -1625435.2490463257 0 0 0 0 -2616081.5940397996 -4802097.0365842767 0 -4802097.0365842767 9883915.6749028079 0 0 0 0 2149509.1883208537 -2146460.0272512836 0 -2146460.0272512836 -5425582.6382516921 0 0 0 0 2715362.7803955078 -21997159.007832527 0 -21997159.007832527 -2310277.8544330597 0 0 0 0 -5934014.0069236755 9003216.6342201233 0 9003216.6342201233 38201409.201189041 0 0 0 0 -22675555.135150909 -5902467.1838197708 0 -5902467.1838197708 84091447.538606644 0 0 0 0 -4596001.6904716492 -5960444.1848192215 0 -5960444.1848192215 83880730.989263058 0 0 0 0 -9796020.645816803 -16943767.110102654 0 -16943767.110102654 93370198.300918579 0 0 0 0 5934320.6897163391 -28134857.034226418 0 -28134857.034226418 96253333.45965004 0 0 0 0 -5420368.6747447252 -3446555.8765621483 0 -3446555.8765621483 88417388.366544724 0 0 0 0 11677731.127349854 -10083035.027485847 0 -10083035.027485847 95531030.285777569 0 0 0 0 6150271.8499383926 4778599.9348051548 0 4778599.9348051548 65599354.116203308 0 0 0 0 -254653.85544395447 -5405336.7602620125 0 -5405336.7602620125 99536475.360609055 0 0 0 0 -3831788.4581031799 -9422257.6456229687 0 -9422257.6456229687 101408934.76610184 0 0 0 0 -11208546.033041 10594927.859487057 0 10594927.859487057 129777389.3312149 0 0 0 0 -8566424.042427063 6903022.1264429092 0 6903022.1264429092 108798701.21660709 0 0 0 0 5319669.4478721619 -15807483.161375999 0 -15807483.161375999 99549669.63851285 0 0 0 0 -4866172.3047561646 -15391477.899825096 0 -15391477.899825096 95898808.075656891 0 0 0 0 -8819115.477809906 -2070107.506521225 0 -2070107.506521225 95946319.516307831 0 0 0 0 -3608118.3434486389 -191972.38776397705 0 -191972.38776397705 124884295.59129894 0 0 0 0 -8618919.816947937 -12470931.039014816 0 -12470931.039014816 123153128.75754356 0 0 0 0 -1637407.0966339111 230014.60730457306 0 230014.60730457306 127049521.80790424 0 0 0 0 28248.562261581421 -17775453.298865795 0 -17775453.298865795 154948834.18540573 0 0 0 0 2847122.9006958008 13629349.569898576 0 13629349.569898576 179746750.82802963 0 0 0 0 -24383055.142379761 10840517.452339172 0 10840517.452339172 205138588.32645702 0 0 0 0 -21983093.282176018 17378291.582154274 0 17378291.582154274 127070699.47908592 0 0 0 0 -9021605.1584243774 -7985869.0580952168 0 -7985869.0580952168 134705103.03928566 0 0 0 0 -21383874.719093323 13072410.193232059 0 13072410.193232059 155436828.01763344 0 0 0 0 -24254707.075786591 10978728.080479622 0 10978728.080479622 158420309.2262063 0 0 0 0 -24928726.820663452 27218368.552866936 0 27218368.552866936 179323081.66655493 0 0 0 0 -35932611.282791138 30968913.303804874 0 30968913.303804874 179858358.77186108 0 0 0 0 -14052348.757620811 22549498.15557754 0 22549498.15557754 309732353.63884544 0 0 0 0 -14490300.615913391 35431091.88019371 0 35431091.88019371 184298590.22492981 0 0 0 0 2623494.9039297104 -35674970.882426918 0 -35674970.882426918 216845758.01393175 0 0 0 0 61397169.262237549 161619572.11160612 0 161619572.11160612 233406128.09208202 0 0 0 0 -2823155.3082153201 6849922.0883671017 0 6849922.0883671017 3284169.5762531874 0 0 0 0 -25285665.572381973 61638416.441633701 0 61638416.441633701 256866404.79246426 0 0 0 0 -35078453.808763504 62498598.429491282 0 62498598.429491282 286947243.35183382 0 0 0 0 -45273072.474043608 72104075.739288867 0 72104075.739288867 253708816.71617508 0 0 0 0 -36750428.374671221 19531024.463947386 0 19531024.463947386 198110615.87016964 0 0 0 0 44187100.877002716 79771564.015453339 0 79771564.015453339 239226302.43369913 0 0 0 0 56440499.918651581 -13443701.811983109 0 -13443701.811983109 193104287.05009747 0 0 0 0 14600036.237728119 34545501.701417446 0 34545501.701417446 166814720.79613113 0 0 0 0 -14948428.376520634 -20778762.061462402 0 -20778762.061462402 31789664.962772369 0 0 0 0 -18325948.475781083 -14468618.660834312 0 -14468618.660834312 51453603.30657959 0 0 0 0 -9352665.6917657852 11584084.074584961 0 11584084.074584961 54149765.015937805 0 0 0 0 6910940.8919944763 671118.39595794678 0 671118.39595794678 46151879.51348877 0 0 0 0 -8756221.2013136148 4048778.2398524284 0 4048778.2398524284 52552917.416915894 0 0 0 0 -6714284.369314909 -6843758.500617981 0 -6843758.500617981 31174043.934570312 0 0 0 0 -2043693.0153617859 -8853432.2955055237 0 -8853432.2955055237 11012816.241485596 0 0 0 0 -6510235.23300457 -3455277.5048751831 0 -3455277.5048751831 39232346.962158203 0 0 0 0 -3026938.4523696899 18727723.880630493 0 18727723.880630493 41095862.978286743 0 0 0 0 4119069.6565647125 14560563.035179138 0 14560563.035179138 22411037.211669922 0 0 0 0 -9357626.2010873556 -15863325.574669361 0 -15863325.574669361 -4686034.5666503906 0 0 0 0 -20348276.317020416 -16773406.219825745 0 -16773406.219825745 32002689.420669556 0 0 0 0 -7354478.713994706 -13303652.50913511 0 -13303652.50913511 15051016.615723759 0 0 0 0 -14580873.764610291 -8901905.7804412842 0 -8901905.7804412842 40765447.104545593 0 0 0 0 64267920.532653809 19085414.615146637 0 19085414.615146637 -37131774.436226606 0 0 0 0 29595571.858261108 -8038781.8005437851 0 -8038781.8005437851 89839821.59081459 0 0 0 0 -5159390.717830658 7098100.0848855972 0 7098100.0848855972 97401305.679017067 0 0 0 0 -3711523.1516036987 -136440239.84338951 0 -136440239.84338951 -66193219.336096525 0 0 0 0 2902113.9250736237 13185635.4264431 0 13185635.4264431 52144894.777673721 0 0 0 0 1487229.8149495171 -1499049.844075839 0 -1499049.844075839 -5115352.5838778773 0 0 0 0 -5549814.117594569 -6365698.5166803682 0 -6365698.5166803682 24998317.727086358 0 0 0 0 -7669844.7389655113 -10165254.306716919 0 -10165254.306716919 7183669.2303466797 0 0 0 0 -6451730.7295917273 -14567440.925354004 0 -14567440.925354004 -2909260.6662445068 0 0 0 0 -2464854.5620488059 -3678817.7413100675 0 -3678817.7413100675 15503619.006970702 0 0 0 0 -1448218.7706312956 -6587779.133684881 0 -6587779.133684881 -2378074.3455729745 0 0 0 0 10741244.634727478 -78927603.566545486 0 -78927603.566545486 -33137108.533941269 0 0 0 0 -6248129.4588623047 -11848438.889663696 0 -11848438.889663696 5080783.8665008545 0 0 0 0 5732522.5381240845 -1374887.1908950806 0 -1374887.1908950806 -13033597.006072998 0 0 0 0 -1583526.3042590087 -7158217.6056799665 0 -7158217.6056799665 -1240827.9096243866 0 0 0 0 -8234248.3913040161 41507858.510640144 0 41507858.510640144 14844163.752273083 0 0 0 0 43146416.529506683 -17896169.767746925 0 -17896169.767746925 72866569.267108917 0 0 0 0 -18165293.482391357 9983452.7004580498 0 9983452.7004580498 96849055.452817917 0 0 0 0 -17483944.29851532 -19585327.496890068 0 -19585327.496890068 44579322.943782806 0 0 0 0 -7839266.7713775635 9681536.9594802856 0 9681536.9594802856 68385202.176609039 0 0 0 0 -52164870.569805145 2937917.4374761581 0 2937917.4374761581 76056354.373666763 0 0 0 0 -21755398.625267029 6953060.5785865784 0 6953060.5785865784 92505026.102985382 0 0 0 0 -8568535.5730895996 9857936.312997818 0 9857936.312997818 90889964.26701355 0 0 0 0 -7975225.0967750549 14517396.682361603 0 14517396.682361603 94167033.537106991 0 0 0 0 -8031431.354347229 31020886.838165283 0 31020886.838165283 118358835.66152859 0 0 0 0 -16935021.698234558 19366540.480799675 0 19366540.480799675 119921940.4641571 0 0 0 0 -10608822.353874207 26082113.046584129 0 26082113.046584129 109766594.34575844 0 0 0 0 -21716756.745809555 30557859.198248386 0 30557859.198248386 155716955.6279459 0 0 0 0 -25862671.232481003 52657389.944360018 0 52657389.944360018 174774418.70270824 0 0 0 0 -37379319.199934483 37420667.425546288 0 37420667.425546288 154640626.46340561 0 0 0 0 138840096.90407372 88417930.386127472 0 88417930.386127472 85291492.105404377 0 0 0 0 24884724.908065796 32229494.923575401 0 32229494.923575401 64502821.556846619 0 0 0 0 26886406.820142746 37927158.298879623 0 37927158.298879623 77326859.40473938 0 0 0 0 13470753.175247192 25031198.921020508 0 25031198.921020508 100648544.74024296 0 0 0 0 20897446.637611389 63694978.483597755 0 63694978.483597755 129373219.57497692 0 0 0 0 6008806.5566864014 24885995.817445755 0 24885995.817445755 105043397.69905281 0 0 0 0 4474884.5851430893 7164588.4338184595 0 7164588.4338184595 81125758.737794876 0 0 0 0 5668636.073513031 27965061.193193913 0 27965061.193193913 69138060.627702713 0 0 0 0 -3511025.8073762986 -16534184.436206665 0 -16534184.436206665 7621592.2000644319 0 0 0 0 -8686364.0377497673 -37874064.903120756 0 -37874064.903120756 3459777.4438400269 0 0 0 0 -7789803.6651998116 -5901631.7682436276 0 -5901631.7682436276 31313962.983797412 0 0 0 0 12620775.044601917 20116501.142572343 0 20116501.142572343 76912082.327004433 0 0 0 0 -1025130.0926350015 -4497304.3879132075 0 -4497304.3879132075 2800720.5990889315 0 0 0 0 51853836.501092911 -45667642.441570282 0 -45667642.441570282 20759896.547165144 0 0 0 0 -38543350.865503311 -121033765.43019199 0 -121033765.43019199 96811768.319835663 0 0 0 0 -21751421.413528442 -34151753.602199554 0 -34151753.602199554 20712594.26273369 0 0 0 0 -24144509.26099807 -24972521.969256759 0 -24972521.969256759 57589103.316249847 0 0 0 0 1178214.7185702324 4355920.6974182129 0 4355920.6974182129 16131588.633224487 0 0 0 0 -36188604.343938828 38122234.724380493 0 38122234.724380493 -83747258.648284912 0 0 0 0 -1314555.0289976299 25516789.178747017 0 25516789.178747017 36858306.1492434 0 0 0 0 -15649829.793617249 17293891.206226349 0 17293891.206226349 -91823449.123138428 0 0 0 0 6605715.6582308244 5936911.4937776625 0 5936911.4937776625 -21471481.531107232 0 0 0 0 16614366.583170353 14142614.554709287 0 14142614.554709287 -19080948.499268234 0 0 0 0 -393133808.04521817 -170871536.25411737 0 -170871536.25411737 1092820012.7722683 0 0 0 0 -396871056.17094803 277598920.38982391 0 277598920.38982391 121106171.34864998 0 0 0 0 -1139484.3222181005 28344462.951748423 0 28344462.951748423 24819996.007395018 0 0 0 0 -6424516.7649517059 17089917.962268829 0 17089917.962268829 6371263.7237854004 0 0 0 0 303575194.21622658 298363360.76299381 0 298363360.76299381 187230879.5919838 0 0 0 0 233505666.19966698 -146007300.28993797 0 -146007300.28993797 -18346640.808074951 0 0 0 0 -211545079.57310486 -571046013.531703 0 -571046013.531703 1632905432.1707058 0 0 0 0 -8956837.1467437744 24172728.689891815 0 24172728.689891815 25968006.210426331 0 0 0 0 -16340615.663076401 12888297.786521912 0 12888297.786521912 53759393.12059021 0 0 0 0 -177455.12367762625 2959955.6928647794 0 2959955.6928647794 5785751.8321398776 0 0 0 0 -708448.89403352607 25150019.948112641 0 25150019.948112641 36871339.097141467 0 0 0 0 902667957.61349487 1386761897.5751023 0 1386761897.5751023 -2153642812.1977921 0 0 0 0 1483414.4343700409 2506764.5566711426 0 2506764.5566711426 -5009028.9383544922 0 0 0 0 2479327.390182565 26614106.748444051 0 26614106.748444051 20270402.631644458 0 0 0 0 -2260945.1318990635 3206478.0026874505 0 3206478.0026874505 33618628.555557117 0 0 0 0 58933827.372032166 27484096.162445068 0 27484096.162445068 31454346.217987061 0 0 0 0 -15713567.377090454 8489145.9477081299 0 8489145.9477081299 69014296.160434723 0 0 0 0 -223330.09247902595 24582602.00429124 0 24582602.00429124 24149786.594734125 0 0 0 0 -56642.723924824968 904531.72989661619 0 904531.72989661619 1805285.8340770982 0 0 0 0 -13402790.55024147 11236374.097518921 0 11236374.097518921 110492831.40086365 0 0 0 0 -7078995.3334465027 17001272.257209778 0 17001272.257209778 54407608.857833862 0 0 0 0 1934168.4365882874 -239953.22328186035 0 -239953.22328186035 60977030.250589371 0 0 0 0 -31884527.018510818 132452099.54291463 0 132452099.54291463 256764754.35180759 0 0 0 0 83254998.758708954 -208901663.96009398 0 -208901663.96009398 -146630935.33325434 0 0 0 0 -34645350.061439514 34845213.87915802 0 34845213.87915802 93321184.620864868 0 0 0 0 -30327929.270418167 28560926.117519379 0 28560926.117519379 132637446.70171738 0 0 0 0 -83797818.962579727 37668720.757288933 0 37668720.757288933 171352393.53465497 0 0 0 0 -448929.47683474049 23862553.012485478 0 23862553.012485478 10346679.501858253 0 0 0 0 -1703793.2481422424 27901398.618156433 0 27901398.618156433 65954174.396118164 0 0 0 0 -5144483.2842388153 18070270.344339371 0 18070270.344339371 60752036.184234619 0 0 0 0 -3994392.04890275 11358541.706335068 0 11358541.706335068 37159816.532073975 0 0 0 0 806117.40674591064 9225296.0333786011 0 9225296.0333786011 52068824.029830933 0 0 0 0 -1967661.267901659 24336477.057278633 0 24336477.057278633 36312058.726303101 0 0 0 0 -8834976.894868033 8614317.2253039666 0 8614317.2253039666 32975967.915741246 0 0 0 0 -6436963.93334198 20210655.675189972 0 20210655.675189972 23861636.290412903 0 0 0 0 -6374251.1308269501 16665635.551826477 0 16665635.551826477 28666350.223739624 0 0 0 0 -6996394.3722976241 18804577.436521403 0 18804577.436521403 48661589.015324965 0 0 0 0 -568831309.76824951 280989342.75448608 0 280989342.75448608 34778378.871917725 0 0 0 0 -596228728.90891266 154572828.46929932 0 154572828.46929932 -109391495.11447144 0 0 0 0 -287369384.60648727 315047613.27891541 0 315047613.27891541 -292100819.93753052 0 0 0 0 -933005.92272207886 1284792.933805801 0 1284792.933805801 5026890.3733175509 0 0 0 0 -12281085.244732857 34688446.675284386 0 34688446.675284386 25109226.456985474 0 0 0 0 -171878.99258995056 13371713.919685364 0 13371713.919685364 26679995.890197754 0 0 0 0 -3808494.4356269836 23929618.806640625 0 23929618.806640625 54714536.964202881 0 0 0 0 276727032.32214737 422441537.8936615 0 422441537.8936615 -352274622.63592529 0 0 0 0 370265319.22115564 333598005.07088852 0 333598005.07088852 44575298.697692871 0 0 0 0 455292213.18607712 -72243779.803436279 0 -72243779.803436279 -42957538.815002441 0 0 0 0 -630949875.07370377 -61987356.651290894 0 -61987356.651290894 446150492.74963379 0 0 0 0 -632035901.82503128 214041043.52635193 0 214041043.52635193 266343536.93286133 0 0 0 0 -268765107.47498322 -533623808.86721802 0 -533623808.86721802 591314207.41879272 0 0 0 0 -30543579.948253632 43608930.482055664 0 43608930.482055664 -25362964.699768066 0 0 0 0 -37460651.397151947 194787688.81555176 0 194787688.81555176 -143720249.54034424 0 0 0 0 -188686430.15245819 135638524.52755737 0 135638524.52755737 -26316788.514770508 0 0 0 0 -183797803.93097687 198868178.33132935 0 198868178.33132935 -136762808.64086914 0 0 0 0 -357850523.32273102 301178777.61419678 0 301178777.61419678 -192980334.06835938 0 0 0 0 -137626039.4180336 156968412.29875183 0 156968412.29875183 -84209889.55279541 0 0 0 0 -172862533.29164124 65632428.737945557 0 65632428.737945557 -278559176.27322388 0 0 0 0 55259448.490135193 166900676.81695557 0 166900676.81695557 -91491463.968505859 0 0 0 0 8941339.38514328 78987172.259185791 0 78987172.259185791 -164384287.74910736 0 0 0 0 109096102.20984745 207610921.41119385 0 207610921.41119385 -48846079.209533691 0 0 0 0 127676429.25880432 124597234.72195435 0 124597234.72195435 -133757895.75219727 0 0 0 0 -27280559.560213089 91765839.146167755 0 91765839.146167755 -29260811.467895508 0 0 0 0 135625505.60421753 192286577.49313354 0 192286577.49313354 -40420666.847290039 0 0 0 0 148447542.30006409 258104993.8465271 0 258104993.8465271 39739589.974304199 0 0 0 0 158860102.95307541 202976824.11091614 0 202976824.11091614 -103702374.15576172 0 0 0 0 114913253.52140808 187943201.82067871 0 187943201.82067871 -21487217.684875488 0 0 0 0 135724900.67395401 171077163.90344238 0 171077163.90344238 -75554634.177032471 0 0 0 0 99365796.135227203 139304785.45811462 0 139304785.45811462 -97925508.062805176 0 0 0 0 159202037.94928551 128871795.16194153 0 128871795.16194153 -43652684.986278296 0 0 0 0 84138047.82443285 146943353.95307922 0 146943353.95307922 -43800684.522735596 0 0 0 0 68590728.440663338 114153022.95025635 0 114153022.95025635 31019226.851989746 0 0 0 0 -23482837.759036064 42386131.287082672 0 42386131.287082672 -24017949.638275146 0 0 0 0 16849110.642745018 63643377.532974243 0 63643377.532974243 -82494709.668960571 0 0 0 0 -37874358.51017189 129799160.07125854 0 129799160.07125854 119491052.98842621 0 0 0 0 32320029.522476196 221185935.17086792 0 221185935.17086792 218257627.12760925 0 0 0 0 1325611.7874412527 2206764.2531672567 0 2206764.2531672567 -5833977.7448920608 0 0 0 0 -42571938.973175049 -5002013.6813259125 0 -5002013.6813259125 17459826.150993347 0 0 0 0 -36879226.895389557 -1519911.8738746643 0 -1519911.8738746643 14657265.545534134 0 0 0 0 -16331453.947769592 9371195.7509925049 0 9371195.7509925049 13821680.464551505 0 0 0 0 -36569754.902572632 6048437.3430185318 0 6048437.3430185318 27223977.603648186 0 0 0 0 -15018782.631386986 12673099.695554767 0 12673099.695554767 36707705.561833255 0 0 0 0 -709962.2218050696 24152969.395522371 0 24152969.395522371 6828930.2548914505 0 0 0 0 27056613.914455414 73024633.708809137 0 73024633.708809137 113863787.70011091 0 0 0 0 -14099712.957872391 22069559.497169495 0 22069559.497169495 68318605.870357513 0 0 0 0 -9531403.9293251038 59323326.89516592 0 59323326.89516592 178021585.62836844 0 0 0 0 8686221.9121799469 29789713.871425629 0 29789713.871425629 53216192.72869873 0 0 0 0 -2665309.9661521912 39149454.512954712 0 39149454.512954712 81056829.443077087 0 0 0 0 -9612275.6975898743 9571678.6560134888 0 9571678.6560134888 42599791.651477814 0 0 0 0 -2663978.8516235352 10358597.602340698 0 10358597.602340698 42473713.51399231 0 0 0 0 -32851340.71622467 4791478.3533210754 0 4791478.3533210754 45491626.283313751 0 0 0 0 -15614208.453195572 16917968.675708771 0 16917968.675708771 33738964.762481689 0 0 0 0 -10298142.215344809 10291277.748440787 0 10291277.748440787 31564541.790274221 0 0 0 0 -13260695.662439346 6033387.5052480698 0 6033387.5052480698 22068564.599609375 0 0 0 0 -7943176.0591773987 18767846.935752869 0 18767846.935752869 28848817.966377258 0 0 0 0 -7765.8973655700684 25952068.115623474 0 25952068.115623474 49274123.746437073 0 0 0 0 -13086485.817489624 8939048.6019515991 0 8939048.6019515991 23137887.113018036 0 0 0 0 -16942767.648254395 12901310.117408752 0 12901310.117408752 19068301.056442261 0 0 0 0 -10148578.927844308 14320551.645795681 0 14320551.645795681 29304174.158478752 0 0 0 0 -98741310.659133911 12613020.547777176 0 12613020.547777176 91704068.854812622 0 0 0 0 -30817452.735702515 4407067.5398216248 0 4407067.5398216248 24757073.85449028 0 0 0 0 -73888991.130565643 -7879949.3862657547 0 -7879949.3862657547 21555078.575702667 0 0 0 0 -65087573.750011444 -42961422.537086487 0 -42961422.537086487 152870695.93647003 0 0 0 0 -77930293.2586689 -21796589.283502102 0 -21796589.283502102 31989990.566364288 0 0 0 0 -32648613.83776474 -11499468.84000349 0 -11499468.84000349 -6032384.7701187134 0 0 0 0 -44431423.247077942 -45646145.575329304 0 -45646145.575329304 7899451.5629577637 0 0 0 0 -2107339.8514356837 282220.46943414398 0 282220.46943414398 2198455.2976702582 0 0 0 0 -51024932.264633179 230355957.75399113 0 230355957.75399113 239359826.90993881 0 0 0 0 -99962135.841697693 -3657862.8085632324 0 -3657862.8085632324 120101299.94610214 0 0 0 0 -14534780.383987427 -58535526.67483139 0 -58535526.67483139 99387392.117192268 0 0 0 0 12139725.795852661 -115709176.54584312 0 -115709176.54584312 83431051.550891876 0 0 0 0 -139769249.28206873 -102401357.01542187 0 -102401357.01542187 138919976.7362709 0 0 0 0 5345825.1263656616 -76470926.395866394 0 -76470926.395866394 84525085.116075993 0 0 0 0 -38426754.95318222 -56790883.062120438 0 -56790883.062120438 80275219.251583099 0 0 0 0 -124088669.97863436 -20241877.927942395 0 -20241877.927942395 110669369.72583008 0 0 0 0 -4590824.8957491629 -100135.15168922581 0 -100135.15168922581 4570398.4423442949 0 0 0 0 -40861819.889986038 -14675839.059166431 0 -14675839.059166431 4835097.2361030579 0 0 0 0 -73407145.869068146 -9496209.6425285339 0 -9496209.6425285339 109520578.70142168 0 0 0 0 -72733359.685083389 -15855400.315810204 0 -15855400.315810204 31676198.763706207 0 0 0 0 -8736634.1555480957 -36016104.50595665 0 -36016104.50595665 -19842165.00822258 0 0 0 0 -43452400.895214081 -49856207.494197369 0 -49856207.494197369 -15101825.828330159 0 0 0 0 -7544370.4619085267 -990099.0065423958 0 -990099.0065423958 6359522.0152057484 0 0 0 0 -24582522.41582489 -5421084.5226392746 0 -5421084.5226392746 16032162.06276226 0 0 0 0 -14301853.423347473 -5484797.1397094727 0 -5484797.1397094727 2369389.8509078026 0 0 0 0 -19524617.386295319 -16132636.421045303 0 -16132636.421045303 -17933130.423197746 0 0 0 0 29356924.365707397 13457566.794332981 0 13457566.794332981 -5791419.5375404358 0 0 0 0 330024.29076385498 -26557370.106529236 0 -26557370.106529236 -14944263.882175446 0 0 0 0 -14186987.40819931 -9030032.859940052 0 -9030032.859940052 -30463368.408847809 0 0 0 0 32816470.558490753 -2812290.8334565163 0 -2812290.8334565163 -1962641.9143276215 0 0 0 0 -12530451.280265808 -43245757.250234604 0 -43245757.250234604 13995294.553472519 0 0 0 0 16320047.301902771 -26993246.415245056 0 -26993246.415245056 18333937.940252304 0 0 0 0 48833067.193374634 -13751270.404691696 0 -13751270.404691696 5450104.4195079803 0 0 0 0 25874601.853736877 7622112.32563591 0 7622112.32563591 5561067.7614254951 0 0 0 0 34322985.899032593 20760041.658626556 0 20760041.658626556 9855228.83730793 0 0 0 0 39806123.94745636 28303246.736047745 0 28303246.736047745 20115467.764663696 0 0 0 0 24991675.613388062 35908006.491107941 0 35908006.491107941 44109986.132453918 0 0 0 0 -9729213.9026794434 349990.35636997223 0 349990.35636997223 15607737.305238724 0 0 0 0 57583253.665084839 29426666.466722488 0 29426666.466722488 18797829.297325134 0 0 0 0 54834476.256752014 59650645.018531799 0 59650645.018531799 48387692.41179657 0 0 0 0 96031044.503265381 49433493.85628891 0 49433493.85628891 22473325.386077881 0 0 0 0 101835500.72456551 -12435236.142175078 0 -12435236.142175078 17054565.837036133 0 0 0 0 183459586.86797714 70018678.728252411 0 70018678.728252411 48424619.262291901 0 0 0 0 62374985.620365143 -63827839.786132812 0 -63827839.786132812 46899839.381874084 0 0 0 0 78332106.336196899 803363.99432373047 0 803363.99432373047 12597499.421621323 0 0 0 0 237133713.07639313 387150.35123062134 0 387150.35123062134 18027832.630330086 0 0 0 0 4662024.3480529785 -62899077.373718262 0 -62899077.373718262 64357438.594451904 0 0 0 0 12101479.321998596 -103778909.40008545 0 -103778909.40008545 196058491.79356003 0 0 0 0 184838943.24700546 -150213488.24993706 0 -150213488.24993706 84049047.030357361 0 0 0 0 252062351.30834198 -99094411.336200714 0 -99094411.336200714 -6334871.2469711304 0 0 0 0 195959633.19067383 -13227216.351779938 0 -13227216.351779938 118757044.96785164 0 0 0 0 146746304.97951508 -117344221.68239975 0 -117344221.68239975 103831186.48514557 0 0 0 0 95262537.48135376 73585079.387107849 0 73585079.387107849 73342119.063987732 0 0 0 0 -1618303.2317027301 1083108.6577381231 0 1083108.6577381231 1857000.8245983608 0 0 0 0 -1643113.9290178064 106294.99859210104 0 106294.99859210104 2071508.9057691749 0 0 0 0 203197982.99748993 37327097.099525452 0 37327097.099525452 83060021.692581177 0 0 0 0 217033339.15941954 92027700.389505744 0 92027700.389505744 50769488.620918274 0 0 0 0 212301817.95600128 137796821.82864761 0 137796821.82864761 34742849.243240356 0 0 0 0 155969593.01768494 109241295.20499039 0 109241295.20499039 21477959.140518188 0 0 0 0 116222701.94531059 159022814.9833107 0 159022814.9833107 54253143.133308411 0 0 0 0 185587041.73905945 115559501.80184555 0 115559501.80184555 34047060.242759705 0 0 0 0 326908047.72510529 39768663.701898575 0 39768663.701898575 45622891.506087542 0 0 0 0 783594.47824692633 2466911.1085953349 0 2466911.1085953349 608923.49984465539 0 0 0 0 -493205163.12171364 63568003.644587994 0 63568003.644587994 267928419.01693726 0 0 0 0 936686271.82261848 176105622.66206932 0 176105622.66206932 -183861608.63073158 0 0 0 0 9504360.2281417847 2741373.4173197746 0 2741373.4173197746 -6791264.3326683044 0 0 0 0 -2668567.1538936067 1981629.4015854709 0 1981629.4015854709 3253122.5859336108 0 0 0 0 -136345017.69241333 38408453.185324669 0 38408453.185324669 137887934.78738117 0 0 0 0 -2929364.7320584729 100356.52452860959 0 100356.52452860959 4163743.7458605524 0 0 0 0 27048251.547049522 31686785.54483223 0 31686785.54483223 32793851.261600494 0 0 0 0 242199162.12569809 163243794.8674469 0 163243794.8674469 9949823.8397045135 0 0 0 0 -65997277.523393631 -14853969.78724575 0 -14853969.78724575 -48825751.006210327 0 0 0 0 7687936.6152515411 111159564.5581913 0 111159564.5581913 109579253.6626339 0 0 0 0 -6598899.8830838203 -34088311.750379562 0 -34088311.750379562 72902145.761974335 0 0 0 0 -313256262.85525131 124445665.25583839 0 124445665.25583839 -17452112.340095431 0 0 0 0 -190746843.19454765 -63297339.646312714 0 -63297339.646312714 -14261070.623558223 0 0 0 0 -399293474.05322075 -82462022.253105164 0 -82462022.253105164 153381067.03267479 0 0 0 0 -157782676.54517365 15382161.709190369 0 15382161.709190369 168005506.38195229 0 0 0 0 -78112018.593894958 -72891769.233308792 0 -72891769.233308792 142219083.25330591 0 0 0 0 -75016656.932956696 -14360069.546830177 0 -14360069.546830177 154457545.99873877 0 0 0 0 -181073954.53270817 20116818.430168152 0 20116818.430168152 201408806.44540405 0 0 0 0 -196698021.26934242 -10896204.691387177 0 -10896204.691387177 160720234.42398262 0 0 0 0 -279529356.09406662 79418144.103204727 0 79418144.103204727 187073427.01812363 0 0 0 0 -125130019.31261468 116198067.69867241 0 116198067.69867241 194514722.01878738 0 0 0 0 4969340.9558486938 181271103.49782562 0 181271103.49782562 15121872.855592728 0 0 0 0 -118291649.2938118 45850429.36615026 0 45850429.36615026 85215747.937168121 0 0 0 0 -6103145.1165027618 -23793287.436981499 0 -23793287.436981499 32261509.144620895 0 0 0 0 -36177023.536111832 12093899.237826347 0 12093899.237826347 14354772.225627899 0 0 0 0 -29591328.143051147 -9255905.6243171692 0 -9255905.6243171692 66109101.843485355 0 0 0 0 -55555492.409225464 -855402.42750453949 0 -855402.42750453949 63865522.022697449 0 0 0 0 -2595201.475207068 1478882.3968834709 0 1478882.3968834709 2874552.645154858 0 0 0 0 21005779.786273956 18734742.477837563 0 18734742.477837563 20851629.932692528 0 0 0 0 28928528.872387886 32342350.604118824 0 32342350.604118824 32089646.107494354 0 0 0 0 232692208.95154285 673990110.20433378 0 673990110.20433378 30438529.022880554 0 0 0 0 48908263.330303192 -136316150.56164551 0 -136316150.56164551 150576644.49869347 0 0 0 0 789717958.99487686 -330821404.22604561 0 -330821404.22604561 165722305.98859167 0 0 0 0 -190681857.46114349 240431263.86156464 0 240431263.86156464 366138456.24260998 0 0 0 0 -2369841.3687878121 922550.32326809037 0 922550.32326809037 4097058.9077357771 0 0 0 0 -5018607.2565193176 -2007897.8628702164 0 -2007897.8628702164 2323403.4206581116 0 0 0 0 -8206191.7518844604 -766329.50217294693 0 -766329.50217294693 1860083.7473826408 0 0 0 0 57569821.9830513 8982476.040851593 0 8982476.040851593 -20872400.258182526 0 0 0 0 38403153.182603836 35843182.161782265 0 35843182.161782265 12780458.987981796 0 0 0 0 15221837.970659256 21694029.734316111 0 21694029.734316111 -33259464.611188889 0 0 0 0 15725557.745002747 304893.91018867493 0 304893.91018867493 22024595.86505127 0 0 0 0 29373680.702882767 -19937477.625353336 0 -19937477.625353336 -72866857.426424503 0 0 0 0 -418299.11216498353 -1182066.1362076998 0 -1182066.1362076998 1232803.800609346 0 0 0 0 -19567730.856613159 -16141857.276289463 0 -16141857.276289463 -7830225.9808342457 0 0 0 0 51280172.648969173 62596725.375640452 0 62596725.375640452 -4870732.7415447235 0 0 0 0 -1420696.1418981664 840654.05917821079 0 840654.05917821079 1501307.6449199226 0 0 0 0 -40233881.493755341 57026783.72359705 0 57026783.72359705 42151062.15296936 0 0 0 0 -19090873.645313263 -52774328.000157595 0 -52774328.000157595 234716621.9064312 0 0 0 0 76387997.282812119 -31992052.709082842 0 -31992052.709082842 -10013458.63194561 0 0 0 0 23968739.35200119 52624029.071733475 0 52624029.071733475 119072863.92425752 0 0 0 0 -12403143.937906265 -5592293.6449458599 0 -5592293.6449458599 5542308.7922229767 0 0 0 0 -12651501.169677734 -3729169.80798769 0 -3729169.80798769 23754061.020951271 0 0 0 0 -33109.119627306238 2056525.1128891278 0 2056525.1128891278 1703545.8135200525 0 0 0 0 -13126240.778373718 9154722.2710790634 0 9154722.2710790634 -59376773.43049705 0 0 0 0 40698757.358999252 15254930.689190626 0 15254930.689190626 -34366121.533850193 0 0 0 0 -8206753.3274030238 -689563.98339432292 0 -689563.98339432292 -8633395.1920514107 0 0 0 0 4757379.6297841296 -1615698.4289884456 0 -1615698.4289884456 9325.3177236364572 0 0 0 0 1713671.1282043457 38053155.500814438 0 38053155.500814438 196033891.41519117 0 0 0 0 34697282.878646851 -44528586.462039471 0 -44528586.462039471 48544226.223546267 0 0 0 0 8079129.4305978362 -3007144.2464994513 0 -3007144.2464994513 1271293.4991322146 0 0 0 0 1094351.9322616849 1498522.1200419236 0 1498522.1200419236 -976816.26295268536 0 0 0 0 -894413335.50818825 -373395600.19304299 0 -373395600.19304299 1363269950.5813789 0 0 0 0 -51493446.434715271 131389209.97333097 0 131389209.97333097 579443436.81211185 0 0 0 0 7661213.1118144989 77972837.780190468 0 77972837.780190468 451898854.78704214 0 0 0 0 -39302848.101543427 -48508441.902185678 0 -48508441.902185678 364930448.5820303 0 0 0 0 -83185424.870136261 -63381643.424063921 0 -63381643.424063921 580318387.25623226 0 0 0 0 -185649580.69103241 -100069468.91403484 0 -100069468.91403484 695756639.285007 0 0 0 0 -53666529.937839508 -76353364.829898119 0 -76353364.829898119 342105148.10850334 0 0 0 0 -8679726.1364860535 -68161515.487793207 0 -68161515.487793207 370498631.1702528 0 0 0 0 -36007468.389230728 -42285119.664226055 0 -42285119.664226055 284680249.25894928 0 0 0 0 -66350918.310352325 -31092647.354090929 0 -31092647.354090929 326163361.00192642 0 0 0 0 -51292378.352539062 -50812828.000892639 0 -50812828.000892639 269947500.73562574 0 0 0 0 -49848921.515293121 -103207449.92790604 0 -103207449.92790604 345537869.23980999 0 0 0 0 -45741829.03704834 -85236946.142934322 0 -85236946.142934322 269433888.16919136 0 0 0 0 -63105748.284790039 -76257887.543607235 0 -76257887.543607235 344471190.61722231 0 0 0 0 -44100081.876174927 -66681544.245727539 0 -66681544.245727539 274099967.2148571 0 0 0 0 -54317995.489218235 -12564160.138166934 0 -12564160.138166934 188811090.69109058 0 0 0 0 -18676062.78548193 -41607013.384941936 0 -41607013.384941936 146794823.55817032 0 0 0 0 -29966556.362373352 -38398629.512537003 0 -38398629.512537003 151973264.84722662 0 0 0 0 -26686561.021344662 -89591145.974410295 0 -89591145.974410295 239694816.64463043 0 0 0 0 -30803658.784286499 -110504192.41308022 0 -110504192.41308022 232731878.3277092 0 0 0 0 -56127083.697349548 -108118057.33732653 0 -108118057.33732653 375325262.76458001 0 0 0 0 105431278.62044907 137340633.20910597 0 137340633.20910597 350686502.64188671 0 0 0 0 3503640.5638542175 -46911776.528064251 0 -46911776.528064251 321757253.68563128 0 0 0 0 -22655889.596426964 -8553791.7398086786 0 -8553791.7398086786 281220237.57798815 0 0 0 0 167850553.6692543 -110090122.28110933 0 -110090122.28110933 324153834.07105207 0 0 0 0 -46386852.540161133 -49817557.382532716 0 -49817557.382532716 430843218.74317455 0 0 0 0 107389880.23683119 100624371.27637154 0 100624371.27637154 256012903.78377724 0 0 0 0 658589942.09514427 700826.1654009819 0 700826.1654009819 273368156.76445961 0 0 0 0 -220275.98308253195 -417295.46535229683 0 -417295.46535229683 933468.42629483808 0 0 0 0 -77293675.931728363 378468718.39694953 0 378468718.39694953 361429187.62474394 0 0 0 0 77482409.898450851 192483170.5953989 0 192483170.5953989 567778475.02926445 0 0 0 0 275773545.38031769 16031608.397693634 0 16031608.397693634 412063114.30719519 0 0 0 0 231643780.75183368 322536222.97133434 0 322536222.97133434 529717142.59748554 0 0 0 0 54089283.668560982 110395293.359644 0 110395293.359644 373638920.18724728 0 0 0 0 168986735.0349369 360919916.61769104 0 360919916.61769104 572383012.70539808 0 0 0 0 -21306396.860984802 66845428.379454613 0 66845428.379454613 677930613.09290886 0 0 0 0 -19316416.857219607 -38688043.77666413 0 -38688043.77666413 380139731.50912189 0 0 0 0 9997487.3511037827 -165204473.95898962 0 -165204473.95898962 373830149.53317833 0 0 0 0 89559002.58306694 -160936731.76480341 0 -160936731.76480341 87736390.253821373 0 0 0 0 -45048573.358192444 -27599951.66785717 0 -27599951.66785717 65828540.642891407 0 0 0 0 -45776746.389400482 22316621.74805069 0 22316621.74805069 310514600.0757246 0 0 0 0 -191991955.57134247 -86992315.146318436 0 -86992315.146318436 136306953.06311798 0 0 0 0 -179477717.51809084 69249045.84086898 0 69249045.84086898 263658613.80828857 0 0 0 0 -34198650.993587494 96054424.919579506 0 96054424.919579506 243901821.1024251 0 0 0 0 -45083968.604812622 193584510.38380957 0 193584510.38380957 450537063.95480776 0 0 0 0 35214999.9888134 122017657.25874925 0 122017657.25874925 239881786.8440938 0 0 0 0 -96363481.948389053 26093517.539179325 0 26093517.539179325 213126713.86102057 0 0 0 0 -97445374.280109406 106522458.51258659 0 106522458.51258659 282011745.15128374 0 0 0 0 -12833484.673983721 4279448.2029627021 0 4279448.2029627021 7706268.9323263131 0 0 0 0 -30742760.204779625 77593960.578091979 0 77593960.578091979 210221946.70718861 0 0 0 0 5999037.9940910339 -26737407.008751392 0 -26737407.008751392 -56915966.748888016 0 0 0 0 -27464874.41999054 17082131.291503429 0 17082131.291503429 -4241140.7129759789 0 0 0 0 -6048605.6158995796 -465821.77669715788 0 -465821.77669715788 2986412.8964788169 0 0 0 0 -5109251.791631408 1137012.0516080726 0 1137012.0516080726 4012386.9812396779 0 0 0 0 -20524387.283563614 38655018.162593842 0 38655018.162593842 106123918.66689491 0 0 0 0 -20630503.797056198 25289514.651308656 0 25289514.651308656 3902367.4977636337 0 0 0 0 -55387359.299749851 -79401685.774744689 0 -79401685.774744689 51050841.31785965 0 0 0 0 -55360682.588497162 -71976066.423557281 0 -71976066.423557281 154219335.7713089 0 0 0 0 160972631.45183563 192133406.98113418 0 192133406.98113418 253104040.32426691 0 0 0 0 -1060926.9777719714 163738.07191413268 0 163738.07191413268 778186.72177102417 0 0 0 0 40583504.994332314 141270992.24969268 0 141270992.24969268 233042901.34443855 0 0 0 0 147784832.82660741 208089443.77120209 0 208089443.77120209 516057193.3085022 0 0 0 0 -107465268.51919003 -39383463.948455811 0 -39383463.948455811 168827100.35626221 0 0 0 0 -47183.04653113836 16700.156379312277 0 16700.156379312277 489898.4527015686 0 0 0 0 147575371.22016335 -57933820.346664429 0 -57933820.346664429 -92488141.195343018 0 0 0 0 194315628.30512193 219476694.34545898 0 219476694.34545898 73935776.321880341 0 0 0 0 146993.51684513511 68190745.386734009 0 68190745.386734009 158420240.55921936 0 0 0 0 31862908.704612032 264791362.15821838 0 264791362.15821838 558268818.05935669 0 0 0 0 73264700.481934682 -47925816.872711182 0 -47925816.872711182 -646908.79290008545 0 0 0 0 -59913.435368039172 56868.811620406806 0 56868.811620406806 784983.98573350906 0 0 0 0 85285991.046577543 21956608.578186035 0 21956608.578186035 -1200804.2289428711 0 0 0 0 6474464.2268149853 -33498701.045928955 0 -33498701.045928955 21758517.675048828 0 0 0 0 10758880.890429528 36760335.780303955 0 36760335.780303955 19184575.821380615 0 0 0 0 62412449.970560752 92345407.551799774 0 92345407.551799774 45265061.627563477 0 0 0 0 60215177.271734491 74806036.450731277 0 74806036.450731277 57111177.271575928 0 0 0 0 78716095.150944799 87495909.71446228 0 87495909.71446228 40979393.190307617 0 0 0 0 70770926.214170069 96090039.061035156 0 96090039.061035156 32561930.971191406 0 0 0 0 67077183.446899921 85445668.826583862 0 85445668.826583862 55421315.078796387 0 0 0 0 43310373.897746921 69993486.017242432 0 69993486.017242432 67477947.027313232 0 0 0 0 86601750.773619354 46172746.173751831 0 46172746.173751831 76791005.983612061 0 0 0 0 -6765078.8135837913 31072958.352981567 0 31072958.352981567 59278692.436431885 0 0 0 0 -5319565.7049427032 12891096.279830933 0 12891096.279830933 101661756.77065277 0 0 0 0 27506213.697863698 30886106.570877075 0 30886106.570877075 106233147.47924042 0 0 0 0 18532596.542046547 63019297.929718018 0 63019297.929718018 164496465.15188599 0 0 0 0 -17995641.01589179 14265628.264282227 0 14265628.264282227 165275776.01821899 0 0 0 0 71330104.38219887 110271500.77301025 0 110271500.77301025 198995569.61370116 0 0 0 0 41070044.359295428 123130128.36856079 0 123130128.36856079 335034108.38879776 0 0 0 0 75401289.755810559 27442461.379730225 0 27442461.379730225 68290569.512832642 0 0 0 0 85593734.560798913 -41950782.348724365 0 -41950782.348724365 255766517.01208496 0 0 0 0 36788233.354860395 -240686.85511779785 0 -240686.85511779785 199557564.07775879 0 0 0 0 9269220.8012844771 -303728289.98829651 0 -303728289.98829651 272319548.41690063 0 0 0 0 -24609.0237858045 275751.01649843901 0 275751.01649843901 1019712.8723792434 0 0 0 0 249613092.98732981 338356535.74673462 0 338356535.74673462 134965241.04708862 0 0 0 0 68692944.912504077 82249218.472076416 0 82249218.472076416 119865851.49627686 0 0 0 0 59311182.431210577 55838517.668708801 0 55838517.668708801 122181087.87792969 0 0 0 0 -7718176.4874944687 41426289.649597168 0 41426289.649597168 147798941.75888062 0 0 0 0 38920797.712836504 39749177.599746704 0 39749177.599746704 110618056.04013062 0 0 0 0 67115631.537667394 221226208.70630646 0 221226208.70630646 863157998.9163208 0 0 0 0 -225330.02894516115 1392417.5007548332 0 1392417.5007548332 2754581.926932767 0 0 0 0 202909952.05563498 519902532.14891052 0 519902532.14891052 841638221.63049316 0 0 0 0 150764235.31831402 259414579.56672668 0 259414579.56672668 1051998783.6999817 0 0 0 0 95259533.250931621 503018965.36524963 0 503018965.36524963 1083267232.8738785 0 0 0 0 -31224421.792022251 505904426.06593704 0 505904426.06593704 855320356.36706543 0 0 0 0 186908503.55055749 161009184.54449463 0 161009184.54449463 938416457.13249207 0 0 0 0 208267014.96793327 79771278.383148193 0 79771278.383148193 617102197.58743286 0 0 0 0 -35568.645222001316 89799390.082252502 0 89799390.082252502 648014776.78665161 0 0 0 0 50715335.177521639 303558293.77737045 0 303558293.77737045 1180543201.4971619 0 0 0 0 303496174.88920397 571404089.58039856 0 571404089.58039856 1238302561.8150063 0 0 0 0 1558045.9845226479 277272133.5076828 0 277272133.5076828 1989872329.8438721 0 0 0 0 250203378.86560446 183836218.61923599 0 183836218.61923599 1461930348.1400452 0 0 0 0 712951532.00479519 611435806.85908127 0 611435806.85908127 1659364566.2929382 0 0 0 0 -290411.42413811537 587416.78728173673 0 587416.78728173673 4043610.0168820247 0 0 0 0 281623182.92992496 1229854754.1197662 0 1229854754.1197662 2887371621.3211365 0 0 0 0 -519984219.48104107 1608712696.0068054 0 1608712696.0068054 5969735669.1703262 0 0 0 0 2877781.8549286621 270972683.25548941 0 270972683.25548941 2653304815.1422119 0 0 0 0 1198643777.4215374 2394899644.2560825 0 2394899644.2560825 271490375.72460938 0 0 0 0 2127850.9892336824 3343298.6559539437 0 3343298.6559539437 2235876.0367450118 0 0 0 0 1084305167.2343879 2941396218.1107178 0 2941396218.1107178 1793639275.665863 0 0 0 0 -572460.80636047083 -63939.560230374336 0 -63939.560230374336 2574308.5119891539 0 0 0 0 410318118.96793175 1474139468.6872711 0 1474139468.6872711 2173876755.9119415 0 0 0 0 -1292775953.6890168 -586435189.98931885 0 -586435189.98931885 1182553660.4858551 0 0 0 0 613617462.37337434 896473272.32019806 0 896473272.32019806 -1139570579.2236328 0 0 0 0 -263128284.26047003 346208205.96600342 0 346208205.96600342 1812172745.3873901 0 0 0 0 -156868430.50453255 496282844.12147522 0 496282844.12147522 1776784416.2594299 0 0 0 0 -997467783.89417505 501100510.88049316 0 501100510.88049316 1911563251.56073 0 0 0 0 215964807.79863626 318947214.04373169 0 318947214.04373169 1810290607.9952393 0 0 0 0 10682991.929885004 267983166.63751221 0 267983166.63751221 1731510504.1247215 0 0 0 0 80865336.250631481 608184302.34721375 0 608184302.34721375 1814232794.2523346 0 0 0 0 -25108950.189641953 405006991.49658203 0 405006991.49658203 1544509188.927948 0 0 0 0 -191480159.15574765 464120708.57853699 0 464120708.57853699 1543039262.0766296 0 0 0 0 473439145.84634399 903117152.03996277 0 903117152.03996277 1369101345.6247253 0 0 0 0 -143745510.66168398 681319152.19170189 0 681319152.19170189 1874680378.995636 0 0 0 0 -554851.94189403835 3330060.1560986787 0 3330060.1560986787 4930401.2238072306 0 0 0 0 448733531.9897666 1006595500.8406982 0 1006595500.8406982 966492491.16445351 0 0 0 0 2110835795.3855457 2358253576.5949402 0 2358253576.5949402 1099511616.9032459 0 0 0 0 41369934.35526225 82639603.265979767 0 82639603.265979767 67472228.9243927 0 0 0 0 -32802100.104777336 513451.29815673828 0 513451.29815673828 65686875.412478924 0 0 0 0 659660158.26918268 742780810.01174927 0 742780810.01174927 957496128.42254639 0 0 0 0 -3547913.5491724857 7077011.4057692587 0 7077011.4057692587 9822356.2834681273 0 0 0 0 -17760392.741251469 38641598.37677002 0 38641598.37677002 64630566.895614147 0 0 0 0 461888846.27660084 772526558.70425415 0 772526558.70425415 4138440880.8604736 0 0 0 0 582827451.30542088 2589447119.791626 0 2589447119.791626 1080527010.6425476 0 0 0 0 1825686557.580981 1471060093.895906 0 1471060093.895906 750884493.35009766 0 0 0 0 566769029.93962789 3149017130.2373352 0 3149017130.2373352 118770631.25457764 0 0 0 0 -1646539931.8820379 565753544.16621399 0 565753544.16621399 2516973733.1757507 0 0 0 0 2118458.5548171774 3077943.6514942832 0 3077943.6514942832 2549826.7216906399 0 0 0 0 -534680483.91376662 1612912137.8933868 0 1612912137.8933868 3097402098.7028961 0 0 0 0 1321491277.7144537 590875940.47317505 0 590875940.47317505 -1134501382.4871826 0 0 0 0 1231478622.3637047 2932972566.3972015 0 2932972566.3972015 -562772867.53271484 0 0 0 0 1745180857.4463978 2455162469.2197723 0 2455162469.2197723 -125562742.00292969 0 0 0 0 2781408911.6270237 1172862090.3405533 0 1172862090.3405533 512632249.09054565 0 0 0 0 2030913026.7609134 2556041797.837101 0 2556041797.837101 2181270808.98526 0 0 0 0 1419262005.4303122 2933479542.0388489 0 2933479542.0388489 5978998161.6950684 0 0 0 0 -1111763000.9890959 130420858.53245544 0 130420858.53245544 2919941706.4064941 0 0 0 0 -2448344075.7340665 -914154343.31673431 0 -914154343.31673431 3998035804.6360779 0 0 0 0 -1519925404.755878 1121926414.54245 0 1121926414.54245 5974808074.0856953 0 0 0 0 -1232545887.635138 327535809.76567078 0 327535809.76567078 5963484022.059845 0 0 0 0 706575329.18188357 -843909954.58254623 0 -843909954.58254623 1083721274.3344727 0 0 0 0 1580802.5627748994 6080964.2496139491 0 6080964.2496139491 6166662.9507847577 0 0 0 0 6655868212.1340885 3488427110.4944458 0 3488427110.4944458 1860858059.3383789 0 0 0 0 677732880.26491094 -1726312705.8544769 0 -1726312705.8544769 2331711512.466095 0 0 0 0 262580.95184633107 7501538.9356638398 0 7501538.9356638398 15263849.169815868 0 0 0 0 2197764142.1630106 1398165818.285614 0 1398165818.285614 425663699.32429504 0 0 0 0 -32955710.200849891 56097232.419570923 0 56097232.419570923 -20873664.005508423 0 0 0 0 -3584721.9720482808 3710552.4566174001 0 3710552.4566174001 8218321.8521603942 0 0 0 0 29921619.555865586 457720582.88421631 0 457720582.88421631 395584888.4438324 0 0 0 0 133452145.82020268 297524045.12893677 0 297524045.12893677 139328676.32255936 0 0 0 0 -855285.36544855149 1138771.0364959687 0 1138771.0364959687 2401083.642519474 0 0 0 0 49408903.981073022 -9416672.5928955078 0 -9416672.5928955078 -23603437.723388672 0 0 0 0 79144829.440444827 -38903406.195556641 0 -38903406.195556641 3303603.5506591797 0 0 0 0 95420366.492934197 -14678308.758666992 0 -14678308.758666992 -57942246.250488281 0 0 0 0 114420973.3513577 -36047538.738952637 0 -36047538.738952637 -38897015.978942871 0 0 0 0 132860676.10640782 49175165.878574371 0 49175165.878574371 14557624.119262695 0 0 0 0 42903016.045804739 -26019599.028152466 0 -26019599.028152466 13889122.675415039 0 0 0 0 43258789.399071112 -31542535.036889076 0 -31542535.036889076 38210263.015350342 0 0 0 0 -19086566.780814741 -93849632.958686829 0 -93849632.958686829 -18884109.672088623 0 0 0 0 -5119611.0792841911 30774549.348114014 0 30774549.348114014 48029593.955688477 0 0 0 0 28850227.875908375 -17797983.594932556 0 -17797983.594932556 18714842.51461792 0 0 0 0 -3432342.5116326599 2837228.3973858478 0 2837228.3973858478 23119006.535358667 0 0 0 0 47404640.597337723 -14457806.453994751 0 -14457806.453994751 -13379170.723114014 0 0 0 0 44136027.654583454 -29330855.93031311 0 -29330855.93031311 27080314.680511475 0 0 0 0 -2212043.089474678 10849393.181152344 0 10849393.181152344 36004367.458522797 0 0 0 0 -21175351.100326061 -6550502.3062896729 0 -6550502.3062896729 20220900.162384033 0 0 0 0 8462470.114495948 -35278807.106086731 0 -35278807.106086731 38892651.747009277 0 0 0 0 59569015.608456135 -2164458.2207641602 0 -2164458.2207641602 30961018.684432983 0 0 0 0 31118026.181317329 2975181.0042419434 0 2975181.0042419434 69850640.861755371 0 0 0 0 42672205.853301525 -42878280.406585693 0 -42878280.406585693 -14612953.213623047 0 0 0 0 877843.99502590357 -202613.99282876775 0 -202613.99282876775 121115.11995045841 0 0 0 0 6454833.1257741451 -51145242.58380127 0 -51145242.58380127 63701930.972717285 0 0 0 0 -17341721.663268536 -39878140.838241577 0 -39878140.838241577 46698077.489898682 0 0 0 0 13827055.084550858 -39967338.421173096 0 -39967338.421173096 -5217434.623840332 0 0 0 0 -716862.25650699809 -672821.87336590886 0 -672821.87336590886 2323634.2058004215 0 0 0 0 26759414.863323212 -1729706.6293182373 0 -1729706.6293182373 23243032.323303223 0 0 0 0 1658663.4240889549 -21553726.588134766 0 -21553726.588134766 -6338957.0796699524 0 0 0 0 5654992.0658756942 -6039891.0285263062 0 -6039891.0285263062 7218234.8501586914 0 0 0 0 884534.96130801784 357269.7046694383 0 357269.7046694383 37353783.737597354 0 0 0 0 13589688.99546659 6580697.3866882324 0 6580697.3866882324 14008436.02166748 0 0 0 0 -47354206.776737213 49700162.492843628 0 49700162.492843628 25321732.700134277 0 0 0 0 -2067184.1814134168 5209031.3050834108 0 5209031.3050834108 29361725.962621823 0 0 0 0 -16272238.072329104 -1713295.8841552734 0 -1713295.8841552734 13758927.178131104 0 0 0 0 -13136804.808885455 1773273.2343444824 0 1773273.2343444824 17632002.459205627 0 0 0 0 -5435700.3365798593 -5534499.5943756104 0 -5534499.5943756104 9985126.7525634766 0 0 0 0 2272909.3782455167 -3448390.1306560338 0 -3448390.1306560338 5614746.2543552071 0 0 0 0 -18557725.592950404 -6255505.2663707733 0 -6255505.2663707733 12647087.185852051 0 0 0 0 -17708297.914855659 -171692.66077423096 0 -171692.66077423096 13257257.514709473 0 0 0 0 -20524169.619749069 54712007.958435059 0 54712007.958435059 15932419.735290527 0 0 0 0 -43408395.816398084 -6604809.5454559326 0 -6604809.5454559326 7952544.8798828125 0 0 0 0 -157633446.37162948 39908433.244903564 0 39908433.244903564 119989301.31459045 0 0 0 0 -3523372.5785171832 -4937570.6341565102 0 -4937570.6341565102 31618207.947200239 0 0 0 0 -38788169.473350048 -25271224.854621887 0 -25271224.854621887 16384188.153625488 0 0 0 0 -108551.00547243949 -192869.57136810571 0 -192869.57136810571 397642.24585813284 0 0 0 0 -59385073.284383178 -23837506.324768066 0 -23837506.324768066 11742086.626098633 0 0 0 0 14287548.72342205 149296278.08584595 0 149296278.08584595 106953991.83358765 0 0 0 0 61350211.310780525 48039727.723739624 0 48039727.723739624 -2040552.3486633301 0 0 0 0 -26085949.99070859 78366713.047050476 0 78366713.047050476 -6056288.3469848633 0 0 0 0 133994.55563812613 6228962.2308323234 0 6228962.2308323234 702038.6097997278 0 0 0 0 -3467398.2058435641 -423764.78775507584 0 -423764.78775507584 22222165.922673061 0 0 0 0 -9238292.0130819678 1198799.9740200043 0 1198799.9740200043 23062691.489135742 0 0 0 0 -34329822.888547391 -12900367.125504494 0 -12900367.125504494 39983548.205566406 0 0 0 0 -14117969.925202847 28799069.696731567 0 28799069.696731567 15618219.498626709 0 0 0 0 526499.52342159627 6955824.5097497627 0 6955824.5097497627 25937896.118024766 0 0 0 0 5304857.7599978447 -2440665.960144043 0 -2440665.960144043 4244719.9779281616 0 0 0 0 -102415376.55085206 50764523.555343628 0 50764523.555343628 78799423.331481934 0 0 0 0 1644760.8827967644 -15696181.016143799 0 -15696181.016143799 11051399.570114136 0 0 0 0 -20198247.696440637 57370241.949455261 0 57370241.949455261 -43592818.846740723 0 0 0 0 -28091.6245820818 1056168.0215943158 0 1056168.0215943158 4934766.4718069956 0 0 0 0 74873797.20296967 17738776.222015381 0 17738776.222015381 2623740.5601959229 0 0 0 0 -63110282.977596521 -44922293.577651978 0 -44922293.577651978 104762608.50569153 0 0 0 0 -8434242.8614618778 4404314.8851013184 0 4404314.8851013184 141580462.85566711 0 0 0 0 -89829346.465235233 14264580.729255676 0 14264580.729255676 113919566.40905762 0 0 0 0 25102998.578495026 93255459.693359375 0 93255459.693359375 -18814834.063354492 0 0 0 0 144035207.73743773 6687620.8453826904 0 6687620.8453826904 23762265.436645508 0 0 0 0 25637251.30198288 -78521775.349197388 0 -78521775.349197388 176905451.64555359 0 0 0 0 -69087877.771417618 -5344797.7579956055 0 -5344797.7579956055 247943077.58625793 0 0 0 0 -66401631.533909827 10223747.798724174 0 10223747.798724174 156949391.69839478 0 0 0 0 -51346857.654745579 12288088.872009277 0 12288088.872009277 156450573.03157043 0 0 0 0 -37110254.36330986 -26615543.886978149 0 -26615543.886978149 -2418598.2243347168 0 0 0 0 -46997201.786312699 14081584.541748047 0 14081584.541748047 97802346.11180687 0 0 0 0 -23082459.978140831 35676162.081848145 0 35676162.081848145 100946562.41220093 0 0 0 0 -48599150.105449677 62812970.995117188 0 62812970.995117188 157630679.75765991 0 0 0 0 -29647996.578251839 51412741.26839447 0 51412741.26839447 56424305.880844116 0 0 0 0 -456062.01212220243 -572628.48200614937 0 -572628.48200614937 400812.51871350408 0 0 0 0 9851683.0976514816 3799487.9427185059 0 3799487.9427185059 -10500081.436447144 0 0 0 0 115757496.53924406 -65491129.172641754 0 -65491129.172641754 23817412.272674561 0 0 0 0 -1268408.4658069697 -817241.09470096603 0 -817241.09470096603 28256323.230948903 0 0 0 0 -3532419.3772113146 7893317.3936731592 0 7893317.3936731592 31380419.74406758 0 0 0 0 -26743156.020815372 5138762.2920455933 0 5138762.2920455933 14091327.695419312 0 0 0 0 -133343536.90439248 -76831754.708999634 0 -76831754.708999634 125877793.54754639 0 0 0 0 -150509465.95422149 -53504912.807103157 0 -53504912.807103157 61198351.256500244 0 0 0 0 -47931800.425602555 13960963.720428467 0 13960963.720428467 19263535.355796814 0 0 0 0 -5974887.7515332578 17067753.815099172 0 17067753.815099172 35011916.220463663 0 0 0 0 -65021115.217170238 -49745136.752960205 0 -49745136.752960205 299296446.50502014 0 0 0 0 -71960053.943143845 -4436384.8894348145 0 -4436384.8894348145 21835565.725692749 0 0 0 0 -3740055.2394313812 44378679.71194458 0 44378679.71194458 209203057.60079956 0 0 0 0 -2406062.8006360531 14417447.276237488 0 14417447.276237488 143938739.05862427 0 0 0 0 -9201312.0362434387 -28345535.175483704 0 -28345535.175483704 146797662.49757624 0 0 0 0 14737314.498164177 -40643243.140052795 0 -40643243.140052795 43918255.880516052 0 0 0 0 -3372567.5782343764 -8779174.5166593324 0 -8779174.5166593324 5922622.5997387469 0 0 0 0 -24062753.595381737 6910378.7713928223 0 6910378.7713928223 65749044.548370361 0 0 0 0 14445783.922971725 -50005589.113929749 0 -50005589.113929749 19058025.435676575 0 0 0 0 -644755.81280517578 16078179.013198853 0 16078179.013198853 79446237.280715942 0 0 0 0 -29240452.397898674 4909332.4377441406 0 4909332.4377441406 112340720.38328552 0 0 0 0 116593565.61319876 66463110.489875793 0 66463110.489875793 91631560.529327393 0 0 0 0 473058953.45504332 262156591.64471436 0 262156591.64471436 -50494276.107666016 0 0 0 0 -743219.90561477118 -1576705.9995657103 0 -1576705.9995657103 1645307.5058163926 0 0 0 0 187231315.0192585 -113393234.84923553 0 -113393234.84923553 -38147369.361053467 0 0 0 0 -363046913.37142658 77737863.216598511 0 77737863.216598511 208628281.69821548 0 0 0 0 -108299821.74293089 -37025652.768341064 0 -37025652.768341064 -149156344.25754547 0 0 0 0 17102663.37291646 183225123.47150421 0 183225123.47150421 153960478.50762939 0 0 0 0 -128795576.88566828 111671306.0042572 0 111671306.0042572 175630954.0464325 0 0 0 0 -104857350.70063943 -2782610.525932312 0 -2782610.525932312 293889019.79931641 0 0 0 0 -119005951.27155662 184283750.7696228 0 184283750.7696228 79843409.295410156 0 0 0 0 -287023031.88009608 13295651.301113129 0 13295651.301113129 530419800.08377075 0 0 0 0 -1600276.8462774572 -493670.89239660278 0 -493670.89239660278 4096030.4909538478 0 0 0 0 54433484.612287045 215255166.17456055 0 215255166.17456055 -53850656.305561066 0 0 0 0 612539271.7516346 -92001141.031021118 0 -92001141.031021118 -432703921.99295044 0 0 0 0 -213854911.77100539 -206433556.04748392 0 -206433556.04748392 153846751.71289062 0 0 0 0 -185446481.03476524 350571487.3699646 0 350571487.3699646 142984095.25665283 0 0 0 0 54436150.700233936 321499769.27780914 0 321499769.27780914 93025319.132995605 0 0 0 0 422344336.27901459 451993678.34793091 0 451993678.34793091 133237966.33383179 0 0 0 0 -17847138.13123256 380727214.49291992 0 380727214.49291992 610352313.88827515 0 0 0 0 14570051.702840447 -312792478.44889832 0 -312792478.44889832 489952117.32199383 0 0 0 0 61554187.277737856 -42841822.038116455 0 -42841822.038116455 191880008.91444397 0 0 0 0 87522503.966492772 513275521.664361 0 513275521.664361 34724821.843719482 0 0 0 0 976813.52596353879 -527954.26403558254 0 -527954.26403558254 1921308.0489726663 0 0 0 0 -186410681.28386462 6198834.1764984131 0 6198834.1764984131 -53920530.054174423 0 0 0 0 -178914970.72880769 -181256493.71831512 0 -181256493.71831512 -39893203.637138367 0 0 0 0 -3201489.0078550274 -4599416.7472986057 0 -4599416.7472986057 12613715.953571565 0 0 0 0 -224098377.30419683 -218564329.9752121 0 -218564329.9752121 444194896.29296494 0 0 0 0 535177930.15091562 -23627447.491931915 0 -23627447.491931915 -320268536.19564056 0 0 0 0 2259101.8436111016 -5026048.4377675951 0 -5026048.4377675951 6924600.1629309468 0 0 0 0 9937292.0726866126 29677056.846809387 0 29677056.846809387 9102496.0081481934 0 0 0 0 -31258469.099761009 -7468684.2746124268 0 -7468684.2746124268 38224285.903453827 0 0 0 0 -7193044.3385363035 26425399.133199692 0 26425399.133199692 52333163.285217285 0 0 0 0 -8573933.9445849657 -14805587.932823181 0 -14805587.932823181 17329659.676254272 0 0 0 0 3099028.5266997814 -5327825.3401756287 0 -5327825.3401756287 24938054.571990967 0 0 0 0 -4887763.1052012853 -6736607.1119728964 0 -6736607.1119728964 14985347.888436951 0 0 0 0 -390859.49653338781 -477561.13816586882 0 -477561.13816586882 4759947.6293389648 0 0 0 0 -228238517.86121845 -14552663.398456573 0 -14552663.398456573 51371175.692344666 0 0 0 0 -15425468.297305584 344548.89409637451 0 344548.89409637451 41215926.56438446 0 0 0 0 -692561.23643659137 -4687390.2109693736 0 -4687390.2109693736 656282.88304193318 0 0 0 0 -1364602.2081394037 -1499380.1181350127 0 -1499380.1181350127 10545526.031099007 0 0 0 0 -4583984.3331880569 -5708717.046661377 0 -5708717.046661377 12320191.955821991 0 0 0 0 -2035216.8911258215 -7423321.4958736598 0 -7423321.4958736598 6299104.8108158559 0 0 0 0 -4707760.7537946701 -5641283.0906524658 0 -5641283.0906524658 3411081.7901954651 0 0 0 0 -3825216.602203018 -383524.21328626573 0 -383524.21328626573 28180812.882735915 0 0 0 0 14969273.005407333 -19881312.065368652 0 -19881312.065368652 -26819140.42956543 0 0 0 0 -1793467.0241341214 -3377085.6464192905 0 -3377085.6464192905 17258738.494983897 0 0 0 0 -2884078.4360031905 -7715550.3820107505 0 -7715550.3820107505 16488907.278173208 0 0 0 0 -6215706.9647161961 -6460080.0395050049 0 -6460080.0395050049 12431752.065093994 0 0 0 0 733234.43205963075 -1370850.8538818359 0 -1370850.8538818359 10182618.664459229 0 0 0 0 -3893710.1773550822 -6428167.9444820508 0 -6428167.9444820508 20528527.097800151 0 0 0 0 -7092409.998796463 -3658850.5422363281 0 -3658850.5422363281 8749541.2811279297 0 0 0 0 116564.96592559537 -6373180.94813109 0 -6373180.94813109 9008157.8359758109 0 0 0 0 -6318307.7276387215 -6058294.1727142334 0 -6058294.1727142334 14254454.771850586 0 0 0 0 -2770011.192758834 1442439.373539418 0 1442439.373539418 23363330.211843483 0 0 0 0 -3370994.0155721456 -5769623.2810974121 0 -5769623.2810974121 7054752.0953063965 0 0 0 0 1489955.5551679982 927408.19920872152 0 927408.19920872152 23107439.084030792 0 0 0 0 -4182686.1786727905 -992674.14172363281 0 -992674.14172363281 10356893.558029175 0 0 0 0 80403.501144874375 -6712824.6335644126 0 -6712824.6335644126 6879214.523482725 0 0 0 0 -2840888.7964107841 -2795822.2997436523 0 -2795822.2997436523 9911858.4129638672 0 0 0 0 -30260332.945681065 -20398760.539535522 0 -20398760.539535522 22632270.671295166 0 0 0 0 -474169.94723556476 -4738732.4922178434 0 -4738732.4922178434 1109665.581999898 0 0 0 0 -33248379.455501884 -52375898.155576706 0 -52375898.155576706 41187853.552307129 0 0 0 0 -844407.4454192915 -138563.24157959409 0 -138563.24157959409 13695315.778782696 0 0 0 0 -4284029.8300461769 603624.38701629639 0 603624.38701629639 5825087.4840698242 0 0 0 0 41622.698911238112 622698.59758578986 0 622698.59758578986 15690851.635681018 0 0 0 0 -5401656.4865920544 5618787.9616928101 0 5618787.9616928101 31815100.060806274 0 0 0 0 -9002290.8530733585 4752134.1469459534 0 4752134.1469459534 34062439.922439575 0 0 0 0 -8105417.3205821514 6506602.3124847412 0 6506602.3124847412 35503825.440856934 0 0 0 0 -6514783.89042449 3655981.9397506714 0 3655981.9397506714 29199150.739135742 0 0 0 0 4455656.4519925117 -20433030.664909363 0 -20433030.664909363 34552246.038269043 0 0 0 0 -12223969.60763073 -11487161.788291931 0 -11487161.788291931 72581410.193969727 0 0 0 0 752200.70760415576 -827535.3096175855 0 -827535.3096175855 24485818.225775644 0 0 0 0 -34090490.185967922 14995064.409446716 0 14995064.409446716 81841160.359680176 0 0 0 0 -245125318.65203726 -87497252.3046875 0 -87497252.3046875 16410947.93409729 0 0 0 0 -34027526.579886489 193859.24749755859 0 193859.24749755859 -15352819.090820312 0 0 0 0 -2419586.6155238105 4032151.1412618831 0 4032151.1412618831 3348799.1924069822 0 0 0 0 -25274836.080206335 -180825673.61508179 0 -180825673.61508179 -210762538.17828369 0 0 0 0 -8560006.4016194344 -15842046.479003906 0 -15842046.479003906 24362749.660133362 0 0 0 0 186727563.7563087 195093477.61463928 0 195093477.61463928 -245036117.80765343 0 0 0 0 21075946.167717695 4746319.2089996338 0 4746319.2089996338 -541494.47581481934 0 0 0 0 7160979.1523866653 5447166.7379150391 0 5447166.7379150391 64575175.651542664 0 0 0 0 5765974.8205637932 -6409347.033706665 0 -6409347.033706665 25185112.3565979 0 0 0 0 5531549.4291834235 -10093443.011505127 0 -10093443.011505127 25498513.282791138 0 0 0 0 50833018.639846325 530654561.69095612 0 530654561.69095612 5274821907.3097076 0 0 0 0 6014135.9187655449 -10660756.013067245 0 -10660756.013067245 22247029.966766357 0 0 0 0 2342038.5311628217 -4573322.8554554433 0 -4573322.8554554433 11529108.324117042 0 0 0 0 -83155609.502390712 -781887916.32357788 0 -781887916.32357788 5978442083.259963 0 0 0 0 -163514988.27140519 296776280.1076622 0 296776280.1076622 1216420264.1872559 0 0 0 0 787866.03280198819 -2668181.1510322522 0 -2668181.1510322522 22144573.766044796 0 0 0 0 1773205409.2907255 2711915272.7088013 0 2711915272.7088013 505038001.61785889 0 0 0 0 4297712.6398042385 -19488232.38814164 0 -19488232.38814164 6077449.6707147062 0 0 0 0 -975633857.67085457 671983151.19836426 0 671983151.19836426 2249865966.7583618 0 0 0 0 3738064.4465318746 -7082086.413446743 0 -7082086.413446743 2022465.9343869537 0 0 0 0 15789864.129914289 -16556084.874465942 0 -16556084.874465942 26688307.022521973 0 0 0 0 1472090737.4357545 -3047060136.1761627 0 -3047060136.1761627 3478683265.9877014 0 0 0 0 2691801031.4119787 -598261648.53192139 0 -598261648.53192139 138692948.57604599 0 0 0 0 -4181881.6879616864 15122583.863960899 0 15122583.863960899 -4500804.3703552037 0 0 0 0 2038252.637598125 232656.90744258463 0 232656.90744258463 7780530.4823803203 0 0 0 0 13223968.54735136 -9661500.5618515015 0 -9661500.5618515015 9833739.7063388824 0 0 0 0 57280744.684024498 615973644.57613468 0 615973644.57613468 6028747104.6216583 0 0 0 0 6115947.3722259998 -17797154.872047424 0 -17797154.872047424 55564759.048950195 0 0 0 0 7037866.4877378941 -16925706.631500244 0 -16925706.631500244 26715108.73192215 0 0 0 0 34414048.41240336 -58952561.0734272 0 -58952561.0734272 69787423.880340576 0 0 0 0 27364737.501587063 -36665770.137876511 0 -36665770.137876511 45855190.798446655 0 0 0 0 -9793836.4113023579 -18940540.273317337 0 -18940540.273317337 59947946.568832397 0 0 0 0 -27061737.907005548 -6308738.1589050293 0 -6308738.1589050293 51720312.291412354 0 0 0 0 -21825793.152095675 -24035287.423118591 0 -24035287.423118591 66200969.527065277 0 0 0 0 4177272.3852920122 -34846538.232475281 0 -34846538.232475281 61186285.718307495 0 0 0 0 7163734.7026580572 -29019059.633459091 0 -29019059.633459091 61666453.319747925 0 0 0 0 397428.44318097492 -829972.55780291557 0 -829972.55780291557 1110537.7221200168 0 0 0 0 103080264.10321528 -143393435.30192566 0 -143393435.30192566 169590604.93913651 0 0 0 0 -60322787.013661385 116831293.8287735 0 116831293.8287735 20459726.138267517 0 0 0 0 250452618.34972906 34110898.061195374 0 34110898.061195374 37832946.651977539 0 0 0 0 -154634183.06094274 333185571.07192612 0 333185571.07192612 208100050.44577026 0 0 0 0 230328007.86894584 -370611401.73687744 0 -370611401.73687744 125239278.39364052 0 0 0 0 1609031.586935645 -3004509.8681885917 0 -3004509.8681885917 2659643.6366852447 0 0 0 0 1053012213.847572 -1613113844.9761505 0 -1613113844.9761505 620343957.57642937 0 0 0 0 -225448998.63314378 108118634.71673203 0 108118634.71673203 815774833.52648926 0 0 0 0 -67356949.595641494 179458040.28174973 0 179458040.28174973 2239423179.3497772 0 0 0 0 -1339252688.0198343 261109073.48023224 0 261109073.48023224 5986392152.9301167 0 0 0 0 -780536767.54520178 -904196514.24764442 0 -904196514.24764442 2618902431.8336334 0 0 0 0 -732638962.86650383 -1216223199.1277752 0 -1216223199.1277752 3962230158.7165527 0 0 0 0 -588422389.10563552 -2386922503.1066132 0 -2386922503.1066132 5974677459.1563921 0 0 0 0 1658631461.528162 2658207455.2075505 0 2658207455.2075505 2548883380.6739655 0 0 0 0 -938934850.5190829 1999463231.6576767 0 1999463231.6576767 5973685988.7176208 0 0 0 0 -1192091133.2157254 721659049.67745209 0 721659049.67745209 3079180686.3383331 0 0 0 0 -379408871.66537535 1396845449.6390305 0 1396845449.6390305 2605975998.8488998 0 0 0 0 73116352.761244863 -96291328.077519417 0 -96291328.077519417 639927122.35949707 0 0 0 0 -351742136.73181129 162395122.92317963 0 162395122.92317963 1126321120.7524643 0 0 0 0 -8077182.7794202566 -13879916.999328613 0 -13879916.999328613 17573268.038063049 0 0 0 0 -49072305.711902857 126309145.93112946 0 126309145.93112946 427361341.89836884 0 0 0 0 61842541.115366101 -143479718.84415817 0 -143479718.84415817 117677301.08964539 0 0 0 0 -14686130.831449032 -138251849.80584717 0 -138251849.80584717 118087630.02414322 0 0 0 0 -279912.45605157205 46155.001702640206 0 46155.001702640206 1598570.8358443677 0 0 0 0 48329434.949491858 -75553438.926017761 0 -75553438.926017761 -90619227.386505127 0 0 0 0 -69539972.524019957 18010634.146835327 0 18010634.146835327 186245227.82777405 0 0 0 0 -63120970.324979663 22049461.347569466 0 22049461.347569466 280569297.7162323 0 0 0 0 -118659933.8483305 -31592227.618015289 0 -31592227.618015289 239655208.42044067 0 0 0 0 -58137260.57701683 -205088647.66215515 0 -205088647.66215515 693029156.89902115 0 0 0 0 -92587408.562037468 449758563.29082489 0 449758563.29082489 525606819.53961182 0 0 0 0 6029044.8901913874 -4798485.7648522854 0 -4798485.7648522854 3620535.2105520479 0 0 0 0 28854044.964020729 202634342.49798203 0 202634342.49798203 -243868132.24569702 0 0 0 0 196840641.8426404 -21784894.727378845 0 -21784894.727378845 -156893993.14691162 0 0 0 0 430827257.42361832 -499511752.0123291 0 -499511752.0123291 -230817564.87517166 0 0 0 0 5549545.7078433363 -5211940.0079796314 0 -5211940.0079796314 4433692.2328935228 0 0 0 0 -106610273.56108356 29340816.106246948 0 29340816.106246948 201054036.25682259 0 0 0 0 -298402110.27468157 46027177.138973236 0 46027177.138973236 790121837.81716156 0 0 0 0 -93775.61512025632 -926024.71056753956 0 -926024.71056753956 1018887.2493349314 0 0 0 0 78564077.152360916 455233323.53592682 0 455233323.53592682 509433399.0798645 0 0 0 0 158674467.18130589 -72037073.534191132 0 -72037073.534191132 31380965.151138306 0 0 0 0 -8282572.9294786453 -8482456.2522373199 0 -8482456.2522373199 7216050.9167556763 0 0 0 0 -4684292.5033199722 -3434667.4185593799 0 -3434667.4185593799 5243088.5151078664 0 0 0 0 142481764.75723457 9764581.0251674652 0 9764581.0251674652 -6450795.8427352905 0 0 0 0 -5718612.0663942993 -1882154.1547630373 0 -1882154.1547630373 10966423.948349364 0 0 0 0 1641752.493994772 362072.29138913378 0 362072.29138913378 1227595.3130587228 0 0 0 0 7616017.1982154846 -53517043.902503967 0 -53517043.902503967 60515011.050590515 0 0 0 0 -10458910.703658104 -12013645.26688385 0 -12013645.26688385 -2141905.4649534225 0 0 0 0 -7802263.8882958889 -7885856.5952758789 0 -7885856.5952758789 -2389606.2162017822 0 0 0 0 -2021620.3083896637 -4868827.1885910034 0 -4868827.1885910034 -2119483.9055965245 0 0 0 0 -2857400.7186703682 -3291241.2978363037 0 -3291241.2978363037 -2125704.1919704676 0 0 0 0 -2705280.3317651749 -3972595.0913619995 0 -3972595.0913619995 -858335.65975403786 0 0 0 0 -185233.25471401215 -4152552.5281028748 0 -4152552.5281028748 -3518252.0069885254 0 0 0 0 -1631710.2431063652 -5662144.6517868042 0 -5662144.6517868042 -902411.36307811737 0 0 0 0 -1349281.0383124352 -1494205.5303573608 0 -1494205.5303573608 28068.892936706543 0 0 0 0 -3236059.5862322254 -3453876.3504506908 0 -3453876.3504506908 4097805.8848586939 0 0 0 0 -37220048.522818208 -57051423.333334923 0 -57051423.333334923 233220060.4460907 0 0 0 0 -2725267.5206012726 -5439298.3804016113 0 -5439298.3804016113 6034370.2052688599 0 0 0 0 19847455.389406443 32540080.478263855 0 32540080.478263855 71642628.514801025 0 0 0 0 45811196.348111391 -4156945.2747497559 0 -4156945.2747497559 47323074.628768921 0 0 0 0 -6415421.0501565933 -7018624.7258758545 0 -7018624.7258758545 61275231.92930603 0 0 0 0 231504.93703746796 -15273808.947280884 0 -15273808.947280884 19878194.193908691 0 0 0 0 -10082173.648155212 -24850860.610736847 0 -24850860.610736847 86151443.41734314 0 0 0 0 -175685.90055830823 -150508.91779354587 0 -150508.91779354587 385063.46500235796 0 0 0 0 423715.91923666 31887267.883327484 0 31887267.883327484 106913585.23660851 0 0 0 0 -89372.571961815469 -570940.78643575311 0 -570940.78643575311 415779.72185725346 0 0 0 0 15258217.682376862 -8297866.5200195312 0 -8297866.5200195312 4466133.110786438 0 0 0 0 -40779.136522770161 -274364.34277147055 0 -274364.34277147055 157244.84979900904 0 0 0 0 -3217812.7152682543 -9684069.2402420044 0 -9684069.2402420044 -16611100.327461243 0 0 0 0 -13630274.967481613 -16198442.483734131 0 -16198442.483734131 102184040.63604736 0 0 0 0 -10808566.525649071 -9820276.7430801392 0 -9820276.7430801392 85308187.439067841 0 0 0 0 -9182684.5272145271 -16025106.31004715 0 -16025106.31004715 80165926.292251587 0 0 0 0 6864217.3805720806 -15659622.872344971 0 -15659622.872344971 44948841.200302124 0 0 0 0 -10126551.17702961 5070587.4290542603 0 5070587.4290542603 49473579.271179199 0 0 0 0 -2643992.6479184628 -1652388.5135364532 0 -1652388.5135364532 61330849.315246582 0 0 0 0 -5560169.1155281067 14323763.106964111 0 14323763.106964111 50319362.858787537 0 0 0 0 -4489191.4492292404 9443404.2216186523 0 9443404.2216186523 48586833.794921875 0 0 0 0 -6798532.4953241348 15226901.479507446 0 15226901.479507446 41108227.476821899 0 0 0 0 -5012105.9105634093 7357222.4632740021 0 7357222.4632740021 43780704.213439941 0 0 0 0 -9248673.1064023972 11156255.573638916 0 11156255.573638916 46477405.512741089 0 0 0 0 -8098729.541413784 10290730.503631592 0 10290730.503631592 40399090.846679688 0 0 0 0 -7149834.9381771088 15531425.100494385 0 15531425.100494385 105759619.57388306 0 0 0 0 -9360445.1013765335 4543123.6548156738 0 4543123.6548156738 69436174.978927612 0 0 0 0 -8820828.4112334251 4791499.3849716187 0 4791499.3849716187 66960181.700134277 0 0 0 0 -4932200.0259783864 8349400.0843696594 0 8349400.0843696594 68796330.489318848 0 0 0 0 3369313.8426690102 19235231.2159729 0 19235231.2159729 52785508.750564575 0 0 0 0 5834180.8981194496 9416370.9726028442 0 9416370.9726028442 45552977.98588562 0 0 0 0 8966455.2401604652 17528215.121734619 0 17528215.121734619 37531282.18182373 0 0 0 0 -5027238.9142968655 16418312.003921509 0 16418312.003921509 38615883.501464844 0 0 0 0 366536.36593580246 10960723.437004089 0 10960723.437004089 40280687.584869385 0 0 0 0 -9580071.9835596085 8618304.9043579102 0 8618304.9043579102 24862806.019119263 0 0 0 0 6886389.6955151558 9222888.4169235229 0 9222888.4169235229 24822814.452697754 0 0 0 0 -9242813.2894766331 14274669.993980408 0 14274669.993980408 29832637.370300293 0 0 0 0 -10671345.801088333 14978711.489768982 0 14978711.489768982 36046524.348480225 0 0 0 0 -5696348.0269217491 14565760.469192505 0 14565760.469192505 35079386.879989624 0 0 0 0 -10110553.132804871 18256244.127914429 0 18256244.127914429 31312943.781799316 0 0 0 0 -8741268.3718519211 12775539.626724243 0 12775539.626724243 37204502.246795654 0 0 0 0 -4434324.8450977802 10736069.186080933 0 10736069.186080933 36818450.614959717 0 0 0 0 -13675141.91676569 12227245.889976501 0 12227245.889976501 27863103.991491318 0 0 0 0 -477749.38572025299 16561070.555725098 0 16561070.555725098 28769682.887374878 0 0 0 0 -7855223.2662773132 17342547.097732544 0 17342547.097732544 27332202.523498535 0 0 0 0 -10077407.456835449 20555212.892967224 0 20555212.892967224 25511759.873764038 0 0 0 0 1326821.1514873505 34708692.656890869 0 34708692.656890869 16573370.964996338 0 0 0 0 -33032205.407225609 2769960.6008529663 0 2769960.6008529663 42845666.970581055 0 0 0 0 -43332270.846463144 53102668.445548058 0 53102668.445548058 10592527.200805664 0 0 0 0 -4147273.369268694 10038778.635963142 0 10038778.635963142 21990197.327446833 0 0 0 0 1532643.1963915825 11219250.943527222 0 11219250.943527222 16654066.415496826 0 0 0 0 -12920876.591052532 15869661.139228821 0 15869661.139228821 15985773.91711235 0 0 0 0 -4944772.8834608523 10816604.100069527 0 10816604.100069527 22043868.295358829 0 0 0 0 -5609180.4138809629 9713030.1133676171 0 9713030.1133676171 26690381.353200339 0 0 0 0 -5927508.9773516655 5248035.4320106506 0 5248035.4320106506 17101864.410842896 0 0 0 0 -9360437.1131544113 13274632.277648926 0 13274632.277648926 24791160.523727417 0 0 0 0 -10404308.907476187 -1173852.7314434052 0 -1173852.7314434052 26345480.246353149 0 0 0 0 -809793.7856092453 7726250.7077941895 0 7726250.7077941895 19657259.779953003 0 0 0 0 -6166161.2358109299 10917050.497000445 0 10917050.497000445 27419942.955048576 0 0 0 0 -4236301.4188790321 7829332.3579025269 0 7829332.3579025269 18561063.152137756 0 0 0 0 -21026368.408372402 -633357.95629119873 0 -633357.95629119873 27165670.123252869 0 0 0 0 -17138758.250171661 7538629.0664978027 0 7538629.0664978027 45150255.864891052 0 0 0 0 5979814.0911177993 -5794675.2630429268 0 -5794675.2630429268 24598735.711166382 0 0 0 0 -3852780.8671221733 -27367176.040222168 0 -27367176.040222168 15431570.107555389 0 0 0 0 -3086708.0716091348 -9656305.3402342685 0 -9656305.3402342685 33956140.489847519 0 0 0 0 -5501568.0892534256 -33428736.808019638 0 -33428736.808019638 22653830.543701172 0 0 0 0 -8732399.9617843628 -12306812.760444641 0 -12306812.760444641 9988510.490196228 0 0 0 0 -3371929.7404262414 -1885698.5001015365 0 -1885698.5001015365 4122623.2047432959 0 0 0 0 -12612689.64825828 17055237.18954552 0 17055237.18954552 37685519.12748225 0 0 0 0 -12510477.47308588 21049794.617198944 0 21049794.617198944 11582050.99647522 0 0 0 0 -114349303.69460678 -20199363.290676117 0 -20199363.290676117 64749367.99879837 0 0 0 0 -2573234.3406448364 12804033.024581909 0 12804033.024581909 11139787.757759094 0 0 0 0 -17725495.708404303 13679969.570640564 0 13679969.570640564 71294898.435974121 0 0 0 0 -2901391.9569559097 10830236.327972412 0 10830236.327972412 11551247.373664856 0 0 0 0 -1086659.1607041359 9630488.4981918335 0 9630488.4981918335 12342555.193267822 0 0 0 0 451812.257253238 13953156.439315416 0 13953156.439315416 7377513.6574250311 0 0 0 0 22655625.289924383 12045401.443561554 0 12045401.443561554 -55374428.180007935 0 0 0 0 -67465.568207754754 1933758.7716241479 0 1933758.7716241479 4542646.2931772312 0 0 0 0 21569283.649656534 42389275.276397705 0 42389275.276397705 -3918648.0461726189 0 0 0 0 -7950772.3520336151 13338866.593170166 0 13338866.593170166 35041884.283668518 0 0 0 0 -2469105.673718146 14480344.804761469 0 14480344.804761469 15305425.740296913 0 0 0 0 -381197.89100467134 6235836.4713246562 0 6235836.4713246562 26052299.510597035 0 0 0 0 2002397.0311956406 5207696.4050598145 0 5207696.4050598145 15620363.180534363 0 0 0 0 1697758.3680327795 15941162.551256046 0 15941162.551256046 -13844688.67272608 0 0 0 0 522813.85299885273 23827090.171495438 0 23827090.171495438 -32132258.670837402 0 0 0 0 76621243.117895126 14606123.673522949 0 14606123.673522949 -32101414.485519409 0 0 0 0 -7409607.7074027061 10135599.084960938 0 10135599.084960938 -17248991.386837006 0 0 0 0 -1399125.52153097 2316306.7474995181 0 2316306.7474995181 -10879.519782632589 0 0 0 0 27835701.21677494 2745976.1653366089 0 2745976.1653366089 -15798711.207752228 0 0 0 0 23960354.484170914 13398455.218238831 0 13398455.218238831 -2625048.1369018555 0 0 0 0 68820539.511361122 -21179928.034896851 0 -21179928.034896851 -41476549.231830597 0 0 0 0 1997308.3637325764 558949.99673461914 0 558949.99673461914 -35106848.962890625 0 0 0 0 2818701.3161409553 4356432.8975623325 0 4356432.8975623325 -7688653.7432896793 0 0 0 0 5816009.9122109413 30490935.2527771 0 30490935.2527771 -58705860.71421814 0 0 0 0 -36408636.489243507 57245132.747001648 0 57245132.747001648 54003976.444351196 0 0 0 0 -20607048.555412531 19456734.24810791 0 19456734.24810791 98202241.852081299 0 0 0 0 584113.01755259023 13401136.790902436 0 13401136.790902436 7558728.6842558198 0 0 0 0 10622640.317257762 8212031.0324411392 0 8212031.0324411392 283736.06074523926 0 0 0 0 19449605.354217291 41776014.168518066 0 41776014.168518066 4584366.5193328857 0 0 0 0 1746534.1548780752 12767018.691750091 0 12767018.691750091 4615294.5131659806 0 0 0 0 -1697864.8170874135 444138.93117701262 0 444138.93117701262 6626351.2558162957 0 0 0 0 6753247.7659597397 107172884.36032104 0 107172884.36032104 67925436.154083252 0 0 0 0 104863034.2620976 82787062.174438477 0 82787062.174438477 -52954854.745361328 0 0 0 0 18342313.450920925 20792014.746749878 0 20792014.746749878 21802339.248199463 0 0 0 0 242520.56989599951 5354297.5753540918 0 5354297.5753540918 14567716.990393937 0 0 0 0 -33960859.914906502 -121725637.82535553 0 -121725637.82535553 117425415.61063004 0 0 0 0 16851642.198016405 75400475.371723175 0 75400475.371723175 42697666.362228394 0 0 0 0 -25824656.15070343 40887150.307243347 0 40887150.307243347 31342807.640258789 0 0 0 0 -2014846.524594903 -64102060.357571602 0 -64102060.357571602 140566204.03962708 0 0 0 0 3635686.3308355808 1751655.0385428704 0 1751655.0385428704 -6304108.487169832 0 0 0 0 52249980.528258085 12180040.85484314 0 12180040.85484314 -29468110.267501831 0 0 0 0 24303838.110877037 1688579.9872436523 0 1688579.9872436523 -30358707.365306854 0 0 0 0 5473319.4662868464 12765723.994011909 0 12765723.994011909 3508243.1807155982 0 0 0 0 4102132.2928066254 -770701.73223114014 0 -770701.73223114014 -3963080.0213012695 0 0 0 0 -9881550.1832084656 76874112.706054688 0 76874112.706054688 -102441038.48187256 0 0 0 0 66788965.017929077 30183199.915237427 0 30183199.915237427 -74444620.353485107 0 0 0 0 7849177.632647776 3203069.6286627576 0 3203069.6286627576 2440109.9457275569 0 0 0 0 57722269.64522171 186186771.56057739 0 186186771.56057739 -13306185.453613281 0 0 0 0 -38187181.249099731 109069510.29797363 0 109069510.29797363 -62424534.510696411 0 0 0 0 8848621.6335778963 10700265.699842595 0 10700265.699842595 6859927.5003018901 0 0 0 0 -14841850.991796494 34807150.924743652 0 34807150.924743652 26165753.248046875 0 0 0 0 12468557.472437859 -7113717.0490112305 0 -7113717.0490112305 -12889609.079055786 0 0 0 0 28140286.246201038 3887840.6785125732 0 3887840.6785125732 42921479.363250732 0 0 0 0 10286646.963953432 10232509.800662652 0 10232509.800662652 8509090.6871841103 0 0 0 0 -8674332.3609290123 2022893.372718811 0 2022893.372718811 4798690.8354187012 0 0 0 0 1176088.7265549011 2694672.1999564813 0 2694672.1999564813 18247504.017153829 0 0 0 0 -61062565.021224499 -14159399.984573364 0 -14159399.984573364 41000712.576416016 0 0 0 0 -266720.29605674744 1978982.173614502 0 1978982.173614502 4160838.8792724609 0 0 0 0 3410012.9287327118 10786813.401888445 0 10786813.401888445 12433287.283450052 0 0 0 0 41368482.077293396 22506521.547233582 0 22506521.547233582 -119937473.14068604 0 0 0 0 43289636.485984802 -2591478.6047210693 0 -2591478.6047210693 -247524428.96887207 0 0 0 0 9985913.7138114292 2335670.7682288811 0 2335670.7682288811 10131100.279396441 0 0 0 0 1330972.1424080804 632629.22049597651 0 632629.22049597651 96231.436627566814 0 0 0 0 -36472530.711196899 -15089196.490142822 0 -15089196.490142822 13128113.044250488 0 0 0 0 -46543149.852887154 -35102002.925201416 0 -35102002.925201416 70962599.885559082 0 0 0 0 4764106.4945400339 1612552.9070422873 0 1612552.9070422873 13959614.75729464 0 0 0 0 -226683602.95464849 45426722.402511597 0 45426722.402511597 36563568.673461914 0 0 0 0 -3062458.3741423273 -2061925.708543323 0 -2061925.708543323 4182998.0371028185 0 0 0 0 2332218.5737329433 5567688.9687340297 0 5567688.9687340297 21485262.016085386 0 0 0 0 -21535016.966888428 28144716.810653687 0 28144716.810653687 32049893.749542236 0 0 0 0 6032630.3449020386 13961699.104400635 0 13961699.104400635 22656367.622901917 0 0 0 0 10802440.168446541 15819463.666122437 0 15819463.666122437 21225857.994094849 0 0 0 0 17683000.006939888 15932950.787345886 0 15932950.787345886 21685948.293182373 0 0 0 0 4604154.6794570675 9623374.1722566709 0 9623374.1722566709 31065977.554773182 0 0 0 0 -586200.75520324707 17997116.453834534 0 17997116.453834534 26932298.057067871 0 0 0 0 -230076915.78735209 149030.16885375977 0 149030.16885375977 56550867.907348633 0 0 0 0 8150318.6647443771 21297364.728897095 0 21297364.728897095 25147064.304519653 0 0 0 0 -21418523.159971237 27025241.139381409 0 27025241.139381409 33323304.357879639 0 0 0 0 1965560.0236550088 12040879.45921142 0 12040879.45921142 36121055.952795535 0 0 0 0 6908284.876183033 36711407.928871155 0 36711407.928871155 30294785.561218262 0 0 0 0 -16378903.452758789 10346174.241653442 0 10346174.241653442 32895918.835296631 0 0 0 0 29105969.566050768 19401656.030426025 0 19401656.030426025 17829729.044006348 0 0 0 0 31799935.340497971 25110549.073532104 0 25110549.073532104 25246228.882202148 0 0 0 0 34966554.895759583 54278631.374420166 0 54278631.374420166 70328604.041625977 0 0 0 0 61443426.863853455 21620103.584625244 0 21620103.584625244 19645759.285308838 0 0 0 0 23750346.568603516 34880883.360717773 0 34880883.360717773 37033124.028430939 0 0 0 0 6357310.1036472321 36145753.923522949 0 36145753.923522949 37630357.245326996 0 0 0 0 17237548.137477398 20371777.378440857 0 20371777.378440857 18433411.624847412 0 0 0 0 8903681.0570211411 18296014.508827209 0 18296014.508827209 23606331.310562134 0 0 0 0 12614406.809692383 8979624.4115142822 0 8979624.4115142822 17925124.344482422 0 0 0 0 19754556.777421951 16462028.926742554 0 16462028.926742554 22055246.777698517 0 0 0 0 -4451528.234766935 9083982.7999259196 0 9083982.7999259196 15111211.501177847 0 0 0 0 -1775883.7705311775 3787881.485206604 0 3787881.485206604 -47137521.279875755 0 0 0 0 -158395.23726785183 24072206.559528351 0 24072206.559528351 16736197.636550903 0 0 0 0 -7095336.513822794 9950169.1446762085 0 9950169.1446762085 24639985.838157654 0 0 0 0 -19296157.445851326 15798436.013183594 0 15798436.013183594 27154362.875900269 0 0 0 0 -1370382.5867848336 746979.77131420746 0 746979.77131420746 2055827.7518540323 0 0 0 0 -10933822.510994554 15477788.497795105 0 15477788.497795105 34732552.34576416 0 0 0 0 2646685.498706711 11571208.050408091 0 11571208.050408091 5148257.9115548059 0 0 0 0 14055761.907345295 14276290.293609619 0 14276290.293609619 17011614.880950928 0 0 0 0 18901742.935382366 -11284853.712593079 0 -11284853.712593079 7493593.0115356445 0 0 0 0 -16489711.577074409 -514525.22341918945 0 -514525.22341918945 25448845.844696045 0 0 0 0 126227669.59630162 -3792754.5139913559 0 -3792754.5139913559 25128141.439147949 0 0 0 0 65443295.942912966 86123335.413648605 0 86123335.413648605 118117852.4041748 0 0 0 0 -4096870.9988736678 -6321292.3467763271 0 -6321292.3467763271 19915876.426663086 0 0 0 0 -1670484.8729310571 844502.93837073445 0 844502.93837073445 2498731.1140047312 0 0 0 0 -622193.11690089572 -20273.860267184675 0 -20273.860267184675 1534673.4583593458 0 0 0 0 111939517.36159039 48243852.679801941 0 48243852.679801941 84652862.663665771 0 0 0 0 66000138.52385807 75724471.092453003 0 75724471.092453003 150381920.7953186 0 0 0 0 -13934113.945346713 6643146.3795890808 0 6643146.3795890808 35093045.428085327 0 0 0 0 -9082673.5273568034 13538881.642969131 0 13538881.642969131 31741446.389099121 0 0 0 0 -9345460.0118017197 3055618.866394043 0 3055618.866394043 36178801.349636078 0 0 0 0 -14989457.413860396 -31622956.795386791 0 -31622956.795386791 23162244.789779663 0 0 0 0 -3368445.0316890478 238178.3062286377 0 238178.3062286377 20631512.958190918 0 0 0 0 122596306.20880699 101605000.90856934 0 101605000.90856934 132630962.18837738 0 0 0 0 -5023858.0216473695 -3900972.5727671143 0 -3900972.5727671143 15553779.852114901 0 0 0 0 65122823.454844475 47151425.45741272 0 47151425.45741272 84560373.996704102 0 0 0 0 38431852.929367065 34315414.584884644 0 34315414.584884644 91153950.647766113 0 0 0 0 19685831.311952114 77064982.654724121 0 77064982.654724121 136819463.25946045 0 0 0 0 4807965.0074577332 49281662.40133667 0 49281662.40133667 131700764.15985107 0 0 0 0 -7295945.7918078899 8871448.7439899445 0 8871448.7439899445 97091145.203887939 0 0 0 0 33065402.988921165 1309649.8678131104 0 1309649.8678131104 43322792.940048218 0 0 0 0 -3917894.2535900762 1155594.2970783673 0 1155594.2970783673 12170360.889313407 0 0 0 0 54202920.996128082 18483477.406097412 0 18483477.406097412 62162227.526702881 0 0 0 0 1703561.8656539917 24287954.612915039 0 24287954.612915039 64325068.408248901 0 0 0 0 -1140546.9909591675 17104695.425720215 0 17104695.425720215 75597425.712112427 0 0 0 0 -33232279.647789001 -3166068.2678070068 0 -3166068.2678070068 73627682.661777496 0 0 0 0 -6489831.3040661644 5848254.8915788457 0 5848254.8915788457 23560149.720992662 0 0 0 0 878226079.2284584 -69289077.79196167 0 -69289077.79196167 -174950155.35332489 0 0 0 0 -19681120.806285858 -10320444.92376709 0 -10320444.92376709 37149237.404159546 0 0 0 0 -391719570.82262468 -43779170.67905426 0 -43779170.67905426 286438273.10270691 0 0 0 0 -126047280.99726129 668292383.67906952 0 668292383.67906952 272632098.82208252 0 0 0 0 -12944915.388656616 -3642543.5106506348 0 -3642543.5106506348 57936583.061279297 0 0 0 0 -28832882.543600082 -18087249.975639343 0 -18087249.975639343 63390518.186950684 0 0 0 0 -26935531.965720505 12493836.561181784 0 12493836.561181784 80962805.100952148 0 0 0 0 -43270424.520463943 12012731.77532959 0 12012731.77532959 63665455.881607056 0 0 0 0 -26936992.809174061 12246081.077434897 0 12246081.077434897 45604221.116455078 0 0 0 0 -3607029.6988048553 34186772.974128723 0 34186772.974128723 74618864.432189941 0 0 0 0 -722347.498462677 17891072.704833984 0 17891072.704833984 62579267.187911987 0 0 0 0 1731590.5090923309 31676495.885391235 0 31676495.885391235 109715689.04586792 0 0 0 0 37420883.108100891 37284685.752685547 0 37284685.752685547 67632644.330623627 0 0 0 0 129895286.60323179 75164290.461293221 0 75164290.461293221 58678175.785583496 0 0 0 0 45259938.668403625 62734636.36138916 0 62734636.36138916 145252334.39614868 0 0 0 0 37905169.6972332 27677436.183929443 0 27677436.183929443 83453563.850067139 0 0 0 0 49256047.566143036 4798149.8497009277 0 4798149.8497009277 126989717.739151 0 0 0 0 1881780.5981426239 10575845.130065918 0 10575845.130065918 89544298.793487549 0 0 0 0 97636.069123524387 7233286.4746958464 0 7233286.4746958464 8282042.2953716964 0 0 0 0 -19434225.441786528 33130896.1615448 0 33130896.1615448 32158614.083843231 0 0 0 0 -1067097.4259248318 13582173.799847368 0 13582173.799847368 41113649.607153326 0 0 0 0 -14484074.31708622 -384236.83592224121 0 -384236.83592224121 16294171.121734619 0 0 0 0 -11003678.240073919 2432848.1464385986 0 2432848.1464385986 17951231.009338379 0 0 0 0 -467792.98209351336 11320209.139472023 0 11320209.139472023 30446034.134074092 0 0 0 0 879321.84042281355 10256825.077763539 0 10256825.077763539 28475029.232125968 0 0 0 0 -25244390.798632383 -32924379.338363647 0 -32924379.338363647 -4315461.2481651306 0 0 0 0 -1650179.1042033127 1802710.6759206168 0 1802710.6759206168 22462322.011945426 0 0 0 0 -67068413.466392279 -39230735.965431213 0 -39230735.965431213 14653137.212211609 0 0 0 0 3964511.1200079918 -12255083.349601746 0 -12255083.349601746 -2587954.1464691162 0 0 0 0 -1193339.4361514556 -3053452.2311867736 0 -3053452.2311867736 530933.18716734648 0 0 0 0 -59103584.528958082 -71591009.689971924 0 -71591009.689971924 -63081924.425445557 0 0 0 0 -414669.45786377089 581908.8380381614 0 581908.8380381614 2194319.9204767048 0 0 0 0 -9123587.0058189929 17616810.26739502 0 17616810.26739502 25385208.482635498 0 0 0 0 -391933.07626691042 4990290.1322666854 0 4990290.1322666854 18390219.317198813 0 0 0 0 38323867.865944386 39779461.899642944 0 39779461.899642944 4185597.0778198242 0 0 0 0 -110840.65825460607 3323561.8902238328 0 3323561.8902238328 2098641.9704496413 0 0 0 0 -56990354.701643839 -16712880.117729187 0 -16712880.117729187 62155079.715362549 0 0 0 0 -8675332.9707735851 21804893.00255394 0 21804893.00255394 -16914112.426712036 0 0 0 0 -49745284.521741748 37656919.506835938 0 37656919.506835938 12158191.892227173 0 0 0 0 16181441.421797231 -73671800.816699982 0 -73671800.816699982 102822640.25991821 0 0 0 0 108578.32041108856 671098.99695975147 0 671098.99695975147 490602.3878172636 0 0 0 0 -29105319.795535386 -47573081.148742676 0 -47573081.148742676 206806400.82955933 0 0 0 0 83082204.56040442 56798762.408340454 0 56798762.408340454 32959615.398574829 0 0 0 0 140423748.90120468 107490801.86813354 0 107490801.86813354 -105964253.8633728 0 0 0 0 929562.12427879637 2309200.0611306019 0 2309200.0611306019 3689368.3806078434 0 0 0 0 76621506.325505495 34908391.842987061 0 34908391.842987061 52185350.374740601 0 0 0 0 69537671.372087955 69770481.514160156 0 69770481.514160156 62701130.824447632 0 0 0 0 4134213.8781616688 42154867.086929321 0 42154867.086929321 53695171.056060791 0 0 0 0 21921897.977629602 41908248.279579163 0 41908248.279579163 15787834.448669434 0 0 0 0 71740497.2694965 34896707.960083008 0 34896707.960083008 2867324.1214294434 0 0 0 0 21791842.418683529 42207900.673835754 0 42207900.673835754 19620436.635284424 0 0 0 0 -115959670.23780775 46911538.569488525 0 46911538.569488525 46273093.747543335 0 0 0 0 2908010.2072124481 86435164.100036621 0 86435164.100036621 19151398.946796417 0 0 0 0 -231160618.50021785 6409059.055770874 0 6409059.055770874 148868488.39025879 0 0 0 0 -23189537.8445611 -1251887.6881408691 0 -1251887.6881408691 2751762.3539123535 0 0 0 0 20618828.647599697 54978656.88911438 0 54978656.88911438 73208814.66015625 0 0 0 0 94789383.528357267 -27206556.253540039 0 -27206556.253540039 67469300.179382324 0 0 0 0 -82317592.790259361 101039138.54856873 0 101039138.54856873 161941396.59591675 0 0 0 0 26623028.527785301 20072648.37689209 0 20072648.37689209 154986638.23062134 0 0 0 0 -35711741.885010004 9237161.383895874 0 9237161.383895874 153237405.37993622 0 0 0 0 7908442.6685302258 -43765069.243003845 0 -43765069.243003845 217624497.06692505 0 0 0 0 -13226720.388742179 100653851.61206818 0 100653851.61206818 344053809.54272461 0 0 0 0 -32796964.541832685 -21118631.061752319 0 -21118631.061752319 162190065.12243652 0 0 0 0 2152874.4310723543 -74592431.070022583 0 -74592431.070022583 241300183.09185791 0 0 0 0 -40458335.391388655 -66108386.047943115 0 -66108386.047943115 92352301.761169434 0 0 0 0 -188960521.65425491 -78136039.168243408 0 -78136039.168243408 226583886.35910797 0 0 0 0 -138669266.34573352 46327145.850265503 0 46327145.850265503 -36140821.555175781 0 0 0 0 21410021.596187592 -112255352.68919373 0 -112255352.68919373 -8831235.128326416 0 0 0 0 -231217927.0997057 -27166320.832229614 0 -27166320.832229614 167097992.56533813 0 0 0 0 229538454.46906686 -35822285.108726501 0 -35822285.108726501 -36921624.087158203 0 0 0 0 1857526.0217258111 -1638288.245387055 0 -1638288.245387055 -761269.7113019079 0 0 0 0 81844152.369927406 -182424422.18847656 0 -182424422.18847656 75641704.932510376 0 0 0 0 -133011399.37972736 -89242748.196960449 0 -89242748.196960449 63442239.234863281 0 0 0 0 83620935.376838684 -3162339.7719726562 0 -3162339.7719726562 -3049552.1771640778 0 0 0 0 101280618.20345944 -119361700.33321762 0 -119361700.33321762 38675087.852355957 0 0 0 0 -49584236.230710983 -49878121.018798828 0 -49878121.018798828 24132294.937866211 0 0 0 0 14671186.69776685 922706.5092446506 0 922706.5092446506 14902815.762140512 0 0 0 0 5819339.469751358 -20875012.920562744 0 -20875012.920562744 1207085.1944885254 0 0 0 0 16823072.155184746 -20374102.862030029 0 -20374102.862030029 1225869.1701507568 0 0 0 0 27664489.812532425 4114620.5960006714 0 4114620.5960006714 -171090598.30839539 0 0 0 0 20524655.458679199 -50270197.972167969 0 -50270197.972167969 23348107.862342834 0 0 0 0 29179770.915347576 -20259511.084358215 0 -20259511.084358215 -2866641.8130187988 0 0 0 0 31305527.638790131 -10127629.90612793 0 -10127629.90612793 -3375100.5880851746 0 0 0 0 23299662.779338837 -25221285.072875977 0 -25221285.072875977 -4425580.2067871094 0 0 0 0 63055056.442429543 -28831867.074264526 0 -28831867.074264526 -4250407.0227050781 0 0 0 0 20025906.872005939 -16507952.779510498 0 -16507952.779510498 2211277.9125671387 0 0 0 0 887673.58369588852 -193834740.45288086 0 -193834740.45288086 66633540.399047852 0 0 0 0 28320215.031002045 -132340393.05389404 0 -132340393.05389404 -141188459.15887451 0 0 0 0 6959324.3180874344 -6788074.7808691896 0 -6788074.7808691896 -3723367.4890153408 0 0 0 0 -2776182.7756352425 -133105494.81230164 0 -133105494.81230164 -49681279.436096191 0 0 0 0 -20101154.620511174 -123817945.01564026 0 -123817945.01564026 26882889.293579102 0 0 0 0 -40623987.812107325 -174234697.98875427 0 -174234697.98875427 -15443579.035583496 0 0 0 0 -25783319.79492116 -187075928.60783386 0 -187075928.60783386 -36003251.064414978 0 0 0 0 -21096894.249951988 26457867.63173008 0 26457867.63173008 -35877962.319274902 0 0 0 0 4820404.4335967861 -235796.70852323622 0 -235796.70852323622 -4883997.7978110313 0 0 0 0 -135181822.94641304 -207259763.0591507 0 -207259763.0591507 -58479214.579925537 0 0 0 0 91005854.002746582 -39002996.08026123 0 -39002996.08026123 -24409878.422180176 0 0 0 0 10088989.255575571 -3293423.9793536346 0 -3293423.9793536346 -8384126.7132011205 0 0 0 0 16583443.474811608 -10212801.876289822 0 -10212801.876289822 11066125.461134285 0 0 0 0 775439.63138580322 510102.80104064941 0 510102.80104064941 -6306033.734954834 0 0 0 0 71331801.162311554 -14179809.735427856 0 -14179809.735427856 -107946131.60316467 0 0 0 0 115324074.21200466 -54947048.413452148 0 -54947048.413452148 -167736470.18305969 0 0 0 0 4802327.4284424931 -4239008.7686183155 0 -4239008.7686183155 3678860.2845737673 0 0 0 0 58544159.01817596 19410898.277923584 0 19410898.277923584 -139534248.91305542 0 0 0 0 2394184.4140377045 -3861996.3257904053 0 -3861996.3257904053 1183858.3651390076 0 0 0 0 3214886.2285295799 -5533916.1126144081 0 -5533916.1126144081 8133711.4535455406 0 0 0 0 4465637.2266953113 -6443715.7466015071 0 -6443715.7466015071 6120645.8458674885 0 0 0 0 2177215.7652454376 -3137755.7478942871 0 -3137755.7478942871 725340.07278442383 0 0 0 0 8608341.5938524939 -7814233.4159732535 0 -7814233.4159732535 9311300.8507128954 0 0 0 0 20057698.951509476 -58356013.739110947 0 -58356013.739110947 -23468317.388000488 0 0 0 0 85659856.174830675 -68240835.454620361 0 -68240835.454620361 -192834498.3713913 0 0 0 0 -33863697.263473213 -32281566.364287853 0 -32281566.364287853 -62105249.621154785 0 0 0 0 163793229.32404363 -113376425.18486023 0 -113376425.18486023 -29026275.954544067 0 0 0 0 144048641.11620307 10930932.11289978 0 10930932.11289978 -63954035.385559082 0 0 0 0 -20758456.856836557 10377822.830406189 0 10377822.830406189 -59971339.720275879 0 0 0 0 7318749.8958483636 67039396.316040039 0 67039396.316040039 92181184.382751465 0 0 0 0 45966336.491058707 9294478.1427154541 0 9294478.1427154541 86058336.849761963 0 0 0 0 122238946.08412287 144501056.5898819 0 144501056.5898819 325633881.68182373 0 0 0 0 11758519.142580256 -95037389.275871277 0 -95037389.275871277 189745917.67980957 0 0 0 0 75101375.490024209 9605628.5111541748 0 9605628.5111541748 54988781.72479248 0 0 0 0 362058224.40494227 -49974382.715057373 0 -49974382.715057373 66858673.663352966 0 0 0 0 91367075.503291488 -147585738.12089539 0 -147585738.12089539 514435461.62216187 0 0 0 0 54815378.269390225 -23917580.252716064 0 -23917580.252716064 146931391.18464661 0 0 0 0 190532891.59655303 236611644.99921417 0 236611644.99921417 329028988.87994385 0 0 0 0 45215276.336190283 -183853989.60811615 0 -183853989.60811615 224727863.24902344 0 0 0 0 363408.3216868327 564143.29423254356 0 564143.29423254356 1197499.3740025014 0 0 0 0 141708701.70720267 97132913.089828491 0 97132913.089828491 108648452.45852661 0 0 0 0 17533290.246592432 -71375507.346229553 0 -71375507.346229553 215582202.16165161 0 0 0 0 59090884.962849945 -143651025.78657532 0 -143651025.78657532 341147559.03653145 0 0 0 0 -52816840.666827738 -148520323.94648743 0 -148520323.94648743 139472853.03811646 0 0 0 0 45958.62828587176 -80321.205137006938 0 -80321.205137006938 84568.713174790144 0 0 0 0 -11831905.747897983 -61473516.298294067 0 -61473516.298294067 -85071738.272762299 0 0 0 0 -54764000.255684495 -57008537.789962769 0 -57008537.789962769 405488276.47701168 0 0 0 0 -16362627.241345227 -5268611.4625701904 0 -5268611.4625701904 12956572.655395508 0 0 0 0 -48673510.088984966 11115190.108760834 0 11115190.108760834 6404088.1566162109 0 0 0 0 -48988928.441720247 4070787.6366729736 0 4070787.6366729736 57621046.756149292 0 0 0 0 -6756154.4972350001 54873168.556594849 0 54873168.556594849 111430758.0810585 0 0 0 0 20237165.600311935 60236199.732303619 0 60236199.732303619 -28904642.995498657 0 0 0 0 -27690175.655924559 46859140.261627197 0 46859140.261627197 -30710666.56180191 0 0 0 0 1926503.1793228053 -2721930.7762200534 0 -2721930.7762200534 4270019.0264268368 0 0 0 0 1248838.3720639795 -1560698.751707308 0 -1560698.751707308 2545884.3737529516 0 0 0 0 2069483.3553588474 -8283518.0027046204 0 -8283518.0027046204 11098212.331176758 0 0 0 0 1826802.4458046646 -8545624.4779167175 0 -8545624.4779167175 15059557.350402832 0 0 0 0 -656442.09440677287 -1808333.8674092293 0 -1808333.8674092293 2231630.7866334058 0 0 0 0 -7612516.0857485868 -3973324.5312805176 0 -3973324.5312805176 38856880.079330444 0 0 0 0 -7918135.5532648545 2456075.7590026855 0 2456075.7590026855 20605446.949874878 0 0 0 0 57288.323199909864 943806.17205047607 0 943806.17205047607 16350213.337249756 0 0 0 0 -7731477.237191394 -4050680.7480545044 0 -4050680.7480545044 29876693.266235352 0 0 0 0 -393208.6945244926 -3382556.0036010742 0 -3382556.0036010742 13010168.895706177 0 0 0 0 -1103266.1053101374 -2729663.7158660889 0 -2729663.7158660889 13283911.267181396 0 0 0 0 -19205.618071846387 75627.608085632324 0 75627.608085632324 6462896.0900421143 0 0 0 0 106.24365829746239 -2691809.7938079834 0 -2691809.7938079834 6389843.3469238281 0 0 0 0 259270.84413478355 288329.41119384766 0 288329.41119384766 6278440.4510235786 0 0 0 0 798887.93434471008 -1112619.5204972103 0 -1112619.5204972103 1936334.3374313861 0 0 0 0 204148.22752188702 -224624.38972657174 0 -224624.38972657174 197325.68948151264 0 0 0 0 13793567.35681507 -55047934.113342285 0 -55047934.113342285 191419042.10692978 0 0 0 0 -10945740.249212861 -6219912.8303947449 0 -6219912.8303947449 -2334408.1068725586 0 0 0 0 -58251.835321311504 -529035.24096246809 0 -529035.24096246809 1311140.873603805 0 0 0 0 246169.04062151306 -1486538.4848937988 0 -1486538.4848937988 1735467.6352233887 0 0 0 0 17926445.655279577 -58316898.434204102 0 -58316898.434204102 135117554.72747803 0 0 0 0 1418.7646707710287 -544000.16767883301 0 -544000.16767883301 1082447.4381256104 0 0 0 0 533957.36891813704 -618263.76046555489 0 -618263.76046555489 667181.41102603078 0 0 0 0 16225452.499684632 -72479042.56930542 0 -72479042.56930542 150158827.12704468 0 0 0 0 -62191.168106052792 -85645687.409973145 0 -85645687.409973145 141720791.72853851 0 0 0 0 48329479.234256893 -44258553.261535645 0 -44258553.261535645 164021353.77433777 0 0 0 0 606105.67698908597 -57486877.470275879 0 -57486877.470275879 193321192.20185852 0 0 0 0 31494114.726605743 -78101286.722900391 0 -78101286.722900391 102056984.18737793 0 0 0 0 33527181.164891899 -29747425.656051636 0 -29747425.656051636 138886556.71968079 0 0 0 0 16906317.733612925 -79546277.292495728 0 -79546277.292495728 164260933.10795593 0 0 0 0 18569439.925811827 -80941672.654220581 0 -80941672.654220581 154704000.69873047 0 0 0 0 1465391.9965688586 -132829770.17462158 0 -132829770.17462158 165546522.78271484 0 0 0 0 -136224952.34370947 -67033714.163497925 0 -67033714.163497925 171299945.84039783 0 0 0 0 -4023167.9055889845 -139507767.03819275 0 -139507767.03819275 39588710.103027344 0 0 0 0 -2144314.2401993871 -86230169.15246582 0 -86230169.15246582 153812692.18692398 0 0 0 0 29130709.008624375 46438355.047119141 0 46438355.047119141 34371460.57244873 0 0 0 0 -82973728.547168612 68066049.210861206 0 68066049.210861206 37767139.960617065 0 0 0 0 33702253.360341012 -21134635.823989868 0 -21134635.823989868 -43894252.003005981 0 0 0 0 -138959876.67988059 -28072657.671302795 0 -28072657.671302795 65726083.88961792 0 0 0 0 -53246638.463799953 -13665627.126602173 0 -13665627.126602173 37001531.588485718 0 0 0 0 26559408.460976243 57804476.324584961 0 57804476.324584961 63323035.665557861 0 0 0 0 -14437624.147965878 73846808.319599152 0 73846808.319599152 64027800.273834229 0 0 0 0 140558291.37530336 84150361.380310059 0 84150361.380310059 62489984.414810181 0 0 0 0 64676195.824631348 96256611.072135925 0 96256611.072135925 80375152.944122314 0 0 0 0 88392945.787691951 87541011.774398804 0 87541011.774398804 55626666.501125336 0 0 0 0 22833431.319411553 46127518.841941833 0 46127518.841941833 81371161.266876221 0 0 0 0 81168924.126914874 66524494.047969818 0 66524494.047969818 59985262.838897705 0 0 0 0 191502852.81978041 182699726.04225159 0 182699726.04225159 187440158.73648071 0 0 0 0 6395.1988936621829 7224307.2026367188 0 7224307.2026367188 -10926649.854263306 0 0 0 0 -59614.169667508191 203026.67208401114 0 203026.67208401114 455888.58995400369 0 0 0 0 56901825.188557789 55009113.020187378 0 55009113.020187378 294067730.20457458 0 0 0 0 46259103.20768097 -7735108.3995819092 0 -7735108.3995819092 105511591.38780212 0 0 0 0 59028323.74815128 97187103.655853271 0 97187103.655853271 153318647.70281982 0 0 0 0 -3584900.1687923446 -12712360.827758789 0 -12712360.827758789 36611043.455413818 0 0 0 0 -2201466.4466442093 -12572451.687698364 0 -12572451.687698364 35555709.113494873 0 0 0 0 -4524745.7739044614 -14116291.701423645 0 -14116291.701423645 37939661.689331055 0 0 0 0 -1561136.5339554921 -15737234.659591675 0 -15737234.659591675 36909179.738021851 0 0 0 0 -1853159.1422953382 -14630534.799179077 0 -14630534.799179077 33351832.996322632 0 0 0 0 -1747431.2346754563 -11802728.323192596 0 -11802728.323192596 36462555.617126465 0 0 0 0 -512.66287834010109 -11455016.726806641 0 -11455016.726806641 33563111.444763184 0 0 0 0 -2566417.4848187678 -12335351.334869385 0 -12335351.334869385 36745367.334266663 0 0 0 0 -3834935.1384022329 -10091540.998397827 0 -10091540.998397827 38737653.753707886 0 0 0 0 -2518187.1575343795 -12256083.777442932 0 -12256083.777442932 36805988.629211426 0 0 0 0 -5233849.4972469285 -10618729.188476562 0 -10618729.188476562 39554408.914886475 0 0 0 0 -2278237.1507057697 -12236817.638580322 0 -12236817.638580322 39964066.007247925 0 0 0 0 -6430515.6494368017 -10999053.915725708 0 -10999053.915725708 39508338.928466797 0 0 0 0 -9845176.3939987123 -4061345.2368621826 0 -4061345.2368621826 34905407.756515503 0 0 0 0 -9777509.0815129429 -12782420.687286377 0 -12782420.687286377 39347900.508026123 0 0 0 0 -6101811.810651537 -10372157.566040039 0 -10372157.566040039 29039155.641174316 0 0 0 0 -8734023.1477654353 -2751943.4403839111 0 -2751943.4403839111 43423637.357849121 0 0 0 0 -10084211.774277978 121832.4629458189 0 121832.4629458189 14991193.36676272 0 0 0 0 -8958099.027689334 4841820.4145851135 0 4841820.4145851135 22564609.295379639 0 0 0 0 -2750091.8204612732 -5468410.9161682129 0 -5468410.9161682129 13153256.899597168 0 0 0 0 -7545617.5325660706 -8487080.1161117554 0 -8487080.1161117554 22506163.012466431 0 0 0 0 -11990934.986776343 -9101148.0473458543 0 -9101148.0473458543 20125355.443971947 0 0 0 0 -3223821.790873684 -584255.48226813227 0 -584255.48226813227 3465289.6995574832 0 0 0 0 -16594301.11327365 -4728982.7049102783 0 -4728982.7049102783 38411463.219238281 0 0 0 0 -1840578.3186725266 -18578554.331481934 0 -18578554.331481934 28746849.619110107 0 0 0 0 6536870.547504425 -3998237.4696960449 0 -3998237.4696960449 -28428622.840881348 0 0 0 0 -5637147.41167574 -10740763.073967732 0 -10740763.073967732 8705523.6160253733 0 0 0 0 -19814525.044506073 -19691884.225006104 0 -19691884.225006104 2922319.0164794922 0 0 0 0 292615109.80447197 482401485.96130371 0 482401485.96130371 146208093.63421631 0 0 0 0 -361992.92192020826 -3869984.07617414 0 -3869984.07617414 -231575.06052632025 0 0 0 0 7978528.5789070129 -21477065.669342041 0 -21477065.669342041 -8056527.0485687256 0 0 0 0 -7694739.6073608398 -6951803.5516662598 0 -6951803.5516662598 -16949697.716247559 0 0 0 0 -25697383.346979141 -43121986.398124695 0 -43121986.398124695 -28636747.650756836 0 0 0 0 -97989401.537776947 -40334249.838851929 0 -40334249.838851929 100288961.62902832 0 0 0 0 63164182.473587036 -13850817.791503906 0 -13850817.791503906 -26380273.385604858 0 0 0 0 -15280013.483253358 -2987545.6818125993 0 -2987545.6818125993 19499315.725446641 0 0 0 0 640784799.23694992 41242078.357759953 0 41242078.357759953 18487663.951324463 0 0 0 0 405389.98603135534 2779922.3665694743 0 2779922.3665694743 7281077.6858455986 0 0 0 0 149600026.09979248 -560205718.99568176 0 -560205718.99568176 2032191978.2020721 0 0 0 0 657132755.15571213 1116160802.4981995 0 1116160802.4981995 1174985746.4082031 0 0 0 0 -385008279.75308609 475759859.78727722 0 475759859.78727722 1651634593.2669401 0 0 0 0 -204428886.05428123 1333450251.4312897 0 1333450251.4312897 2265601466.1543274 0 0 0 0 -412383122.88521194 901526569.6403656 0 901526569.6403656 1659921284.8306336 0 0 0 0 -116631608.75284195 779133784.65065765 0 779133784.65065765 1163003065.9040833 0 0 0 0 82763305.596311569 1120629438.4279175 0 1120629438.4279175 1747856373.3698654 0 0 0 0 -388629483.97400665 478065311.5037384 0 478065311.5037384 2173663799.6301117 0 0 0 0 -1674928.8191698636 -6660814.5166578218 0 -6660814.5166578218 -650327.71212726226 0 0 0 0 -9299595.0332937837 9722957.9575881958 0 9722957.9575881958 10014543.129394531 0 0 0 0 -66267097.06287384 -5286371.2686462402 0 -5286371.2686462402 1046048390.1297302 0 0 0 0 -66901.534395288676 -12220070.862121582 0 -12220070.862121582 31248252.042556763 0 0 0 0 1159760.2125257505 -6641043.5848876536 0 -6641043.5848876536 6218724.0420035571 0 0 0 0 21229690.261253357 -16767967.778778076 0 -16767967.778778076 -26782267.368591309 0 0 0 0 -129363.528224564 -12331969.783252716 0 -12331969.783252716 31992837.134460449 0 0 0 0 3082965.685566566 -4748172.9569399655 0 -4748172.9569399655 2100228.5484563261 0 0 0 0 36145.210386556966 -8085075.4474487305 0 -8085075.4474487305 3826784.77069664 0 0 0 0 147704.63603353963 -4830241.8242968991 0 -4830241.8242968991 2872250.7752491185 0 0 0 0 3416287373.9081097 1010008938.5845947 0 1010008938.5845947 725335042.6449585 0 0 0 0 -2081738.975854909 -427421371.02526093 0 -427421371.02526093 2744307098.4496765 0 0 0 0 -179384454.62936974 1757699609.240799 0 1757699609.240799 3471121290.3416672 0 0 0 0 141473.66368361725 -2858499.4987816364 0 -2858499.4987816364 5832086.3178056479 0 0 0 0 -1046770793.3597333 -564312090.20880127 0 -564312090.20880127 3972997849.8577271 0 0 0 0 214454595.82410944 -196863100.88534164 0 -196863100.88534164 -49962869.049682617 0 0 0 0 -75284996.441417545 -2456651.6150054932 0 -2456651.6150054932 102816929.46459961 0 0 0 0 3491303.4264158085 -8406927.0643993542 0 -8406927.0643993542 12596243.47962153 0 0 0 0 -86774654.734510645 -66402085.113327026 0 -66402085.113327026 -2983153.7805786133 0 0 0 0 824291.26140010054 24028016.077507019 0 24028016.077507019 27610175.939666748 0 0 0 0 -9418196.4603263941 11284887.146621704 0 11284887.146621704 20511716.478874207 0 0 0 0 -32091329.647759061 9274112.724105835 0 9274112.724105835 22058548.844665527 0 0 0 0 -23879561.212612174 -9203642.9995117188 0 -9203642.9995117188 14231919.67980957 0 0 0 0 -4259413.2311663004 719320.36727905273 0 719320.36727905273 24840354.375473022 0 0 0 0 -18253815.546007369 -5163082.3923721313 0 -5163082.3923721313 22377492.53036499 0 0 0 0 -236740.46111872312 5364853.0687484741 0 5364853.0687484741 21509615.133758545 0 0 0 0 -5269319.6365943998 -16646883.507276535 0 -16646883.507276535 14257703.207000732 0 0 0 0 -3001980.8313693255 -10559001.734176636 0 -10559001.734176636 15708015.91809082 0 0 0 0 -667214.87642077729 -10156002.670082092 0 -10156002.670082092 14851690.494628906 0 0 0 0 -13056366.753891345 -16549121.751724243 0 -16549121.751724243 24661519.593902588 0 0 0 0 -19565674.191611014 -1794333.0991363525 0 -1794333.0991363525 19283374.875259399 0 0 0 0 -14243468.46441805 -22199776.487699509 0 -22199776.487699509 4523678.8027954102 0 0 0 0 -35162806.481725454 -31283463.340881348 0 -31283463.340881348 7313124.8392829895 0 0 0 0 -143013380.34673202 346244130.22972822 0 346244130.22972822 312038934.83740234 0 0 0 0 -72064521.410437703 -1183400096.2905791 0 -1183400096.2905791 -880896627.5022583 0 0 0 0 8249204.489645333 -11803151.093307599 0 -11803151.093307599 13618629.799962834 0 0 0 0 -33636901.172687568 -9041796.1490478516 0 -9041796.1490478516 17621198.058319092 0 0 0 0 -850665917.06439209 -1080190069.5944519 0 -1080190069.5944519 790759410.41394043 0 0 0 0 -1093898907.9368553 -541451173.49596596 0 -541451173.49596596 3044851012.3508911 0 0 0 0 150380505.09919167 1108589853.618206 0 1108589853.618206 3202965053.2465515 0 0 0 0 1496707253.2727966 193141150.6362915 0 193141150.6362915 -780275184.10364819 0 0 0 0 -227548450.88152695 563750387.16539383 0 563750387.16539383 1934760468.925354 0 0 0 0 -6998395.0832214355 422346561.4206543 0 422346561.4206543 1060958958.1224861 0 0 0 0 -217212949.71211243 615540736.03787231 0 615540736.03787231 2167633683.1435852 0 0 0 0 -111722845.81900024 1111082006.6329651 0 1111082006.6329651 3058311758.5613213 0 0 0 0 1416823.3837429285 -1819851.0116445534 0 -1819851.0116445534 2401837.0406846851 0 0 0 0 -62412383.155437469 770000844.16781616 0 770000844.16781616 1898886377.685379 0 0 0 0 -95309187.792642593 -117413411.50137711 0 -117413411.50137711 1110779163.8335571 0 0 0 0 -148082566.89225626 89644960.286781311 0 89644960.286781311 2764604685.911499 0 0 0 0 423320690.96491814 -207926508.80137634 0 -207926508.80137634 -243497837.09521484 0 0 0 0 201768172.8143177 -487053605.46488953 0 -487053605.46488953 1343347421.1340485 0 0 0 0 -173581420.77427673 -41307322.194549561 0 -41307322.194549561 870334686.41789246 0 0 0 0 35596526.621368408 -35469192.818496704 0 -35469192.818496704 1060501903.431366 0 0 0 0 111613897.61833572 -98615642.508499146 0 -98615642.508499146 172013660.36260986 0 0 0 0 11826598.275840132 -12869741.966109715 0 -12869741.966109715 11645735.968970209 0 0 0 0 -77872333.332427979 -348403228.4057312 0 -348403228.4057312 -481616653.85943604 0 0 0 0 165517970.61608505 314418210.81337738 0 314418210.81337738 -253642754.89282227 0 0 0 0 189022528.30225372 -249517254.45523071 0 -249517254.45523071 -582536905.22564697 0 0 0 0 358818514.33340263 103915854.51693726 0 103915854.51693726 -416366736.11816406 0 0 0 0 645759.23211669922 -56665894.943664551 0 -56665894.943664551 -449817906.73730469 0 0 0 0 166866480.68238831 209811618.61601257 0 209811618.61601257 -329626193.31310272 0 0 0 0 43614696.790447235 171414240.97610474 0 171414240.97610474 -301632023.69396973 0 0 0 0 -6972955.2578239441 -13089055.904190063 0 -13089055.904190063 -59935753.058837891 0 0 0 0 -46871183.520797729 -145368177.2487793 0 -145368177.2487793 -87324441.387237549 0 0 0 0 11471992.960067749 134282758.60379791 0 134282758.60379791 -84234586.912322998 0 0 0 0 85738916.458152771 98703032.779785156 0 98703032.779785156 -187465100.15649414 0 0 0 0 17451213.92880249 -59585750.420700073 0 -59585750.420700073 13668052.979766846 0 0 0 0 -72846082.090744138 -10053356.764181137 0 -10053356.764181137 -342063813.35009766 0 0 0 0 658713.57962774113 -794882.11861559749 0 -794882.11861559749 877938.79744744301 0 0 0 0 233142543.48383713 -79415154.277938843 0 -79415154.277938843 -87185544.964492798 0 0 0 0 150035542.5320673 -11979001.181129456 0 -11979001.181129456 82950463.040008545 0 0 0 0 218316903.85372829 -160832420.63924789 0 -160832420.63924789 -104445150.42715454 0 0 0 0 2656162.0876333546 -551834.57632520609 0 -551834.57632520609 -2340139.8232501745 0 0 0 0 65601342.550678253 -240909891.9769516 0 -240909891.9769516 329177479.20439148 0 0 0 0 -361409522.08628082 -15949562.219711304 0 -15949562.219711304 233397583.352005 0 0 0 0 595093042.30060005 162579754.90467072 0 162579754.90467072 61962251.193267822 0 0 0 0 -355486754.89796257 1141241867.583065 0 1141241867.583065 454616014.05926514 0 0 0 0 149213527.27627182 589272827.69319153 0 589272827.69319153 272440287.88062859 0 0 0 0 778425634.70148087 985049001.21057892 0 985049001.21057892 502246635.30621338 0 0 0 0 -194719444.21741867 307477769.46556091 0 307477769.46556091 1980725478.1016235 0 0 0 0 -189177260.90964651 66407630.997451782 0 66407630.997451782 -171880573.51617432 0 0 0 0 -78544894.6375947 -424860379.34575653 0 -424860379.34575653 399758801.06784058 0 0 0 0 -82008666.672818661 -397281649.6098547 0 -397281649.6098547 336609944.36663818 0 0 0 0 -133777696.66381073 -126971527.06151581 0 -126971527.06151581 227068469.73637199 0 0 0 0 230398620.22310257 -334845999.91859436 0 -334845999.91859436 207925497.99056244 0 0 0 0 732170143.25038147 -500895171.37120819 0 -500895171.37120819 45553394.568969727 0 0 0 0 386242429.79793549 -959720135.31677246 0 -959720135.31677246 950517225.934021 0 0 0 0 50782276.748161316 -128767954.80784607 0 -128767954.80784607 150446479.09127808 0 0 0 0 518709935.87194824 -123775434.68025208 0 -123775434.68025208 -171178996.59002686 0 0 0 0 -185074674.89488032 27754841.705231428 0 27754841.705231428 92473472.542510986 0 0 0 0 -69240892.794670105 715050635.75593567 0 715050635.75593567 1752398569.5280151 0 0 0 0 169474231.18666458 -457953383.14889526 0 -457953383.14889526 1057245188.259903 0 0 0 0 1012813.9242380559 -5634245.4956322238 0 -5634245.4956322238 8953288.0786985233 0 0 0 0 -186664467.42151985 -145180831.87657779 0 -145180831.87657779 66273788.426452637 0 0 0 0 -11093512.557807922 -6377856.0464477539 0 -6377856.0464477539 14197414.537582397 0 0 0 0 -10384715.041824341 307345.24546813965 0 307345.24546813965 14497934.996490479 0 0 0 0 -6833621.9369177185 -5836748.1089798212 0 -5836748.1089798212 17685485.275018588 0 0 0 0 -23123051.07390213 34876265.565330505 0 34876265.565330505 -730812.53266143799 0 0 0 0 -2384457.7308852402 1582609.3253086265 0 1582609.3253086265 -221633.35815922916 0 0 0 0 -196500071.7430191 -2108920.5805053711 0 -2108920.5805053711 159556152.94551849 0 0 0 0 140219400.16444397 -555793.98736572266 0 -555793.98736572266 29250614.060958862 0 0 0 0 -5209490.3084754944 282501.17933654785 0 282501.17933654785 13521278.840621948 0 0 0 0 -7503968.9534633728 -2025191.8114610538 0 -2025191.8114610538 19302307.115926094 0 0 0 0 -6384124.3487586975 -4011255.7457885742 0 -4011255.7457885742 16947063.454338074 0 0 0 0 -14678160.044164345 5774690.4696960449 0 5774690.4696960449 30747362.059005737 0 0 0 0 4637476.1189904213 -29338675.203461647 0 -29338675.203461647 -62730066.767150879 0 0 0 0 -856150.20969101787 -2455112.0575113669 0 -2455112.0575113669 4203423.073581636 0 0 0 0 -10481850.561167989 1323277.7521259338 0 1323277.7521259338 14503147.785600275 0 0 0 0 -244005359.22703552 146002845.78240967 0 146002845.78240967 34779489.275146484 0 0 0 0 -173782461.79362488 31438397.547653198 0 31438397.547653198 65608555.12059021 0 0 0 0 -72213639.085792542 50216512.781715393 0 50216512.781715393 62720657.838043213 0 0 0 0 -224341551.53766632 43386076.110450745 0 43386076.110450745 295271499.44392395 0 0 0 0 -154352999.35429668 -145143424.16558075 0 -145143424.16558075 602135247.1463623 0 0 0 0 -98129958.688144684 -151812114.62453842 0 -151812114.62453842 192192007.6847229 0 0 0 0 -20279968.479978561 -63396410.114524841 0 -63396410.114524841 -9588312.165145874 0 0 0 0 262389515.8415699 276884927.03039551 0 276884927.03039551 374631688.30919266 0 0 0 0 -100795689.4059639 25222755.636116028 0 25222755.636116028 1090811281.2308044 0 0 0 0 -100005556.47906113 -78893381.809509277 0 -78893381.809509277 316671282.18027878 0 0 0 0 -73146876.612689972 94815215.116012573 0 94815215.116012573 376500261.34528732 0 0 0 0 74481673.486412048 93414665.683898926 0 93414665.683898926 320380751.21961212 0 0 0 0 147133731.12748909 -85519072.573318481 0 -85519072.573318481 141888206.74047852 0 0 0 0 77155453.890683651 144609576.07309723 0 144609576.07309723 342141195.58761597 0 0 0 0 136879329.1836431 45583135.513252258 0 45583135.513252258 70148606.909454346 0 0 0 0 252796642.96850014 -110677756.55682373 0 -110677756.55682373 610830115.79598999 0 0 0 0 -363578241.20310593 699273642.28319168 0 699273642.28319168 320507855.15168762 0 0 0 0 -95184469.129067302 283625484.83826065 0 283625484.83826065 730522219.300354 0 0 0 0 -51406704.656339645 335943267.6688385 0 335943267.6688385 743072237.92035675 0 0 0 0 94527720.042431116 192023179.85303879 0 192023179.85303879 782400178.8303833 0 0 0 0 52159700.83479023 7371038.968536377 0 7371038.968536377 30242511.910106659 0 0 0 0 165173934.74235821 -613787646.21191025 0 -613787646.21191025 883194410.97171021 0 0 0 0 -1876766.5588829881 -517964.83134524524 0 -517964.83134524524 3277953.3187893033 0 0 0 0 -30977739.068435669 -296714336.62149811 0 -296714336.62149811 375444042.07662964 0 0 0 0 -163189751.6123848 -436567887.24833679 0 -436567887.24833679 457002504.61273956 0 0 0 0 -464373821.17277145 -432313778.64157104 0 -432313778.64157104 694926866.58956909 0 0 0 0 -610854154.01828575 31287699.340522766 0 31287699.340522766 302550469.32149696 0 0 0 0 -3225470.1713135652 -617304.09938950092 0 -617304.09938950092 6179687.6839258224 0 0 0 0 -404224359.92264652 -177088485.4825058 0 -177088485.4825058 562791178.24421692 0 0 0 0 -514958830.60641289 157282302.1269455 0 157282302.1269455 282762060.51383972 0 0 0 0 -137596451.11325836 -197117556.66352081 0 -197117556.66352081 349219539.59262085 0 0 0 0 -193685946.46572685 -277616413.04317856 0 -277616413.04317856 525080593.25646973 0 0 0 0 -1797650.2822906766 -359729.71652182192 0 -359729.71652182192 3368061.2209349126 0 0 0 0 -70402132.808492661 -426385112.78881073 0 -426385112.78881073 1023928116.8886414 0 0 0 0 141078335.93099213 442305197.73423767 0 442305197.73423767 869194351.22403717 0 0 0 0 -29066141.793228149 4809688.3652839661 0 4809688.3652839661 104823868.87704468 0 0 0 0 -19486014.784379005 70576185.185779572 0 70576185.185779572 436101033.39413452 0 0 0 0 263950332.50916672 158909606.31037903 0 158909606.31037903 5384342.4010772705 0 0 0 0 9206123.5245355368 -28348000.246776581 0 -28348000.246776581 24381081.640487671 0 0 0 0 -105318413.12549305 78211524.605705261 0 78211524.605705261 250027988.34440613 0 0 0 0 816109.09029457998 1079190.8104621097 0 1079190.8104621097 6479952.3159670979 0 0 0 0 3218156.1232271194 -16292114.369247437 0 -16292114.369247437 641036.68113327026 0 0 0 0 -15740971.237153053 -327315996.63796234 0 -327315996.63796234 520085677.14682007 0 0 0 0 -59564161.408254623 -244995885.01306915 0 -244995885.01306915 511346397.75688934 0 0 0 0 -25519049.122203946 -10598518.346645355 0 -10598518.346645355 22368466.932678223 0 0 0 0 -1277037.9858399648 153789.17880485579 0 153789.17880485579 5901403.2759835571 0 0 0 0 7558984.0412626266 -216322667.56240845 0 -216322667.56240845 486978672.18014717 0 0 0 0 -17839459.1136446 -282074022.13388824 0 -282074022.13388824 356496474.39976501 0 0 0 0 318846752.77008438 -649417147.10692596 0 -649417147.10692596 1055852759.8361511 0 0 0 0 182238058.10078198 -25266065.401367188 0 -25266065.401367188 896746071.34526062 0 0 0 0 56927066.261217117 297021719.21966934 0 297021719.21966934 745986342.47253418 0 0 0 0 280078807.7699877 270707211.0880661 0 270707211.0880661 92484561.580947876 0 0 0 0 -1014711.628420826 -174410.30084562674 0 -174410.30084562674 2688069.4080041051 0 0 0 0 43513875.183896065 -87153806.056724548 0 -87153806.056724548 107122790.58499336 0 0 0 0 168121531.32663482 149012147.13184929 0 149012147.13184929 192110789.01844788 0 0 0 0 -15703645.416005731 95260282.84563446 0 95260282.84563446 -66106076.994781494 0 0 0 0 3883573.1114649773 -61162656.865386963 0 -61162656.865386963 21745523.618610382 0 0 0 0 183406739.78047568 -30332515.269830227 0 -30332515.269830227 -11876457.090393066 0 0 0 0 357235951.77613544 -9922365.5805664062 0 -9922365.5805664062 -9710102.8400802612 0 0 0 0 -1111746.7912099685 777195.15753705427 0 777195.15753705427 951409.27724213898 0 0 0 0 -60033996.808354974 240463518.67346954 0 240463518.67346954 249916026.05683899 0 0 0 0 176989907.50989532 238263565.26699829 0 238263565.26699829 244943761.21998596 0 0 0 0 -27210252.41702652 49688578.65171814 0 49688578.65171814 724163469.60288239 0 0 0 0 1111959.9663486399 1172875.1037680209 0 1172875.1037680209 -650018.23055721074 0 0 0 0 125768507.09018081 210867840.28918004 0 210867840.28918004 230566413.73583984 0 0 0 0 144022398.08264184 -28303111.447181702 0 -28303111.447181702 318988191.32815552 0 0 0 0 79458314.247264624 113730662.73152924 0 113730662.73152924 762082515.72019958 0 0 0 0 -64456411.495690107 -16416504.237689972 0 -16416504.237689972 738121637.13885498 0 0 0 0 -79949847.376120359 162754.03414344788 0 162754.03414344788 839895410.55413818 0 0 0 0 349142201.63331109 -453717829.88464355 0 -453717829.88464355 697094378.42096567 0 0 0 0 227890626.36175919 107269712.91087723 0 107269712.91087723 741256710.3894577 0 0 0 0 535650784.47312856 -76834372.47379303 0 -76834372.47379303 732526494.98371124 0 0 0 0 551569557.56597638 -49154580.057659149 0 -49154580.057659149 625130159.27597046 0 0 0 0 -1495208.2398819351 -586183.09365052357 0 -586183.09365052357 2519278.3782626539 0 0 0 0 85746674.548520267 391936111.62278366 0 391936111.62278366 319289945.23458099 0 0 0 0 20012055.823993683 -56848068.843963623 0 -56848068.843963623 72924190.282432556 0 0 0 0 -30451651.471885681 -22700504.951217651 0 -22700504.951217651 137597016.73080444 0 0 0 0 -102185286.96822214 -57701172.600852966 0 -57701172.600852966 101346865.09277344 0 0 0 0 -122295009.42131531 -17197342.884543419 0 -17197342.884543419 20635551.596374512 0 0 0 0 -116802931.19900334 15513391.822517395 0 15513391.822517395 6279195.5921936035 0 0 0 0 -2469100.6784524452 -241114.40251045302 0 -241114.40251045302 4604666.4789257795 0 0 0 0 147560368.87344384 -279437545.64391708 0 -279437545.64391708 481236636.87361145 0 0 0 0 134144832.46167874 -214954351.92205048 0 -214954351.92205048 266762007.02551913 0 0 0 0 234070401.06541181 -307801575.97134399 0 -307801575.97134399 154347479.48928833 0 0 0 0 26518643.15515995 -190580251.67088318 0 -190580251.67088318 473733625.48040771 0 0 0 0 211961812.45862722 -159824563.32826996 0 -159824563.32826996 88945984.664276123 0 0 0 0 218166785.47215319 -195334075.11077118 0 -195334075.11077118 266110049.32609558 0 0 0 0 -32524803.742105484 -22186295.9401474 0 -22186295.9401474 -7465425.3229370117 0 0 0 0 -16467647.476072788 -39806061.948169708 0 -39806061.948169708 9528332.9979553223 0 0 0 0 8785980.5273604393 -29936144.513559341 0 -29936144.513559341 -5454105.849029541 0 0 0 0 -28038664.48102951 -32497623.48500824 0 -32497623.48500824 23060739.830963135 0 0 0 0 -11055385.883781433 -30800892.236755371 0 -30800892.236755371 -33304231.309509277 0 0 0 0 264153.92773253657 640436.67330159247 0 640436.67330159247 1271958.0521203689 0 0 0 0 -10626824.607978821 -30594826.981079102 0 -30594826.981079102 -45664563.529418945 0 0 0 0 -30404782.48733902 -29829591.717514038 0 -29829591.717514038 20052776.118347168 0 0 0 0 -8668319.7583126836 -9008977.8960106783 0 -9008977.8960106783 2802030.9140036106 0 0 0 0 -249873075.2352314 12291859.179458618 0 12291859.179458618 98810657.028450012 0 0 0 0 165187866.75223947 -163857863.71142578 0 -163857863.71142578 -17533647.906738281 0 0 0 0 130494528.17400932 -482675687.71532822 0 -482675687.71532822 299970966.31600952 0 0 0 0 -104664867.59905243 -348548554.78327179 0 -348548554.78327179 229502350.81015015 0 0 0 0 295377886.91325182 -245096138.14421844 0 -245096138.14421844 20637352.041915894 0 0 0 0 -42036.386798622785 158671.68352435529 0 158671.68352435529 1147502.2868572101 0 0 0 0 -32299789.367108256 6716998.6913833618 0 6716998.6913833618 -9559480.0950012207 0 0 0 0 -15496529.54535675 10603228.186309814 0 10603228.186309814 51332978.838745117 0 0 0 0 -1218837.6570057855 6165412.4443107508 0 6165412.4443107508 19625515.20859693 0 0 0 0 -46332625.695350647 -78794777.092399597 0 -78794777.092399597 -62041113.555351257 0 0 0 0 -80428070.623454094 -32530748.105369568 0 -32530748.105369568 18856036.717315674 0 0 0 0 -68019443.426729679 -71504540.197525024 0 -71504540.197525024 5513955.3572883606 0 0 0 0 -3646537.096446991 -55391058.997833252 0 -55391058.997833252 -3549846.0880126953 0 0 0 0 -11747093.545881271 1066841.4305305481 0 1066841.4305305481 -115934592.59994507 0 0 0 0 -32728696.968416214 -51166301.310569763 0 -51166301.310569763 11150190.551116943 0 0 0 0 -17103854.968493223 14868286.964172363 0 14868286.964172363 82933621.083946228 0 0 0 0 1473892.3804615987 12819905.125803918 0 12819905.125803918 1470203.9343687035 0 0 0 0 -6837420.7414557282 -5988194.998862993 0 -5988194.998862993 28744736.552661136 0 0 0 0 -23419849.347963333 -29272954.914352417 0 -29272954.914352417 1314208.7572479248 0 0 0 0 -48944941.251415253 -26702114.632896423 0 -26702114.632896423 42128697.568786621 0 0 0 0 -47683400.178436279 -20423907.503509521 0 -20423907.503509521 39000074.796661377 0 0 0 0 -20757011.773610115 -36064761.392181396 0 -36064761.392181396 44575481.082103729 0 0 0 0 -5441071.5519206934 -7607827.8450415656 0 -7607827.8450415656 33556043.223164037 0 0 0 0 39907582.460697412 34766793.957717896 0 34766793.957717896 37873044.546112061 0 0 0 0 -36039733.548605919 -43359459.969467163 0 -43359459.969467163 54592690.615615845 0 0 0 0 -28118751.435951233 -28029766.26953125 0 -28029766.26953125 12938307.893066406 0 0 0 0 -46058499.820240498 -31022804.404056549 0 -31022804.404056549 37427482.255126953 0 0 0 0 -42908247.895764351 -22850089.185459137 0 -22850089.185459137 46524881.929931641 0 0 0 0 -42770500.58967495 -18287601.597595215 0 -18287601.597595215 28754332.938415527 0 0 0 0 -145014.89936161478 -894470.8616958987 0 -894470.8616958987 111885.34421482682 0 0 0 0 -35254849.04357338 -29956155.593017578 0 -29956155.593017578 52283754.329238892 0 0 0 0 -39200548.810440063 -22302360.488815308 0 -22302360.488815308 39412512.125579834 0 0 0 0 -42586003.974906921 -30377314.914047241 0 -30377314.914047241 43533377.894348145 0 0 0 0 -40712207.995019913 -20564407.157897949 0 -20564407.157897949 49159007.147521973 0 0 0 0 -41797432.910708427 -19952039.889102936 0 -19952039.889102936 49247290.929534912 0 0 0 0 -38931428.837186813 -13571817.282333374 0 -13571817.282333374 61411931.235603333 0 0 0 0 -25797927.996669769 -16304769.651168823 0 -16304769.651168823 50464815.464115143 0 0 0 0 -5021353.2251205444 -31313530.070953369 0 -31313530.070953369 61091080.68132019 0 0 0 0 -22881643.065544128 -42300915.115837097 0 -42300915.115837097 43012981.503791809 0 0 0 0 4085312.2676467896 -22600538.551940918 0 -22600538.551940918 22703200.194549561 0 0 0 0 -4083613.3814601512 -4161466.4796163868 0 -4161466.4796163868 700596.03043822944 0 0 0 0 39149949.116575241 -58820003.569515228 0 -58820003.569515228 54032531.434196472 0 0 0 0 -4755480.3576653004 -29066319.154728889 0 -29066319.154728889 79674301.515396118 0 0 0 0 2786458.2151231766 -30595580.860046387 0 -30595580.860046387 79585555.59526825 0 0 0 0 -23985751.8455019 -16104755.289604187 0 -16104755.289604187 133841621.58166504 0 0 0 0 -27176686.594646454 -2640391.5729751587 0 -2640391.5729751587 77587172.835739136 0 0 0 0 -32502052.134243011 -6244266.9272079468 0 -6244266.9272079468 80864951.486679077 0 0 0 0 -31786348.904668331 -13403810.99305439 0 -13403810.99305439 86519283.156539917 0 0 0 0 -26312441.617984772 38628265.666099548 0 38628265.666099548 130030219.25613403 0 0 0 0 -26425053.422945179 22574083.900006294 0 22574083.900006294 83500357.352355957 0 0 0 0 -49252852.095619202 18150116.175613403 0 18150116.175613403 112087604.63006973 0 0 0 0 -57485074.159722805 30027511.209154129 0 30027511.209154129 223156849.19119263 0 0 0 0 -57883179.886178493 81254744.390174866 0 81254744.390174866 -47281658.520507812 0 0 0 0 -3291419.8391766408 -152518.52496041358 0 -152518.52496041358 7102579.2565878723 0 0 0 0 31742020.107646942 87785209.256210327 0 87785209.256210327 109349263.1872406 0 0 0 0 -4239162.9106946457 6335289.0807554275 0 6335289.0807554275 5602869.741747573 0 0 0 0 -22920345.846139908 38341210.129760742 0 38341210.129760742 98734771.880310059 0 0 0 0 -1071618.3987379074 47717181.45035553 0 47717181.45035553 60423598.498672485 0 0 0 0 -161950120.78105164 3356117.8646850586 0 3356117.8646850586 116111491.45074463 0 0 0 0 -20207459.644143604 21995026.399625294 0 21995026.399625294 11479613.86101087 0 0 0 0 -298594084.37403488 -574487256.40175533 0 -574487256.40175533 1191215349.2994385 0 0 0 0 -286937957.24375916 105163667.73170471 0 105163667.73170471 36036380.945678711 0 0 0 0 -9802656.397319641 -7860295.8241221905 0 -7860295.8241221905 45837876.924378835 0 0 0 0 798543753.07428741 211476695.6014328 0 211476695.6014328 -874033043.2035675 0 0 0 0 2244239646.8119278 19520828.818084717 0 19520828.818084717 802650868.0357666 0 0 0 0 -12759262.810890198 1152879737.8361435 0 1152879737.8361435 395841903.08744812 0 0 0 0 19489035.014396667 49477287.277023315 0 49477287.277023315 19106860.291648865 0 0 0 0 -17272797.954875059 26176031.739456207 0 26176031.739456207 12487506.034995908 0 0 0 0 31796809.815807939 72276464.766710758 0 72276464.766710758 -71255964.337463379 0 0 0 0 32145997.060089111 62512713.825210571 0 62512713.825210571 -72827843.137420654 0 0 0 0 -35305870.093250275 20998247.406074524 0 20998247.406074524 73270603.45541954 0 0 0 0 -20220267.838749647 32191956.966281891 0 32191956.966281891 71701041.140960693 0 0 0 0 -42913009.562979698 26077417.658359528 0 26077417.658359528 73972432.297012329 0 0 0 0 -10428663.754014231 10841759.449740779 0 10841759.449740779 44220013.615247041 0 0 0 0 -33542281.984796524 14009031.195587158 0 14009031.195587158 48853261.61782074 0 0 0 0 -49875946.660114288 -9751980.2262268066 0 -9751980.2262268066 63607953.423553467 0 0 0 0 -36574503.742418289 13943594.978492737 0 13943594.978492737 84516875.843795776 0 0 0 0 -29289082.545643806 21459623.637901306 0 21459623.637901306 88586806.209899902 0 0 0 0 -37468667.330596924 -889170.52003479004 0 -889170.52003479004 75094216.151794434 0 0 0 0 -37766466.990024269 -7448348.2461261749 0 -7448348.2461261749 58560358.863922119 0 0 0 0 -46467449.946176529 -10668096.530288696 0 -10668096.530288696 64158101.507537842 0 0 0 0 -32132038.731394768 -16383744.804389954 0 -16383744.804389954 61565445.541900635 0 0 0 0 -7187011.2085525878 1505070.4831614967 0 1505070.4831614967 42208117.693326175 0 0 0 0 -52436548.216386199 -5922041.0047683716 0 -5922041.0047683716 58169476.88180542 0 0 0 0 -46418809.322740555 -6867164.436630249 0 -6867164.436630249 45419664.855564117 0 0 0 0 -46989825.983644485 -8759302.0388793945 0 -8759302.0388793945 40104787.603759766 0 0 0 0 -38066381.467187405 19689920.077364922 0 19689920.077364922 68362620.561004639 0 0 0 0 -7465959.3428691709 7018460.8864363879 0 7018460.8864363879 14039061.381794631 0 0 0 0 -45648284.020637512 133729492.18658447 0 133729492.18658447 13132539.676055908 0 0 0 0 -66184394.048057556 43968866.231735229 0 43968866.231735229 17511125.23135376 0 0 0 0 -185637771.39669037 6495952.7487182617 0 6495952.7487182617 6057481.6300811768 0 0 0 0 -527597854.7009697 -95345303.034561157 0 -95345303.034561157 86464452.548614502 0 0 0 0 -235793985.13146877 207016234.6170311 0 207016234.6170311 49640462.427185059 0 0 0 0 -339850459.11090326 250474441.91361237 0 250474441.91361237 174213893.51641846 0 0 0 0 8954494.3318586349 157514564.13273621 0 157514564.13273621 41490247.47869873 0 0 0 0 -1951601.2992522107 2108995.5464525595 0 2108995.5464525595 3845336.5517538637 0 0 0 0 -316172289.2930603 263466363.18463135 0 263466363.18463135 42784934.794745207 0 0 0 0 -281896557.04567003 -47664814.423993111 0 -47664814.423993111 33222108.324157715 0 0 0 0 4810855.9684391022 28791108.023849487 0 28791108.023849487 40174573.400085449 0 0 0 0 -189139464.5973053 49061230.640380859 0 49061230.640380859 42137680.588320732 0 0 0 0 -62715963.921782374 -14310967.727051735 0 -14310967.727051735 18719251.81362915 0 0 0 0 -500984791.0104208 -15819959.090072632 0 -15819959.090072632 179948080.74739265 0 0 0 0 -177722337.976547 116050656.42619133 0 116050656.42619133 199684740.51589966 0 0 0 0 -62637649.640184402 -292220634.44325256 0 -292220634.44325256 -187794835.55410004 0 0 0 0 -341288236.37632108 597626944.85234451 0 597626944.85234451 111105764.90673828 0 0 0 0 -266711959.71033096 190979404.62358093 0 190979404.62358093 -48808070.316322327 0 0 0 0 -555328.32017940376 5037368.8972259164 0 5037368.8972259164 4833509.500348378 0 0 0 0 -226507575.16657114 -136786671.66465759 0 -136786671.66465759 -61081165.822677612 0 0 0 0 210853801.71438408 142400674.57427979 0 142400674.57427979 80525989.504760742 0 0 0 0 120608666.48841 -56772082.464302063 0 -56772082.464302063 -48479640.535888672 0 0 0 0 -18748.897089657374 607950.88389256597 0 607950.88389256597 1139977.8364632726 0 0 0 0 1143057284.8066826 375851838.27329254 0 375851838.27329254 -350513223.76501465 0 0 0 0 -117872.04931733559 424500.42566647753 0 424500.42566647753 1234244.3265389055 0 0 0 0 -186890134.52571201 83090150.579460144 0 83090150.579460144 236109847.36767578 0 0 0 0 228619355.61229706 248535951.39129639 0 248535951.39129639 89913704.795852661 0 0 0 0 285589212.90753078 -25675847.33618927 0 -25675847.33618927 259762286.26339722 0 0 0 0 6253197.9190135002 -16876717.838890076 0 -16876717.838890076 -59685842.419296265 0 0 0 0 -11890017.964467049 13700762.46698761 0 13700762.46698761 3133754.1951293945 0 0 0 0 -3260252.4244093895 23981613.177711487 0 23981613.177711487 -14035263.394714355 0 0 0 0 2628145.0557325236 4328033.0614493117 0 4328033.0614493117 -1358099.6813750565 0 0 0 0 53179513.108453751 -27034069.039642334 0 -27034069.039642334 -143411821.32066345 0 0 0 0 -717443.92045505601 2147239.0748749617 0 2147239.0748749617 4146534.1827118397 0 0 0 0 488002050.65358257 92648410.099388123 0 92648410.099388123 -146953192.4513855 0 0 0 0 357593.69599365443 170959.90585365891 0 170959.90585365891 -8884.0260454565287 0 0 0 0 274432548.17687035 51824226.783584595 0 51824226.783584595 -186981731.0372467 0 0 0 0 318395411.26092148 193618542.99182129 0 193618542.99182129 233803060.71557617 0 0 0 0 112076246.23779488 64194085.822189331 0 64194085.822189331 -29927299.39654541 0 0 0 0 -336281358.03598583 -166578185.55709934 0 -166578185.55709934 167145226.37207031 0 0 0 0 1557207.0453208385 3291805.4764350466 0 3291805.4764350466 -1897119.2373108119 0 0 0 0 322336013.07948303 -73712939.146331787 0 -73712939.146331787 -45510401.201538086 0 0 0 0 137282372.92871094 292468241.38195801 0 292468241.38195801 56429018.625640869 0 0 0 0 287533023.28688049 -601992944.96884155 0 -601992944.96884155 225731517.39099121 0 0 0 0 37414914.983177185 139798569.95672607 0 139798569.95672607 13394905.944824219 0 0 0 0 65803374.171546936 53286724.029754639 0 53286724.029754639 -3525451.6136474609 0 0 0 0 25330324.796980858 76667418.383422852 0 76667418.383422852 77031909.568481445 0 0 0 0 28423381.594293594 72805033.50868988 0 72805033.50868988 28511050.767974854 0 0 0 0 43818724.398151398 45561796.573150635 0 45561796.573150635 -98076662.234863281 0 0 0 0 98498254.567855835 7474907.7633056641 0 7474907.7633056641 -71951838.038696289 0 0 0 0 76109228.140113831 135298704.50274658 0 135298704.50274658 130641122.11328125 0 0 0 0 255646043.30533218 129518788.96835327 0 129518788.96835327 6246536.8322753906 0 0 0 0 -7456496.4462223053 18129546.771286011 0 18129546.771286011 140412884.76104069 0 0 0 0 171320335.86373377 -61057850.501755714 0 -61057850.501755714 -18723063.286941528 0 0 0 0 97688179.239490509 135917659.99304199 0 135917659.99304199 78756203.950271606 0 0 0 0 -2694148.8213639557 2799260.9578445926 0 2799260.9578445926 1443247.0599419177 0 0 0 0 -43205318.289798737 56899317.657539368 0 56899317.657539368 -20636282.706424713 0 0 0 0 -20760652.991527043 16973688.169830605 0 16973688.169830605 6699864.9412076846 0 0 0 0 -15164905.209331512 77473855.76008606 0 77473855.76008606 -12120814.75894165 0 0 0 0 -200672810.58943462 -195557708.36844635 0 -195557708.36844635 169060984.22982788 0 0 0 0 50182443.911754608 -19949820.537719727 0 -19949820.537719727 -205710561.5345459 0 0 0 0 -46800096.005653381 33166537.82635498 0 33166537.82635498 -71241763.238677979 0 0 0 0 -243172352.88118744 53270894.357086182 0 53270894.357086182 -4451441.0701904297 0 0 0 0 -63006182.718342781 124504464.36206055 0 124504464.36206055 -28552877.041473389 0 0 0 0 -151833548.47585386 101650583.69297028 0 101650583.69297028 13921157.034606934 0 0 0 0 453698.29930830991 1209166.4750733133 0 1209166.4750733133 -396925.96285319328 0 0 0 0 146633718.43749046 144894415.80810547 0 144894415.80810547 -327601473.61749268 0 0 0 0 279641161.76778221 389520967.21528625 0 389520967.21528625 -193449010.17485046 0 0 0 0 -19856980.991729736 52643031.420318604 0 52643031.420318604 -3497451.0964856148 0 0 0 0 -57914238.230612278 41006797.721343994 0 41006797.721343994 70112872.724914551 0 0 0 0 2689725.1840667725 36848304.520019531 0 36848304.520019531 9703738.3530073166 0 0 0 0 -130761358.08956766 73532887.558448792 0 73532887.558448792 9286189.6735229492 0 0 0 0 -49931990.631404459 -33768788.355668068 0 -33768788.355668068 7001323.7743835449 0 0 0 0 -85255998.572635651 -26281187.1847229 0 -26281187.1847229 6831207.1239929199 0 0 0 0 -49824157.012257338 -4497042.8607254028 0 -4497042.8607254028 69733286.055999756 0 0 0 0 4587933.3144054413 -11559812.414733887 0 -11559812.414733887 962325.53726196289 0 0 0 0 -27861956.30704689 -15707048.516433716 0 -15707048.516433716 133796296.27006531 0 0 0 0 -32731024.39705658 47300072.411010742 0 47300072.411010742 167651201.37181091 0 0 0 0 6412841.5501675606 5880928.1728363037 0 5880928.1728363037 64006182.025482178 0 0 0 0 -12641550.462812595 16399679.765226364 0 16399679.765226364 -708641.98077683151 0 0 0 0 97613128.199365616 54468011.942489624 0 54468011.942489624 71277965.400817871 0 0 0 0 -116560934.66212654 95683215.635498047 0 95683215.635498047 287282943.05813599 0 0 0 0 109307427.2179184 55221760.84916687 0 55221760.84916687 -186233377.50175476 0 0 0 0 -98809899.047911644 -12062816.311187744 0 -12062816.311187744 -83382122.769561768 0 0 0 0 -5664396.4784583608 14050344.428354323 0 14050344.428354323 -1501279.7236278355 0 0 0 0 66950395.893625259 -103692123.43954468 0 -103692123.43954468 -230583377.03380585 0 0 0 0 40006319.309677124 -91131427.772537231 0 -91131427.772537231 -2376366.2894592285 0 0 0 0 45716371.978397667 30557149.510797262 0 30557149.510797262 36234319.006134033 0 0 0 0 244473567.06601477 79479543.205539703 0 79479543.205539703 28232815.664291382 0 0 0 0 147457004.44613838 -27524466.545471191 0 -27524466.545471191 -84986450.71723175 0 0 0 0 25568704.350921631 59603844.327644348 0 59603844.327644348 28995603.548904419 0 0 0 0 12893618.757720947 134500935.55667114 0 134500935.55667114 51025237.592781067 0 0 0 0 111850699.3707304 87805351.803127289 0 87805351.803127289 37451677.920471191 0 0 0 0 -773346.1810836792 97773312.292396545 0 97773312.292396545 -29613276.428573608 0 0 0 0 -60140218.107540131 106074579.53483582 0 106074579.53483582 -26155746.479370117 0 0 0 0 -2321279.9102859497 118940481.3518219 0 118940481.3518219 -37507132.899658203 0 0 0 0 2251685.2718696594 58645819.521347046 0 58645819.521347046 -79250923.325016022 0 0 0 0 56354359.502338409 80522344.982048035 0 80522344.982048035 -83558769.750762939 0 0 0 0 125559034.34549332 84374662.319229126 0 84374662.319229126 -85042935.987411499 0 0 0 0 -71773246.959732056 -37790568.572250366 0 -37790568.572250366 63843860.904815674 0 0 0 0 -181182085.80738068 22754050.918464661 0 22754050.918464661 80280987.960479736 0 0 0 0 -9875526.6466579437 12053970.416542053 0 12053970.416542053 41319949.885131836 0 0 0 0 -21245695.308292389 -27848063.248443604 0 -27848063.248443604 61332915.989082336 0 0 0 0 -18240651.588886261 27380040.889633179 0 27380040.889633179 33975516.959030151 0 0 0 0 -179110438.2036171 136339305.25018311 0 136339305.25018311 21415451.66696167 0 0 0 0 -51030158.234390259 79020953.619888306 0 79020953.619888306 46740924.393707275 0 0 0 0 -27924883.634263992 169529847.68910027 0 169529847.68910027 -76963431.452453613 0 0 0 0 -233129623.55129623 9135545.4628295898 0 9135545.4628295898 65119119.407424927 0 0 0 0 -261046898.69792557 198492559.04719543 0 198492559.04719543 24162631.576313019 0 0 0 0 -281755.88546949625 -2327720.198741734 0 -2327720.198741734 7258467.6491978168 0 0 0 0 -185164294.11024857 212288905.98750305 0 212288905.98750305 -19959349.61958313 0 0 0 0 -15389740.489677429 -36450859.342727661 0 -36450859.342727661 63358866.2137146 0 0 0 0 21036848.215023041 -18009053.262939453 0 -18009053.262939453 37596044.847900391 0 0 0 0 -12924712.21337099 -12850606.298919678 0 -12850606.298919678 54769906.679763794 0 0 0 0 -16085869.513509631 -903559.15873819962 0 -903559.15873819962 33556602.465628147 0 0 0 0 -847318.48236458749 -6622759.209564209 0 -6622759.209564209 33750353.650177002 0 0 0 0 -17098318.103457481 8086431.1623535156 0 8086431.1623535156 38708034.486114502 0 0 0 0 -14592017.962508816 1445432.8836288452 0 1445432.8836288452 55648342.612548828 0 0 0 0 -600901.34700664831 -1603230.7494725585 0 -1603230.7494725585 5275434.8207719326 0 0 0 0 -14373208.741283365 7071636.9334716797 0 7071636.9334716797 22731464.640899658 0 0 0 0 -2094198.569952786 -6078953.6225280762 0 -6078953.6225280762 25315494.793273926 0 0 0 0 -102616.95242098936 2973967.3859363226 0 2973967.3859363226 -525732.63380309939 0 0 0 0 -14335003.101786524 -8305998.5552368164 0 -8305998.5552368164 26039939.694976807 0 0 0 0 8203234.6166511727 30371142.683429718 0 30371142.683429718 -5141910.4969787598 0 0 0 0 -33577.70798281944 14257.536854572594 0 14257.536854572594 34219.95796148479 0 0 0 0 840166.33102232218 36225400.009979248 0 36225400.009979248 -4831359.6371889114 0 0 0 0 -10339255.135017175 23520657.994916916 0 23520657.994916916 33350128.065185547 0 0 0 0 -14847904.343297023 -9203890.3773345947 0 -9203890.3773345947 37153131.365962982 0 0 0 0 -3874018.7906402051 11247513.343902588 0 11247513.343902588 34037975.941558838 0 0 0 0 -13515107.866314292 11747014.555145264 0 11747014.555145264 37728629.78125 0 0 0 0 -21715786.048193872 12827903.541320801 0 12827903.541320801 41150853.096618652 0 0 0 0 15089433.391837865 -21533933.310653687 0 -21533933.310653687 45448707.964111328 0 0 0 0 2860681.6520054042 -38438580.074806213 0 -38438580.074806213 63509162.61151123 0 0 0 0 -41389883.658046782 -161959.01135253906 0 -161959.01135253906 45416656.490478516 0 0 0 0 -17841746.488873124 -1185336.9994506836 0 -1185336.9994506836 38898474.831634521 0 0 0 0 -1531114.0979989469 -21571370.843856812 0 -21571370.843856812 42017289.74822998 0 0 0 0 -3169080.3471201472 4328806.023765564 0 4328806.023765564 32108178.887329102 0 0 0 0 -22836878.236627162 -20615093.922729492 0 -20615093.922729492 29606735.071411133 0 0 0 0 -18460785.64158687 -10397690.166534424 0 -10397690.166534424 50146474.565551758 0 0 0 0 -2987977.8747868203 -2523571.2773723602 0 -2523571.2773723602 13379803.819580078 0 0 0 0 -742196.94491571072 -245924.61344922334 0 -245924.61344922334 961617.89083580673 0 0 0 0 -105764831.31408191 32639683.468200684 0 32639683.468200684 28146778.360374451 0 0 0 0 -49753375.045938194 -19202941.107147217 0 -19202941.107147217 6555157.539855957 0 0 0 0 -16801.813542086165 133117.41457226127 0 133117.41457226127 600012.2832261771 0 0 0 0 -32221110.692025602 6215516.4272460938 0 6215516.4272460938 32182715.517089844 0 0 0 0 -45582580.098483115 34371872.587608337 0 34371872.587608337 23109613.72869873 0 0 0 0 -46209139.787769914 58738763.538330078 0 58738763.538330078 -34178177.040405273 0 0 0 0 -18658610.595504612 25936887.283905029 0 25936887.283905029 4392025.7661132812 0 0 0 0 -1823800.4787725061 -6029558.0998535156 0 -6029558.0998535156 61057346.769836426 0 0 0 0 1707297.0858727247 -16871137.762756348 0 -16871137.762756348 61275153.912536621 0 0 0 0 -9403718.2301559448 8461907.1227111816 0 8461907.1227111816 8343475.1170349121 0 0 0 0 -4963552.9905638471 -2104958.7359709516 0 -2104958.7359709516 6595556.0794776566 0 0 0 0 -8502334.3759077042 -31354761.935165405 0 -31354761.935165405 87848799.486541748 0 0 0 0 -6137058.768629849 13323973.579711914 0 13323973.579711914 82924882.427581787 0 0 0 0 -6239798.0609076619 -16515493.418395996 0 -16515493.418395996 67789203.910682678 0 0 0 0 -11036051.784008026 -1095123.4855651855 0 -1095123.4855651855 16113222.135818481 0 0 0 0 -3806197.1988132847 12643101.188791275 0 12643101.188791275 33021267.841491699 0 0 0 0 -7363989.499143404 -4328553.7960473895 0 -4328553.7960473895 10943768.176098794 0 0 0 0 -12170477.2076931 2995476.031036377 0 2995476.031036377 20041396.923233032 0 0 0 0 -9682006.1130290199 -5420767.9671630859 0 -5420767.9671630859 35554270.270599365 0 0 0 0 -31064304.168449223 22155224.454208374 0 22155224.454208374 19362708.434143066 0 0 0 0 -15881870.869518247 9967161.662628077 0 9967161.662628077 25153561.095205739 0 0 0 0 -3014618.4958552327 7740910.6448707581 0 7740910.6448707581 24405090.29385376 0 0 0 0 -22565217.403697968 19501325.909011841 0 19501325.909011841 43183421.562732697 0 0 0 0 -92756083.807327271 56932647.569702148 0 56932647.569702148 35201837.705032349 0 0 0 0 -17018880.922823276 14757186.546201527 0 14757186.546201527 22200504.844795719 0 0 0 0 -14302068.61819458 -1225270.8309860229 0 -1225270.8309860229 23295422.820220947 0 0 0 0 -14769529.647795677 -4688285.1734771729 0 -4688285.1734771729 86454451.68862915 0 0 0 0 -15112096.262340546 1651825.1674804688 0 1651825.1674804688 30457119.87979126 0 0 0 0 -7309243.3392372131 28237550.304595947 0 28237550.304595947 39555611.003684998 0 0 0 0 -8577101.0776247978 18544514.275966644 0 18544514.275966644 -3127775.0805358887 0 0 0 0 -8011509.5370569229 5331639.4677276611 0 5331639.4677276611 15190751.792999268 0 0 0 0 -12470604.677780151 11637695.028396606 0 11637695.028396606 17254887.286224365 0 0 0 0 3010302.3465009481 6815166.785342589 0 6815166.785342589 5076585.2795769572 0 0 0 0 2793149.3737771958 23972003.933737397 0 23972003.933737397 -1938133.2544250488 0 0 0 0 6756466.9970140457 35936746.215133667 0 35936746.215133667 -9875792.4460754395 0 0 0 0 3005544.8944587708 14342686.124282837 0 14342686.124282837 -28968032.459213257 0 0 0 0 4133248.1574331173 5013745.1740323901 0 5013745.1740323901 -879189.02393469214 0 0 0 0 -625091.57526540756 -413160.11644744873 0 -413160.11644744873 -3722231.3885574341 0 0 0 0 1660206.2251230322 1614070.745395042 0 1614070.745395042 572529.59264439344 0 0 0 0 1898361.4022265854 1947431.8858480752 0 1947431.8858480752 1436834.9452642873 0 0 0 0 -23566984.638687491 3472970.0154953003 0 3472970.0154953003 6319904.7248306274 0 0 0 0 -82870959.402899683 42328855.394195557 0 42328855.394195557 134752450.13262177 0 0 0 0 236662345.03576651 -356691520.34530449 0 -356691520.34530449 -271450245.09536743 0 0 0 0 -21201467.052250385 516086134.21570778 0 516086134.21570778 -134267028.77001953 0 0 0 0 -223560634.44147253 -317859883.22311401 0 -317859883.22311401 52782398.286476135 0 0 0 0 676149.58992271661 415578.89538646489 0 415578.89538646489 516952.62362445146 0 0 0 0 64000144.419383198 -6153898.6143798828 0 -6153898.6143798828 -33848908.341064453 0 0 0 0 -90777999.973327994 -338671381.29051208 0 -338671381.29051208 442483155.45210266 0 0 0 0 -23711340.853564769 678689.25019073486 0 678689.25019073486 50063528.866989136 0 0 0 0 118011322.89089862 -92545677.155448914 0 -92545677.155448914 55209468.218261719 0 0 0 0 1159201.7306955904 -1996038.4619026184 0 -1996038.4619026184 56462148.006011963 0 0 0 0 5073229.9426070601 3051099.6421051025 0 3051099.6421051025 31683720.84664917 0 0 0 0 8700227.2210437059 2630885.0006446838 0 2630885.0006446838 7747359.0959014893 0 0 0 0 -20625482.321905375 40695316.631530762 0 40695316.631530762 -5268058.6315765381 0 0 0 0 -12387363.273469925 13278493.333206177 0 13278493.333206177 11590258.771820068 0 0 0 0 -29009881.027857363 40604527.285812378 0 40604527.285812378 -3524445.8698120117 0 0 0 0 1784671.2678863583 6627977.7879460603 0 6627977.7879460603 5659316.1421733499 0 0 0 0 7332046.6826298535 4760291.5472412109 0 4760291.5472412109 -5811706.1555480957 0 0 0 0 -14084108.376064278 -7443613.5785446167 0 -7443613.5785446167 27253195.488464355 0 0 0 0 -2418505.4294904619 21523360.361030579 0 21523360.361030579 -1820051.3411254883 0 0 0 0 -59487016.462683797 32940905.769622803 0 32940905.769622803 7619759.1655578613 0 0 0 0 -28402205.6061121 43913717.558494568 0 43913717.558494568 -56825834.146240234 0 0 0 0 -32198124.275440335 -8004938.3838806152 0 -8004938.3838806152 -42508259.809020996 0 0 0 0 -24345093.940915674 11277530.110092163 0 11277530.110092163 4455611.9130859375 0 0 0 0 3350772.1271585822 10750202.219726562 0 10750202.219726562 -20020506.934570312 0 0 0 0 1603060.5879100859 7265998.874786377 0 7265998.874786377 15416609.006713867 0 0 0 0 16705804.562939227 -586388.26370239258 0 -586388.26370239258 3065393.0343933105 0 0 0 0 871744.11575466394 -5069864.9680633545 0 -5069864.9680633545 27912741.952880859 0 0 0 0 17901671.905674249 -5809668.9502563477 0 -5809668.9502563477 24384276.549468994 0 0 0 0 12453240.546441663 -13003961.929235458 0 -13003961.929235458 43290418.663421631 0 0 0 0 18357587.272043597 -45804471.961177826 0 -45804471.961177826 79823840.793670654 0 0 0 0 30338498.643004544 -29260742.371902466 0 -29260742.371902466 43306841.101742297 0 0 0 0 35041970.302956663 -63488043.995071411 0 -63488043.995071411 80726129.124732971 0 0 0 0 33297373.419931456 -20720159.494598389 0 -20720159.494598389 20227036.843688965 0 0 0 0 18114050.915222995 -28821739.503173828 0 -28821739.503173828 66173512.672302246 0 0 0 0 51101382.341282792 -23317714.30027771 0 -23317714.30027771 36589691.850143433 0 0 0 0 23141734.9441102 -47331285.263778687 0 -47331285.263778687 101972025.77108765 0 0 0 0 53590123.780381851 -149519013.53922653 0 -149519013.53922653 217391453.2543335 0 0 0 0 11856825.27296799 -76717678.348651886 0 -76717678.348651886 164468125.89413452 0 0 0 0 -23757373.733933527 -56282269.712852478 0 -56282269.712852478 247128552.79168701 0 0 0 0 -4567558.8424508534 -39559802.9193573 0 -39559802.9193573 184066980.74116516 0 0 0 0 -26163040.693411242 -53292596.758422852 0 -53292596.758422852 353285882.85183716 0 0 0 0 -15933854.408440828 -27642973.116378784 0 -27642973.116378784 236827474.68191528 0 0 0 0 -15837151.266327448 -30070354.102104187 0 -30070354.102104187 170845136.67941952 0 0 0 0 -61387.056378215639 748688.46231842041 0 748688.46231842041 226471144.1713562 0 0 0 0 -2314489.9293269366 -44067558.958778381 0 -44067558.958778381 172489396.13950539 0 0 0 0 41819.259979301009 -12156530.931312561 0 -12156530.931312561 96660804.925384521 0 0 0 0 -1055019.5445887148 -27813497.677658081 0 -27813497.677658081 103725786.39379883 0 0 0 0 14873845.041925952 -14064856.784282684 0 -14064856.784282684 42396933.217193604 0 0 0 0 10769625.264332632 -19617918.652877808 0 -19617918.652877808 66480252.663391113 0 0 0 0 6157991.139180854 -30673729.436187744 0 -30673729.436187744 86977063.488731384 0 0 0 0 -6272.989072016474 -8383886.9972571516 0 -8383886.9972571516 49712094.205627441 0 0 0 0 8217028.1508378126 -12558119.781158447 0 -12558119.781158447 37913351.465682983 0 0 0 0 -900481.51397729851 -2133533.0514221191 0 -2133533.0514221191 20280490.350212097 0 0 0 0 -448.55580987545318 -1496.6171296089888 0 -1496.6171296089888 23016.977958239615 0 0 0 0 -2021541.1277695503 3590387.3104629517 0 3590387.3104629517 30737164.343994141 0 0 0 0 2300965.4835336106 -10022686.600662231 0 -10022686.600662231 44471903.862548828 0 0 0 0 2615686.212656796 6818329.896270752 0 6818329.896270752 23354499.960021973 0 0 0 0 2879453.1364427805 2928631.1494140625 0 2928631.1494140625 27038038.093650818 0 0 0 0 -408634.53988756984 5352543.470413208 0 5352543.470413208 23041690.013000488 0 0 0 0 11818081.184808278 -652860.45384979248 0 -652860.45384979248 22141085.52557373 0 0 0 0 -2614176.0768626854 765906.21441650391 0 765906.21441650391 22215181.007003784 0 0 0 0 -3375119.1629514992 18862938.999755859 0 18862938.999755859 13931056.242584229 0 0 0 0 -16307508.940784328 32002523.839553833 0 32002523.839553833 1550625.0893554688 0 0 0 0 -608775.9067170918 20474500.287750244 0 20474500.287750244 5482912.5121917725 0 0 0 0 7959970.4162466526 7552262.375831604 0 7552262.375831604 20902658.219848633 0 0 0 0 -6517648.7975040078 15873077.061340332 0 15873077.061340332 16979419.351776123 0 0 0 0 -10517027.822357997 15408269.610603333 0 15408269.610603333 28127249.432739258 0 0 0 0 -19834298.607984401 25766628.986083984 0 25766628.986083984 23179007.275939941 0 0 0 0 -11033249.563139319 15920145.425842285 0 15920145.425842285 31811024.777770996 0 0 0 0 -9261327.6536682472 -3601255.8586883545 0 -3601255.8586883545 41959140.112670898 0 0 0 0 -69316.964230618643 41827.068476140499 0 41827.068476140499 76078.565597996116 0 0 0 0 -12474953.192484543 3192059.3328552246 0 3192059.3328552246 36742618.34148407 0 0 0 0 -10092207.368993752 12439987.539031982 0 12439987.539031982 26202978.593261719 0 0 0 0 -10796419.273854509 12702978.810836792 0 12702978.810836792 29979660.656005859 0 0 0 0 -10465067.793421417 9067112.2222900391 0 9067112.2222900391 29582513.086639404 0 0 0 0 -10010739.767046392 9055404.9895324707 0 9055404.9895324707 16936376.560546875 0 0 0 0 -7256468.4478338808 -2377487.2949523926 0 -2377487.2949523926 21598666.216247559 0 0 0 0 -13493208.815683082 9720577.7723999023 0 9720577.7723999023 17803619.461547852 0 0 0 0 -6549521.4232280552 -4270117.0072021484 0 -4270117.0072021484 4199818.7191467285 0 0 0 0 8835438.9513782132 4027573.4091033936 0 4027573.4091033936 10576734.819793701 0 0 0 0 2698.3246182614366 5412.1518015265465 0 5412.1518015265465 7511.8992469832301 0 0 0 0 -14829298.995891664 18750142.457122803 0 18750142.457122803 14798647.048904419 0 0 0 0 1708010.1572053283 -2597887.4755554199 0 -2597887.4755554199 8190687.3721466064 0 0 0 0 -13667834.829232622 4065983.1989059448 0 4065983.1989059448 19786909.218566895 0 0 0 0 -830318.33461660892 7501178.9045410156 0 7501178.9045410156 20370916.387054443 0 0 0 0 10239104.211043879 -13506163.86315918 0 -13506163.86315918 -9336531.698059082 0 0 0 0 -19260402.092979535 4732670.6745605469 0 4732670.6745605469 20164752.136535645 0 0 0 0 -2385672.1228487566 22456438.009521484 0 22456438.009521484 -13094731.497253418 0 0 0 0 -31074.106144230635 22305.445203125477 0 22305.445203125477 39902.130591772497 0 0 0 0 -5887281.0198264495 -24459024.021224976 0 -24459024.021224976 84254361.545013428 0 0 0 0 -11927747.940795362 -2376821.6817321777 0 -2376821.6817321777 60394881.937957764 0 0 0 0 -2209867.6989433803 2053641.7358703613 0 2053641.7358703613 39891249.342636108 0 0 0 0 9445250.3482798599 -18431148.645278931 0 -18431148.645278931 58417221.259185791 0 0 0 0 1609591.1125444304 -2894458.5693435669 0 -2894458.5693435669 45676588.270629883 0 0 0 0 -14622159.586179454 -4782662.1436462402 0 -4782662.1436462402 61607192.90007019 0 0 0 0 -7615857.4768321328 -9184613.8963470459 0 -9184613.8963470459 46612440.52166748 0 0 0 0 -8387132.4089111239 -3299740.4927368164 0 -3299740.4927368164 73219726.434387207 0 0 0 0 -218796.54592446797 -12671872.31880188 0 -12671872.31880188 49916375.500030518 0 0 0 0 -6481613.433187589 -4309057.7238922119 0 -4309057.7238922119 57709791.669122696 0 0 0 0 -6222665.8341738768 -7093010.4248962402 0 -7093010.4248962402 47899953.464935303 0 0 0 0 -4825603.9610976167 -11415247.646850586 0 -11415247.646850586 46381087.95690918 0 0 0 0 -4922096.9876365587 -372129.51031494141 0 -372129.51031494141 44229109.789772034 0 0 0 0 -7567.1570199354537 -7841325.1966506438 0 -7841325.1966506438 37086064.293487549 0 0 0 0 -4169058.8519439008 -3019872.5799713135 0 -3019872.5799713135 33775292.309783936 0 0 0 0 -1757.4094526070362 -5223688.1106543988 0 -5223688.1106543988 27258663.92276001 0 0 0 0 -12465262.574662272 25639787.716064453 0 25639787.716064453 4598365.8778381348 0 0 0 0 -6855096.8400181625 -1913999.5501708984 0 -1913999.5501708984 30306967.89956665 0 0 0 0 -3571440.4355992153 -4968947.5630874634 0 -4968947.5630874634 32255772.688568115 0 0 0 0 -53855780.565061569 -721735397.27822876 0 -721735397.27822876 -264020697.52855682 0 0 0 0 -147189479.99708939 -57445709.22883606 0 -57445709.22883606 130294913.7272644 0 0 0 0 -3166140.9316653274 1712384.7091396321 0 1712384.7091396321 8544222.4006941877 0 0 0 0 213227966.94731712 129577714.13076591 0 129577714.13076591 319065716.83583832 0 0 0 0 750024832.85038757 -234488056.86587524 0 -234488056.86587524 -465502427.31937695 0 0 0 0 859684451.54750061 166992158.32336521 0 166992158.32336521 -379666959.28578186 0 0 0 0 896459017.10293961 53748334.441742897 0 53748334.441742897 -243114160.24526215 0 0 0 0 1117060054.3126335 -32714172.71245575 0 -32714172.71245575 -295621708.46687508 0 0 0 0 816946727.68778229 -20857518.956192017 0 -20857518.956192017 -235363026.41720581 0 0 0 0 -141761383.85681152 -41181154.936923981 0 -41181154.936923981 178088369.97386169 0 0 0 0 -52548241.950775146 -61008037.574989319 0 -61008037.574989319 100970665.4440918 0 0 0 0 18315487.733650208 -242973210.21515465 0 -242973210.21515465 290056979.68445015 0 0 0 0 -206108266.27973175 10308423.059635162 0 10308423.059635162 82276149.666553497 0 0 0 0 28128400.573850632 -1018971.920576632 0 -1018971.920576632 74481065.34274292 0 0 0 0 -274120872.47509766 32496349.397094727 0 32496349.397094727 -5346466.2363033295 0 0 0 0 -29772264.958618164 18082088.804229736 0 18082088.804229736 -12228779.286499023 0 0 0 0 -90040504.688941956 -97989417.740394592 0 -97989417.740394592 132314537.48900223 0 0 0 0 -130295137.94721985 -15403118.097465515 0 -15403118.097465515 16749522.340301514 0 0 0 0 -58617439.969275475 -78854191.741147995 0 -78854191.741147995 -45525556.033691406 0 0 0 0 -55401477.252490997 -63147011.021709442 0 -63147011.021709442 22794395.262924194 0 0 0 0 -4088742.1152500631 2463846.8043900747 0 2463846.8043900747 10169689.400649697 0 0 0 0 -291560840.61918163 195099685.03227806 0 195099685.03227806 -125122263.53034973 0 0 0 0 -327874311.61275959 -109316090.03657103 0 -109316090.03657103 301698458.38072205 0 0 0 0 -652876735.98247814 83828064.211940765 0 83828064.211940765 934849296.87985229 0 0 0 0 -715839452.65140867 -296332246.30845118 0 -296332246.30845118 216623119.97364807 0 0 0 0 817605484.86385345 -57152211.880432129 0 -57152211.880432129 -180378758.315979 0 0 0 0 854811357.48564339 -741524086.48937225 0 -741524086.48937225 3489898794.8246613 0 0 0 0 665099949.94120598 432654029.42129326 0 432654029.42129326 -759882875.20603943 0 0 0 0 -1086838060.5298729 -993995835.88594437 0 -993995835.88594437 1025984550.3645592 0 0 0 0 691878350.30039215 195021807.91539574 0 195021807.91539574 495185068.01251221 0 0 0 0 755391230.33737564 277586925.2522316 0 277586925.2522316 595824088.89479065 0 0 0 0 1073455291.5541 368068779.88426208 0 368068779.88426208 -340575567.62453461 0 0 0 0 1130779119.4139061 26734379.145088196 0 26734379.145088196 535077286.38803101 0 0 0 0 1431662760.6930399 799190260.91627502 0 799190260.91627502 635555476.59890747 0 0 0 0 3055009726.7235718 1177215622.2603683 0 1177215622.2603683 1078279360.1435699 0 0 0 0 558461750.84723282 1675096641.9550056 0 1675096641.9550056 4689652319.8461914 0 0 0 0 96494903.266113281 525288648.71688271 0 525288648.71688271 1939423342.5703888 0 0 0 0 -282543466.55638349 -36270002.63198185 0 -36270002.63198185 1632352137.1916809 0 0 0 0 -289358785.97818756 136570968.91474915 0 136570968.91474915 2947314255.3109283 0 0 0 0 206274279.45651627 762713080.56124115 0 762713080.56124115 2097048165.4386177 0 0 0 0 -242215138.33503723 328014879.28128815 0 328014879.28128815 1956571555.8924303 0 0 0 0 -381059861.45450592 38163449.674987793 0 38163449.674987793 1914407153.5811634 0 0 0 0 -60022251.601192474 -32630803.82384491 0 -32630803.82384491 1746052452.2690506 0 0 0 0 -354459472.36004257 54036208.327613831 0 54036208.327613831 1877145552.5097961 0 0 0 0 -301514322.46872616 165797849.24629402 0 165797849.24629402 1600193648.5967407 0 0 0 0 -240576463.9255619 226784825.663414 0 226784825.663414 1375659182.7088928 0 0 0 0 -67881894.747834206 287100157.06138802 0 287100157.06138802 741368898.21990967 0 0 0 0 -283118249.16259384 190959755.97480774 0 190959755.97480774 1367283833.0300503 0 0 0 0 601628680.9093008 -37903602.679590225 0 -37903602.679590225 -44540534.070365906 0 0 0 0 -217046699.87906647 -47209832.927837372 0 -47209832.927837372 1034312399.2576828 0 0 0 0 126085619.91276217 418087250.30480003 0 418087250.30480003 1285924207.1637878 0 0 0 0 -198147981.79035759 545981103.13446045 0 545981103.13446045 2901156398.5908623 0 0 0 0 -5762050.1784667969 346162294.12772369 0 346162294.12772369 2717892737.843277 0 0 0 0 92657551.133808136 501038748.26504517 0 501038748.26504517 2395642026.8891449 0 0 0 0 209946817.67466706 374749373.8748126 0 374749373.8748126 2512292797.5725861 0 0 0 0 -188403956.83776283 493978666.15255737 0 493978666.15255737 2664755003.5986176 0 0 0 0 318782193.9380703 365481110.17290878 0 365481110.17290878 1677363903.3501225 0 0 0 0 18485439.470462799 469609486.1222229 0 469609486.1222229 1986282873.4229774 0 0 0 0 92824711.274892807 729764653.5216217 0 729764653.5216217 2529779446.9794235 0 0 0 0 -103480106.62109756 -115277199.82676697 0 -115277199.82676697 1498372875.6079998 0 0 0 0 -156113093.83027267 -117155259.59370422 0 -117155259.59370422 1101022231.6813736 0 0 0 0 -321531157.85873413 86338904.450927734 0 86338904.450927734 529304088.47387695 0 0 0 0 -393891688.44441605 -268924936.65667725 0 -268924936.65667725 1129832630.6982346 0 0 0 0 -400953641.24385071 93805962.441390991 0 93805962.441390991 1232393691.3041077 0 0 0 0 -161747038.73626709 130726502.73040771 0 130726502.73040771 1928574134.5362339 0 0 0 0 -7696164.4945759773 256796295.72630692 0 256796295.72630692 1484264016.4736786 0 0 0 0 170655393.09250975 -70204229.252632141 0 -70204229.252632141 1599169816.141922 0 0 0 0 4797958.1465409733 561954.62839980796 0 561954.62839980796 376078.78313389886 0 0 0 0 117921871.67778015 129440858.96580505 0 129440858.96580505 1256300236.1059227 0 0 0 0 285671797.5967598 174743873.82681274 0 174743873.82681274 1243089812.8750401 0 0 0 0 73635490.852430344 304782521.79142761 0 304782521.79142761 1667402957.6543427 0 0 0 0 -15938495.852384567 118907089.15163422 0 118907089.15163422 1644209728.8951721 0 0 0 0 -9286651.9145507812 263435589.9936161 0 263435589.9936161 1328244172.6457214 0 0 0 0 -189871389.06736755 -150891682.40899658 0 -150891682.40899658 1006804794.5870667 0 0 0 0 -367858125.91423798 34156624.050094604 0 34156624.050094604 1323806604.2814331 0 0 0 0 -79317476.183485031 160381257.2161026 0 160381257.2161026 2361771588.696413 0 0 0 0 -214773123.97031403 241962525.38948822 0 241962525.38948822 -124664662.52761078 0 0 0 0 -68836628.069690704 174623115.51060104 0 174623115.51060104 -122340472.92824554 0 0 0 0 -101966261.50370598 -67727157.356388092 0 -67727157.356388092 -43172845.535186768 0 0 0 0 -55642133.310935974 -69878130.079322815 0 -69878130.079322815 -96267635.181671143 0 0 0 0 166012859.62559986 -37062321.743221283 0 -37062321.743221283 250800596.44528198 0 0 0 0 1680041.5869766471 5571534.2569280565 0 5571534.2569280565 4421116.2865815461 0 0 0 0 123175770.66256714 -300437560.92907715 0 -300437560.92907715 -365725229.05053711 0 0 0 0 142458.00063465082 199627.95930279046 0 199627.95930279046 -138652.40339387208 0 0 0 0 -30855363.543170929 -68637743.761383057 0 -68637743.761383057 -150343985.45254517 0 0 0 0 -89100214.278253555 -97700171.888908386 0 -97700171.888908386 22177700.996269226 0 0 0 0 -418919116.22303009 -307754332.99055481 0 -307754332.99055481 130973091.78417969 0 0 0 0 -359060755.29312134 -348682410.88558197 0 -348682410.88558197 -6589985.6489562988 0 0 0 0 119714099.78489304 135138611.95838547 0 135138611.95838547 1470135.7404251099 0 0 0 0 -1190117.8911309494 2269599.0581087265 0 2269599.0581087265 983950.39608772844 0 0 0 0 -431018010.1779604 229648774.08228779 0 229648774.08228779 -113561550.04722977 0 0 0 0 -671160942.25392914 53539754.631698608 0 53539754.631698608 70534913.601623535 0 0 0 0 -249543178.53646088 169765259.71909332 0 169765259.71909332 -93548869.324485779 0 0 0 0 424996501.84759903 201556783.56592178 0 201556783.56592178 -176676100.5327034 0 0 0 0 831401248.98664379 -47353713.235946655 0 -47353713.235946655 -62609722.913291931 0 0 0 0 1713449.6109959427 -1593398.5178951696 0 -1593398.5178951696 632.79292447306216 0 0 0 0 2038438.4551771106 -1486412.9427706338 0 -1486412.9427706338 1965402.4988758583 0 0 0 0 -44287969.891719818 -98131679.530761719 0 -98131679.530761719 -71485476.502086639 0 0 0 0 88559226.794239044 13140990.497844696 0 13140990.497844696 68373895.474873126 0 0 0 0 -58860271.315422058 -108750149.02959251 0 -108750149.02959251 66464470.048614502 0 0 0 0 -152081179.84964752 23282380.455165863 0 23282380.455165863 -18361602.072065353 0 0 0 0 317426789.09218025 -82234487.947650909 0 -82234487.947650909 706031589.92106628 0 0 0 0 423072759.87421227 -17271913.780424118 0 -17271913.780424118 54537664.91053772 0 0 0 0 228649463.99783707 137898614.18984222 0 137898614.18984222 251325552.25557661 0 0 0 0 352107953.16495848 -203186116.37528038 0 -203186116.37528038 193624144.60832977 0 0 0 0 -105561080.63042259 -112327724.90082169 0 -112327724.90082169 183170377.51624298 0 0 0 0 -28350730.88401413 93118831.756866455 0 93118831.756866455 164449692.74260855 0 0 0 0 30187782.549583435 123114143.96079636 0 123114143.96079636 -92882151.803937912 0 0 0 0 -205145853.58400249 -99708837.776266098 0 -99708837.776266098 35766009.317344666 0 0 0 0 53091305.094093323 210443689.29256821 0 210443689.29256821 194854005.26217556 0 0 0 0 349127482.09953594 79789848.773661137 0 79789848.773661137 17909020.020431519 0 0 0 0 73092257.300653458 -22359120.60417366 0 -22359120.60417366 117448902.40052795 0 0 0 0 -5678455.6995677948 18315557.38105011 0 18315557.38105011 -38129820.763881683 0 0 0 0 -478976339.21790779 -45626139.305460453 0 -45626139.305460453 45491900.466430664 0 0 0 0 -1346639.0317688864 -145562.06759126857 0 -145562.06759126857 1144072.6518303193 0 0 0 0 1679728.052045445 6239922.3664748175 0 6239922.3664748175 4060341.9255080074 0 0 0 0 -545333299.36358261 422005587.08874893 0 422005587.08874893 -71528193.286261559 0 0 0 0 -356280087.61822224 214326091.0610714 0 214326091.0610714 1639377.0870857239 0 0 0 0 -382306128.1126442 28830569.942180634 0 28830569.942180634 185308916.52108765 0 0 0 0 -256876311.54974365 162274731.17782784 0 162274731.17782784 -119852600.79540253 0 0 0 0 -145051879.03496933 -3194105.6848983765 0 -3194105.6848983765 19249281.126747131 0 0 0 0 -111457149.70316315 2318900.6018562317 0 2318900.6018562317 21984300.40760231 0 0 0 0 643787.58384205308 -546590.75306143053 0 -546590.75306143053 -169030.34334908193 0 0 0 0 -104689703.64340973 13882424.56946373 0 13882424.56946373 -44021733.50099659 0 0 0 0 1629399.0011547238 6248175.6215437772 0 6248175.6215437772 3771726.4416276366 0 0 0 0 -543354466.67582893 229466320.6541748 0 229466320.6541748 133017586.00123978 0 0 0 0 -250808222.04627132 -87277071.254853249 0 -87277071.254853249 -36331999.281673431 0 0 0 0 -645927467.78179359 70156058.098905563 0 70156058.098905563 118144280.49109077 0 0 0 0 -25020589.0921278 134224614.63763618 0 134224614.63763618 -4313344.8104095459 0 0 0 0 11324702.53578186 66698980.585760117 0 66698980.585760117 119808062.83683634 0 0 0 0 382863875.97458363 151607758.13074493 0 151607758.13074493 -57575429.491600037 0 0 0 0 175575403.50212097 165348055.90232086 0 165348055.90232086 -14922563.66932106 0 0 0 0 121927282.78809929 26653324.847818375 0 26653324.847818375 -77501177.387691498 0 0 0 0 -217202476.54456902 173266573.89291573 0 173266573.89291573 77352642.325719833 0 0 0 0 1464321.362812452 5219387.3584744902 0 5219387.3584744902 2356072.1839294508 0 0 0 0 177030454.30587435 139879184.61816168 0 139879184.61816168 -28417393.352897644 0 0 0 0 230708438.37905312 128922567.02181244 0 128922567.02181244 -62806505.708892822 0 0 0 0 336426364.92356491 98879935.216373444 0 98879935.216373444 -67844200.359359741 0 0 0 0 276607751.10517502 60151336.29076004 0 60151336.29076004 38882504.958389282 0 0 0 0 324720821.1946311 51368545.011320829 0 51368545.011320829 -92459424.032821655 0 0 0 0 276982885.32188416 26080832.917325974 0 26080832.917325974 -82557132.465206146 0 0 0 0 321321933.34248066 -17110159.247232437 0 -17110159.247232437 -53215877.218597412 0 0 0 0 328466225.42995071 -51710457.404724121 0 -51710457.404724121 23827155.88492775 0 0 0 0 209570661.89440155 -2353110.9277153015 0 -2353110.9277153015 -102318740.92939186 0 0 0 0 6145650.8116416931 -149270743.46769476 0 -149270743.46769476 21268868.337677002 0 0 0 0 271692526.74739075 -91208665.23481369 0 -91208665.23481369 -162855986.84413719 0 0 0 0 477254490.94375229 110073015.03935432 0 110073015.03935432 -84320215.703125 0 0 0 0 415939517.60023117 -103743443.81891823 0 -103743443.81891823 -131581398.75593948 0 0 0 0 757340043.18569183 334217682.58538055 0 334217682.58538055 172407165.27123642 0 0 0 0 663900867.66006851 -371273801.01221848 0 -371273801.01221848 286328084.509655 0 0 0 0 103359639.18532181 -25948443.932781219 0 -25948443.932781219 110011090.07787704 0 0 0 0 99870389.204097986 14899677.294332147 0 14899677.294332147 40336007.027893066 0 0 0 0 -336286825.22924042 96795378.315777779 0 96795378.315777779 653175068.59335327 0 0 0 0 -193133466.90390301 305823957.52156973 0 305823957.52156973 128498492.0406189 0 0 0 0 -1504158.9005256323 1043532.192327911 0 1043532.192327911 3569699.8723771349 0 0 0 0 -17158384.831906796 89914196.191231728 0 89914196.191231728 -175032154.18752289 0 0 0 0 1089924885.2689514 -233146635.64453316 0 -233146635.64453316 -87830321.991218567 0 0 0 0 725175222.01410103 -392461426.3395443 0 -392461426.3395443 407110959.5776062 0 0 0 0 -68219254.32756424 -238288429.52184582 0 -238288429.52184582 290741139.11668777 0 0 0 0 -134020390.19522095 -24617007.090278625 0 -24617007.090278625 244140705.01758385 0 0 0 0 2441223.2750121318 -2044197.4289527135 0 -2044197.4289527135 -2991202.343520483 0 0 0 0 -276425065.68218994 34698672.223392487 0 34698672.223392487 289252810.20764923 0 0 0 0 3669796.3082362935 -3520253.3332198206 0 -3520253.3332198206 -4910302.3563827612 0 0 0 0 -68830308.291114807 -137956122.94235992 0 -137956122.94235992 266709202.27087688 0 0 0 0 -533626588.4295578 -123195075.27282619 0 -123195075.27282619 279151870.67857361 0 0 0 0 152577234.49796295 -133663982.35624313 0 -133663982.35624313 -371595225.76940536 0 0 0 0 -82947566.49615097 232559192.3381424 0 232559192.3381424 -170530797.27895927 0 0 0 0 -302025489.64187241 -276441884.64040947 0 -276441884.64040947 -48539318.210609436 0 0 0 0 -435440966.17197895 66423132.190849304 0 66423132.190849304 115402915.72409058 0 0 0 0 -116786162.08531189 146766336.27074051 0 146766336.27074051 -256387250.85945129 0 0 0 0 -928751.41175560653 -2380452.0738243982 0 -2380452.0738243982 3073615.3521279348 0 0 0 0 8203886.9604873657 -99599054.703723907 0 -99599054.703723907 28609070.887563705 0 0 0 0 185905361.74634171 -6871501.1615924835 0 -6871501.1615924835 -275310720.36377048 0 0 0 0 82627560.712120056 -302854679.45212173 0 -302854679.45212173 165069380.47101402 0 0 0 0 2401978.9968588203 -2161396.3998320447 0 -2161396.3998320447 -3105177.4639401007 0 0 0 0 -2640454.4055900574 104934664.84133911 0 104934664.84133911 -65615268.169841766 0 0 0 0 -136684867.35881042 -134864746.56694794 0 -134864746.56694794 63343568.718912125 0 0 0 0 45289638.95111084 217851543.99715424 0 217851543.99715424 136571559.01264131 0 0 0 0 -8084557.6258556098 2890279.0181420771 0 2890279.0181420771 17157672.155855492 0 0 0 0 -1336536.3905181885 18380988.389907837 0 18380988.389907837 27557825.007644653 0 0 0 0 -17533432.650039673 3965899.8585662842 0 3965899.8585662842 51496335.20759964 0 0 0 0 -11867973.945836717 10443892.150944291 0 10443892.150944291 32475272.832905497 0 0 0 0 -19634331.773588181 6943117.3382778168 0 6943117.3382778168 23073540.635360718 0 0 0 0 112581286.47019196 129498596.41903019 0 129498596.41903019 -186767911.34112549 0 0 0 0 -382384778.08750153 -104649432.15978241 0 -104649432.15978241 181690851.23851776 0 0 0 0 -7240154.2526964489 12164068.662959473 0 12164068.662959473 37713459.248436272 0 0 0 0 -89436724.268104553 -5733800.064687252 0 -5733800.064687252 83887995.104736328 0 0 0 0 -240271936.36556625 66882596.826284409 0 66882596.826284409 50460598.882287979 0 0 0 0 -3888553.7198338844 22610379.156744108 0 22610379.156744108 33083650.609586358 0 0 0 0 -32566413.109436035 28148543.839637756 0 28148543.839637756 13941786.495252609 0 0 0 0 -13168950.930784812 8236610.8742604479 0 8236610.8742604479 50184625.462006904 0 0 0 0 -294396777.75161934 88481038.407821655 0 88481038.407821655 176577190.55380249 0 0 0 0 1612774.4815245699 15587020.909460764 0 15587020.909460764 46924794.927099645 0 0 0 0 -98941388.232673645 -85821740.233306885 0 -85821740.233306885 7326422.7476882935 0 0 0 0 -484706058.49944687 -56991322.393096924 0 -56991322.393096924 136863700.39545822 0 0 0 0 -8390631.0322596394 3772686.2881729882 0 3772686.2881729882 25634543.124416858 0 0 0 0 -239121306.58412552 52968009.334760666 0 52968009.334760666 121162196.71131134 0 0 0 0 -156553375.41156769 87932033.216308594 0 87932033.216308594 110443672.88947392 0 0 0 0 -2572200.7449951172 -58285179.546073914 0 -58285179.546073914 139720467.80603123 0 0 0 0 -302881320.5974884 127881583.14937592 0 127881583.14937592 64489881.958259583 0 0 0 0 -107164931.41452408 85836593.618956566 0 85836593.618956566 73423946.191417694 0 0 0 0 32688459.886023045 14337926.826766968 0 14337926.826766968 234544694.59439087 0 0 0 0 17839775.24045372 -22017993.070556641 0 -22017993.070556641 432135107.46354675 0 0 0 0 300650743.78454924 230986877.78435516 0 230986877.78435516 167242648.79818726 0 0 0 0 131668515.24449539 92898915.682922363 0 92898915.682922363 57808629.754119873 0 0 0 0 205926828.08268642 155570116.49823761 0 155570116.49823761 -34691978.122497559 0 0 0 0 85819373.303871155 120267218.72003174 0 120267218.72003174 -9000602.8497924805 0 0 0 0 139200495.41777134 98863815.872108459 0 98863815.872108459 -27706233.188415527 0 0 0 0 71971715.447805405 154456252.55171204 0 154456252.55171204 31972712.788757324 0 0 0 0 -32482042.69858551 100955369.16159058 0 100955369.16159058 4570681.3706359863 0 0 0 0 84935563.344957352 109846099.2154274 0 109846099.2154274 -113548803.05926514 0 0 0 0 -45792682.321617126 61748550.44203186 0 61748550.44203186 -106542359.07113266 0 0 0 0 -193320927.12124825 212178893.44341278 0 212178893.44341278 -12525987.315032959 0 0 0 0 26999208.006494761 154819083.20335174 0 154819083.20335174 45895422.541809082 0 0 0 0 22103260.611469269 -10183112.197799683 0 -10183112.197799683 199437363.24420929 0 0 0 0 -35271555.498195648 -57851180.649215698 0 -57851180.649215698 34625352.100257874 0 0 0 0 -192944059.94199371 206262165.60184479 0 206262165.60184479 241566170.04603577 0 0 0 0 1027730.3031600509 1277146.5408131182 0 1277146.5408131182 -772431.21291461959 0 0 0 0 -306378219.21624756 34281127.140167236 0 34281127.140167236 129464357.27092743 0 0 0 0 1508670.081303345 20393680.806232546 0 20393680.806232546 28052968.648866117 0 0 0 0 -175529618.3382225 100026161.88745117 0 100026161.88745117 52302867.29246521 0 0 0 0 -292848703.2335701 300225888.09635544 0 300225888.09635544 -77998265.962463379 0 0 0 0 -413132135.89870644 134784206.03431702 0 134784206.03431702 -14809779.513549805 0 0 0 0 -180462011.76862717 192679644.63775635 0 192679644.63775635 -191074404.32492065 0 0 0 0 -212667466.48875761 263373132.98441315 0 263373132.98441315 33206333.247497559 0 0 0 0 -26547418.502109528 20787295.948417664 0 20787295.948417664 35527245.11441803 0 0 0 0 -450092.76265525818 14655359.477684021 0 14655359.477684021 13244722.416503906 0 0 0 0 -4094656.0753156915 14598401.694644529 0 14598401.694644529 38333990.984407172 0 0 0 0 -345791786.44208527 311779913.69914246 0 311779913.69914246 55299663.82800293 0 0 0 0 -40543687.108789444 38333399.009307861 0 38333399.009307861 19913551.294296265 0 0 0 0 -263145954.11975098 -17838715.635971069 0 -17838715.635971069 -41752046.437133789 0 0 0 0 -238976880.3269577 222602608.49266052 0 222602608.49266052 -88520608.423431396 0 0 0 0 -249277834.46889591 219974634.95367813 0 219974634.95367813 35386579.587341309 0 0 0 0 -286980728.62854004 118437099.0637207 0 118437099.0637207 7672337.0826873779 0 0 0 0 -296950979.70692062 126340825.69413757 0 126340825.69413757 157374848.3430481 0 0 0 0 168867970.59712219 207165194.87553406 0 207165194.87553406 155683693.28009033 0 0 0 0 -562181855.77612162 260229849.83646393 0 260229849.83646393 455072839.83294678 0 0 0 0 527253676.69955063 637980825.79837036 0 637980825.79837036 209422907.42431641 0 0 0 0 41904940.514900208 -105980863.88008118 0 -105980863.88008118 358739703.6895864 0 0 0 0 950556638.737957 -481680157.46826172 0 -481680157.46826172 361201601.40931046 0 0 0 0 -239593193.9512291 -534179606.96976089 0 -534179606.96976089 1256146929.9493713 0 0 0 0 71684475.602063179 18776625.216609955 0 18776625.216609955 85221893.491241455 0 0 0 0 -36853139.909038544 -120024354.06628036 0 -120024354.06628036 540331244.73428345 0 0 0 0 -291186010.54838943 -121961535.10707092 0 -121961535.10707092 942494689.25265503 0 0 0 0 -65630021.375541687 28115167.214492798 0 28115167.214492798 631996582.51217651 0 0 0 0 -70666785.178119659 -52572417.017379761 0 -52572417.017379761 718151745.69233704 0 0 0 0 -45738485.655047417 104814355.0425415 0 104814355.0425415 566682930.49107361 0 0 0 0 1813133.0518548172 1962283.7143649086 0 1962283.7143649086 -1136670.6667175032 0 0 0 0 46785762.052310467 -92240203.201652527 0 -92240203.201652527 272824792.07366943 0 0 0 0 -365678080.66621113 329371545.91092682 0 329371545.91092682 401942997.03968048 0 0 0 0 8742700.9064483643 -279265042.42834091 0 -279265042.42834091 199887973.8830719 0 0 0 0 -407841.36789200583 -1769709.2439157814 0 -1769709.2439157814 1065570.0846023113 0 0 0 0 -95076083.014051437 -353025430.28637695 0 -353025430.28637695 808399620.63293457 0 0 0 0 -298117931.98720741 -6812752.889251709 0 -6812752.889251709 52041015.846157074 0 0 0 0 -245338751.50821114 12150986.808387756 0 12150986.808387756 32661760.415618896 0 0 0 0 -299434617.55002022 -25996243.965423584 0 -25996243.965423584 -142702431.35460663 0 0 0 0 -857268240.40312672 197652426.95166016 0 197652426.95166016 347637450.51147461 0 0 0 0 -548941616.60483932 -318933618.63791656 0 -318933618.63791656 1158586727.3882141 0 0 0 0 590889475.34639359 -1494742880.5140076 0 -1494742880.5140076 689332691.06498718 0 0 0 0 -328451631.85050964 -1503372773.8856812 0 -1503372773.8856812 1597266461.4084244 0 0 0 0 -245912016.45869899 -108481518.73223114 0 -108481518.73223114 327906226.38253784 0 0 0 0 1254077772.9939671 -664219941.0232811 0 -664219941.0232811 399275306.84109497 0 0 0 0 -1501098.6474307301 -2276611.8250027569 0 -2276611.8250027569 5376465.55545412 0 0 0 0 563784252.52466965 -1448378133.8766632 0 -1448378133.8766632 717474614.99682617 0 0 0 0 1302717657.1287346 -1623732556.8935547 0 -1623732556.8935547 389380931.75631714 0 0 0 0 -460575640.13586807 910719614.10867119 0 910719614.10867119 748622219.35189819 0 0 0 0 -451717736.41523027 -60349182.09718895 0 -60349182.09718895 7705931.6309051514 0 0 0 0 -2301878.3039637515 -2621288.0313152689 0 -2621288.0313152689 10363282.535461858 0 0 0 0 -323873662.52964783 8020498.6187210083 0 8020498.6187210083 36300162.992446899 0 0 0 0 -275341603.68770409 -57608589.534255981 0 -57608589.534255981 -43627913.942123413 0 0 0 0 -756992.62415730162 -3211422.0258345418 0 -3211422.0258345418 1981518.690330565 0 0 0 0 -314561516.55192757 -65222545.844108582 0 -65222545.844108582 -20976345.845916748 0 0 0 0 51955666.059437752 -213347859.21348572 0 -213347859.21348572 -41220966.153503418 0 0 0 0 -565893826.44979763 -71026590.397918701 0 -71026590.397918701 260626671.97393036 0 0 0 0 10776444.347855568 -240406536.07912445 0 -240406536.07912445 8543233.9314193726 0 0 0 0 -355718651.4582901 191642422.59002304 0 191642422.59002304 -13226578.869720459 0 0 0 0 3152811.7533611618 5099829.5699822046 0 5099829.5699822046 6579908.142611064 0 0 0 0 -135575807.7029686 58634053.934253693 0 58634053.934253693 -132091030.5294342 0 0 0 0 -191720831.84813881 12427416.822383881 0 12427416.822383881 -51418880.815460205 0 0 0 0 -140021151.20308685 61950321.529670715 0 61950321.529670715 -2710869.901309967 0 0 0 0 -50450819.053165436 -25756643.275259018 0 -25756643.275259018 73275181.461509705 0 0 0 0 -10488225.971136577 -2583182.8913115859 0 -2583182.8913115859 11715274.708634555 0 0 0 0 2196127894.8711739 -1011209510.9884109 0 -1011209510.9884109 95502684.520690918 0 0 0 0 933402.10356257018 4300359.7887061555 0 4300359.7887061555 5160646.5625321865 0 0 0 0 13317492.107285023 35336444.948770523 0 35336444.948770523 795915011.06787109 0 0 0 0 -80521121.996101379 105084765.51508331 0 105084765.51508331 43402675.600362778 0 0 0 0 7480530.5983014032 15683409.626443632 0 15683409.626443632 28495614.313740604 0 0 0 0 345790375.52238083 -632916315.657341 0 -632916315.657341 352142673.97891235 0 0 0 0 242613188.52639771 -741143691.74881744 0 -741143691.74881744 787245822.35856175 0 0 0 0 495822701.69783592 -821512394.38547134 0 -821512394.38547134 200105128.52001953 0 0 0 0 454037635.73778915 -535457322.97773743 0 -535457322.97773743 -162147582.03603363 0 0 0 0 348336163.59092712 -718655868.59949493 0 -718655868.59949493 299729675.12926483 0 0 0 0 465716337.66135788 -722897566.46455002 0 -722897566.46455002 134810193.18264771 0 0 0 0 589521573.12438965 -529172529.88726807 0 -529172529.88726807 253702040.14944601 0 0 0 0 9643535.9619582705 14527901.998935148 0 14527901.998935148 21600954.216926806 0 0 0 0 -10298683.933555603 518297294.61898041 0 518297294.61898041 194035894.929245 0 0 0 0 364581322.92344332 -539720086.63857365 0 -539720086.63857365 253290972.87149048 0 0 0 0 2453302.4547831193 2162117.7062182752 0 2162117.7062182752 495816.55246479064 0 0 0 0 -580299568.4838295 393764184.37867165 0 393764184.37867165 181246619.94901657 0 0 0 0 9031490.8144502118 11760513.424999546 0 11760513.424999546 15579534.554790616 0 0 0 0 -989770339.65040588 1374646586.3283157 0 1374646586.3283157 1155014970.9402542 0 0 0 0 -16676364.181884766 -547021759.14788055 0 -547021759.14788055 -741842281.43799591 0 0 0 0 509997806.07839203 -47776639.233089447 0 -47776639.233089447 914498237.52178955 0 0 0 0 812632382.1030426 219101836.13365173 0 219101836.13365173 459438818.77645874 0 0 0 0 694926482.33768845 -179528804.76532173 0 -179528804.76532173 946263929.08602905 0 0 0 0 782790795.82287025 281542992.24138832 0 281542992.24138832 2928172464.3598633 0 0 0 0 -149474034.66718292 806615046.16917419 0 806615046.16917419 3608714506.6162643 0 0 0 0 1337031430.0668106 947916325.93037415 0 947916325.93037415 2232978304.4524918 0 0 0 0 401126276.94068623 134456358.04828644 0 134456358.04828644 1962918254.277832 0 0 0 0 1248331213.4813423 -113791482.89945221 0 -113791482.89945221 871064935.16694641 0 0 0 0 623413552.2971859 -582809256.5754528 0 -582809256.5754528 325389676.5539856 0 0 0 0 411303987.62591934 -294861548.68460083 0 -294861548.68460083 1098124562.6980438 0 0 0 0 -25533405.462350845 -525466904.83073807 0 -525466904.83073807 501399485.75465393 0 0 0 0 441619069.39689255 -217870303.66664124 0 -217870303.66664124 201244262.84771061 0 0 0 0 -808806095.85424805 221195802.25577545 0 221195802.25577545 82238502.027215958 0 0 0 0 401071139.8998909 291250355.99286652 0 291250355.99286652 -73895116.830238342 0 0 0 0 171566006.663311 945573357.00283813 0 945573357.00283813 1099003450.0762634 0 0 0 0 9081825.3803939819 1198638724.3985481 0 1198638724.3985481 731897648.78317261 0 0 0 0 -690279.79179930361 -647995.89709644718 0 -647995.89709644718 4008468.3882992715 0 0 0 0 150252960.86339569 338490758.86588287 0 338490758.86588287 1360648236.6475868 0 0 0 0 257704037.96020508 352934046.07912445 0 352934046.07912445 233819031.90815735 0 0 0 0 165005333.24138641 494706760.39373779 0 494706760.39373779 607348314.08847046 0 0 0 0 705680324.48001099 937503728.15690613 0 937503728.15690613 602336742.10776234 0 0 0 0 275312701.62387085 509567514.71292114 0 509567514.71292114 277013605.48887634 0 0 0 0 403030273.17140007 282637383.92355728 0 282637383.92355728 -159754047.5145874 0 0 0 0 128559190.43170929 -92739870.877120972 0 -92739870.877120972 -100446672.36721611 0 0 0 0 4096236.4384194408 1189469.659432441 0 1189469.659432441 298720.94514653832 0 0 0 0 377714030.92930603 45581122.654968262 0 45581122.654968262 -23120757.115356445 0 0 0 0 -112892012.12313843 90397763.463684082 0 90397763.463684082 151609937.59831238 0 0 0 0 340949447.94345856 -28810488.362304688 0 -28810488.362304688 -11912809.328399658 0 0 0 0 -5064696.5290975571 -214552569.18978882 0 -214552569.18978882 377389973.24928284 0 0 0 0 3835050.221426785 -600650.28141211718 0 -600650.28141211718 4259393.9544507843 0 0 0 0 1035185298.9257355 -93350037.961662292 0 -93350037.961662292 -107094542.21742249 0 0 0 0 589634529.23386383 1445612021.9842834 0 1445612021.9842834 1428836659.6057587 0 0 0 0 195949821.51971626 980512201.16017532 0 980512201.16017532 1031810222.98172 0 0 0 0 358692859.04353333 446310885.20240784 0 446310885.20240784 320236598.31500244 0 0 0 0 1547660167.058363 1045006957.4542122 0 1045006957.4542122 458469363.15005493 0 0 0 0 -211189337.0807457 -151408024.91174316 0 -151408024.91174316 366722856.60973358 0 0 0 0 -96453819.796109676 -204238053.0633831 0 -204238053.0633831 89258701.378143311 0 0 0 0 87543428.971087456 -439101456.75797272 0 -439101456.75797272 262797532.17482758 0 0 0 0 -26751769.039209366 -454272024.27281952 0 -454272024.27281952 331589756.38891602 0 0 0 0 -439023.01207239518 -2026198.2540338561 0 -2026198.2540338561 1006617.3143464476 0 0 0 0 -510275870.14123726 -8448866.2169151306 0 -8448866.2169151306 145861865.19361877 0 0 0 0 -32156202.326124191 -379547016.71230316 0 -379547016.71230316 262674936.68767166 0 0 0 0 -329165358.15673447 -222089177.29838562 0 -222089177.29838562 394984986.02168274 0 0 0 0 -208024580.34940052 -41448483.545196533 0 -41448483.545196533 49914964.579818726 0 0 0 0 -1758805.5829480262 -1602705.5265167113 0 -1602705.5265167113 9297136.9135039747 0 0 0 0 -176901627.49583197 -118541928.47294235 0 -118541928.47294235 207312499.49414062 0 0 0 0 223737638.96558976 -556569594.94076729 0 -556569594.94076729 721451392.98186493 0 0 0 0 199505074.06051254 550009483.8208313 0 550009483.8208313 1273724342.0970612 0 0 0 0 -63704946.151924133 -123181571.24359131 0 -123181571.24359131 202961643.36818695 0 0 0 0 -148340001.8221693 4894285.8241539001 0 4894285.8241539001 469134299.81977844 0 0 0 0 -48180515.426934719 -284589682.94834065 0 -284589682.94834065 181049163.42269897 0 0 0 0 -275644442.1643219 -252996004.07357788 0 -252996004.07357788 276361054.52309036 0 0 0 0 -208508098.19766045 165454204.92853546 0 165454204.92853546 62049533.995090485 0 0 0 0 -623636183.34779549 142291599.8035202 0 142291599.8035202 121610521.9650116 0 0 0 0 -379564998.29337025 -200879110.55586624 0 -200879110.55586624 359998252.83189392 0 0 0 0 -318020627.69088745 -166599355.03699875 0 -166599355.03699875 161784156.40962219 0 0 0 0 110742131.42478228 -183489046.31403542 0 -183489046.31403542 154055295.35247803 0 0 0 0 -1594787.8792313896 -1413416.8727415614 0 -1413416.8727415614 530871.90382879227 0 0 0 0 -1026535981.6126671 218071158.26726913 0 218071158.26726913 273553052.45497131 0 0 0 0 -2099809.6408653259 550653012.83907318 0 550653012.83907318 335130374.92992401 0 0 0 0 55261262.972595215 156774135.09557343 0 156774135.09557343 -50713229.982521057 0 0 0 0 140185690.28045797 502329278.57901001 0 502329278.57901001 388952141.07527161 0 0 0 0 453101865.64048386 492502905.77481079 0 492502905.77481079 298632688.5151062 0 0 0 0 370222647.37891388 618239765.33528137 0 618239765.33528137 430220358.59769726 0 0 0 0 560220591.86711597 552010430.07251358 0 552010430.07251358 252430170.48983765 0 0 0 0 306085285.37479019 448771999.01685333 0 448771999.01685333 440044771.35800171 0 0 0 0 473291019.3568306 520284956.35595703 0 520284956.35595703 241593777.49224091 0 0 0 0 16592398.564076085 -6039657.3229445852 0 -6039657.3229445852 -708720.05855927616 0 0 0 0 385546112.01700783 609747387.66335297 0 609747387.66335297 541008616.8394928 0 0 0 0 104459101.5235672 -31073827.066207886 0 -31073827.066207886 -300503742.055336 0 0 0 0 79486891.385678768 192573244.32077599 0 192573244.32077599 -48791006.362930298 0 0 0 0 135411695.00122261 58004092.279571533 0 58004092.279571533 -113002225.01068115 0 0 0 0 217036758.44250298 284914873.87045288 0 284914873.87045288 130934580.08595276 0 0 0 0 62972176.213176727 162104898.91015625 0 162104898.91015625 -220414880.68078613 0 0 0 0 78006852.566100359 -239459881.3456955 0 -239459881.3456955 -519844158.88771057 0 0 0 0 -137787271.81298065 -188258681.96322632 0 -188258681.96322632 -113590387.57369995 0 0 0 0 353641716.05389977 -101623504.05715942 0 -101623504.05715942 -162821468.96659851 0 0 0 0 258728549.72997665 266710462.72375679 0 266710462.72375679 619025516.40924072 0 0 0 0 507317204.27927017 566035034.30583191 0 566035034.30583191 336078717.31681824 0 0 0 0 561267036.75815392 1212693957.2591705 0 1212693957.2591705 1359589179.3330536 0 0 0 0 7607403.7829649989 -3384304.9964255989 0 -3384304.9964255989 918206.23843605816 0 0 0 0 -145982041.33584374 224396392.34156799 0 224396392.34156799 -382055485.41869736 0 0 0 0 1137643959.8928375 -688664634.42807007 0 -688664634.42807007 -214890980.18225098 0 0 0 0 820222.23804058693 -1883133.381544631 0 -1883133.381544631 1543337.5115740448 0 0 0 0 -1662981608.1357536 -318249087.74819946 0 -318249087.74819946 2324376383.4925632 0 0 0 0 -394698493.04151154 1791328643.7162476 0 1791328643.7162476 2682360960.0109425 0 0 0 0 1106202757.4104352 121162079.57502174 0 121162079.57502174 -426866025.04736328 0 0 0 0 -522780741.75423813 135937736.09474945 0 135937736.09474945 207245855.82562256 0 0 0 0 -572826729.00816917 -116827845.42707062 0 -116827845.42707062 497362039.31838989 0 0 0 0 -6238060.5953326225 91056765.874356747 0 91056765.874356747 113580935.25558472 0 0 0 0 -1395013.8576569557 -41293969.262238979 0 -41293969.262238979 137782321.33361816 0 0 0 0 119211822.61695862 51987798.480865479 0 51987798.480865479 40876555.446289062 0 0 0 0 -1690741.3475527763 10582243.626152039 0 10582243.626152039 34649540.599105835 0 0 0 0 11476644.898937173 10998258.094855884 0 10998258.094855884 8743682.3845443726 0 0 0 0 14550095.988669502 11634445.608143995 0 11634445.608143995 34511773.572929084 0 0 0 0 35886539.517023221 -727680.30115776509 0 -727680.30115776509 -4199862.4091808349 0 0 0 0 -149642918.32759094 -191128966.74389648 0 -191128966.74389648 -35644800.908493042 0 0 0 0 132439224.54904175 54263455.785888672 0 54263455.785888672 18900219.238037109 0 0 0 0 99304013.75592041 93843452.172103882 0 93843452.172103882 64001221.664932251 0 0 0 0 -1485938.5885580219 -1941482.6707416773 0 -1941482.6707416773 -102080.57421915233 0 0 0 0 -2322086.4430885315 7908717.7251663208 0 7908717.7251663208 43810040.547649384 0 0 0 0 3425164.1620416641 9682030.3878746033 0 9682030.3878746033 54841602.228210449 0 0 0 0 10785532.419774175 -1997582.6561183929 0 -1997582.6561183929 31147033.469924927 0 0 0 0 10510300.544993401 -2758908.0041656494 0 -2758908.0041656494 31488614.042076111 0 0 0 0 6548009.1816644669 1593387.6715545654 0 1593387.6715545654 26897147.137046814 0 0 0 0 140395605.26444626 -1007650.3721313477 0 -1007650.3721313477 -90327743.597869873 0 0 0 0 20509422.099145297 -2045021.2329488583 0 -2045021.2329488583 20592141.51121702 0 0 0 0 10057725.206057549 -2826173.5472946167 0 -2826173.5472946167 28610907.975952148 0 0 0 0 10354756.02583915 -3712764.8049259186 0 -3712764.8049259186 30956378.553390503 0 0 0 0 9962879.0283126831 -59260696.737380981 0 -59260696.737380981 -71076832.272705078 0 0 0 0 17524497.263206519 2107996.1987844072 0 2107996.1987844072 -2324927.1717229709 0 0 0 0 5634025.7201511897 732027.72670949437 0 732027.72670949437 -2086287.680404 0 0 0 0 -266420839.21770096 -16462510.394126892 0 -16462510.394126892 58557648.332122803 0 0 0 0 -106336006.63691425 343217072.61569214 0 343217072.61569214 388838868.50976562 0 0 0 0 339951508.82329559 232087013.4859314 0 232087013.4859314 236525711.67475891 0 0 0 0 90721599.187011719 -218329527.62602234 0 -218329527.62602234 25535553.855400085 0 0 0 0 422155093.6296196 138923948.9294281 0 138923948.9294281 -9087512.7284545898 0 0 0 0 987575153.18981934 684840226.69955444 0 684840226.69955444 368349025.36006165 0 0 0 0 957394265.50679398 7771319.2083129883 0 7771319.2083129883 308800825.95889282 0 0 0 0 486425083.61713886 425248809.39305878 0 425248809.39305878 237026213.38671875 0 0 0 0 652412358.02646637 364079707.24434662 0 364079707.24434662 191957980.90180969 0 0 0 0 442738246.6119957 28141386.37184906 0 28141386.37184906 45464678.617645264 0 0 0 0 91312482.976394653 129255923.26516724 0 129255923.26516724 178175277.81330442 0 0 0 0 364258723.03757858 -17883762.668937683 0 -17883762.668937683 -75557142.912815094 0 0 0 0 22681471.584343854 -11534590.792769693 0 -11534590.792769693 -2098124.667054534 0 0 0 0 257182820.2626915 135328606.99856567 0 135328606.99856567 -11978821.075759888 0 0 0 0 -118707075.90163422 -9210333.4476318359 0 -9210333.4476318359 51851485.528961182 0 0 0 0 116921078.26165771 39301803.607345581 0 39301803.607345581 70455880.624137878 0 0 0 0 3348390.1896615475 3469061.1096571088 0 3469061.1096571088 2885206.8406365961 0 0 0 0 13459989.920609139 10950234.133413419 0 10950234.133413419 -8511789.8763106018 0 0 0 0 88475518.038040161 62673617.238128662 0 62673617.238128662 56006880.18069458 0 0 0 0 -152758395.07289886 -72025422.86378479 0 -72025422.86378479 121403808.93906403 0 0 0 0 118567432.9029541 24113944.590003967 0 24113944.590003967 -116578131.21263123 0 0 0 0 70059765.16752243 142506350.45706177 0 142506350.45706177 213661317.0867691 0 0 0 0 72844234.6432724 121232990.76526642 0 121232990.76526642 153149971.28561401 0 0 0 0 7053038.1747797299 5943457.9330892675 0 5943457.9330892675 -5542240.5552928075 0 0 0 0 183342325.79478073 161213494.82284546 0 161213494.82284546 111789904.10961914 0 0 0 0 41796710.950393677 1275030.0543060303 0 1275030.0543060303 87700916.48829031 0 0 0 0 -7188890.8096666336 -32978027.74313736 0 -32978027.74313736 -35852210.962905884 0 0 0 0 -10528330.4532547 42837923.284805298 0 42837923.284805298 260237020.39466858 0 0 0 0 -15964039.317939211 -4576968.6974850185 0 -4576968.6974850185 35641625.307162687 0 0 0 0 124991579.32189369 126830161.10608292 0 126830161.10608292 15461108.493225098 0 0 0 0 174021305.01616669 205988686.4859314 0 205988686.4859314 131565432.80011749 0 0 0 0 134560218.05872154 95089382.834573746 0 95089382.834573746 17688962.098449707 0 0 0 0 -36835716.318817139 69287213.605682373 0 69287213.605682373 84391105.661468506 0 0 0 0 -12539392.933653329 1335108.6905212104 0 1335108.6905212104 13959274.969000697 0 0 0 0 165448452.98295021 86042659.407964706 0 86042659.407964706 13990051.749389648 0 0 0 0 157811620.26149082 126278416.80766678 0 126278416.80766678 1244544.1550292969 0 0 0 0 11010003.156755447 23596411.149703979 0 23596411.149703979 56870160.389175415 0 0 0 0 520908.69170069695 3713527.5030975342 0 3713527.5030975342 47558214.169052124 0 0 0 0 -17681915.616111755 -4051154.9436187744 0 -4051154.9436187744 16400776.600830078 0 0 0 0 -8941269.3664859887 7379084.8549214303 0 7379084.8549214303 36922416.102025583 0 0 0 0 -8670087.7880107388 -726885.14484642074 0 -726885.14484642074 29055719.910380483 0 0 0 0 -4144154.5644648736 1521331.1607208215 0 1521331.1607208215 16127944.796887547 0 0 0 0 22103794.938903809 21820858.102920532 0 21820858.102920532 6437299.2756958008 0 0 0 0 -18029556.539926529 -3795640.0458602905 0 -3795640.0458602905 18638699.212020874 0 0 0 0 -18289348.162233114 -3818703.6744689941 0 -3818703.6744689941 18718798.846588135 0 0 0 0 -8208470.3869233653 -10548886.449061584 0 -10548886.449061584 29732199.939352199 0 0 0 0 -8609734.7116735615 -13226091.525605468 0 -13226091.525605468 4583617.1073754281 0 0 0 0 -65204961.104317665 -41655802.519481659 0 -41655802.519481659 34592546.384323597 0 0 0 0 -21219679.569234133 -5485616.8082351685 0 -5485616.8082351685 17128933.878692627 0 0 0 0 38843834.958934069 29454743.142479897 0 29454743.142479897 -11732496.885902405 0 0 0 0 6564333.9819631577 91042123.992137909 0 91042123.992137909 56729870.367142677 0 0 0 0 -59844563.962788701 -3858583.7369337082 0 -3858583.7369337082 295092183.64942551 0 0 0 0 84007223.403821647 -97082212.026754856 0 -97082212.026754856 -60556688.180580139 0 0 0 0 -24439456.652090073 -31454402.416915894 0 -31454402.416915894 11023464.927642822 0 0 0 0 6486346.5904595852 5773729.07837677 0 5773729.07837677 13488029.511371613 0 0 0 0 36608468.960747242 -37066385.022064209 0 -37066385.022064209 -17532866.90083313 0 0 0 0 -3247449.7190645989 -3139948.7474079058 0 -3139948.7474079058 35815211.075388417 0 0 0 0 1113640.1973649662 1261910.075274162 0 1261910.075274162 1741926.3498399854 0 0 0 0 -262819950.37829876 -117736847.86466026 0 -117736847.86466026 310201500.66459656 0 0 0 0 44539327.554284096 -137828592.12213898 0 -137828592.12213898 195050877.40391541 0 0 0 0 13244403.101512909 -56050116.718027115 0 -56050116.718027115 266728903.70968056 0 0 0 0 1023887.8783599467 1461698.9098709663 0 1461698.9098709663 -2412628.4976231121 0 0 0 0 -260709.27245636896 2631896.6884982479 0 2631896.6884982479 -48744.617031935602 0 0 0 0 -1734565.9100031853 -145721477.17208481 0 -145721477.17208481 19906217.45192337 0 0 0 0 48134367.209112167 -2514409.9264736176 0 -2514409.9264736176 293182096.75684357 0 0 0 0 -249761823.34263396 358048080.09544611 0 358048080.09544611 -429851558.45774078 0 0 0 0 -445665364.7695775 -77194193.081002712 0 -77194193.081002712 -46779851.506828308 0 0 0 0 42554374.868731499 141803251.6447258 0 141803251.6447258 -38771291.19711113 0 0 0 0 -89723079.257225513 -54752278.177591324 0 -54752278.177591324 -68281187.350734711 0 0 0 0 -856840888.13362896 631138510.07578707 0 631138510.07578707 -282119687.98812485 0 0 0 0 -747838280.07884836 192633947.16412926 0 192633947.16412926 -2972873.9475860596 0 0 0 0 109050206.8152926 36200314.923316956 0 36200314.923316956 -153047864.53567886 0 0 0 0 -94649630.400651366 32656517.259349048 0 32656517.259349048 71930547.147903442 0 0 0 0 21079490.583333492 63507071.149375916 0 63507071.149375916 35619006.146427155 0 0 0 0 -112926257.83284855 47210190.343418121 0 47210190.343418121 74038078.978466034 0 0 0 0 16773544.637161255 -5201813.8544311523 0 -5201813.8544311523 28137795.368972778 0 0 0 0 11936879.565067768 -7354130.5792922974 0 -7354130.5792922974 39561177.270339966 0 0 0 0 2441846.5830210447 5821695.5730133057 0 5821695.5730133057 67509824.369979858 0 0 0 0 11693838.734963894 -9741843.4006195068 0 -9741843.4006195068 57004441.482532501 0 0 0 0 85847928.455968618 -23379506.339546204 0 -23379506.339546204 -62572627.534330904 0 0 0 0 -1195816.0432684743 -6177019.077917356 0 -6177019.077917356 33833314.167857468 0 0 0 0 -51736517.96050778 6492136.4139862061 0 6492136.4139862061 85379863.792533875 0 0 0 0 -417052.49845553073 -8108244.3337185588 0 -8108244.3337185588 32956923.147106439 0 0 0 0 -3588958.7170245647 -3129114.3594284058 0 -3129114.3594284058 26961798.868225098 0 0 0 0 15026465.653283119 -1795809.3854293823 0 -1795809.3854293823 24144706.576176107 0 0 0 0 8131068.6047432423 3009545.2530784607 0 3009545.2530784607 25841002.552642822 0 0 0 0 8808108.3505887985 968516.09889221191 0 968516.09889221191 24115842.325732529 0 0 0 0 14811035.627979601 -5410210.986502666 0 -5410210.986502666 20384191.329208329 0 0 0 0 89999367.792135239 -197480751.77587128 0 -197480751.77587128 -30119783.286849976 0 0 0 0 291093801.5558567 -232761456.74700546 0 -232761456.74700546 21912431.091552734 0 0 0 0 -147567303.03053284 13537100.993103027 0 13537100.993103027 136612798.70159912 0 0 0 0 134402843.32509995 -71835673.616371155 0 -71835673.616371155 -77376742.014556885 0 0 0 0 -71138702.76751709 -185841067.20045471 0 -185841067.20045471 303340369.03619385 0 0 0 0 6577651.655813098 -7407880.6403427124 0 -7407880.6403427124 22029035.380983353 0 0 0 0 -125617265.23912048 19954157.023139954 0 19954157.023139954 45356830.899765015 0 0 0 0 10940931.809770536 -5264810.0267553777 0 -5264810.0267553777 24567367.288531154 0 0 0 0 8365565.9675776064 -3341799.3214068413 0 -3341799.3214068413 24139353.003631592 0 0 0 0 -53331835.96675396 -9439269.3725137711 0 -9439269.3725137711 110564937.25580978 0 0 0 0 -13064026.317464828 -42094089.49590683 0 -42094089.49590683 75834145.674501419 0 0 0 0 -26491428.684633255 -71218622.533239365 0 -71218622.533239365 67906273.212650299 0 0 0 0 13719863.527919769 -29019144.11465168 0 -29019144.11465168 12209399.146347046 0 0 0 0 -12625317.101203918 -32635184.899250031 0 -32635184.899250031 68813812.045121193 0 0 0 0 6354829.6710630059 -8668843.2153501511 0 -8668843.2153501511 15173344.693786621 0 0 0 0 2933064.752570895 -13149915.453962263 0 -13149915.453962263 29096916.512525827 0 0 0 0 1201563.6670749187 -21820772.49647522 0 -21820772.49647522 21080349.905395508 0 0 0 0 -4088789.9789413214 -8009639.6767959595 0 -8009639.6767959595 4428812.7113511562 0 0 0 0 2061731.4947492296 -11695462.564781953 0 -11695462.564781953 34024958.318651438 0 0 0 0 -1665613754.0456924 23147168.015953064 0 23147168.015953064 895280350.87626648 0 0 0 0 6071609.8648746852 -8805612.6186783798 0 -8805612.6186783798 18482756.193233155 0 0 0 0 4669697.5019688308 -11927566.938095009 0 -11927566.938095009 23930536.868372932 0 0 0 0 11513959.48677671 -5932537.5163803101 0 -5932537.5163803101 2182588.7919068336 0 0 0 0 -117643603.27758217 83663895.970035553 0 83663895.970035553 276110079.42298889 0 0 0 0 -19944370.176201582 -5165866.583190918 0 -5165866.583190918 37533943.005905151 0 0 0 0 11112021.480124885 -6955450.5433627497 0 -6955450.5433627497 8598852.3450583443 0 0 0 0 584351.05558691313 -68744.636915644631 0 -68744.636915644631 -145247.90100830048 0 0 0 0 -30736451.331451416 -587171746.64401245 0 -587171746.64401245 -76962304.920898438 0 0 0 0 209210714.86434937 20388168.12991333 0 20388168.12991333 91858241.946216583 0 0 0 0 179206055.25320435 -201581030.13676453 0 -201581030.13676453 276473353.30349731 0 0 0 0 674778.94505479932 393178.09461873025 0 393178.09461873025 -405061.47952234372 0 0 0 0 3687412.0923554162 2220519.5277526276 0 2220519.5277526276 3593164.7108199671 0 0 0 0 2693976208.1756973 2263990533.5450821 0 2263990533.5450821 1085347511.8440857 0 0 0 0 1626448388.7385635 -1137446767.8100433 0 -1137446767.8100433 817088682.57312012 0 0 0 0 116433584.74776077 -1172828994.0199814 0 -1172828994.0199814 3701591267.4734077 0 0 0 0 211997135.48685455 -780605038.26859283 0 -780605038.26859283 785950369.69485474 0 0 0 0 -304638839.24105072 1654329636.0487518 0 1654329636.0487518 2124667019.6883469 0 0 0 0 1718914548.2771301 1379020255.627182 0 1379020255.627182 424138564.04750061 0 0 0 0 -129072007.32795906 1325396849.6035805 0 1325396849.6035805 2039152406.6031799 0 0 0 0 831629561.06546021 2505554673.5274506 0 2505554673.5274506 3488047069.1966791 0 0 0 0 686945930.54051971 123146489.15410614 0 123146489.15410614 -609901353.133461 0 0 0 0 -20926539.998254776 1925714285.8215046 0 1925714285.8215046 1291723704.1626892 0 0 0 0 -2748779.5232920256 2208600.279651653 0 2208600.279651653 5594773.9428932592 0 0 0 0 1021039465.0969543 2489275320.2523193 0 2489275320.2523193 1284079089.3608193 0 0 0 0 117528120.69684982 -1061999184.7713509 0 -1061999184.7713509 -2650975051.0217743 0 0 0 0 -2134278475.8887253 -1015458674.3431625 0 -1015458674.3431625 419212832.78987503 0 0 0 0 868677045.2204361 -782221317.62776184 0 -782221317.62776184 893433218.77356339 0 0 0 0 -1358529837.5070734 -1978155078.293829 0 -1978155078.293829 4773463171.3924255 0 0 0 0 1769641861.7069931 2575982941.5041962 0 2575982941.5041962 358173643.1361084 0 0 0 0 -78965820.727203369 -2474933497.936554 0 -2474933497.936554 4114025258.7040558 0 0 0 0 4947845.4511671029 4811462.835120948 0 4811462.835120948 5492419.8581405729 0 0 0 0 970102777.68466949 -1376297298.8369141 0 -1376297298.8369141 3205653006.6248779 0 0 0 0 -960141485.81351471 167801945.14450073 0 167801945.14450073 3105378412.8133888 0 0 0 0 -1827696161.5033722 -828775273.92179871 0 -828775273.92179871 3953218199.3178635 0 0 0 0 -2123687216.0936327 2375102843.335598 0 2375102843.335598 3017416202.6913452 0 0 0 0 7649342.0453641452 -7132335.1801477447 0 -7132335.1801477447 14066717.46242889 0 0 0 0 6989776441.9385986 2515405537.5640259 0 2515405537.5640259 2435014678.227087 0 0 0 0 135999040.62895203 4988084239.6238861 0 4988084239.6238861 5193391042.0383911 0 0 0 0 1450984783.8313904 2463015750.1506882 0 2463015750.1506882 1091402076.8706055 0 0 0 0 -970096471.35398483 -866609349.67367172 0 -866609349.67367172 -160355318.13571548 0 0 0 0 -676391195.082798 -1045826516.4002094 0 -1045826516.4002094 -695594136.01145935 0 0 0 0 -17486614.582015991 -202081144.60578156 0 -202081144.60578156 214415284.7084465 0 0 0 0 13168090.54108084 -13522631.302037731 0 -13522631.302037731 10734087.277550615 0 0 0 0 -532717817.72740936 -422880070.11928177 0 -422880070.11928177 -568478457.33680534 0 0 0 0 -808320615.79919052 -281531357.18074417 0 -281531357.18074417 465678256.26689911 0 0 0 0 821419772.80390167 81543724.639019012 0 81543724.639019012 -32430834.789512634 0 0 0 0 -773557550.31017876 7791022.1890735626 0 7791022.1890735626 860141021.10185242 0 0 0 0 2030862.9137426522 -2069098.5643271878 0 -2069098.5643271878 2194343.8463055836 0 0 0 0 -48456368.530237198 32990237.780261993 0 32990237.780261993 -13916893.408988953 0 0 0 0 11956100.839633778 -8460050.4869300202 0 -8460050.4869300202 6001990.6567548476 0 0 0 0 593793278.37986922 -1431137536.7432971 0 -1431137536.7432971 -1460002427.2658157 0 0 0 0 551399937.6918869 497027346.71447372 0 497027346.71447372 294259271.94348145 0 0 0 0 -240210353.35327148 486932269.69114685 0 486932269.69114685 1656735664.7292137 0 0 0 0 -277687820.27830124 -21516326.172996521 0 -21516326.172996521 1443347306.6225586 0 0 0 0 -139809770.3266983 136137820.93388367 0 136137820.93388367 900668416.48586464 0 0 0 0 -90054216.081794739 232554299.20706177 0 232554299.20706177 918212506.17362976 0 0 0 0 89008174.839818954 -917198764.12379456 0 -917198764.12379456 1327498674.8331604 0 0 0 0 -243295012.65041733 58614011.199798584 0 58614011.199798584 1493595063.8451767 0 0 0 0 -3854702.8154792786 50033207.772346497 0 50033207.772346497 754760993.25769806 0 0 0 0 -8427367.0701522827 -338343307.5670929 0 -338343307.5670929 1059723854.7065277 0 0 0 0 167547907.61770248 -198830939.76602936 0 -198830939.76602936 600227228.6877594 0 0 0 0 -46422961.174667358 -68512336.519042969 0 -68512336.519042969 623217969.39769363 0 0 0 0 103884746.55705166 -354149794.22775269 0 -354149794.22775269 1110986690.0074158 0 0 0 0 183767225.32759857 4063537.1847000122 0 4063537.1847000122 -206452619.63604736 0 0 0 0 20753044.087684389 -12975305.798489042 0 -12975305.798489042 7750107.0923879324 0 0 0 0 152816629.69149399 29614063.388694763 0 29614063.388694763 270438903.04573059 0 0 0 0 -473000.38173007965 -158047795.79795647 0 -158047795.79795647 174425102.72183228 0 0 0 0 118256078.31330299 253993240.7999115 0 253993240.7999115 235721398.43305969 0 0 0 0 -34001287.012649536 97809725.725601196 0 97809725.725601196 270103651.27865219 0 0 0 0 38567949.942199707 8032932.4002342224 0 8032932.4002342224 292045822.93270874 0 0 0 0 -423340921.18492889 -426212584.79181671 0 -426212584.79181671 -293695080.50781631 0 0 0 0 -13116972.640568972 -207966625.64542246 0 -207966625.64542246 -293405497.34065247 0 0 0 0 14582600.651384804 -15688483.467967575 0 -15688483.467967575 12021389.00715838 0 0 0 0 -565670489.28866196 -236421388.28175926 0 -236421388.28175926 34155499.533859253 0 0 0 0 -410500228.46194077 -211820919.2673893 0 -211820919.2673893 14075973.004127502 0 0 0 0 -240468561.50826073 -227118264.08054733 0 -227118264.08054733 6099768.5903320312 0 0 0 0 -242574958.66730118 -189804453.39089203 0 -189804453.39089203 12384655.101356506 0 0 0 0 4712760.5993481465 1477418.1741610561 0 1477418.1741610561 -5209134.8802161552 0 0 0 0 -393302759.47573471 -164805766.91775513 0 -164805766.91775513 117631980.49921417 0 0 0 0 -78358416.968442917 -25082611.253362656 0 -25082611.253362656 25461171.931259155 0 0 0 0 61722759.53125 -34604706.113189697 0 -34604706.113189697 -7869021.2243361473 0 0 0 0 3837657.1122571193 -14785856.245032134 0 -14785856.245032134 3717258.1605886146 0 0 0 0 46635020.112985134 -73229308.505708694 0 -73229308.505708694 53787926.521907806 0 0 0 0 -50495354.480661392 -89780957.372581482 0 -89780957.372581482 -27031132.251766205 0 0 0 0 -303327281.81162834 -24333690.551168442 0 -24333690.551168442 14414421.470870972 0 0 0 0 -520888134.17006683 37681264.159385681 0 37681264.159385681 101109506.27976418 0 0 0 0 -427540314.52358627 -137956556.37257576 0 -137956556.37257576 111436652.58901072 0 0 0 0 -451085356.25283623 -113327637.17527485 0 -113327637.17527485 176128377.24028015 0 0 0 0 -311807102.58093834 11830807.606473923 0 11830807.606473923 164827382.82207298 0 0 0 0 -334683540.37695503 -30093709.350803375 0 -30093709.350803375 101541026.47140694 0 0 0 0 -412852130.26387501 -50845389.106881142 0 -50845389.106881142 272767763.63819504 0 0 0 0 -501538367.1201992 -190769232.34623432 0 -190769232.34623432 197524844.59144211 0 0 0 0 -208746989.96190262 5789678.5585899353 0 5789678.5585899353 177660705.12838173 0 0 0 0 -201877014.82179451 -62249076.740680695 0 -62249076.740680695 313986562.17426682 0 0 0 0 -233207282.65935135 -136830363.56243134 0 -136830363.56243134 209490023.93070602 0 0 0 0 195298235.85413933 -55229577.173313141 0 -55229577.173313141 100786681.64961243 0 0 0 0 12749366.29990685 -68710569.497054815 0 -68710569.497054815 79065965.706565857 0 0 0 0 -570529648.43740559 182579290.44746685 0 182579290.44746685 -30505028.962810516 0 0 0 0 -258267406.00680161 -102728045.67562866 0 -102728045.67562866 -62028824.491119385 0 0 0 0 -746918748.34799957 -114573853.16347885 0 -114573853.16347885 128898167.32112312 0 0 0 0 -223781138.60792923 2594817.3733654022 0 2594817.3733654022 205327945.35534477 0 0 0 0 -776261.82650947571 -12290311.402544975 0 -12290311.402544975 97737927.763034821 0 0 0 0 221008294.43962193 -183945563.99267006 0 -183945563.99267006 98469659.354454041 0 0 0 0 -74052672.133748174 -167737413.43585861 0 -167737413.43585861 213308558.4906311 0 0 0 0 3204298.583779593 -5211469.8367927046 0 -5211469.8367927046 -614476.44872654043 0 0 0 0 -433157216.38960457 -68477504.621929169 0 -68477504.621929169 92263933.085474014 0 0 0 0 1115841.9520401745 -1242497.1419992419 0 -1242497.1419992419 -447232.67855333164 0 0 0 0 -1001241874.6197109 215979568.46482277 0 215979568.46482277 139912569.69746399 0 0 0 0 414103687.68816185 -296508921.46634579 0 -296508921.46634579 351457385.52672577 0 0 0 0 -33711.059198674746 -162978.60730085522 0 -162978.60730085522 -481173.94117677584 0 0 0 0 621941831.70612335 -512702675.82258797 0 -512702675.82258797 294700151.12718678 0 0 0 0 -553666629.1736784 536361170.95426559 0 536361170.95426559 4263692.5459823608 0 0 0 0 -567043983.4104147 156279754.3055954 0 156279754.3055954 11423784.50655365 0 0 0 0 -1071359.4102922324 -767947.22125962842 0 -767947.22125962842 -606950.91323090345 0 0 0 0 -176759294.00403214 128402501.16311359 0 128402501.16311359 200224886.06685638 0 0 0 0 320314220.48015785 -760619045.46992111 0 -760619045.46992111 281232169.93327284 0 0 0 0 -1732700.1848803544 -906924.34642652422 0 -906924.34642652422 -477431.589005569 0 0 0 0 -374110721.76383686 443574456.29283142 0 443574456.29283142 -51282855.072635651 0 0 0 0 -363729954.3951149 408851374.54054451 0 408851374.54054451 13416839.071289062 0 0 0 0 -95059385.329474449 294634906.62839031 0 294634906.62839031 -1648508.5587844849 0 0 0 0 -306498185.90921783 385870687.92260361 0 385870687.92260361 -56934067.743431091 0 0 0 0 -346333729.42055511 253855347.72694778 0 253855347.72694778 221404137.73953629 0 0 0 0 -129677728.12529564 156687109.67615891 0 156687109.67615891 187999227.09892273 0 0 0 0 -95382729.516120911 -36847910.940196991 0 -36847910.940196991 10299198.598745346 0 0 0 0 -213499376.62597752 21797300.349946976 0 21797300.349946976 174179066.57982635 0 0 0 0 -150211299.20560074 -51167305.601284027 0 -51167305.601284027 420282788.61777496 0 0 0 0 -156698639.42134857 97180075.140789032 0 97180075.140789032 228066193.84127235 0 0 0 0 30636769.288106918 -206028929.16383171 0 -206028929.16383171 366365750.09993935 0 0 0 0 -87696143.851827621 96480016.927408218 0 96480016.927408218 172835951.48612785 0 0 0 0 28770287.490375519 83556137.867364883 0 83556137.867364883 120319897.88955307 0 0 0 0 -92393842.8764534 29149886.113672256 0 29149886.113672256 288749321.79240036 0 0 0 0 -666621.77972602844 15942092.868076324 0 15942092.868076324 75225665.788963318 0 0 0 0 -775750.60050686449 397072.82740985602 0 397072.82740985602 60812859.925392151 0 0 0 0 2574469.1404647827 -51167238.24946785 0 -51167238.24946785 135475442.53393555 0 0 0 0 446201.81907558441 347506845.16548586 0 347506845.16548586 10955677.262443542 0 0 0 0 -97268109.267988205 69574241.905094147 0 69574241.905094147 -8648324.1387453079 0 0 0 0 94511366.745383501 -4855904.2533049583 0 -4855904.2533049583 -18636766.793010712 0 0 0 0 -966147.39994368982 191377.79878842458 0 191377.79878842458 -176956.79839902744 0 0 0 0 -3142154.1548575861 2152495.9970444907 0 2152495.9970444907 800997.47512372583 0 0 0 0 -2479037.0047440529 504650.25463858619 0 504650.25463858619 2738792.8731209887 0 0 0 0 103695286.76516867 -97378913.296928406 0 -97378913.296928406 36179618.706832886 0 0 0 0 -98065787.489410877 141792362.92059898 0 141792362.92059898 -245623721.28183365 0 0 0 0 -507100945.95380497 -280238889.09189987 0 -280238889.09189987 -136999758.43347931 0 0 0 0 -687285101.84372139 -512183084.50315475 0 -512183084.50315475 -315044537.18457031 0 0 0 0 -324684324.56168842 432245079.79485321 0 432245079.79485321 -116714282.14479065 0 0 0 0 -959468902.80181909 -116294958.16875315 0 -116294958.16875315 181279639.95603943 0 0 0 0 -788642352.11221981 528783827.41353989 0 528783827.41353989 204125219.61258888 0 0 0 0 -535689463.89706612 121497882.88315964 0 121497882.88315964 125832432.10151672 0 0 0 0 -435813786.69145966 129172898.81899261 0 129172898.81899261 123451062.72549152 0 0 0 0 -468594332.96318674 41618731.507259369 0 41618731.507259369 160121049.77044678 0 0 0 0 -586821687.69277287 -83843872.18547821 0 -83843872.18547821 52580521.170501709 0 0 0 0 -46318189.643219471 -105321397.22013092 0 -105321397.22013092 -101168544.45062447 0 0 0 0 95986272.765193105 -67523930.776855469 0 -67523930.776855469 -164842318.30770111 0 0 0 0 -3043941.8332260023 4426506.7292314097 0 4426506.7292314097 4992146.3085353039 0 0 0 0 -176199697.32228875 98822393.703859329 0 98822393.703859329 55224534.005554199 0 0 0 0 -328376537.7581234 -3759960.2798042297 0 -3759960.2798042297 77120406.987312317 0 0 0 0 -336991032.13440275 39367219.152633667 0 39367219.152633667 39265100.298609734 0 0 0 0 -1874942.5735085008 6511856.324377751 0 6511856.324377751 2172204.9270311445 0 0 0 0 -5294244.5352289677 5979827.8844261169 0 5979827.8844261169 3691747.3712768555 0 0 0 0 -16851835.953302383 -8782513.7742118835 0 -8782513.7742118835 8101822.5086364746 0 0 0 0 -40902.312527526519 820113.10228256509 0 820113.10228256509 2755669.8711056449 0 0 0 0 -413832788.75908089 159839579.97812271 0 159839579.97812271 -124346101.33815384 0 0 0 0 -336574028.03266573 41468054.885082245 0 41468054.885082245 19835111.132202148 0 0 0 0 -474240066.22053146 65242883.034255981 0 65242883.034255981 72517260.204620361 0 0 0 0 -53882888.085432529 -81692630.59116745 0 -81692630.59116745 42172153.183532715 0 0 0 0 1993070.4998921603 1318383.2355620563 0 1318383.2355620563 195920.21665869653 0 0 0 0 -748260627.41249084 510605136.08512115 0 510605136.08512115 63367538.134929657 0 0 0 0 -53375867.547960758 -41135786.266658783 0 -41135786.266658783 -12589697.532749176 0 0 0 0 -1546800.9827900629 3969919.8178204698 0 3969919.8178204698 10852200.786527336 0 0 0 0 -1617209.3024980738 -2117076.8348943926 0 -2117076.8348943926 882060.51568371803 0 0 0 0 23938217.504130751 27548237.115333557 0 27548237.115333557 3140082.8571395874 0 0 0 0 -73478769.369897872 39072646.822096825 0 39072646.822096825 32538264.834182739 0 0 0 0 2512195.2666511536 205415707.71047211 0 205415707.71047211 268159270.93885994 0 0 0 0 464452145.08864975 168066092.5874176 0 168066092.5874176 205539621.2003479 0 0 0 0 478971.42084093578 226289.36452719197 0 226289.36452719197 -807351.40519611537 0 0 0 0 24299714.414560318 103524957.94722915 0 103524957.94722915 212541710.08765411 0 0 0 0 3203934.6141079664 -123663531.69767356 0 -123663531.69767356 118573016.75251007 0 0 0 0 -3095284.2936638077 350091.13349983934 0 350091.13349983934 3222939.3411162198 0 0 0 0 -202260235.90186214 -26620140.670310974 0 -26620140.670310974 39607715.713943481 0 0 0 0 -1377537.7008171021 193163.84932982363 0 193163.84932982363 1433043.0702692941 0 0 0 0 -570993833.15344524 -627686.9275932312 0 -627686.9275932312 40063729.171381116 0 0 0 0 6263415.0028138161 215581422.42966461 0 215581422.42966461 264818836.37024689 0 0 0 0 -564830221.228158 -39484177.57641983 0 -39484177.57641983 -170206760.62979889 0 0 0 0 84158053.051597595 172589198.59246826 0 172589198.59246826 -308616287.45635986 0 0 0 0 -269977010.18581963 336376618.89385223 0 336376618.89385223 283656625.4527874 0 0 0 0 842327760.09997916 886645810.9939394 0 886645810.9939394 400294104.32374573 0 0 0 0 178420843.42199135 485025864.83131027 0 485025864.83131027 486348478.18521118 0 0 0 0 151122632.68614388 117881380.57656479 0 117881380.57656479 241541413.81202698 0 0 0 0 218299388.81659508 260882698.94813919 0 260882698.94813919 996680150.8055954 0 0 0 0 213472631.26068306 362679118.14781189 0 362679118.14781189 666237244.5311203 0 0 0 0 38134781.482653618 340191413.88731766 0 340191413.88731766 383610241.27690125 0 0 0 0 748248016.79953098 445107998.66058636 0 445107998.66058636 -174273021.57498169 0 0 0 0 -2148597.6203536307 -538623.91589463968 0 -538623.91589463968 7444001.8926092833 0 0 0 0 16951626.820599556 22851728.403739929 0 22851728.403739929 -9057221.8475875854 0 0 0 0 50483142.803429604 172375563.24672318 0 172375563.24672318 510149389.99230385 0 0 0 0 113235260.888381 508039542.04902267 0 508039542.04902267 647624831.79879761 0 0 0 0 -590655463.68113327 257167126.44026947 0 257167126.44026947 1486792984.0728149 0 0 0 0 -412199573.43259716 75396402.122528076 0 75396402.122528076 646534697.54850769 0 0 0 0 -244689637.14132118 -349662026.60195923 0 -349662026.60195923 516215312.49320984 0 0 0 0 -148535004.40352726 799757292.07022095 0 799757292.07022095 114127375.27071953 0 0 0 0 1490370.7162489244 752819.04650900699 0 752819.04650900699 -525649.77534438297 0 0 0 0 -106303687.79009366 803270673.07646751 0 803270673.07646751 -532162983.09738159 0 0 0 0 650858.1733370088 -812944.04770920612 0 -812944.04770920612 -885703.22621701285 0 0 0 0 73498518.664730072 100336591.57066727 0 100336591.57066727 324455638.05205536 0 0 0 0 308585743.30016327 -47446794.966270447 0 -47446794.966270447 42459164.669052124 0 0 0 0 21430690.896798015 -82809307.149909019 0 -82809307.149909019 7913811.3429412842 0 0 0 0 429749857.90235472 590402877.31238174 0 590402877.31238174 704930341.99679565 0 0 0 0 -316781.4589516453 1551733.9317657023 0 1551733.9317657023 3958095.8876254335 0 0 0 0 -2033981.1410740167 -289498423.46243334 0 -289498423.46243334 1011990586.2853699 0 0 0 0 214411431.04460192 220738381.39501953 0 220738381.39501953 149662396.49393845 0 0 0 0 145264745.81525707 412345315.61771393 0 412345315.61771393 576290806.54157257 0 0 0 0 -41463859.318603516 195637273.06695557 0 195637273.06695557 329467236.06104326 0 0 0 0 -208705049.99475574 231907278.62575531 0 231907278.62575531 927261246.46908426 0 0 0 0 -222899425.7827754 307397315.88900757 0 307397315.88900757 929264671.52705383 0 0 0 0 -110170654.96721888 -394242019.7480545 0 -394242019.7480545 836457558.22085381 0 0 0 0 -229706869.09849906 167975304.57328796 0 167975304.57328796 794317780.74505615 0 0 0 0 -245185350.16451114 139577726.67139435 0 139577726.67139435 1914776779.353241 0 0 0 0 250319537.65464115 -1028865711.5262299 0 -1028865711.5262299 1435491534.6396027 0 0 0 0 151168335.48057127 -581864924.87205505 0 -581864924.87205505 -39825218.12677002 0 0 0 0 54442661.10086298 -321228162.75143433 0 -321228162.75143433 148771478.91764832 0 0 0 0 15848353.101729393 -169682177.0561676 0 -169682177.0561676 44732999.440887451 0 0 0 0 68721369.765498161 -254986722.79578209 0 -254986722.79578209 12649026.168380737 0 0 0 0 -570265689.68949699 308230802.42046928 0 308230802.42046928 1274568242.1269989 0 0 0 0 -554811252.77695131 594448713.18348312 0 594448713.18348312 1890723961.3138809 0 0 0 0 940948687.79296708 806437146.89614868 0 806437146.89614868 604388932.1374054 0 0 0 0 1386539365.7984481 -642453244.55659485 0 -642453244.55659485 -146412900.91122437 0 0 0 0 271565103.16222334 -168835408.01664734 0 -168835408.01664734 -196880386.39752197 0 0 0 0 423488879.67518997 -35066317.581062317 0 -35066317.581062317 -1182250010.4406738 0 0 0 0 618665678.90121269 -444428486.3695755 0 -444428486.3695755 -1712536433.7419128 0 0 0 0 -440796526.386168 -137025771.5151062 0 -137025771.5151062 -16005702.668777466 0 0 0 0 -175736422.57364058 286327605.34814453 0 286327605.34814453 -717090306.81304932 0 0 0 0 1029253.4935816111 -923489.37184514664 0 -923489.37184514664 3447746.5611770935 0 0 0 0 25785179.681457758 36394446.774154663 0 36394446.774154663 -757710577.88136148 0 0 0 0 39886900.550970793 -31289122.22785759 0 -31289122.22785759 13240530.265518188 0 0 0 0 -6349715.523552537 -4612425.1153488159 0 -4612425.1153488159 8073551.250328064 0 0 0 0 148363.85863438292 -1178693.7242058609 0 -1178693.7242058609 83666.214304994792 0 0 0 0 383069337.32611096 598228089.85736847 0 598228089.85736847 -1821879798.1941328 0 0 0 0 -2568235.7656114432 -2294140.9864455201 0 -2294140.9864455201 7892283.3422783539 0 0 0 0 -2595498.1356954575 -5298876.1971321106 0 -5298876.1971321106 4850176.2821350098 0 0 0 0 9611853.311548233 1045248.801071167 0 1045248.801071167 -223734839.5123024 0 0 0 0 -59890215.881420135 -52269718.108768463 0 -52269718.108768463 -224956950.95256042 0 0 0 0 2467527.512401483 -7276862.3113733213 0 -7276862.3113733213 2131786.9603161812 0 0 0 0 -213055767.70537376 37280379.896621704 0 37280379.896621704 -490234605.51748657 0 0 0 0 -47197621.349333763 440874687.07757568 0 440874687.07757568 -412268352.72735977 0 0 0 0 135669866.57486498 -214824759.23437881 0 -214824759.23437881 -516828377.31436157 0 0 0 0 -188963546.57290983 400471860.72399902 0 400471860.72399902 -934356396.21100616 0 0 0 0 -334090788.31332588 -231013675.96664429 0 -231013675.96664429 -1065336957.112854 0 0 0 0 509953.94661613618 -218818.30994924903 0 -218818.30994924903 -603508.55650141463 0 0 0 0 -4330581.1201825142 -8110988.6792106628 0 -8110988.6792106628 5934757.8332519531 0 0 0 0 20656132.841496944 1618805.2037305832 0 1618805.2037305832 -3720631.9954032898 0 0 0 0 -810869.29101219866 -4418161.0513421185 0 -4418161.0513421185 8367556.4390447438 0 0 0 0 -75100975.646303177 -161069844.11801147 0 -161069844.11801147 -20360189.509433746 0 0 0 0 -7280322.3670978546 -22048786.719823837 0 -22048786.719823837 3728852.3281478882 0 0 0 0 -42220982.966464996 232337250.73185539 0 232337250.73185539 216737781.45902252 0 0 0 0 -29821252.589120865 -241364625.04623413 0 -241364625.04623413 52927148.085475922 0 0 0 0 -86726633.48759675 160692803.57632446 0 160692803.57632446 116574423.43852234 0 0 0 0 343837267.80941296 -348804681.34340668 0 -348804681.34340668 -412217566.26980591 0 0 0 0 -440718802.51028562 138866706.61814499 0 138866706.61814499 1165703090.3027496 0 0 0 0 -53009733.183018684 -262316544.54091644 0 -262316544.54091644 -395204195.38577271 0 0 0 0 449754.52087222575 -951957.56910521165 0 -951957.56910521165 1150207.9422063529 0 0 0 0 88087317.362913013 408399761.14009094 0 408399761.14009094 466148787.53102875 0 0 0 0 -7394779.3291077614 264995576.82835007 0 264995576.82835007 257327943.14912033 0 0 0 0 -71541515.090257406 145204824.84983444 0 145204824.84983444 105224926.8852272 0 0 0 0 88381683.854945898 -32936289.65719223 0 -32936289.65719223 -27410552.428459167 0 0 0 0 45579119.459791303 -44146729.716430664 0 -44146729.716430664 38645832.443511963 0 0 0 0 404261.41975731286 -108085.62739297282 0 -108085.62739297282 1251996.9208435118 0 0 0 0 36027492.438281536 277416852.28614426 0 277416852.28614426 375110459.95912933 0 0 0 0 660258773.25543511 171254660.46749115 0 171254660.46749115 95025639.440460205 0 0 0 0 270126408.94276047 -37998933.201301575 0 -37998933.201301575 -14293417.157737732 0 0 0 0 336793575.6381461 346080957.1120677 0 346080957.1120677 202009837.99009705 0 0 0 0 -112653002.79985598 292067120.2452898 0 292067120.2452898 279955331.70544434 0 0 0 0 36683833.463337183 304977894.36885452 0 304977894.36885452 191669334.51875305 0 0 0 0 -393990551.44455242 242593896.31354523 0 242593896.31354523 448230261.22069168 0 0 0 0 90601825.321275473 -82702292.012676239 0 -82702292.012676239 -54585788.966468811 0 0 0 0 171411866.19497979 -335885853.24093628 0 -335885853.24093628 736226868.32226348 0 0 0 0 383534210.65500152 606707165.76113892 0 606707165.76113892 685375750.59915161 0 0 0 0 461036688.97667921 -200574230.36428452 0 -200574230.36428452 -155999.32571411133 0 0 0 0 -6144748.4259219766 61342755.417816162 0 61342755.417816162 12028927.545794249 0 0 0 0 -538919696.68714857 -402562754.40354156 0 -402562754.40354156 288719821.54462051 0 0 0 0 -38751256.058290482 83334345.966085434 0 83334345.966085434 -51490686.114593506 0 0 0 0 693764.38134800363 -2019113.0093346052 0 -2019113.0093346052 3209657.3712273613 0 0 0 0 -118595586.45771933 308677437.98984528 0 308677437.98984528 108986943.35160065 0 0 0 0 -544285644.73871624 41497865.037998199 0 41497865.037998199 178226316.47483063 0 0 0 0 -221416822.00394607 254008763.81245422 0 254008763.81245422 310675630.85394287 0 0 0 0 -649058018.27354228 -486187478.37195969 0 -486187478.37195969 192901353.34298706 0 0 0 0 692075.18193378486 -2029867.4900851445 0 -2029867.4900851445 3125692.5990594327 0 0 0 0 -557274520.24748826 -47328285.36038208 0 -47328285.36038208 295707461.33208847 0 0 0 0 -312588266.71612072 1379700.362121582 0 1379700.362121582 261236526.60353851 0 0 0 0 -167668781.72784424 -368869879.0324173 0 -368869879.0324173 1186224691.5287018 0 0 0 0 511339331.38059378 809690968.55676651 0 809690968.55676651 752789341.8969574 0 0 0 0 7643968.3309144974 235346105.95161438 0 235346105.95161438 100001677.49061584 0 0 0 0 7660279.1085782051 235055524.85535431 0 235055524.85535431 72514967.227600098 0 0 0 0 15213549.337236404 181456374.05493164 0 181456374.05493164 215535920.34022522 0 0 0 0 -90635336.00272274 298102820.66439819 0 298102820.66439819 94311787.612831116 0 0 0 0 21205480.042181492 227888560.26756287 0 227888560.26756287 103792992.6519928 0 0 0 0 -90563315.360940874 144615921.16029358 0 144615921.16029358 275715428.8094635 0 0 0 0 115878241.56085062 66117660.385303497 0 66117660.385303497 103538945.60796356 0 0 0 0 101158203.8897929 69198385.717216492 0 69198385.717216492 59917820.253555298 0 0 0 0 -222706.29867402968 -607048.58065920323 0 -607048.58065920323 542849.86119218171 0 0 0 0 -155994766.54207325 83787587.388641357 0 83787587.388641357 357478689.33753967 0 0 0 0 -69056191.404961109 462183162.80223083 0 462183162.80223083 363096195.94983578 0 0 0 0 -174027659.99186945 192606156.99648285 0 192606156.99648285 372363590.03599548 0 0 0 0 -80645260.728847504 23727634.613006592 0 23727634.613006592 228783428.33270264 0 0 0 0 366722.31576787191 -326806.4524176009 0 -326806.4524176009 324803.93113691732 0 0 0 0 313216077.18150139 417993452.29503632 0 417993452.29503632 -41062800.590101242 0 0 0 0 -216601503.16869819 -45795337.878824234 0 -45795337.878824234 208190746.93685913 0 0 0 0 -178029736.40258616 56717907.266109467 0 56717907.266109467 144398148.06381226 0 0 0 0 -2871384.2529630661 -66501099.710205078 0 -66501099.710205078 352957654.74128723 0 0 0 0 121748863.34576416 61329515.069625854 0 61329515.069625854 204623618.46685791 0 0 0 0 230136167.06998146 220546780.48769903 0 220546780.48769903 410689461.25543213 0 0 0 0 223914049.79788613 18430918.743735313 0 18430918.743735313 323726108.20953369 0 0 0 0 -111639737.99520206 -72500116.316131592 0 -72500116.316131592 385144709.12638855 0 0 0 0 -70446991.746852875 43361634.307571411 0 43361634.307571411 336429402.67045593 0 0 0 0 47291286.355762959 -228319214.23725891 0 -228319214.23725891 175220697.43354988 0 0 0 0 91465987.456493139 2136072.6893920898 0 2136072.6893920898 -246485009.73231506 0 0 0 0 -46839228.049199581 -101000017.49703979 0 -101000017.49703979 -70679885.775672913 0 0 0 0 -1554879.7776255608 6186011.6112518311 0 6186011.6112518311 31396062.299419403 0 0 0 0 -106084.62657381047 -102818.09559956938 0 -102818.09559956938 4328355.0363984387 0 0 0 0 41541362.64576292 89815673.813621521 0 89815673.813621521 52794838.892463684 0 0 0 0 74031287.077763721 28265107.302241802 0 28265107.302241802 -19476665.547515869 0 0 0 0 -164297.01418411848 489961.70292616007 0 489961.70292616007 563744.98001178354 0 0 0 0 -5159276.9951727986 1597218.4001617432 0 1597218.4001617432 -2886507.4160423279 0 0 0 0 190676349.0190165 365491040.82082367 0 365491040.82082367 797635695.83013916 0 0 0 0 -162465304.31530714 -170771256.21588898 0 -170771256.21588898 -269288286.78222656 0 0 0 0 398698.58439575508 -897509.33815535903 0 -897509.33815535903 1282661.5786361918 0 0 0 0 397247424.02346563 -324693570.44882298 0 -324693570.44882298 -346925210.71481323 0 0 0 0 -138539963.50780654 76000065.756507874 0 76000065.756507874 1485425809.8867188 0 0 0 0 -50983585.357847869 267792138.18846595 0 267792138.18846595 944965274.40074158 0 0 0 0 89239690.886368871 412715660.62851334 0 412715660.62851334 784960704.24186707 0 0 0 0 284361579.06148529 230207735.44752502 0 230207735.44752502 344662420.25782776 0 0 0 0 -42730544.097054482 -510486.119140625 0 -510486.119140625 403522971.95370865 0 0 0 0 98748600.088616848 -105088233.17382812 0 -105088233.17382812 330347367.5039978 0 0 0 0 121105914.08345222 -710694623.1444397 0 -710694623.1444397 123968434.48500824 0 0 0 0 -452671769.94944143 -244997533.2328186 0 -244997533.2328186 1114863309.3533783 0 0 0 0 166156600.67034245 -986205267.85369873 0 -986205267.85369873 171451663.26741791 0 0 0 0 50634352.084354401 -196811815.08413696 0 -196811815.08413696 -1005140797.1507568 0 0 0 0 -3993665.576798439 6351530.9713745117 0 6351530.9713745117 1076296.4985351562 0 0 0 0 -336217.73339700699 25131416.476425171 0 25131416.476425171 -9288497.6633472443 0 0 0 0 -171063.10288060777 4921520.2606082307 0 4921520.2606082307 1172016.6847014353 0 0 0 0 -957450.2540947427 1705016.6191877127 0 1705016.6191877127 10042321.249589004 0 0 0 0 -2581027.5047384501 1833474.3809576035 0 1833474.3809576035 1341685.6877288818 0 0 0 0 -3077705.2218928742 4643803.7314512357 0 4643803.7314512357 8439459.7181950174 0 0 0 0 -1392219.7985305309 1540626.3991784081 0 1540626.3991784081 3819667.0384413078 0 0 0 0 -3424554.95399189 3650663.5295715332 0 3650663.5295715332 2131447.7680969238 0 0 0 0 -4447624.3627882004 3218237.593170166 0 3218237.593170166 2231113.2480773926 0 0 0 0 -3172798.3406552076 5012977.6394481659 0 5012977.6394481659 3933877.3500213623 0 0 0 0 -2094797.2754190483 4232477.0435103513 0 4232477.0435103513 14098331.25471082 0 0 0 0 671472.95688409253 3893903.5457440652 0 3893903.5457440652 16829989.390636399 0 0 0 0 -12107469.43493557 13518548.949230194 0 13518548.949230194 -2295264.9145965576 0 0 0 0 -6092030.1114718067 7043565.9435593579 0 7043565.9435593579 17793601.785619974 0 0 0 0 -1254747.9701604843 3391377.4938154221 0 3391377.4938154221 1350452.9755249023 0 0 0 0 -2132583.6378591452 8420168.0732865799 0 8420168.0732865799 962782.96954964101 0 0 0 0 -128287386.2292347 376027256.5680542 0 376027256.5680542 -1193691999.3357468 0 0 0 0 3728295.2593143303 2353002.7349029705 0 2353002.7349029705 5387534.8641741797 0 0 0 0 -83560095.362895489 -78728742.269577026 0 -78728742.269577026 -455339637.67015076 0 0 0 0 -11024494.431962386 24792179.195568442 0 24792179.195568442 -17388496.710426331 0 0 0 0 -4280170.3680820465 20361502.686906815 0 20361502.686906815 -20308434.74766922 0 0 0 0 71995.706737073255 9435782.1098726932 0 9435782.1098726932 -6620686.4711699449 0 0 0 0 1234225.3996145725 15099035.963633537 0 15099035.963633537 -17846167.307662964 0 0 0 0 224516.32989976887 2871585.8298548949 0 2871585.8298548949 -336084.95497899503 0 0 0 0 26101451.509666443 33837185.354100227 0 33837185.354100227 26978318.899002075 0 0 0 0 -319568.43632984161 6119630.9355926514 0 6119630.9355926514 -740036.96068000793 0 0 0 0 163891.25947761536 46227952.636810303 0 46227952.636810303 62062459.637172699 0 0 0 0 -2346433.3390693665 21359084.879199982 0 21359084.879199982 49168494.063903809 0 0 0 0 1489968.5913500125 4518060.4347959412 0 4518060.4347959412 495028.03677245416 0 0 0 0 3491828.9218978882 -7188584.4962272644 0 -7188584.4962272644 -27405125.868270874 0 0 0 0 88068.770517349243 4750916.0806503296 0 4750916.0806503296 19058072.32857132 0 0 0 0 -647976.73412847519 1246045.5546069145 0 1246045.5546069145 24030253.12890625 0 0 0 0 -218051.69448888302 428117.18473052979 0 428117.18473052979 27139416.924880981 0 0 0 0 157798569.70114803 -293238003.6727066 0 -293238003.6727066 -331919579.82944679 0 0 0 0 391426.95434090495 3252178.3041305542 0 3252178.3041305542 22482203.288175583 0 0 0 0 -813519.01796778373 338590.41908048093 0 338590.41908048093 9052794.1555199865 0 0 0 0 1048768.5981158316 5711214.1690597534 0 5711214.1690597534 23304175.908287048 0 0 0 0 3294005.4125618562 4530178.4771003723 0 4530178.4771003723 19787523.377548218 0 0 0 0 -81010.264836087823 726942.73587036133 0 726942.73587036133 18646937.847213745 0 0 0 0 -26450778.227858067 11484783.921886444 0 11484783.921886444 -16054603.458347321 0 0 0 0 2180515.2262711525 3534476.5467071533 0 3534476.5467071533 8966740.094833374 0 0 0 0 -656480.77274582291 2643739.0647070073 0 2643739.0647070073 23702002.651130781 0 0 0 0 -1483842.7429559231 3055860.5348587036 0 3055860.5348587036 9010672.5726318359 0 0 0 0 -1356714.6919317245 1438889.2506561279 0 1438889.2506561279 17683012.860507965 0 0 0 0 -356952.08829756849 -604705.72809558548 0 -604705.72809558548 592793.03204346448 0 0 0 0 -2113053.2478604317 5273132.9912338257 0 5273132.9912338257 8515660.1684112549 0 0 0 0 -3298126.2201082706 -932098.84240913391 0 -932098.84240913391 6413388.5163726807 0 0 0 0 447646.77041753044 1746052.0428236835 0 1746052.0428236835 8307442.4155939072 0 0 0 0 -14079500.79645896 -21349449.303442001 0 -21349449.303442001 -6593343.9229736328 0 0 0 0 5059384.5345941782 3933548.4196662903 0 3933548.4196662903 15330790.236442566 0 0 0 0 445940.45539480518 -846428.80865004659 0 -846428.80865004659 -799930.3035601303 0 0 0 0 15161124.188598871 -6430969.8192367554 0 -6430969.8192367554 -14636441.559265137 0 0 0 0 46207895.84096241 2656042.8991165161 0 2656042.8991165161 714271.57487869263 0 0 0 0 -3229652.0693044662 -21794466.204784393 0 -21794466.204784393 -2460394.7421417236 0 0 0 0 -11233887.878380477 -14423070.349664688 0 -14423070.349664688 -8036127.2657928467 0 0 0 0 88047414.936050415 91115971.25592041 0 91115971.25592041 104538349.14593601 0 0 0 0 -19155584.564438071 -8340122.9313853756 0 -8340122.9313853756 36008903.769556746 0 0 0 0 92856890.393836975 133673949.59628677 0 133673949.59628677 178951670.16723633 0 0 0 0 -19484214.592152733 -10069773.152805857 0 -10069773.152805857 36262258.20702257 0 0 0 0 -26380681.649277687 -77972154.165863991 0 -77972154.165863991 -40030965.578369141 0 0 0 0 -34885615.369998932 -21016605.779396057 0 -21016605.779396057 -3847956.8598823547 0 0 0 0 33554186.491136551 -69881440.336196899 0 -69881440.336196899 30368246.154602051 0 0 0 0 -72782460.66578722 -95622434.800206184 0 -95622434.800206184 -19766986.927886963 0 0 0 0 -32356210.666690826 -25641014.541732788 0 -25641014.541732788 -11928672.089164734 0 0 0 0 6279684.0129995346 26287249.95967865 0 26287249.95967865 48608966.657491684 0 0 0 0 -43991299.225208282 -31390257.91991806 0 -31390257.91991806 32406140.356216431 0 0 0 0 -26355344.713502049 9494220.4960193634 0 9494220.4960193634 114399529.2766037 0 0 0 0 34413814.567567825 -44435031.804870605 0 -44435031.804870605 132658050.94203949 0 0 0 0 38197675.312348366 54085401.754585266 0 54085401.754585266 58865359.602207184 0 0 0 0 21266296.89187479 -46706929.004417419 0 -46706929.004417419 134330046.88311768 0 0 0 0 -100830553.37287724 49240964.689208984 0 49240964.689208984 135492253.21609879 0 0 0 0 13956479.597273827 -39374529.941307068 0 -39374529.941307068 140820786.99656963 0 0 0 0 -175860.96298757009 -1360012.0670106374 0 -1360012.0670106374 1093495.5713728815 0 0 0 0 81799713.576002181 -15298559.790425301 0 -15298559.790425301 120826211.44628906 0 0 0 0 -11320505.726639748 -39005460.015625 0 -39005460.015625 141045251.77607536 0 0 0 0 -149852.83678258932 -258653.96432231367 0 -258653.96432231367 1458056.6690668203 0 0 0 0 33595709.74149704 25073461.244842529 0 25073461.244842529 39585580.962402344 0 0 0 0 -24599591.836546421 -44384072.370574951 0 -44384072.370574951 134922532.41369343 0 0 0 0 -60261848.791903973 29634928.884819031 0 29634928.884819031 106785123.94165039 0 0 0 0 3367675.8606967926 4975828.8007049561 0 4975828.8007049561 23626979.462134361 0 0 0 0 5040533.8688192368 8668150.9572868347 0 8668150.9572868347 31759772.443283081 0 0 0 0 60940516.009016633 14597326.751461029 0 14597326.751461029 10364222.225540161 0 0 0 0 29399743.001513958 134098907.72016907 0 134098907.72016907 46578852.740325928 0 0 0 0 97353179.857654572 -86326188.789535522 0 -86326188.789535522 116259995.74131012 0 0 0 0 -4346070.0183410645 -30644951.740707397 0 -30644951.740707397 91863494.874702454 0 0 0 0 -3212962.3228606414 -2523219.8276477605 0 -2523219.8276477605 8007169.4302780628 0 0 0 0 -111276460.23347902 -112334510.55299377 0 -112334510.55299377 113112052.39308167 0 0 0 0 65855041.370527267 -185254612.31957245 0 -185254612.31957245 10947991.763885498 0 0 0 0 220584974.73454094 -185096774.33252048 0 -185096774.33252048 -21449050.153289795 0 0 0 0 -312088159.25935268 -367045007.05795288 0 -367045007.05795288 -56428662.109405518 0 0 0 0 37497082.690839767 -3244566.9918518066 0 -3244566.9918518066 56922302.033843994 0 0 0 0 -147147883.40574646 268077706.85363197 0 268077706.85363197 183035541.7731781 0 0 0 0 -533478579.24891412 152813887.44607544 0 152813887.44607544 18493954.94052124 0 0 0 0 140152600.3157779 221324849.30187273 0 221324849.30187273 273594077.89837646 0 0 0 0 114311352.37550831 -200857.68342590332 0 -200857.68342590332 214374238.78160095 0 0 0 0 7792890.7742969086 669222.21136821061 0 669222.21136821061 -3855923.707672745 0 0 0 0 90830649.480717063 154953145.87865686 0 154953145.87865686 207900519.50680542 0 0 0 0 145848255.5434761 139553133.69340515 0 139553133.69340515 191758124.72234344 0 0 0 0 -2549817.4024993451 -1258739.4706274495 0 -1258739.4706274495 3967791.0333650634 0 0 0 0 -47928621.722821236 -115798054.20543671 0 -115798054.20543671 182730786.50921631 0 0 0 0 6552028.6044995654 2874308.5438596904 0 2874308.5438596904 -4663095.4070888087 0 0 0 0 201895615.8357811 62331779.518768311 0 62331779.518768311 353790066.8994751 0 0 0 0 77060216.841291428 248015400.68264771 0 248015400.68264771 79202230.090789795 0 0 0 0 120146370.14965057 165379938.16495514 0 165379938.16495514 195733310.3506012 0 0 0 0 121865549.80500412 133475829.2644043 0 133475829.2644043 155116509.34729958 0 0 0 0 94629496.662845612 111088164.90871429 0 111088164.90871429 175537233.03740692 0 0 0 0 -64109706.451527596 -24856468.088615417 0 -24856468.088615417 27555249.291358948 0 0 0 0 -60074806.412025452 -78434915.405357361 0 -78434915.405357361 -36802896.608078003 0 0 0 0 -18795487.165105656 -10646388.418340471 0 -10646388.418340471 37251345.118570335 0 0 0 0 93570519.483909607 91255732.21547699 0 91255732.21547699 197352861.26370239 0 0 0 0 82133900.582658291 144569699.13080978 0 144569699.13080978 263650569.59870911 0 0 0 0 194345753.41909027 183577165.81259918 0 183577165.81259918 195419417.8746233 0 0 0 0 -12962370.760536194 56752621.806259155 0 56752621.806259155 203579240.26214409 0 0 0 0 126386479.86135674 327118595.17188263 0 327118595.17188263 352129956.72186279 0 0 0 0 116666372.2239418 201438189.97950745 0 201438189.97950745 296213763.6789093 0 0 0 0 49600955.809537888 -11282392.535446167 0 -11282392.535446167 87941903.896026611 0 0 0 0 9610591.5562679023 -1059338.3344847821 0 -1059338.3344847821 -2791105.8365564644 0 0 0 0 -90857207.809391975 -113720603.22388649 0 -113720603.22388649 91369394.870292664 0 0 0 0 -13844237.144133616 -6907619.3982679024 0 -6907619.3982679024 42582969.472621188 0 0 0 0 1706172.7112337351 255204553.22895479 0 255204553.22895479 278238836.9692688 0 0 0 0 82229869.975986481 106187870.8629303 0 106187870.8629303 22531296.326446533 0 0 0 0 -17161206.171079278 -9954518.5019575767 0 -9954518.5019575767 39172687.88922368 0 0 0 0 -53420243.356689453 -93504611.134822845 0 -93504611.134822845 -51575565.829315186 0 0 0 0 -7824777.2055053711 -44330208.303066254 0 -44330208.303066254 -29099202.262363434 0 0 0 0 -56933801.91996479 39429315.577079773 0 39429315.577079773 359162407.26308441 0 0 0 0 -371923.18379919883 -978918.98137229308 0 -978918.98137229308 791523.93602802604 0 0 0 0 -40476772.885129929 -24163704.330089569 0 -24163704.330089569 7566633.4594345093 0 0 0 0 -4236877.558804512 -40333574.159378052 0 -40333574.159378052 -12931461.886116028 0 0 0 0 -65727639.050619721 -32620962.652644157 0 -32620962.652644157 2449886.9021682739 0 0 0 0 -28294779.709483743 13509387.04709816 0 13509387.04709816 52075644.275665283 0 0 0 0 -300002.79372745287 -1732396.6847872175 0 -1732396.6847872175 1339895.6556904335 0 0 0 0 -19147212.745970726 151647309.28504562 0 151647309.28504562 406805470.0007782 0 0 0 0 -53781790.491448402 99154126.883365631 0 99154126.883365631 328306781.18533325 0 0 0 0 29968380.402072906 147118483.25434875 0 147118483.25434875 321545113.11535645 0 0 0 0 32957215.6114645 181183958.24325943 0 181183958.24325943 232008613.97763062 0 0 0 0 -3854396.2863292694 100859359.96103477 0 100859359.96103477 268988642.86012268 0 0 0 0 -2253770.4635609114 2976682.6229068674 0 2976682.6229068674 3844106.4861851037 0 0 0 0 -228176977.85184002 -4091167.7180213928 0 -4091167.7180213928 67787270.886169434 0 0 0 0 134789298.00011063 133788680.94107819 0 133788680.94107819 90325796.190670013 0 0 0 0 258910575.64184475 217869063.04866791 0 217869063.04866791 117273355.10549927 0 0 0 0 72153566.290119171 167219183.20489502 0 167219183.20489502 221751733.83688354 0 0 0 0 100820527.13202858 129765810.3312645 0 129765810.3312645 173780706.04826355 0 0 0 0 61906932.438671112 85397434.435279846 0 85397434.435279846 133558648.00062561 0 0 0 0 64516132.838825226 77861353.658348083 0 77861353.658348083 58069668.046737671 0 0 0 0 18346873.109039307 39705426.292446136 0 39705426.292446136 141918554.213974 0 0 0 0 -48906337.677743435 60359584.636376858 0 60359584.636376858 291019685.66534424 0 0 0 0 4505859.0628242493 94600282.154724121 0 94600282.154724121 214537711.51052094 0 0 0 0 14894639.770950317 64542358.537174225 0 64542358.537174225 291076737.08653259 0 0 0 0 -5425271.2953910828 -27698795.400337219 0 -27698795.400337219 275635574.48716736 0 0 0 0 -6513621.3141231537 65173278.050071716 0 65173278.050071716 150934309.02386284 0 0 0 0 10033405.161316872 97587739.979541779 0 97587739.979541779 38578037.855110168 0 0 0 0 -153703245.06226349 42641804.319904327 0 42641804.319904327 135958967.4709692 0 0 0 0 761605.44560205936 -5680338.6207122803 0 -5680338.6207122803 76100994.349052429 0 0 0 0 -134127972.66817939 -387443825.49747658 0 -387443825.49747658 102304752.03837585 0 0 0 0 -84139459.610422701 133600981.54171753 0 133600981.54171753 344311611.57448196 0 0 0 0 -14039980.183825016 424684071.78666687 0 424684071.78666687 876811365.01112938 0 0 0 0 -371297888.74683189 -321235501.58289337 0 -321235501.58289337 1056058335.0915661 0 0 0 0 639260198.89751124 -72945858.280658722 0 -72945858.280658722 -495023326.57821655 0 0 0 0 1090232.6924780852 -1196247.7344064824 0 -1196247.7344064824 976728.27467584237 0 0 0 0 114975320.87411928 16439685.745651245 0 16439685.745651245 20122399.259033203 0 0 0 0 1224511482.147393 309552573.35774994 0 309552573.35774994 -444068666.87014771 0 0 0 0 481539.24858052121 -1743353.4700095057 0 -1743353.4700095057 1678049.92574903 0 0 0 0 -98920265.72000885 75746668.521965027 0 75746668.521965027 120080166.32492065 0 0 0 0 6083656.7527451515 28606188.403343201 0 28606188.403343201 40435972.855522156 0 0 0 0 107190474.28548241 -16065653.97202301 0 -16065653.97202301 -27241246.127384186 0 0 0 0 -38611.469643171178 -1699908.9623549432 0 -1699908.9623549432 1287891.3508170396 0 0 0 0 -17778619.365467548 -21494496.916473389 0 -21494496.916473389 10562686.588039398 0 0 0 0 -64545647.637778044 99176142.48251915 0 99176142.48251915 113743007.04589081 0 0 0 0 113043995.65745544 -125734817.06354523 0 -125734817.06354523 127537702.41236496 0 0 0 0 -94899192.338797569 94496565.281860352 0 94496565.281860352 607474012.08959198 0 0 0 0 -292171.22322051669 -913619.57919366658 0 -913619.57919366658 1067693.7976041436 0 0 0 0 -96697362.766260386 135224133.71594238 0 135224133.71594238 399520365.77961731 0 0 0 0 -40870422.536756456 121668319.83277893 0 121668319.83277893 402811963.31362152 0 0 0 0 181482199.46900845 134704753.33996582 0 134704753.33996582 272801333.40351868 0 0 0 0 80849727.730704308 -63535366.20841217 0 -63535366.20841217 381277683.38687134 0 0 0 0 -15150283.638555527 40585322.002349854 0 40585322.002349854 328101898.32902527 0 0 0 0 -56620560.795681 137036678.89006042 0 137036678.89006042 183655393.56365728 0 0 0 0 25252309.518924713 143470621.2379303 0 143470621.2379303 183888371.24023438 0 0 0 0 64458122.715763092 51703580.089584351 0 51703580.089584351 159252440.4407959 0 0 0 0 -39622069.324550629 37239557.731323242 0 37239557.731323242 157243992.94633102 0 0 0 0 3243552.3789117336 78701464.617845535 0 78701464.617845535 79380265.911010742 0 0 0 0 -94627121.767233849 73992334.895996094 0 73992334.895996094 89869696.825767517 0 0 0 0 -67167733.446781158 117393386.18644714 0 117393386.18644714 35645590.979530334 0 0 0 0 11190972.807394505 57097968.782058716 0 57097968.782058716 180990454.12033081 0 0 0 0 -2957901.6082954407 37911900.804748535 0 37911900.804748535 266919216.29599762 0 0 0 0 30058304.647741199 76050094.044425964 0 76050094.044425964 117936849.20381165 0 0 0 0 -14042028.977558851 13120763.779103279 0 13120763.779103279 152285269.98655701 0 0 0 0 7019600.8100013733 79176918.567184448 0 79176918.567184448 84187094.903785706 0 0 0 0 22011768.887600422 36358527.653945923 0 36358527.653945923 93747337.706100464 0 0 0 0 107059543.08025646 97798492.238288879 0 97798492.238288879 67807814.531589508 0 0 0 0 29038821.361733556 81878603.192329407 0 81878603.192329407 207670511.17347717 0 0 0 0 -30391017.328934044 143034718.09294891 0 143034718.09294891 221999311.64130783 0 0 0 0 52107506.22733596 273130620.83561325 0 273130620.83561325 422062046.31555176 0 0 0 0 -139858245.93957031 151020895.98167229 0 151020895.98167229 422953481.25424194 0 0 0 0 -560324.8411363794 835230.73767543957 0 835230.73767543957 3820611.792861864 0 0 0 0 406592445.13190651 -518179564.158638 0 -518179564.158638 39423726.338493347 0 0 0 0 475711714.73274446 391132868.00526047 0 391132868.00526047 282880276.10908508 0 0 0 0 210811406.82845378 133881486.87508583 0 133881486.87508583 33058473.344619751 0 0 0 0 64878402.267621875 -6760850.6896753311 0 -6760850.6896753311 17805124.824531555 0 0 0 0 -12254383.990170956 -2906317.2340927124 0 -2906317.2340927124 53337257.00553894 0 0 0 0 -34194069.580236435 27662343.168418884 0 27662343.168418884 24266088.132385254 0 0 0 0 -2200672.1789990943 3706469.9532983331 0 3706469.9532983331 10241756.063680723 0 0 0 0 16910018.290908813 1911408.8106117249 0 1911408.8106117249 -10118742.421768188 0 0 0 0 -25554106.246995449 8575819.0993423462 0 8575819.0993423462 -5094018.3885688782 0 0 0 0 -12344621.502118826 24778540.779006958 0 24778540.779006958 -9643957.7584609985 0 0 0 0 26232090.984246463 24659707.465240479 0 24659707.465240479 -9997143.5901870728 0 0 0 0 51945522.072330311 36097027.399147034 0 36097027.399147034 -2115273.1882019043 0 0 0 0 6486542.1779382229 23515012.456989288 0 23515012.456989288 2927703.3207550049 0 0 0 0 37630757.548984289 27329718.110694885 0 27329718.110694885 42345410.951915741 0 0 0 0 46975537.672992408 71690448.138953209 0 71690448.138953209 34289473.240341187 0 0 0 0 17397818.976106644 41092591.963905334 0 41092591.963905334 8032555.3037948608 0 0 0 0 -10100900.011073828 94467562.711732864 0 94467562.711732864 -1976800.0737915039 0 0 0 0 -43000364.454880714 87420655.140670776 0 87420655.140670776 -17467920.284301758 0 0 0 0 -12609106.078328133 31195887.181007385 0 31195887.181007385 25050147.362640381 0 0 0 0 -116551453.78875065 63418462.971214294 0 63418462.971214294 20912327.109008789 0 0 0 0 -2056382.4864845276 7868971.3016879167 0 7868971.3016879167 2692240.9824347496 0 0 0 0 -6034013.1274828911 18216324.215011597 0 18216324.215011597 -3511464.2496032715 0 0 0 0 -3147737.6102992347 20028571.442003097 0 20028571.442003097 11593145.240293637 0 0 0 0 -23112411.794541359 55781886.77456665 0 55781886.77456665 21393500.740116119 0 0 0 0 943364.43049240112 15714060.59777832 0 15714060.59777832 7868026.825012207 0 0 0 0 105915.02228592266 21870839.66713582 0 21870839.66713582 3168560.7886855304 0 0 0 0 -21385241.262705326 43502759.473327637 0 43502759.473327637 -1478563.9702377319 0 0 0 0 13184415.600997448 56785680.169942856 0 56785680.169942856 505633.94560241699 0 0 0 0 2986732.8685390949 37701417.896141052 0 37701417.896141052 -4686443.7126464844 0 0 0 0 19121533.76241684 27314486.821685791 0 27314486.821685791 -56101474.473175049 0 0 0 0 -9607866.1749135889 21037978.335158154 0 21037978.335158154 27779559.529915377 0 0 0 0 588957.14139568713 11335272.896519344 0 11335272.896519344 -9254072.8467648923 0 0 0 0 -7680427.6825866699 22203510.972702026 0 22203510.972702026 -20031055.089202881 0 0 0 0 -2142083.9347724877 14086597.395115521 0 14086597.395115521 6865023.3672679365 0 0 0 0 11856710.393079758 41483059.452766418 0 41483059.452766418 -11628886.636810303 0 0 0 0 -4164996.3411555882 14355705.928415835 0 14355705.928415835 14167672.000517949 0 0 0 0 13018683.458208084 16607319.685684204 0 16607319.685684204 4256274.000579834 0 0 0 0 -29958040.715878963 66247428.07217598 0 66247428.07217598 -5219894.0085144043 0 0 0 0 17355673.390727997 56911806.184768677 0 56911806.184768677 -26676334.892471313 0 0 0 0 -10635336.512073517 60804171.037147522 0 60804171.037147522 -47605235.14639473 0 0 0 0 -181130599.24096489 136117100.6164093 0 136117100.6164093 18179956.470916748 0 0 0 0 -14101237.02532394 18574665.031060375 0 18574665.031060375 31960711.79976378 0 0 0 0 -4000753.2589654922 15691460.371341705 0 15691460.371341705 -15656734.70123291 0 0 0 0 -17515839.697469711 63074194.824226379 0 63074194.824226379 -19777516.381637573 0 0 0 0 2635494.208151537 26198997.781130284 0 26198997.781130284 42798652.971711405 0 0 0 0 1060365.1331939474 20926943.820239957 0 20926943.820239957 49204849.400840066 0 0 0 0 -143810870.7004509 97804105.614597321 0 97804105.614597321 72748987.724720001 0 0 0 0 28051228.833845139 72357523.364593506 0 72357523.364593506 17952277.91065979 0 0 0 0 28760146.122701883 75835873.261940956 0 75835873.261940956 31732619.139144897 0 0 0 0 -19038309.775087357 99332097.820980072 0 99332097.820980072 17112554.193479896 0 0 0 0 15001108.772216797 63706562.830593109 0 63706562.830593109 12447624.11819458 0 0 0 0 1205380.6480347635 19927057.136548202 0 19927057.136548202 -7761990.5225043744 0 0 0 0 86858197.099847198 91174211.632055283 0 91174211.632055283 19749137.02142334 0 0 0 0 63289765.127258301 73150912.904464722 0 73150912.904464722 17648908.867469788 0 0 0 0 335362.89765737113 -936189.41228579357 0 -936189.41228579357 -2421084.5592261832 0 0 0 0 86623208.182378769 88824040.501464844 0 88824040.501464844 13276121.414337158 0 0 0 0 71445818.217506409 97594153.080307007 0 97594153.080307007 18691316.954711914 0 0 0 0 76498775.310844421 96084618.914825439 0 96084618.914825439 16530356.213195801 0 0 0 0 74266088.004940033 105964915.41133881 0 105964915.41133881 50930538.626907349 0 0 0 0 127693165.24358177 107465245.48130035 0 107465245.48130035 53741993.400604248 0 0 0 0 74300440.724418491 78885091.183781251 0 78885091.183781251 38662009.496871948 0 0 0 0 -4450306.1175584793 33229138.705467224 0 33229138.705467224 15156995.461853027 0 0 0 0 -9483027.8256978989 16476854.046173096 0 16476854.046173096 947500.57971191406 0 0 0 0 -1219074.3927265035 16554812.673458222 0 16554812.673458222 12726724.123321563 0 0 0 0 3802848.7094698483 14765753.045489777 0 14765753.045489777 -15134671.831800491 0 0 0 0 -10408723.984031677 11060171.544464111 0 11060171.544464111 13812322.181991577 0 0 0 0 -11905243.513846397 21903956.695724487 0 21903956.695724487 4964996.5964660645 0 0 0 0 -13169522.919513702 11832281.251312256 0 11832281.251312256 13604679.701751709 0 0 0 0 477274.28349231253 18047130.988435306 0 18047130.988435306 137651.4663098231 0 0 0 0 21389603.472819805 28379359.343551636 0 28379359.343551636 -1631540.6742553711 0 0 0 0 -263986.27484839875 697765.20538116992 0 697765.20538116992 2372211.6113927811 0 0 0 0 -38092615.183334082 40182252.230886459 0 40182252.230886459 35178850.395996094 0 0 0 0 2739473.5528349876 37679200.820373535 0 37679200.820373535 20309160.576244354 0 0 0 0 -16088811.844019115 25188786.492538452 0 25188786.492538452 18961677.356948853 0 0 0 0 -21221625.018187821 59877035.619537354 0 59877035.619537354 70234262.52444458 0 0 0 0 56648616.147695541 48413151.241195679 0 48413151.241195679 24675512.290252686 0 0 0 0 -1248470.6701268468 16054864.579478767 0 16054864.579478767 13412575.175252348 0 0 0 0 14035600.707235336 55751600.813091278 0 55751600.813091278 25897031.849304199 0 0 0 0 9462176.7700347975 20903680.032183737 0 20903680.032183737 -22310600.667849503 0 0 0 0 6096185.1949520111 98212693.391136169 0 98212693.391136169 57453984.957885742 0 0 0 0 41132247.385549545 59870631.587654114 0 59870631.587654114 123950.82367134094 0 0 0 0 152827457.45803833 73950929.376647949 0 73950929.376647949 54459663.946563721 0 0 0 0 99709967.805335045 115040627.48169327 0 115040627.48169327 62433002.350982666 0 0 0 0 -39379083.917408943 -103926470.22011566 0 -103926470.22011566 158487161.65658569 0 0 0 0 3571168.6014450188 5199723.5290535986 0 5199723.5290535986 1970658.7337695807 0 0 0 0 2025571.9894193411 5627795.699319832 0 5627795.699319832 4128112.3417989016 0 0 0 0 -6344166.0464162827 181391391.49946594 0 181391391.49946594 -159787900.81414795 0 0 0 0 94349091.165477753 -36448896.968383789 0 -36448896.968383789 311325092.08374023 0 0 0 0 110223206.13401508 145900379.48249435 0 145900379.48249435 -149862807.96762085 0 0 0 0 -331760103.54118347 -19698568.819137573 0 -19698568.819137573 49061355.4715271 0 0 0 0 2000393.5855123145 2442394.2016602866 0 2442394.2016602866 -1631086.989356339 0 0 0 0 -480100875.61377716 83047847.439949036 0 83047847.439949036 250047218.40371704 0 0 0 0 102294422.01282883 -108878000.38044739 0 -108878000.38044739 139138010.84124088 0 0 0 0 -306934424.96459961 540815838.66723633 0 540815838.66723633 166602997.8225193 0 0 0 0 -53910903.797307968 224887894.62527466 0 224887894.62527466 -40109846.794418335 0 0 0 0 2009298.5566053283 972248.6681185849 0 972248.6681185849 -467392.09437775612 0 0 0 0 -239553499.43854904 460638117.16924286 0 460638117.16924286 -261628071.85876465 0 0 0 0 -728906375.90962887 260789092.44075775 0 260789092.44075775 62627790.003997803 0 0 0 0 219946638.58680058 256794633.95996094 0 256794633.95996094 42170092.578796387 0 0 0 0 28416851.038253307 64845913.523223877 0 64845913.523223877 118816585.1887207 0 0 0 0 119070856.70977283 33270533.225776672 0 33270533.225776672 62765792.492156982 0 0 0 0 -22633019.174590588 62276239.846069336 0 62276239.846069336 88141583.310882568 0 0 0 0 -318928180.00955296 226170111.56945801 0 226170111.56945801 88024830.223861694 0 0 0 0 -41878629.211564243 35832826.34579277 0 35832826.34579277 58361877.598907471 0 0 0 0 -76664420.914857864 269607168.40057373 0 269607168.40057373 65415034.844039917 0 0 0 0 -157061229.17621994 92692907.326721191 0 92692907.326721191 35733467.951316833 0 0 0 0 -67073993.427165985 32213817.762069702 0 32213817.762069702 78237339.081054688 0 0 0 0 -76102361.436088085 8187114.1669387817 0 8187114.1669387817 19274923.067230225 0 0 0 0 -43529367.27111721 -15025756.398529053 0 -15025756.398529053 57177092.589683533 0 0 0 0 -16715092.831097985 -8484767.7741327286 0 -8484767.7741327286 33390734.195526123 0 0 0 0 30810859.729868412 41377955.605072021 0 41377955.605072021 36325676.597930908 0 0 0 0 -32163506.169926524 30904384.670166016 0 30904384.670166016 77076756.985488892 0 0 0 0 -32790860.165135562 17548789.260290146 0 17548789.260290146 -9919711.8776550293 0 0 0 0 902051.22356599453 1233293.4117171206 0 1233293.4117171206 1728696.2847867906 0 0 0 0 -116032820.75315285 18287297.47858429 0 18287297.47858429 48689472.426544189 0 0 0 0 -139397186.04520988 -61157458.214637756 0 -61157458.214637756 95977337.588058472 0 0 0 0 712051.47555720247 -892357.96203812398 0 -892357.96203812398 169733.56219425797 0 0 0 0 -47717251.860537827 -43224519.293673515 0 -43224519.293673515 -5474076.0736999512 0 0 0 0 114854768.26316276 170841492.06007004 0 170841492.06007004 138290678.58789062 0 0 0 0 71985432.37966907 -37747517.773728371 0 -37747517.773728371 69234376.037475586 0 0 0 0 74853.013878629165 2359920.7837832198 0 2359920.7837832198 80907.348681701347 0 0 0 0 -26062763.397448301 119927916.48869324 0 119927916.48869324 -315953078.36848593 0 0 0 0 -12292146.080195904 159730104.15863037 0 159730104.15863037 201628856.35915661 0 0 0 0 -297558629.68916261 69277008.939535141 0 69277008.939535141 -228692368.95425415 0 0 0 0 -112344585.71756554 229657815.17896271 0 229657815.17896271 -42493531.690429688 0 0 0 0 -108478239.14190316 17913286.263061523 0 17913286.263061523 217014514.59832764 0 0 0 0 27306011.189568043 217908078.13659668 0 217908078.13659668 141224297.003479 0 0 0 0 -112396030.88056421 187014045.98777771 0 187014045.98777771 208775091.29533386 0 0 0 0 -171426407.0202961 149721430.11233521 0 149721430.11233521 94240779.528945923 0 0 0 0 -234389174.70362854 193475501.87817383 0 193475501.87817383 -134767432.87353516 0 0 0 0 -213014172.29362774 21201793.213859558 0 21201793.213859558 -3666329.8955688477 0 0 0 0 -205078243.92617416 146537001.62078857 0 146537001.62078857 -188100770.12585449 0 0 0 0 -123116723.38199615 36887972.051330566 0 36887972.051330566 -58962362.450744629 0 0 0 0 -394089342.4418335 4464932.6955718994 0 4464932.6955718994 3574867.4857177734 0 0 0 0 -141844829.54861069 230372601.54595947 0 230372601.54595947 -79954994.653097153 0 0 0 0 -173194194.44167233 130220500.56410217 0 130220500.56410217 -85207682.557006836 0 0 0 0 -124325597.89071465 199453069.87181091 0 199453069.87181091 -110690872.07299805 0 0 0 0 -202693360.49006128 360760931.67234802 0 360760931.67234802 132668598.85098267 0 0 0 0 125417024.02686822 -53904067.758918762 0 -53904067.758918762 265490282.95025635 0 0 0 0 -188702269.25458097 334470163.51066589 0 334470163.51066589 -40685179.188018799 0 0 0 0 -4149295.0382425431 -103510.27241671458 0 -103510.27241671458 4963216.3171173036 0 0 0 0 135620509.9088459 -194872704.51876831 0 -194872704.51876831 318376800.00079346 0 0 0 0 18332550.585655212 -306654646.30058289 0 -306654646.30058289 307118383.1595459 0 0 0 0 158654516.59825134 -222232782.35021973 0 -222232782.35021973 -219417333.91662598 0 0 0 0 158781172.54772949 -232370525.83776855 0 -232370525.83776855 194910319.68209839 0 0 0 0 274065400.221735 -348197387.23580933 0 -348197387.23580933 242609925.07107544 0 0 0 0 116136011.04541779 -385248904.67175293 0 -385248904.67175293 244200926.77163696 0 0 0 0 117139064.94684982 -376095653.98449707 0 -376095653.98449707 26540979.488952637 0 0 0 0 388888812.45837212 -386483593.60144043 0 -386483593.60144043 297778412.07717896 0 0 0 0 148047369.99040604 -346503706.47406006 0 -346503706.47406006 343166143.36798096 0 0 0 0 400444410.07640266 -382910164.9780426 0 -382910164.9780426 330924666.06417847 0 0 0 0 286381905.28606749 -406410217.51361656 0 -406410217.51361656 346447502.19863892 0 0 0 0 356327782.34490585 -301302114.62164307 0 -301302114.62164307 260634921.3805542 0 0 0 0 -40190623.689918518 -2181170.2583618164 0 -2181170.2583618164 4161080.9290466309 0 0 0 0 123452410.1613636 57017487.516769409 0 57017487.516769409 -114549707.80207825 0 0 0 0 -5004620.2157940064 -595147.8282757476 0 -595147.8282757476 4638566.2005127221 0 0 0 0 -1111818.460584675 445364.072628811 0 445364.072628811 1010918.0668792054 0 0 0 0 -187802058.08507919 -61267446.004928589 0 -61267446.004928589 -5347816.6570739746 0 0 0 0 236126878.78404617 -180359635.88371277 0 -180359635.88371277 284272492.50537109 0 0 0 0 292918615.3848362 -323354448.90100098 0 -323354448.90100098 252993493.24230957 0 0 0 0 -1516394.2883516122 651230.31920226663 0 651230.31920226663 1761313.9818014652 0 0 0 0 -195712782.37724304 -49292543.996841431 0 -49292543.996841431 18130412.921066284 0 0 0 0 -72994220.936649323 164747143.19284821 0 164747143.19284821 325800553.49320984 0 0 0 0 -55423406.761526108 -220856965.62009048 0 -220856965.62009048 -59563939.577270508 0 0 0 0 -454215765.32094765 58417048.785430908 0 58417048.785430908 422084066.32239532 0 0 0 0 113048162.27664948 197213384.78568077 0 197213384.78568077 -74212640.808258057 0 0 0 0 -2100428.3175413506 2045789.9301979169 0 2045789.9301979169 101886.17529150844 0 0 0 0 177693650.36557579 -16720196.500183105 0 -16720196.500183105 -35600541.142389297 0 0 0 0 -54794773.802804947 -665647.43159484863 0 -665647.43159484863 253644548.58969116 0 0 0 0 -46242789.935342789 -20721678.436988831 0 -20721678.436988831 58771366.03704071 0 0 0 0 -13610845.595422506 89528397.510230064 0 89528397.510230064 212213961.65856934 0 0 0 0 -17448709.596010208 61648654.48941803 0 61648654.48941803 74600425.18598938 0 0 0 0 71890186.811482906 69185376.535747528 0 69185376.535747528 51127374.441131592 0 0 0 0 204037195.54968286 199359098.61935616 0 199359098.61935616 159439751.3165741 0 0 0 0 -71892389.974592209 149916105.82463837 0 149916105.82463837 155922132.24409485 0 0 0 0 -85508826.437627792 34733017.812057495 0 34733017.812057495 39527720.595733643 0 0 0 0 -2480059.377040863 100306721.80009079 0 100306721.80009079 30271723.537307739 0 0 0 0 -46464459.609540939 91760451.99156189 0 91760451.99156189 256278233.0671463 0 0 0 0 118221.42795817833 3921900.0139884725 0 3921900.0139884725 136057.20515120076 0 0 0 0 70124762.927344322 126685091.01985168 0 126685091.01985168 -7852927.2862129211 0 0 0 0 72041679.620553017 48187950.692573547 0 48187950.692573547 -84068095.223144531 0 0 0 0 12006.528904469684 2264085.7123067155 0 2264085.7123067155 82937.067196265794 0 0 0 0 -211816101.70663071 -14563032.747909546 0 -14563032.747909546 194417665.06568146 0 0 0 0 -208946474.69801331 40330814.319793701 0 40330814.319793701 -50580887.52557373 0 0 0 0 38817779.176570892 101630284.86572266 0 101630284.86572266 -243621639.5317688 0 0 0 0 157835577.03660011 103056840.68140411 0 103056840.68140411 -58268569.250946045 0 0 0 0 -374094986.25935555 -211499509.27295685 0 -211499509.27295685 27698846.632476807 0 0 0 0 -239798880.02289581 23795184.840820312 0 23795184.840820312 -59360038.193761587 0 0 0 0 -262093116.36504173 59091340.796310425 0 59091340.796310425 -17120251.856933594 0 0 0 0 -259290769.01399612 62529659.796646118 0 62529659.796646118 -12980571.25982666 0 0 0 0 -33810554.920454025 4559849.9293289185 0 4559849.9293289185 17088897.980163574 0 0 0 0 -126488732.17390442 -62106466.652565002 0 -62106466.652565002 219338302.77920532 0 0 0 0 -5424638.660095376 -9240434.5194229186 0 -9240434.5194229186 25532876.65333201 0 0 0 0 -26185460.325798035 11009562.74621582 0 11009562.74621582 18889883.982055664 0 0 0 0 -27916979.522663116 9149862.0650787354 0 9149862.0650787354 17692534.139770508 0 0 0 0 -17538385.838283539 2059461.9973754883 0 2059461.9973754883 9934110.4372253418 0 0 0 0 -1970331.0276088482 -2863760.1200198103 0 -2863760.1200198103 11763973.235941723 0 0 0 0 -17028935.386734009 1327014.3778991699 0 1327014.3778991699 9211642.6745681763 0 0 0 0 -2743202.6202126811 -2435965.6144734547 0 -2435965.6144734547 11887734.034417942 0 0 0 0 -20653343.985012054 6355003.3108825684 0 6355003.3108825684 11154778.150558472 0 0 0 0 -8990759.8632431813 7750216.818597842 0 7750216.818597842 12698805.545758866 0 0 0 0 -26242961.627426147 5942861.1423606873 0 5942861.1423606873 13844420.732849121 0 0 0 0 -19071441.702035904 -9629384.6102676392 0 -9629384.6102676392 33398163.278305054 0 0 0 0 -22483173.827201843 8456435.8577194214 0 8456435.8577194214 14670215.917694092 0 0 0 0 -865816.73827048205 -900284.15504653379 0 -900284.15504653379 1298575.6519778892 0 0 0 0 -6980548.7171742301 3557171.1405222639 0 3557171.1405222639 15161702.457844809 0 0 0 0 -23171749.757480621 1904518.2948379517 0 1904518.2948379517 17526201.543701172 0 0 0 0 -5293123.6376935802 -4791064.6807599477 0 -4791064.6807599477 26935897.57610473 0 0 0 0 -45922793.447488785 -1589498.7876014709 0 -1589498.7876014709 24404997.799835205 0 0 0 0 2571152.7208518982 91152369.777801514 0 91152369.777801514 23855144.294723511 0 0 0 0 -5781104.3209245196 6879784.500851661 0 6879784.500851661 9188782.0820579678 0 0 0 0 -33146681.419551849 -15637261.390075684 0 -15637261.390075684 31758162.666912079 0 0 0 0 -56577029.340688705 10828765.197257996 0 10828765.197257996 18023428.931991577 0 0 0 0 -12128789.032536946 16396553.160399958 0 16396553.160399958 21463733.264182784 0 0 0 0 -7376489.96302184 -2742760.0272208247 0 -2742760.0272208247 26579167.920649812 0 0 0 0 -32923453.462524414 -787757.90479278564 0 -787757.90479278564 22039984.520324707 0 0 0 0 -33080792.323059082 1743882.9083862305 0 1743882.9083862305 18442569.845096588 0 0 0 0 -18885840.083466768 -1351345.9816703796 0 -1351345.9816703796 14386853.695922852 0 0 0 0 -4107884.6560798637 -3624904.0463446723 0 -3624904.0463446723 15035123.204056434 0 0 0 0 -14813325.732903481 10253613.636688232 0 10253613.636688232 12755343.984024048 0 0 0 0 -12350164.026073456 7503235.8801574707 0 7503235.8801574707 15406768.281498909 0 0 0 0 -7516852.933320649 8602757.3742746189 0 8602757.3742746189 16185211.086045586 0 0 0 0 -50272684.620937347 5127429.6213226318 0 5127429.6213226318 9110665.1883392334 0 0 0 0 -3817041.9021526659 2977522.2015362866 0 2977522.2015362866 11069940.251636758 0 0 0 0 -4411553.8720903397 6098488.4105873108 0 6098488.4105873108 13786641.045505524 0 0 0 0 -4789610.0565413535 7554745.204492569 0 7554745.204492569 26052422.916519165 0 0 0 0 -11613966.50419426 298892.16704940796 0 298892.16704940796 21910605.168487549 0 0 0 0 -6966387.4992960915 4145511.2090342417 0 4145511.2090342417 14692517.744130474 0 0 0 0 -14814641.032030582 8398984.2072982788 0 8398984.2072982788 19865891.704864502 0 0 0 0 -11806516.480044127 2049948.5042743683 0 2049948.5042743683 20136193.294448853 0 0 0 0 -6966400.2338854857 5807521.4193656687 0 5807521.4193656687 16185004.928640589 0 0 0 0 -4617127.7171723824 961387.57568900846 0 961387.57568900846 15631008.717648678 0 0 0 0 -11038495.960283279 4660793.260093689 0 4660793.260093689 19587892.823251724 0 0 0 0 -6575888.6147764027 2239847.9547064882 0 2239847.9547064882 19820728.125361998 0 0 0 0 -992868.17124271393 6128656.812664032 0 6128656.812664032 26621052.476699829 0 0 0 0 -1298741.4914595783 1840092.2108620405 0 1840092.2108620405 19127926.831428528 0 0 0 0 -4367939.0205026492 -369347.95599449892 0 -369347.95599449892 20719691.493596759 0 0 0 0 -51684290.592339516 -72866702.38977623 0 -72866702.38977623 22953899.466838837 0 0 0 0 1973303.4821507796 693101.32785434835 0 693101.32785434835 5357850.8393145613 0 0 0 0 -14435992.522322059 105106826.28064799 0 105106826.28064799 204369688.40833664 0 0 0 0 87491262.028568268 -191744300.85642624 0 -191744300.85642624 33801455.179077148 0 0 0 0 -11938970.653322697 -2365300.2054328918 0 -2365300.2054328918 22044472.694675446 0 0 0 0 52417227.746498108 4551771.4495334625 0 4551771.4495334625 33771518.532775879 0 0 0 0 46758080.497800827 -3951250.8929433823 0 -3951250.8929433823 28275101.861358643 0 0 0 0 13647467.379177094 -26167114.137922287 0 -26167114.137922287 12185905.26023984 0 0 0 0 53342453.234552383 -8500600.9574012756 0 -8500600.9574012756 14973097.15722847 0 0 0 0 10541864.528270721 7088010.1106510162 0 7088010.1106510162 11536168.225515366 0 0 0 0 162223543.49426842 -154208815.48303699 0 -154208815.48303699 -118849834.37762451 0 0 0 0 1247303.2854902474 125921.87367031164 0 125921.87367031164 871399.98969895765 0 0 0 0 197716594.25488663 -4222703.2019062042 0 -4222703.2019062042 -6589379.1116161346 0 0 0 0 90268301.996645451 -52513981.786220312 0 -52513981.786220312 38287439.329818726 0 0 0 0 74152230.918270111 6047503.658624649 0 6047503.658624649 -2146680.3739147186 0 0 0 0 744896871.17655182 -196551680.15529633 0 -196551680.15529633 57829894.116661787 0 0 0 0 -35580113.419854641 -40716245.31096077 0 -40716245.31096077 -9837489.2908554077 0 0 0 0 -1424591.6420207825 450695.90317155048 0 450695.90317155048 3159665.1416680254 0 0 0 0 146227649.67712212 -142487608.29419661 0 -142487608.29419661 58842777.885269165 0 0 0 0 -210291842.78710938 719453317.52009583 0 719453317.52009583 53577039.751663208 0 0 0 0 -156211648.21976829 -9072273.2717618942 0 -9072273.2717618942 55318132.489952087 0 0 0 0 123186428.96526527 -41816005.199756622 0 -41816005.199756622 -243602427.2520752 0 0 0 0 -105170102.60412455 141428044.02062368 0 141428044.02062368 9316821.7677078247 0 0 0 0 48015747.239612579 106313733.6645298 0 106313733.6645298 13784450.818122864 0 0 0 0 -3938790.6757974625 -14931365.317317963 0 -14931365.317317963 55390252.876206428 0 0 0 0 15002247.192174911 3560142.1369132996 0 3560142.1369132996 15696887.374786377 0 0 0 0 -51212195.590392113 -13519791.441839218 0 -13519791.441839218 102393372.16712189 0 0 0 0 -2170318.9337263107 7526851.2691802979 0 7526851.2691802979 21951375.926567018 0 0 0 0 -4618933.767471835 473780.21516094636 0 473780.21516094636 16729751.875411656 0 0 0 0 75571990.65917778 -101102137.83814049 0 -101102137.83814049 -69269236.386001587 0 0 0 0 -8585207.0877965689 -167756.2299041748 0 -167756.2299041748 17264832.616874695 0 0 0 0 -3177938.4710934758 3887056.4377336502 0 3887056.4377336502 13580896.427108765 0 0 0 0 -2990458.9345167875 5427140.376909256 0 5427140.376909256 17723972.795431852 0 0 0 0 -5630660.7115138629 2182103.1839865632 0 2182103.1839865632 17505993.602991935 0 0 0 0 -5956122.437638998 1794355.0245741243 0 1794355.0245741243 13256672.267382082 0 0 0 0 1208878.248272121 7848036.9351689816 0 7848036.9351689816 26704521.847122192 0 0 0 0 469483.70880436897 2848592.1804275513 0 2848592.1804275513 15362141.359729767 0 0 0 0 -857072.10217634379 -751386.44561862573 0 -751386.44561862573 18201427.338856667 0 0 0 0 2494886.2984480858 24657920.135707855 0 24657920.135707855 10532024.082836151 0 0 0 0 -660061.83013866702 6222115.6227624081 0 6222115.6227624081 23488946.597728834 0 0 0 0 5342189.8416867256 -48215940.588681221 0 -48215940.588681221 39369366.54233551 0 0 0 0 -11983700.457046032 -446071.07699584961 0 -446071.07699584961 55366782.459960938 0 0 0 0 -13545255.326904595 5375142.6442136765 0 5375142.6442136765 36065741.507614136 0 0 0 0 -19540587.527807474 6561722.4883537292 0 6561722.4883537292 36551081.042900085 0 0 0 0 -7330305.0276546478 -9229110.2715377808 0 -9229110.2715377808 65026047.16728878 0 0 0 0 -7717153.5586583642 321330.85756035242 0 321330.85756035242 16223189.78060679 0 0 0 0 -12133284.647738457 -10498501.402121544 0 -10498501.402121544 69249298.47485733 0 0 0 0 -4401001.5476303101 -30830373.252922058 0 -30830373.252922058 78172442.094345093 0 0 0 0 -5159353.4781522388 -4863179.937265492 0 -4863179.937265492 23096244.975742545 0 0 0 0 14753615.664902687 -36783646.148684502 0 -36783646.148684502 93906907.733222961 0 0 0 0 -2714889.673115931 3382957.315834363 0 3382957.315834363 3301591.1125505026 0 0 0 0 7740805.8048810959 26596197.313961029 0 26596197.313961029 3496574.5378112793 0 0 0 0 1902980.1148033142 27051544.149009705 0 27051544.149009705 23810935.399137497 0 0 0 0 -24747021.597042084 37029381.141011953 0 37029381.141011953 75856099.095809937 0 0 0 0 -7498417.9857816696 7501318.5375614166 0 7501318.5375614166 -3867050.1196174622 0 0 0 0 -7525692.9624936581 5363195.689678669 0 5363195.689678669 40623365.932609558 0 0 0 0 -3685762.4342803955 -17676585.481464386 0 -17676585.481464386 18567462.099370956 0 0 0 0 -10896615.999542236 -7736169.2955322266 0 -7736169.2955322266 65971603.470899582 0 0 0 0 -3274136.7968636719 -5906268.8329299558 0 -5906268.8329299558 20732054.210584044 0 0 0 0 -10527706.971327782 -22393059.204426765 0 -22393059.204426765 26369553.926559448 0 0 0 0 -9226583.4777398109 -17542530.647754908 0 -17542530.647754908 28330711.75793457 0 0 0 0 -8652656.2536525726 -23418345.413480759 0 -23418345.413480759 15484870.596894264 0 0 0 0 -15624876.770668983 -1256615.6846122742 0 -1256615.6846122742 24535992.872322083 0 0 0 0 -13243390.687614441 14812665.00996542 0 14812665.00996542 15780984.558654785 0 0 0 0 10131790.32287693 1990592.8089866638 0 1990592.8089866638 21198394.114334106 0 0 0 0 -1745782.3852424622 5677914.2330665588 0 5677914.2330665588 30712784.94329834 0 0 0 0 -4123754.6765642166 1091172.1381950378 0 1091172.1381950378 24205735.579269886 0 0 0 0 -18993387.056427002 -36129485.298583984 0 -36129485.298583984 2648306.3023376465 0 0 0 0 -1456033.7472243095 -5848173.6662750151 0 -5848173.6662750151 14964806.899100929 0 0 0 0 -33527576.182872772 -20297329.885467529 0 -20297329.885467529 19197693.972476959 0 0 0 0 -490983.69696052163 303885.25799085293 0 303885.25799085293 414976.14245541021 0 0 0 0 -7550049.2722673416 -25467261.820352554 0 -25467261.820352554 -32990841.381767273 0 0 0 0 -1264569.4558644351 977636.45745835826 0 977636.45745835826 4055466.7643860076 0 0 0 0 12438606.974964142 -2462094.4777374268 0 -2462094.4777374268 38473829.627304077 0 0 0 0 -8622581.1058826577 -2566228.2059722776 0 -2566228.2059722776 25602527.467953708 0 0 0 0 6429969.1215654612 -9503179.9698867798 0 -9503179.9698867798 4656920.027961731 0 0 0 0 -5024093.5888620615 -12425574.530613899 0 -12425574.530613899 6588390.0143280029 0 0 0 0 10977514.02601552 20528436.558534622 0 20528436.558534622 4119959.2754135132 0 0 0 0 18755702.059980869 -30041710.147132874 0 -30041710.147132874 38876900.379161835 0 0 0 0 320173.83380635141 -94080.279501161538 0 -94080.279501161538 153868.75276165828 0 0 0 0 11953253.828731537 8167036.6775512695 0 8167036.6775512695 -5481933.6876144409 0 0 0 0 -19874206.08263731 4174479.9442710876 0 4174479.9442710876 14218498.66570282 0 0 0 0 -15323559.494732857 -6646211.3444824219 0 -6646211.3444824219 31262944.7942276 0 0 0 0 12048136.101565838 -9773653.7658653259 0 -9773653.7658653259 6213926.301940918 0 0 0 0 23221152.77378726 40303627.488178253 0 40303627.488178253 -8223122.8923568726 0 0 0 0 -256178.16653730383 -1650739.3385081245 0 -1650739.3385081245 1758098.4351303726 0 0 0 0 -891237.50139524799 -698702.9730022382 0 -698702.9730022382 8113707.8757970594 0 0 0 0 52380608.250552654 -13700118.227973938 0 -13700118.227973938 26819957.281707764 0 0 0 0 17933508.707722664 60852283.822299957 0 60852283.822299957 -29243222.817615509 0 0 0 0 48743202.012690708 20148786.70577383 0 20148786.70577383 -70262028.603866577 0 0 0 0 -38593764.984120667 -16134351.659305573 0 -16134351.659305573 19250163.076042175 0 0 0 0 -34202826.671545506 -7169555.954826355 0 -7169555.954826355 41807766.827850342 0 0 0 0 -47766300.092051506 -15219636.620300293 0 -15219636.620300293 77427060.848564148 0 0 0 0 -573127.62970205769 1261540.2625733083 0 1261540.2625733083 836885.30505948514 0 0 0 0 -50764670.819045901 -23116896.627246857 0 -23116896.627246857 58935331.51008606 0 0 0 0 -59166512.970649242 -97378458.154678345 0 -97378458.154678345 692024925.90372467 0 0 0 0 -30111129.591349483 2038381.6583118439 0 2038381.6583118439 61704291.921791077 0 0 0 0 234681246.46905661 -309649892.87620544 0 -309649892.87620544 -195285632.07556915 0 0 0 0 -113098373.82420254 137288983.12559128 0 137288983.12559128 -79237286.185531616 0 0 0 0 -4261525.3704403425 14819439.632838517 0 14819439.632838517 13313805.512391031 0 0 0 0 28548079.418562412 123299954.54008484 0 123299954.54008484 -229169768.95267582 0 0 0 0 97671300.335305214 -64617977.631965637 0 -64617977.631965637 -26947280.111831665 0 0 0 0 131481611.01619196 22564165.032592773 0 22564165.032592773 -140765897.6991806 0 0 0 0 -581930.7053232193 20886421.440972328 0 20886421.440972328 3657755.5269088745 0 0 0 0 -6039438.4116581529 5469652.6154857948 0 5469652.6154857948 29360778.761882931 0 0 0 0 -9296228.2411637306 -2841748.3448219299 0 -2841748.3448219299 -59789264.057525635 0 0 0 0 -63301269.680473804 82779702.282268524 0 82779702.282268524 -44740950.163116455 0 0 0 0 -5207934.5415659454 2064697.5751558598 0 2064697.5751558598 8590261.2120451927 0 0 0 0 -11068481.453928947 1310008.1992034912 0 1310008.1992034912 18372456.771760941 0 0 0 0 -9199392.1055365484 14345505.642825248 0 14345505.642825248 31351431.959120721 0 0 0 0 -69618376.403864861 24574802.431339264 0 24574802.431339264 7185474.9580078125 0 0 0 0 -5836301.0721588135 5293241.1056060791 0 5293241.1056060791 11189213.767242432 0 0 0 0 -13520889.932799339 5136973.3233985901 0 5136973.3233985901 22241270.276184082 0 0 0 0 -7686234.6854480198 6109554.3936733529 0 6109554.3936733529 17738119.391476348 0 0 0 0 -14070885.503031194 2366182.7696628571 0 2366182.7696628571 18830781.3487854 0 0 0 0 -4137146.3553282162 1604901.2902293541 0 1604901.2902293541 23530710.885715131 0 0 0 0 -8466751.4576244354 1432303.1238098145 0 1432303.1238098145 13263289.658187866 0 0 0 0 1801146.5301418304 11863865.755599976 0 11863865.755599976 5947071.5138244629 0 0 0 0 -1259074.7474049591 4658424.5523600169 0 4658424.5523600169 13920617.719827086 0 0 0 0 -1060318.6867844616 632131.31129246205 0 632131.31129246205 1259197.8768630326 0 0 0 0 -3250692.7990009016 -1697042.8434084412 0 -1697042.8434084412 17022920.592945162 0 0 0 0 -6531648.2210865021 5495328.7842445374 0 5495328.7842445374 17950100.274856567 0 0 0 0 -11632121.453846455 3756425.461479187 0 3756425.461479187 27872358.216016769 0 0 0 0 3632636.4922039509 13151262.667800903 0 13151262.667800903 -5268789.3646774292 0 0 0 0 -19996099.530712843 4295625.7732124329 0 4295625.7732124329 36040756.079299927 0 0 0 0 -664997.53622364998 -9228340.7241592407 0 -9228340.7241592407 41458189.40145874 0 0 0 0 -10109782.025619745 -7273475.1890945435 0 -7273475.1890945435 28213948.65447998 0 0 0 0 -1177456.7792247622 1537511.9136434253 0 1537511.9136434253 1427369.798765827 0 0 0 0 -3643641.9840718284 1859697.0371440593 0 1859697.0371440593 10617214.996980432 0 0 0 0 -4346871.3434189809 6448006.9018243924 0 6448006.9018243924 5386804.3563107103 0 0 0 0 -9931032.8773463964 3615032.2969226837 0 3615032.2969226837 21103242.206344604 0 0 0 0 -4050281.4512835741 27944431.92351532 0 27944431.92351532 24779729.071834087 0 0 0 0 4694131.4719916917 25943361.465583801 0 25943361.465583801 68596925.445241928 0 0 0 0 7207.1151135393957 10019265.770362854 0 10019265.770362854 40614108.959625244 0 0 0 0 -840183.67423175508 -1531724.8804103434 0 -1531724.8804103434 6308120.4473482966 0 0 0 0 8571047.5128115993 4836550.4713020325 0 4836550.4713020325 27014389.758392334 0 0 0 0 745858.32283330988 2735271.8034832403 0 2735271.8034832403 4474294.2393382601 0 0 0 0 2612194.3360636234 6310720.0996398926 0 6310720.0996398926 23326841.857788086 0 0 0 0 15348.125376380729 -1659377.7266612872 0 -1659377.7266612872 7304717.8611330464 0 0 0 0 252662.68380481005 1819496.7892074585 0 1819496.7892074585 17782045.652008057 0 0 0 0 7769867.254547243 -2392769.2636222839 0 -2392769.2636222839 26212475.480072021 0 0 0 0 -217087.26083452959 10904563.578201294 0 10904563.578201294 50796184.954910278 0 0 0 0 5789943.4800272994 22835266.146827698 0 22835266.146827698 87438190.38734436 0 0 0 0 22112095.656069193 37089791.436584473 0 37089791.436584473 54948005.629455566 0 0 0 0 18271202.952769205 10569635.383885384 0 10569635.383885384 19017115.618438721 0 0 0 0 -284958.57182702882 92364.763292133808 0 92364.763292133808 2316186.9112464339 0 0 0 0 39744628.933438309 38823802.367134094 0 38823802.367134094 73049161.896850586 0 0 0 0 16790876.224873323 57942980.428329468 0 57942980.428329468 120357047.48929596 0 0 0 0 2711425.9740652945 43356516.900800705 0 43356516.900800705 127481521.07550049 0 0 0 0 39393.736006913183 12804048.94758606 0 12804048.94758606 72389659.150104523 0 0 0 0 -36901.914202742679 17115102.273536682 0 17115102.273536682 190524887.19639587 0 0 0 0 6261614.8201830536 45499356.836357117 0 45499356.836357117 127261337.61114979 0 0 0 0 -6174.6863829270824 833462.0401763916 0 833462.0401763916 226478362.94854736 0 0 0 0 -21208491.70547365 26607870.175895691 0 26607870.175895691 195415141.87958527 0 0 0 0 -22233533.568091571 23048771.371253014 0 23048771.371253014 255314605.02648926 0 0 0 0 -10315162.105975531 -50791505.629776001 0 -50791505.629776001 344579615.13371277 0 0 0 0 -30832197.108516086 50224477.486686707 0 50224477.486686707 393919761.78189087 0 0 0 0 -36712483.662651658 -37274427.090446472 0 -37274427.090446472 291857785.98939514 0 0 0 0 -30847710.125773638 30954246.38420105 0 30954246.38420105 275778589.56231499 0 0 0 0 -5934825.4292984456 85517800.695968628 0 85517800.695968628 264274206.86451721 0 0 0 0 -28646040.111210704 22399747.89251709 0 22399747.89251709 303705755.97290039 0 0 0 0 -3222763.2272139117 54595331.760955811 0 54595331.760955811 222419399.46986389 0 0 0 0 -3086519.7352405712 59616088.576126099 0 59616088.576126099 191463062.58709717 0 0 0 0 1523911.7183547001 39251881.755098343 0 39251881.755098343 174534266.90167236 0 0 0 0 26239080.613225251 82238649.79006958 0 82238649.79006958 157169129.37481689 0 0 0 0 12005838.005533718 47743897.263137817 0 47743897.263137817 140834245.52114868 0 0 0 0 42362585.976992793 84405772.840042114 0 84405772.840042114 132209071.28173828 0 0 0 0 47227926.57073091 34795466.582710266 0 34795466.582710266 57318569.182159424 0 0 0 0 41686390.798318833 61763877.209365845 0 61763877.209365845 130279682.634552 0 0 0 0 40969017.137374535 28488856.349365234 0 28488856.349365234 75815698.098480225 0 0 0 0 13798473.372533023 5721310.4471435547 0 5721310.4471435547 58056784.494903564 0 0 0 0 85183643.68964988 48372626.504440308 0 48372626.504440308 43083593.051879883 0 0 0 0 139583968.4158622 135378282.59283447 0 135378282.59283447 115041613.75015259 0 0 0 0 26406042.585010312 115185397.29460144 0 115185397.29460144 285731065.07199097 0 0 0 0 23147043.44486719 63132275.041680336 0 63132275.041680336 177858646.58416748 0 0 0 0 28798100.838009275 118258906.22967529 0 118258906.22967529 211567981.76269531 0 0 0 0 -4003599.1400639601 66275229.291859627 0 66275229.291859627 306203357.2980957 0 0 0 0 -4643910.8968567699 60467266.690185547 0 60467266.690185547 301993986.36307526 0 0 0 0 -17175525.915130194 51462394.842933655 0 51462394.842933655 459051300.62690735 0 0 0 0 -22683895.106894732 134752068.72572327 0 134752068.72572327 293273085.07782745 0 0 0 0 7457115.2238233238 221947033.61833954 0 221947033.61833954 543976876.55435181 0 0 0 0 -127818204.78405212 123177367.46604538 0 123177367.46604538 511543609.30136108 0 0 0 0 -92360087.441614449 71032504.527339935 0 71032504.527339935 508824824.24176025 0 0 0 0 -35900621.808279127 -110312560.81843567 0 -110312560.81843567 629939836.66130066 0 0 0 0 431940002.83531129 660652274.73364258 0 660652274.73364258 1121902629.8215942 0 0 0 0 -81977318.898772717 -270464114.27354431 0 -270464114.27354431 1424030665.0970993 0 0 0 0 -188733705.46211267 184531633.76713562 0 184531633.76713562 919899046.36096191 0 0 0 0 457462457.24845231 -709842439.51895142 0 -709842439.51895142 874755808.84461975 0 0 0 0 -34280594.626562908 417193613.68455505 0 417193613.68455505 1301351234.5847282 0 0 0 0 325787247.39788467 439539846.77388 0 439539846.77388 349753765.13076782 0 0 0 0 263876615.22167847 274323011.49134827 0 274323011.49134827 174215783.1133728 0 0 0 0 159498507.01748174 142421898.51776123 0 142421898.51776123 97640476.594726562 0 0 0 0 281551466.34535575 166199843.69052505 0 166199843.69052505 76091555.601074219 0 0 0 0 492100801.71358871 -76714280.936920166 0 -76714280.936920166 309657248.11462402 0 0 0 0 730230903.52551842 -565698114.82929993 0 -565698114.82929993 803927693.61834717 0 0 0 0 -2243014.6465203864 192856.01514654607 0 192856.01514654607 4059824.9318213314 0 0 0 0 -390357634.16425705 -167734812.67736816 0 -167734812.67736816 -73545107.126953125 0 0 0 0 205754536.41867256 13578418.263244629 0 13578418.263244629 -176989771.27331543 0 0 0 0 -154968524.66571742 11224308.905563354 0 11224308.905563354 43056569.332122803 0 0 0 0 -88963.284462196752 4526790.6599326059 0 4526790.6599326059 7783624.2669632584 0 0 0 0 -292740.63253079506 471684.06381490082 0 471684.06381490082 364853.06804589182 0 0 0 0 -85253409.496481538 -204486320.15757751 0 -204486320.15757751 -178175276.37329102 0 0 0 0 -358761983.90492487 170704716.19046021 0 170704716.19046021 -10510895.184341431 0 0 0 0 74890949.763495028 75791121.563079834 0 75791121.563079834 96827407.989784241 0 0 0 0 38399509.397712469 -10276308.23538208 0 -10276308.23538208 2887755.8666381836 0 0 0 0 255222990.48339772 139246807.13885498 0 139246807.13885498 -128299167.02856445 0 0 0 0 100725149.67022181 -16166306.737884521 0 -16166306.737884521 -29026463.531616211 0 0 0 0 -68980832.064660192 -45566379.532867432 0 -45566379.532867432 33937952.758163452 0 0 0 0 54166409.268614531 3532811.7768554688 0 3532811.7768554688 29019366.77444458 0 0 0 0 110977337.83251444 81898667.26096344 0 81898667.26096344 58346837.67980957 0 0 0 0 20397740.877398193 -1879508.1911621094 0 -1879508.1911621094 27752101.83404541 0 0 0 0 43949397.67250371 10879223.557861328 0 10879223.557861328 29649105.036071777 0 0 0 0 -31081280.118420005 -22461949.99281311 0 -22461949.99281311 36338830.049835205 0 0 0 0 -26559976.594333038 -979947.13894844055 0 -979947.13894844055 4523948.305480957 0 0 0 0 -92095637.420594975 32851342.819374084 0 32851342.819374084 23043088.687988281 0 0 0 0 -39865441.198909044 -9241322.3219909668 0 -9241322.3219909668 23998914.664169312 0 0 0 0 -18091201.081448793 -10302405.061859131 0 -10302405.061859131 19068389.960601807 0 0 0 0 -18852987.956635952 -12459996.064723969 0 -12459996.064723969 13358941.449371338 0 0 0 0 -3742666.74817276 19923863.220291138 0 19923863.220291138 27835045.883827209 0 0 0 0 21185883.611696243 56874362.503913879 0 56874362.503913879 76434516.592773438 0 0 0 0 -6765178.5788035877 -3956327.7031985894 0 -3956327.7031985894 9012488.2568101734 0 0 0 0 -8786324.7425904274 -22794975.588928223 0 -22794975.588928223 1400001.2844543457 0 0 0 0 -16048388.886708036 -11977403.674781799 0 -11977403.674781799 10083941.937561035 0 0 0 0 -9547624.07209903 -23952451.435348511 0 -23952451.435348511 27362446.29977417 0 0 0 0 19682197.923899621 -8593585.2539367676 0 -8593585.2539367676 10205252.004394531 0 0 0 0 3471788.9868547916 1703112.2614059448 0 1703112.2614059448 56831993.629089355 0 0 0 0 14797467.062161751 -18143785.666137695 0 -18143785.666137695 10519225.722442627 0 0 0 0 3176058.7487070337 39548396.431060791 0 39548396.431060791 79899900.721557617 0 0 0 0 -2454158.3394862567 2185659.4874632135 0 2185659.4874632135 9580853.389314808 0 0 0 0 14498062.654863656 6521432.2563476562 0 6521432.2563476562 -13238136.094848633 0 0 0 0 5117389.6479748487 5683284.1565551758 0 5683284.1565551758 28908735.242004395 0 0 0 0 885127.61793146248 -1220649.8512602225 0 -1220649.8512602225 10587521.077133134 0 0 0 0 3075205.8083707243 560905.70860671997 0 560905.70860671997 6451552.5884246826 0 0 0 0 3574573.0920760632 985095.14274597168 0 985095.14274597168 10319845.402252197 0 0 0 0 6157216.2508597691 1433213.1081579402 0 1433213.1081579402 6322681.1235609353 0 0 0 0 -4412374.4514489993 5410499.3218154907 0 5410499.3218154907 33617084.052062988 0 0 0 0 -2153787.5959400311 1393968.9459533691 0 1393968.9459533691 33506354.53302002 0 0 0 0 -129341.0420737993 1837411.920372501 0 1837411.920372501 6933856.9490974545 0 0 0 0 2671631.053027153 2786240.6573410034 0 2786240.6573410034 13654508.272705078 0 0 0 0 6800595.0554468147 -3864773.6027291864 0 -3864773.6027291864 7851173.5865623355 0 0 0 0 16244399.692642212 -52859052.596725464 0 -52859052.596725464 -485415957.35595703 0 0 0 0 -40931938.729299545 -284046296.41142273 0 -284046296.41142273 -394375546.09121323 0 0 0 0 10231697.834280992 -1764619.9243515879 0 -1764619.9243515879 5029461.8997708634 0 0 0 0 139790546.95891953 -264058108.55767822 0 -264058108.55767822 -778716180.18008423 0 0 0 0 -95340174.912979126 -81618870.895568848 0 -81618870.895568848 -45759522.968933105 0 0 0 0 4065413.4778983593 2145152.3378295898 0 2145152.3378295898 2732139.5736923218 0 0 0 0 -3229493.3787146211 3931685.4970284402 0 3931685.4970284402 7238821.6037981734 0 0 0 0 13557912.642593384 14480895.519470215 0 14480895.519470215 19278877.531539917 0 0 0 0 7534804.2440750841 7379772.3427743316 0 7379772.3427743316 8891882.295104865 0 0 0 0 6702570.0947455764 1338972.277015686 0 1338972.277015686 2409516.3664093018 0 0 0 0 -1760053.6261578659 -1983638.891076684 0 -1983638.891076684 6526474.3520488068 0 0 0 0 15116419.720600255 5054660.3614307567 0 5054660.3614307567 468749.84715908207 0 0 0 0 10306571.505935669 -112361577.31954193 0 -112361577.31954193 10108742.850585938 0 0 0 0 3172480.3850154877 332085.20666503906 0 332085.20666503906 -14472550.897415161 0 0 0 0 94553750.184597015 -86329157.513771057 0 -86329157.513771057 -266043600.31130981 0 0 0 0 14661097.387187557 -1781717.2829526216 0 -1781717.2829526216 3654212.0331639238 0 0 0 0 1935915.5496623944 1602579.4504280761 0 1602579.4504280761 -1380783.6999335811 0 0 0 0 -143838375.92105103 230279828.87683105 0 230279828.87683105 -238683038.62002563 0 0 0 0 120364852.69501877 197406474.34210205 0 197406474.34210205 34223992.925720215 0 0 0 0 13714615.662998375 2688845.3015460521 0 2688845.3015460521 3612804.3593614493 0 0 0 0 7780775.1508253813 1807574.1354904175 0 1807574.1354904175 -4540680.4491119385 0 0 0 0 120292899.44367981 160530003.84806824 0 160530003.84806824 -41533741.465118408 0 0 0 0 12960283.665182656 2894975.034912914 0 2894975.034912914 3995206.2731328867 0 0 0 0 173153604.59814453 173747063.81994629 0 173747063.81994629 -38229975.651245117 0 0 0 0 5568889.1572761536 81956364.992416382 0 81956364.992416382 54665514.026992798 0 0 0 0 253720283.99330902 -175814557.13179016 0 -175814557.13179016 -464420470.83325195 0 0 0 0 208616377.23323441 -82761025.512359619 0 -82761025.512359619 -808101847.45822906 0 0 0 0 -64035023.619830132 47139515.82660675 0 47139515.82660675 -571389618.09179688 0 0 0 0 155297058.21533585 126781316.81388855 0 126781316.81388855 -413327807.14097595 0 0 0 0 9961535.9956970215 51164894.301300049 0 51164894.301300049 -751259663.92126465 0 0 0 0 28696377.735980988 -78201432.909378052 0 -78201432.909378052 -595504096.23548889 0 0 0 0 -33447312.471767426 -36199153.409851074 0 -36199153.409851074 -1047251512.0059204 0 0 0 0 -7647756.6783800125 207395205.09609413 0 207395205.09609413 -587701967.21478271 0 0 0 0 -17684468.628265381 89277594.508758545 0 89277594.508758545 -366396003.55557251 0 0 0 0 161099295.28100204 152585706.68218994 0 152585706.68218994 -753080594.48034668 0 0 0 0 16346442.787829712 -882747.66219946742 0 -882747.66219946742 -392165.94850638881 0 0 0 0 147810677.92180252 157895954.09896851 0 157895954.09896851 -617456210.92965698 0 0 0 0 55590840.040836334 257914956.70994568 0 257914956.70994568 -256936362.09429932 0 0 0 0 -53186620.936626434 8866293.5286102295 0 8866293.5286102295 -526742173.4263916 0 0 0 0 26410358.08987999 160880908.75841522 0 160880908.75841522 -616701546.04003906 0 0 0 0 14495277.712648502 3488917.9581980854 0 3488917.9581980854 247500.83873939514 0 0 0 0 88138418.319127083 5783782.3728637695 0 5783782.3728637695 -23950449.114578247 0 0 0 0 153553286.23759079 227881619.71385193 0 227881619.71385193 -438394021.72476196 0 0 0 0 163863052.60536957 335859494.90011597 0 335859494.90011597 -191790617.16339111 0 0 0 0 -40932826.77822113 325035447.75914001 0 325035447.75914001 -180791067.23473358 0 0 0 0 17766431.741321348 1506325.1230169162 0 1506325.1230169162 953346.35455513746 0 0 0 0 6714949.9732961655 -9356609.7453613281 0 -9356609.7453613281 -9419355.0119552612 0 0 0 0 27200521.504475594 -25803429.523452759 0 -25803429.523452759 3746515.8024892807 0 0 0 0 66277607.763293743 -6108739.2914123535 0 -6108739.2914123535 -8437174.1312255859 0 0 0 0 36963028.460247993 24896456.25958252 0 24896456.25958252 14710168.409606934 0 0 0 0 39080814.182556152 -50067549.994110107 0 -50067549.994110107 6673748.2159729004 0 0 0 0 -24637019.516489029 -6491219.0687561035 0 -6491219.0687561035 4711592.1232299805 0 0 0 0 7212436.3481855392 -10687227.033813477 0 -10687227.033813477 9333022.6775817871 0 0 0 0 21473184.933429718 47939248.150024414 0 47939248.150024414 4632104.2621917725 0 0 0 0 6566828.977230072 5578521.7229309082 0 5578521.7229309082 -17465407.990524292 0 0 0 0 7577550.7261785166 6881800.0215857178 0 6881800.0215857178 30356.227327823639 0 0 0 0 -14817837.664337158 13279016.849151611 0 13279016.849151611 750418.37048339844 0 0 0 0 -131797.26300154487 -400321.49984055012 0 -400321.49984055012 535179.32497277297 0 0 0 0 4877723.4867167473 -60748104.608314991 0 -60748104.608314991 -144239614.97018433 0 0 0 0 64909123.282566071 170153213.74336243 0 170153213.74336243 -75632625.806800842 0 0 0 0 -48152857.279490471 90701440.558614731 0 90701440.558614731 325454725.24032593 0 0 0 0 28369247.784633636 249805482.5556488 0 249805482.5556488 171051571.37565613 0 0 0 0 -2747714.8621666245 230898.01831331849 0 230898.01831331849 2617488.5817569792 0 0 0 0 -7046993.9496688843 57269694.644470215 0 57269694.644470215 160774289.15068054 0 0 0 0 -55628487.592868805 125699460.16752625 0 125699460.16752625 211248164.11755371 0 0 0 0 94467601.826950073 96491557.664405823 0 96491557.664405823 82247959.241210938 0 0 0 0 -2232124.0354612507 1172110.9817200303 0 1172110.9817200303 4479016.5542408824 0 0 0 0 -5119024.0458393097 1649420.0933532715 0 1649420.0933532715 6360541.5661010742 0 0 0 0 27374628.326488495 142224770.60438538 0 142224770.60438538 148575029.84085083 0 0 0 0 221376971.80545044 111396657.81513977 0 111396657.81513977 74584406.164001465 0 0 0 0 36041430.818211555 147287490.49692154 0 147287490.49692154 304302711.90637207 0 0 0 0 1572594.5291481018 35544507.569412231 0 35544507.569412231 69992797.681671143 0 0 0 0 11547114.590835571 -21232977.850692749 0 -21232977.850692749 17213133.524253845 0 0 0 0 -8478864.865556825 -1540997.900459215 0 -1540997.900459215 8526190.874422282 0 0 0 0 33949960.049785614 158889229.52500916 0 158889229.52500916 209832243.37988281 0 0 0 0 -23340059.039134979 -18123010.679290771 0 -18123010.679290771 186526460.64846611 0 0 0 0 -3574555.6348298341 -2979216.5157429501 0 -2979216.5157429501 3678085.6281255633 0 0 0 0 -7355435.0952587128 4431393.727684021 0 4431393.727684021 6930975.459777832 0 0 0 0 -28132106.252140939 2124268.4726867676 0 2124268.4726867676 19847177.033203125 0 0 0 0 -46048685.322922468 3677425.8352813721 0 3677425.8352813721 25230341.446350098 0 0 0 0 -4467173.62411555 2746710.5366231278 0 2746710.5366231278 13497443.554065853 0 0 0 0 -4259715.3941574097 2214876.3169708252 0 2214876.3169708252 5720212.264541626 0 0 0 0 -612799.09246444702 2763076.3246307373 0 2763076.3246307373 5730613.7477416992 0 0 0 0 -4219355.042963028 1607428.7528381348 0 1607428.7528381348 8610113.8484191895 0 0 0 0 394308091.28238392 -43601956.200538635 0 -43601956.200538635 1143814694.5393372 0 0 0 0 -2183832.5185260773 2971679.451385498 0 2971679.451385498 9114272.9865570068 0 0 0 0 -605188997.74202347 -884620044.90774536 0 -884620044.90774536 481880652.94110107 0 0 0 0 -9349304.3455114365 3075574.1012039185 0 3075574.1012039185 8620304.9547576904 0 0 0 0 -6670360.3271418614 3440053.0395337194 0 3440053.0395337194 5266549.9412814341 0 0 0 0 77413736.658084869 107545022.96884155 0 107545022.96884155 280232825.08098602 0 0 0 0 -56726009.792736053 44743666.112457275 0 44743666.112457275 983737205.55233765 0 0 0 0 -26537513.443935394 -81037214.659698486 0 -81037214.659698486 357723789.86865234 0 0 0 0 -523859606.90722215 -981226865.3231926 0 -981226865.3231926 -38374408.804779053 0 0 0 0 -638042252.59327316 -137500350.07543945 0 -137500350.07543945 619315573.81231689 0 0 0 0 -1565728.5090515008 2122008.3031630367 0 2122008.3031630367 82170.700825054199 0 0 0 0 238619112.2284174 -851760961.13471222 0 -851760961.13471222 -1010407295.625824 0 0 0 0 331513465.57364082 -171875408.07461548 0 -171875408.07461548 9213493.1131343842 0 0 0 0 388205658.28945339 305243367.31333351 0 305243367.31333351 1298144462.3723755 0 0 0 0 196391752.25265598 452448752.80211258 0 452448752.80211258 1022279534.6367493 0 0 0 0 320867740.45087433 -368213016.76785278 0 -368213016.76785278 414256769.11001587 0 0 0 0 -131275580.19399071 -502104296.77201843 0 -502104296.77201843 542879225.53942871 0 0 0 0 386168578.9278717 691532904.14199829 0 691532904.14199829 867900944.99353027 0 0 0 0 -200964590.65505791 433483282.48257756 0 433483282.48257756 1124639052.1146545 0 0 0 0 -115999745.03489685 289824904.32003784 0 289824904.32003784 1072247932.7417831 0 0 0 0 189216565.20289618 293042335.67043543 0 293042335.67043543 748477316.61633301 0 0 0 0 202660907.90813637 -391057727.98609924 0 -391057727.98609924 561166658.69229126 0 0 0 0 52507407.91073513 -6279232.025390625 0 -6279232.025390625 -33564533.842437744 0 0 0 0 -676464194.03016472 51904331.518066406 0 51904331.518066406 310954347.30288696 0 0 0 0 -357241747.66486454 -179618940.04081726 0 -179618940.04081726 282373147.04221153 0 0 0 0 -145656154.47212315 -145274987.54998016 0 -145274987.54998016 -445825791.53735352 0 0 0 0 -6157814.1270698681 5713976.0610690862 0 5713976.0610690862 1268505.4610064663 0 0 0 0 73182633.578132629 -21488902.850479126 0 -21488902.850479126 551159223.91148376 0 0 0 0 -308450859.49328995 -107716791.33552551 0 -107716791.33552551 -25158646.805725098 0 0 0 0 17501603.150188446 -33290791.499893188 0 -33290791.499893188 840218907.31167603 0 0 0 0 23619561.329841614 91611141.884460449 0 91611141.884460449 669468720.50886536 0 0 0 0 -99634955.14781189 -83458203.12411499 0 -83458203.12411499 1380712587.7241821 0 0 0 0 -3875681.6675182618 4865635.3341683075 0 4865635.3341683075 4397465.8867883645 0 0 0 0 -266756.59988451004 5029392.0970687866 0 5029392.0970687866 9654368.9792480469 0 0 0 0 -895463.20765686035 3362722.0562438965 0 3362722.0562438965 8523971.085647583 0 0 0 0 -109288.17915526778 6269078.1401518881 0 6269078.1401518881 4024308.016837243 0 0 0 0 667684.98455810547 5439411.3522949219 0 5439411.3522949219 9719504.3966064453 0 0 0 0 -3122017.052658638 -586269.61709357798 0 -586269.61709357798 1463343.104965575 0 0 0 0 -318806457.73757935 -199900317.29159546 0 -199900317.29159546 109698850.62280273 0 0 0 0 -199249148.6688652 -465433024.4162674 0 -465433024.4162674 584842044.57659912 0 0 0 0 155026300.80528259 -72080053.97088623 0 -72080053.97088623 56618140.500732422 0 0 0 0 -830124.03163909912 -645341904.60152435 0 -645341904.60152435 -2130083611.4324951 0 0 0 0 -1760833.0051495507 1131545.6843554154 0 1131545.6843554154 1282523.2128919512 0 0 0 0 675749.65338486433 385296.15031471103 0 385296.15031471103 233695.40446662903 0 0 0 0 123639505.40622711 -494353851.91268921 0 -494353851.91268921 -768324917.6937561 0 0 0 0 2084489315.9588032 1567798780.3201141 0 1567798780.3201141 -882216592.69506836 0 0 0 0 -563188.89550684206 -1832645.8526549414 0 -1832645.8526549414 8796770.0705091059 0 0 0 0 1016598009.9710045 2135442035.1061325 0 2135442035.1061325 -806054556.50143433 0 0 0 0 -429662825.1108551 -1769832381.7901001 0 -1769832381.7901001 708629725.03921509 0 0 0 0 47985856.125555038 -288500916.63048172 0 -288500916.63048172 -41260259.477935791 0 0 0 0 -625788173.05690575 -587630237.8406601 0 -587630237.8406601 754282687.62940979 0 0 0 0 2327764.3135147095 128256594.52978516 0 128256594.52978516 9967644.0989189148 0 0 0 0 47610445.496200562 -101690856.34403992 0 -101690856.34403992 597245600.82592773 0 0 0 0 47701600.830734253 -110935351.98640442 0 -110935351.98640442 1020622576.2436218 0 0 0 0 41951422.354122162 -312208942.35323334 0 -312208942.35323334 542588869.28973389 0 0 0 0 190020214.24159241 -68058799.519180298 0 -68058799.519180298 304015790.52577209 0 0 0 0 209353072.20493317 33109556.488250732 0 33109556.488250732 682197735.20515442 0 0 0 0 -107767068.88593292 45006117.822662354 0 45006117.822662354 784671504.34661865 0 0 0 0 -523133.52823976963 184425.73590288777 0 184425.73590288777 204078.89540588856 0 0 0 0 -29683241.201171875 178484557.60215759 0 178484557.60215759 365181880.162323 0 0 0 0 4960835.1504745483 6227061.0369237661 0 6227061.0369237661 -3311328.1142660826 0 0 0 0 -6077580.4798660278 56708658.437469482 0 56708658.437469482 614030891.62557983 0 0 0 0 258635798.78315639 401496780.04494858 0 401496780.04494858 537525038.43829346 0 0 0 0 -525690446.61258888 -77441816.585906982 0 -77441816.585906982 506007771.52639771 0 0 0 0 -178583750.50738525 328887781.25218201 0 328887781.25218201 374274902.78012085 0 0 0 0 70200235.855148315 -176727930.9319458 0 -176727930.9319458 162422281.47531128 0 0 0 0 1637801.6973897666 2209671.1825442016 0 2209671.1825442016 -1123407.4011155143 0 0 0 0 44034616.890399933 21027022.708473206 0 21027022.708473206 -145136912.40643311 0 0 0 0 44441744.817111969 4205648.7043838501 0 4205648.7043838501 -53713659.172241211 0 0 0 0 31532691.349258423 -1268080.3452148438 0 -1268080.3452148438 -10933626.845962524 0 0 0 0 -2492206.0254395087 14300438.541576253 0 14300438.541576253 -662165.20940333605 0 0 0 0 9775498.6063289642 22895905.805786133 0 22895905.805786133 -29496468.923461914 0 0 0 0 247808178.68848205 -38557471.301232338 0 -38557471.301232338 -6456351.9780426025 0 0 0 0 869368136.83098984 884843500.07693481 0 884843500.07693481 -339639294.12736511 0 0 0 0 -2461529.5252460968 2524565.6099643596 0 2524565.6099643596 5455975.0893321112 0 0 0 0 607892629.46073914 378432872.96302795 0 378432872.96302795 -310298968.87017822 0 0 0 0 397777964.90723419 1171861361.9981537 0 1171861361.9981537 -506444124.15008545 0 0 0 0 681757916.76712036 612049638.17597961 0 612049638.17597961 355855028.05743408 0 0 0 0 81018423.986366272 -344053990.76390076 0 -344053990.76390076 1860278188.0045166 0 0 0 0 186375533.42795753 -267615156.17655945 0 -267615156.17655945 8216641.2674255371 0 0 0 0 -80259903.844970703 317143064.40039062 0 317143064.40039062 -395818639.97912598 0 0 0 0 24671831.876724243 59756417.928527832 0 59756417.928527832 -69020103.142059326 0 0 0 0 493966723.43426514 -147394173.55969238 0 -147394173.55969238 -1054368842.8452148 0 0 0 0 557869041.09385681 774316017.96708679 0 774316017.96708679 -569732321.12142944 0 0 0 0 621535908.10133362 484899201.7973938 0 484899201.7973938 -816026859.79476929 0 0 0 0 340090179.9771347 589401287.89802551 0 589401287.89802551 453823670.37161255 0 0 0 0 542075253.89354706 792189235.7762146 0 792189235.7762146 -446481944.82034302 0 0 0 0 -259822096.57402039 -509931110.50494385 0 -509931110.50494385 482975208.87866211 0 0 0 0 -2919509.1879795641 -5989526.4495101422 0 -5989526.4495101422 27335394.192680448 0 0 0 0 292346485.93306732 388977321.98458862 0 388977321.98458862 941490329.52050781 0 0 0 0 281322992.16950226 486818852.12117004 0 486818852.12117004 345759865.8155365 0 0 0 0 174554189.59315491 -31050640.129417419 0 -31050640.129417419 50712800.366897583 0 0 0 0 -35617296.6197052 16262318.976898193 0 16262318.976898193 58892230.126098633 0 0 0 0 824814268.10801697 405442440.46183014 0 405442440.46183014 78953377.418151855 0 0 0 0 -9852595.8537864685 32351438.602844238 0 32351438.602844238 57417750.813865662 0 0 0 0 27752684.367746353 12107950.15958786 0 12107950.15958786 -20672891.632286072 0 0 0 0 -652619.27469986677 -2599671.3782454506 0 -2599671.3782454506 10280748.123092823 0 0 0 0 96429186.487030029 66313812.349884033 0 66313812.349884033 914140782.13040161 0 0 0 0 291622.8895633677 2643298.8810627982 0 2643298.8810627982 9547447.0855763555 0 0 0 0 224362364.69296265 48499884.51675415 0 48499884.51675415 1238287576.0604248 0 0 0 0 212103011.58752441 148630275.00854492 0 148630275.00854492 662939801.74661255 0 0 0 0 66391052.543128967 702288987.38612366 0 702288987.38612366 161638129.75622559 0 0 0 0 881090522.18016815 -202186096.57667542 0 -202186096.57667542 1043340869.687973 0 0 0 0 24250192.365457535 1150797.2089309692 0 1150797.2089309692 29791653.438454628 0 0 0 0 -1332841202.2984085 -618572605.49778748 0 -618572605.49778748 -256898536.77400208 0 0 0 0 -1022458775.9812775 -399219445.72662354 0 -399219445.72662354 -926667426.76019287 0 0 0 0 -1622522.4068662524 -279786.37090602517 0 -279786.37090602517 1295999.5153470412 0 0 0 0 11185418.877567267 -2567430.5561507866 0 -2567430.5561507866 -680954.07346855849 0 0 0 0 25508626.952867508 57558013.505813599 0 57558013.505813599 23975718.746704102 0 0 0 0 468112136.03050232 225692417.46713257 0 225692417.46713257 139289767.49487305 0 0 0 0 219032101.12283707 372532266.33979797 0 372532266.33979797 343513166.26004028 0 0 0 0 -42055958.395961046 -40534773.373363495 0 -40534773.373363495 545821921.3460083 0 0 0 0 51271054.205963135 153815799.5758667 0 153815799.5758667 568332375.51519775 0 0 0 0 64904497.465637207 272620177.60681152 0 272620177.60681152 326472481.26639557 0 0 0 0 149623333.17673111 531532057.22180939 0 531532057.22180939 1074668981.0942993 0 0 0 0 -29292700.444084167 -160214659.07067108 0 -160214659.07067108 240927531.14137268 0 0 0 0 30354612.329868317 -199358472.09260559 0 -199358472.09260559 120064323.83589554 0 0 0 0 -4871038.002860168 -8298649.3312290348 0 -8298649.3312290348 6806082.2468310595 0 0 0 0 574822128.01658249 344814764.27894592 0 344814764.27894592 209350475.20102692 0 0 0 0 233691058.19308925 674430905.72016549 0 674430905.72016549 436672378.38183594 0 0 0 0 -31478375.810787201 703865244.51605225 0 703865244.51605225 24304724.292297363 0 0 0 0 -284620994.14690781 -87302987.563827515 0 -87302987.563827515 15062496.497367859 0 0 0 0 233729002.10682297 650504954.13275146 0 650504954.13275146 750543868.1774292 0 0 0 0 24549535.50772962 16781053.345333576 0 16781053.345333576 12555353.873657227 0 0 0 0 11663892.99639977 1778562.6364818625 0 1778562.6364818625 15903638.441955626 0 0 0 0 -1503452.5274942156 -6944790.1520308778 0 -6944790.1520308778 3587456.9102793783 0 0 0 0 -4168694.5137810409 -3356791.5181957185 0 -3356791.5181957185 1970439.329474248 0 0 0 0 1290877056.9298706 193713486.23535156 0 193713486.23535156 942458578.2130127 0 0 0 0 5655923.2210755181 -4009428.6819506139 0 -4009428.6819506139 2482006.5876009688 0 0 0 0 -12636603.228506088 -15218700.864013672 0 -15218700.864013672 -8241338.3038024902 0 0 0 0 1516832965.085474 1728382872.1964836 0 1728382872.1964836 605332141.40612793 0 0 0 0 -1672673605.2130432 -1014742932.0161743 0 -1014742932.0161743 3173993671.5944061 0 0 0 0 161752156.35316849 -102464215.5096283 0 -102464215.5096283 -715435478.14997101 0 0 0 0 -1028684542.1451492 -737261459.12309265 0 -737261459.12309265 1767476707.5854034 0 0 0 0 4820269.428106308 -4008041.546875 0 -4008041.546875 -1102233.3691101074 0 0 0 0 13785357.670371592 -5136296.1447782516 0 -5136296.1447782516 4549669.5426601991 0 0 0 0 12764865.742488861 5603283.7532043457 0 5603283.7532043457 -6018890.1825866699 0 0 0 0 -901416.6349240467 160186.12795095146 0 160186.12795095146 2197926.7084193528 0 0 0 0 350138893.84622955 300120485.94412231 0 300120485.94412231 451323744.0369606 0 0 0 0 15102950.26992121 3930184.2609500997 0 3930184.2609500997 2142599.7366706878 0 0 0 0 874782162.43735504 573100643.74519348 0 573100643.74519348 9974715.4450378418 0 0 0 0 13155062.531700475 -716607.08089162782 0 -716607.08089162782 1151495.0878212452 0 0 0 0 478068781.82781339 344411451.34061432 0 344411451.34061432 173962113.8270874 0 0 0 0 842611581.79479599 325071565.67855835 0 325071565.67855835 35553609.637481689 0 0 0 0 -1559164.8138618469 15145907.569599152 0 15145907.569599152 22904673.778320312 0 0 0 0 -12393008.08835125 5650257.1818237305 0 5650257.1818237305 14123515.346130371 0 0 0 0 23941294.298745155 -13743573.716690063 0 -13743573.716690063 -15541208.23387146 0 0 0 0 802751110.63851166 229426005.93606567 0 229426005.93606567 55958389.964538574 0 0 0 0 9996083.5413349643 -917193.00006729364 0 -917193.00006729364 1003429.5152911246 0 0 0 0 -2449213.1008968353 24046387.522827148 0 24046387.522827148 8861935.1129760742 0 0 0 0 -27703077.019273758 -12602840.022323608 0 -12602840.022323608 5656839.3639526367 0 0 0 0 -211415.25037096837 60505.172444336116 0 60505.172444336116 603659.54972547293 0 0 0 0 -26800221.437897682 16458011.247558594 0 16458011.247558594 17624545.288726807 0 0 0 0 -12962255.138534546 692333759.41253662 0 692333759.41253662 887100249.31344604 0 0 0 0 1299098536.9477005 171248390.47180176 0 171248390.47180176 -40663394.911071777 0 0 0 0 784491250.07880783 476924115.97219849 0 476924115.97219849 431964623.003479 0 0 0 0 1246115.8052756917 -1991657.4390876666 0 -1991657.4390876666 -664065.34328273684 0 0 0 0 787189899.97375488 -20971530.229293823 0 -20971530.229293823 419642463.08276367 0 0 0 0 753581852.03279114 394386200.17938232 0 394386200.17938232 49623736.595581055 0 0 0 0 1417565532.968586 512664931.71923828 0 512664931.71923828 56649105.989990234 0 0 0 0 782619330.85820007 978533801.33898926 0 978533801.33898926 564964987.42675781 0 0 0 0 163695824.20960236 546679209.39144897 0 546679209.39144897 330213328.44848633 0 0 0 0 -394780969.47132111 221835499.33718872 0 221835499.33718872 616846672.70776367 0 0 0 0 231318826.55015564 484015975.96405029 0 484015975.96405029 293137091.38574219 0 0 0 0 205398306.56209564 474121492.50708008 0 474121492.50708008 118501552.53771973 0 0 0 0 553469041.69913483 719335939.26063538 0 719335939.26063538 251041443.24035645 0 0 0 0 235007853.54132843 505121473.4041748 0 505121473.4041748 50183576.515441895 0 0 0 0 233420899.78610229 462097889.953125 0 462097889.953125 2850933.6035022736 0 0 0 0 -176529637.68141174 31377504.873046875 0 31377504.873046875 175185426.5592041 0 0 0 0 -10896694.856689453 207625338.63916016 0 207625338.63916016 8032486.5278930664 0 0 0 0 234667312.12545776 252982635.96615601 0 252982635.96615601 269951279.08416748 0 0 0 0 510607821.83375549 162781898.14431763 0 162781898.14431763 80907618.074523926 0 0 0 0 459700866.06936264 241125528.8656311 0 241125528.8656311 216756751.49530029 0 0 0 0 380300587.76171875 86409145.749053955 0 86409145.749053955 118844086.24240112 0 0 0 0 152629446.64268875 107376458.21897125 0 107376458.21897125 70623919.901885986 0 0 0 0 -262811418.02728271 141700286.8274231 0 141700286.8274231 197529959.49627686 0 0 0 0 -298648965.95153046 324384193.5151062 0 324384193.5151062 32682751.674509048 0 0 0 0 -238502852.32027817 141818366.08982849 0 141818366.08982849 8350691.9147586823 0 0 0 0 -4378651.6242244579 16476829.097427931 0 16476829.097427931 54726370.847231455 0 0 0 0 -183063469.35549164 231223223.08718109 0 231223223.08718109 -190445859.88977051 0 0 0 0 -3801106.4637993798 2041679.5928869843 0 2041679.5928869843 8055120.1592072994 0 0 0 0 504765638.99848008 180758636.46156025 0 180758636.46156025 -345483444.21646118 0 0 0 0 -338134237.60615921 50807770.483963013 0 50807770.483963013 120521427.10617065 0 0 0 0 -12491944.063179016 195922231.25344849 0 195922231.25344849 101809129.05249023 0 0 0 0 -24508665.469764709 132084431.92301941 0 132084431.92301941 64528943.925048828 0 0 0 0 -220811556.03065109 140329043.03198242 0 140329043.03198242 139668100.98324585 0 0 0 0 -438532004.42165375 44558617.748199463 0 44558617.748199463 107209380.66771317 0 0 0 0 -501069088.04494572 161484720.53481674 0 161484720.53481674 150554280.94281006 0 0 0 0 -269545640.92957115 168792231.15075684 0 168792231.15075684 65260088.500408173 0 0 0 0 -250780564.37518835 77312039.392980576 0 77312039.392980576 162313305.75823975 0 0 0 0 32972755.962604523 100972737.10861206 0 100972737.10861206 93480005.85824585 0 0 0 0 291048045.0882988 146489604.28860474 0 146489604.28860474 78561754.752258301 0 0 0 0 39487611.065641403 129738708.37273788 0 129738708.37273788 169109181.08312988 0 0 0 0 547838533.34182739 112866877.20291138 0 112866877.20291138 94463995.02935791 0 0 0 0 286925042.00590515 197881080.23638916 0 197881080.23638916 75914214.517700195 0 0 0 0 271130799.13098907 246622959.309021 0 246622959.309021 22617206.190689087 0 0 0 0 460597227.44031525 244923584.36486816 0 244923584.36486816 21182206.597351074 0 0 0 0 13392406.680963516 119338397.44641876 0 119338397.44641876 89644947.7003479 0 0 0 0 224378584.2534256 534525124.23095703 0 534525124.23095703 116861303.04214859 0 0 0 0 525767343.23762512 449231309.46755981 0 449231309.46755981 4104296.3782348633 0 0 0 0 374821422.15564728 484183032.42779541 0 484183032.42779541 4708695.7744121552 0 0 0 0 536197610.38530731 464759533.75244141 0 464759533.75244141 26857268.254730225 0 0 0 0 701300118.79072952 314587839.4392395 0 314587839.4392395 -12544527.065490723 0 0 0 0 407495774.35935974 322495502.90203857 0 322495502.90203857 -11823487.702156067 0 0 0 0 354895999.24055862 343249979.12492371 0 343249979.12492371 65874374.294067383 0 0 0 0 324844006.5353241 382951842.95840454 0 382951842.95840454 13715042.865615845 0 0 0 0 474320666.58677673 387231500.72817993 0 387231500.72817993 7949710.0756835938 0 0 0 0 273278618.43124962 438100768.80975342 0 438100768.80975342 97663432.810119629 0 0 0 0 281949918.55839539 457177916.92379761 0 457177916.92379761 43241395.342041016 0 0 0 0 340230623.27531433 441117981.07827759 0 441117981.07827759 47102062.722702026 0 0 0 0 250940035.62015152 483076953.3396225 0 483076953.3396225 48610088.878234863 0 0 0 0 282030131.86528349 455254099.4960947 0 455254099.4960947 41413972.002075195 0 0 0 0 234203206.57995105 428382636.0025692 0 428382636.0025692 96772504.918823242 0 0 0 0 230580075.74342728 379612566.93795776 0 379612566.93795776 186206997.21179199 0 0 0 0 235954695.54937363 342358953.64129639 0 342358953.64129639 117060029.91925049 0 0 0 0 228729359.93999481 316017093.059021 0 316017093.059021 66298970.056091309 0 0 0 0 175260040.67678452 330116779.16423035 0 330116779.16423035 253777694.80065918 0 0 0 0 158195091.86057281 283011650.71603394 0 283011650.71603394 158356656.08934021 0 0 0 0 170438430.33338547 358702498.04510498 0 358702498.04510498 179460315.90826416 0 0 0 0 174143705.21622849 380858211.44444275 0 380858211.44444275 308071995.50421143 0 0 0 0 -14521247.214243412 193743614.08117485 0 193743614.08117485 118234917.91845703 0 0 0 0 196052024.4473877 179594536.94450378 0 179594536.94450378 65506101.623840332 0 0 0 0 243760148.99603271 277637407.20800781 0 277637407.20800781 79977205.264938354 0 0 0 0 214414048.03865814 263355682.07455826 0 263355682.07455826 76671808.728271484 0 0 0 0 161973907.32197952 274006489.52478027 0 274006489.52478027 179804302.28839111 0 0 0 0 116115304.28600311 218517752.75358582 0 218517752.75358582 115062910.66005707 0 0 0 0 117638186.68766403 218514456.80198669 0 218514456.80198669 86579008.686798096 0 0 0 0 -31135692.010528564 164809706.74638367 0 164809706.74638367 138472521.84973145 0 0 0 0 96120027.523282051 166343862.67314529 0 166343862.67314529 73361739.676452637 0 0 0 0 90625816.511989594 160056959.46071625 0 160056959.46071625 252644707.89358521 0 0 0 0 152533198.31052017 16951712.193847656 0 16951712.193847656 192468875.9250412 0 0 0 0 46346852.310783386 72121335.880767822 0 72121335.880767822 159974332.91473389 0 0 0 0 122997159.11772156 184581547.66850281 0 184581547.66850281 161694618.12370682 0 0 0 0 125338966.83943176 210931134.58308411 0 210931134.58308411 302540228.55268097 0 0 0 0 31657774.139232635 53134700.075847626 0 53134700.075847626 490616080.18945312 0 0 0 0 80868958.473682404 233270426.83688354 0 233270426.83688354 379711157.48239136 0 0 0 0 -268649986.65705872 -19203506.06729126 0 -19203506.06729126 498867819.33288574 0 0 0 0 54763139.075620651 3257157.0898895264 0 3257157.0898895264 377996012.42156982 0 0 0 0 148726805.74472427 -342363039.63775635 0 -342363039.63775635 700349560.43753052 0 0 0 0 -851506.88497759774 -43840.061174295843 0 -43840.061174295843 647708.85347544402 0 0 0 0 257216547.9241066 -106242521.24920654 0 -106242521.24920654 323395965.75547028 0 0 0 0 76462473.022850037 -95886508.598175049 0 -95886508.598175049 274111780.35652161 0 0 0 0 122359534.51762772 84755363.967514038 0 84755363.967514038 118695210.4987793 0 0 0 0 125780726.98425865 -58144550.971153259 0 -58144550.971153259 513767725.93869019 0 0 0 0 170207473.36754227 -87763148.655090332 0 -87763148.655090332 252921537.86810303 0 0 0 0 30327614.198862076 -92318304.721557617 0 -92318304.721557617 125007346.25817871 0 0 0 0 68785164.4960289 174062184.75921631 0 174062184.75921631 -657200721.77902222 0 0 0 0 110937336.09942436 -43403823.498561859 0 -43403823.498561859 -55181963.818725586 0 0 0 0 -249680907.16636658 174819042.82684326 0 174819042.82684326 122265341.16915894 0 0 0 0 -16998983.125240326 225315214.30201721 0 225315214.30201721 -41167366.514507294 0 0 0 0 -242637499.87996459 90931621.54696703 0 90931621.54696703 58370335.421813965 0 0 0 0 -33270071.908901691 178882824.39571381 0 178882824.39571381 76184671.379821777 0 0 0 0 -235811700.45343781 185641227.20712852 0 185641227.20712852 86584570.097625732 0 0 0 0 -664277205.1576252 -191230671.86001587 0 -191230671.86001587 -19156513.866298676 0 0 0 0 -755376103.25349045 289715618.14881897 0 289715618.14881897 76997015.344024658 0 0 0 0 -405283786.37385368 598957585.30342865 0 598957585.30342865 157672374.64788818 0 0 0 0 -375824131.59836006 -585764828.33491516 0 -585764828.33491516 123322213.87749481 0 0 0 0 -232372743.09866381 149020024.96865463 0 149020024.96865463 797992212.19534302 0 0 0 0 293803823.67859268 -563538766.51496887 0 -563538766.51496887 33208786.258209229 0 0 0 0 130512436.36468506 -191380549.54116821 0 -191380549.54116821 -19529787.038238525 0 0 0 0 -101748614.32016754 -161279425.76223373 0 -161279425.76223373 746645514.32818604 0 0 0 0 282785264.88852692 -382678647.88766479 0 -382678647.88766479 370618153.09519196 0 0 0 0 -14348382.88924408 -5989117.203125 0 -5989117.203125 1848994.2081298828 0 0 0 0 -2511138.4413576182 1050444.352781415 0 1050444.352781415 2819332.2723797262 0 0 0 0 217378558.58255959 -250129764.75190735 0 -250129764.75190735 393910793.13389587 0 0 0 0 9347856.452129364 -125628794.01586914 0 -125628794.01586914 755291786.84621429 0 0 0 0 26209745.993919373 9916831.5350494385 0 9916831.5350494385 -6806490.4541931152 0 0 0 0 -4341185.1880040076 62482.832317478955 0 62482.832317478955 2607258.7726336867 0 0 0 0 177258396.78002167 -496459844.13288879 0 -496459844.13288879 748043516.56497192 0 0 0 0 -1108907.0408396916 184361.12257605046 0 184361.12257605046 1546529.904288888 0 0 0 0 398840893.76272964 -408037113.36514282 0 -408037113.36514282 421992424.23478699 0 0 0 0 157578672.94490433 -319694870.2383728 0 -319694870.2383728 459441497.51687622 0 0 0 0 145215549.76207733 -398183000.7188797 0 -398183000.7188797 438984486.57165527 0 0 0 0 94490278.802698135 -329928449.92901611 0 -329928449.92901611 486012350.50030518 0 0 0 0 280543342.05678177 -455729371.76089478 0 -455729371.76089478 541221839.54232788 0 0 0 0 312133341.35544205 -373096371.61135864 0 -373096371.61135864 432157850.43347168 0 0 0 0 280877188.94635391 -477482127.14610291 0 -477482127.14610291 604079108.55249023 0 0 0 0 254119155.37414932 -341320367.87197876 0 -341320367.87197876 463622537.85879517 0 0 0 0 360226672.8626039 -609785809.29795766 0 -609785809.29795766 711543009.39096069 0 0 0 0 361701742.05327606 -468078346.55357361 0 -468078346.55357361 519625567.82879639 0 0 0 0 463071901.59551716 -575328182.35313416 0 -575328182.35313416 553362907.67523193 0 0 0 0 288835265.73366928 -512133193.15460205 0 -512133193.15460205 612395992.89730835 0 0 0 0 530758343.08992386 -718153476.27061462 0 -718153476.27061462 697779796.66899109 0 0 0 0 435425380.61077881 -536635915.34822083 0 -536635915.34822083 467673406.83763504 0 0 0 0 275821661.65979671 -352302928.83360291 0 -352302928.83360291 440571346.82052612 0 0 0 0 412669559.42098236 -851496939.81713867 0 -851496939.81713867 1004534079.9465179 0 0 0 0 327162753.48870087 -920636587.56976318 0 -920636587.56976318 961626172.52940369 0 0 0 0 540454467.40790462 -782027482.49702454 0 -782027482.49702454 750157171.11883545 0 0 0 0 400788118.92504406 -724342309.41270828 0 -724342309.41270828 874138044.2401123 0 0 0 0 414233181.98403931 -594177470.65983582 0 -594177470.65983582 713443694.89060974 0 0 0 0 317980254.7350235 -483536858.32955933 0 -483536858.32955933 589990188.26876831 0 0 0 0 255192056.05177069 -672440756.7638855 0 -672440756.7638855 799797315.69512939 0 0 0 0 212872630.22169876 -864938482.53779602 0 -864938482.53779602 935333444.23388672 0 0 0 0 218827015.93773651 -618301845.07073975 0 -618301845.07073975 743380177.04449463 0 0 0 0 402173438.68967438 -944106963.56529999 0 -944106963.56529999 932481584.11923218 0 0 0 0 227245087.36381149 -835278323.26243591 0 -835278323.26243591 980199636.77490234 0 0 0 0 -37628174.877288818 -616911778.08613586 0 -616911778.08613586 911902063.01968384 0 0 0 0 104591378.64550591 -478773101.00095367 0 -478773101.00095367 707562655.74346924 0 0 0 0 81447685.246559143 -469260662.48873901 0 -469260662.48873901 719874966.04708862 0 0 0 0 154289305.06246185 -353829846.13751221 0 -353829846.13751221 536613041.97727966 0 0 0 0 222781334.3400383 -479936273.5380249 0 -479936273.5380249 623819345.34307861 0 0 0 0 108510791.49720001 -540946668.4206543 0 -540946668.4206543 789884464.96638489 0 0 0 0 53696216.457352638 -341204202.12991714 0 -341204202.12991714 590160798.36212158 0 0 0 0 117018627.31819916 -383416942.83348083 0 -383416942.83348083 454804532.93405151 0 0 0 0 86749001.256954193 -343725860.41360474 0 -343725860.41360474 564291806.5592041 0 0 0 0 7036391.2217712402 3514615.2139587402 0 3514615.2139587402 4687801.8662033081 0 0 0 0 55820243.440574646 -222874897.54452515 0 -222874897.54452515 609695382.71630859 0 0 0 0 -34139929.060638428 -17239417.659179688 0 -17239417.659179688 452792240.88489532 0 0 0 0 163324770.13746262 -277150767.72467041 0 -277150767.72467041 359111748.47471619 0 0 0 0 -1768583.0364023522 -253561.78266656399 0 -253561.78266656399 1124715.836553812 0 0 0 0 94237126.498390198 -547613559.48251343 0 -547613559.48251343 540863674.49569702 0 0 0 0 -2231345.4909581952 767327.15417078137 0 767327.15417078137 2012929.0881919488 0 0 0 0 143971548.85148621 -326658505.34393311 0 -326658505.34393311 388761225.09129333 0 0 0 0 -142585907.00736809 -492887889.23627853 0 -492887889.23627853 988627412.84240723 0 0 0 0 -13992653.688934326 -248550816.13317871 0 -248550816.13317871 478434738.57598877 0 0 0 0 -93496453.140045166 -253907266.90820312 0 -253907266.90820312 654436653.07129669 0 0 0 0 -46656025.15058136 70267942.722167969 0 70267942.722167969 -103068068.55603027 0 0 0 0 -371959059.38186526 -180284997.39251804 0 -180284997.39251804 862694082.08703613 0 0 0 0 -395661925.13076019 19471469.358352661 0 19471469.358352661 758722331.75079346 0 0 0 0 133415948.89482498 -608668743.54185486 0 -608668743.54185486 1087674334.4178314 0 0 0 0 29262261.383636475 -68531036.807037354 0 -68531036.807037354 1318002947.7908783 0 0 0 0 377096974.62744331 -432809414.86370087 0 -432809414.86370087 1502448868.3625488 0 0 0 0 157196619.61971283 -407523399.12810898 0 -407523399.12810898 1819642061.1299744 0 0 0 0 458609991.7561245 -1306215761.93013 0 -1306215761.93013 1537545992.0842896 0 0 0 0 7011428.7216968536 -427713576.7494812 0 -427713576.7494812 999428290.66833496 0 0 0 0 80198376.343450546 -808839885.12252808 0 -808839885.12252808 1205651270.6707153 0 0 0 0 258085523.9563694 -971998497.97953796 0 -971998497.97953796 1024934805.124115 0 0 0 0 277149954.01070404 -933558209.91465759 0 -933558209.91465759 1008560761.3818054 0 0 0 0 319154260.75707626 -1050107400.4355164 0 -1050107400.4355164 1018964878.6657515 0 0 0 0 561703487.65421677 -879324878.9625473 0 -879324878.9625473 619530119.06681824 0 0 0 0 296012988.05068207 -1002886050.7252426 0 -1002886050.7252426 923325222.38343811 0 0 0 0 419798250.602005 -984345822.14485168 0 -984345822.14485168 889745123.8997345 0 0 0 0 1010470946.3016129 -447721244.8886261 0 -447721244.8886261 123191281.27705765 0 0 0 0 577181234.87327194 -960832603.1789856 0 -960832603.1789856 820672657.22680664 0 0 0 0 736196181.74192429 -1062265352.1334991 0 -1062265352.1334991 806884261.1698494 0 0 0 0 2090965818.3846807 -833553568.01434326 0 -833553568.01434326 200405962.39776611 0 0 0 0 364168860.90834045 157710429.25495911 0 157710429.25495911 -3687204.342666626 0 0 0 0 466743.37887133006 -3434256.1607217677 0 -3434256.1607217677 6583890.8828410208 0 0 0 0 1142023631.5471401 -1871177279.6152802 0 -1871177279.6152802 2306488465.0319824 0 0 0 0 476959443.06008244 75136270.726177216 0 75136270.726177216 3601390346.444519 0 0 0 0 2241498168.3608351 172916122.70399475 0 172916122.70399475 1283573296.8531036 0 0 0 0 894753773.21749115 -329739522.75144958 0 -329739522.75144958 1114806298.8368225 0 0 0 0 541280670.63611221 -139853484.24324036 0 -139853484.24324036 609145588.49423218 0 0 0 0 620432866.35215092 76000725.043037415 0 76000725.043037415 853894698.58309937 0 0 0 0 496371408.35113907 143092870.01850891 0 143092870.01850891 776197756.12667847 0 0 0 0 739185638.35049248 154035110.52596283 0 154035110.52596283 279380502.84133911 0 0 0 0 523310870.25910568 358242274.28355408 0 358242274.28355408 558944841.28349304 0 0 0 0 1171021203.1402335 446147959.81152344 0 446147959.81152344 912039018.61071777 0 0 0 0 284539362.28366947 2726728.024230957 0 2726728.024230957 857217210.28848267 0 0 0 0 295337199.633255 177801389.00991821 0 177801389.00991821 1877062639.3118134 0 0 0 0 151939243.00841904 309208476.68618774 0 309208476.68618774 1062085290.362236 0 0 0 0 140844708.35857582 228486278.3105545 0 228486278.3105545 534791330.91903687 0 0 0 0 -10579647.91550827 -250518697.25113678 0 -250518697.25113678 533135050.69857788 0 0 0 0 -70193396.185085297 282291329.78509521 0 282291329.78509521 666603995.98933792 0 0 0 0 85464832.604164124 347243013.80648804 0 347243013.80648804 631148639.91149902 0 0 0 0 241031016.28894615 460466493.85134888 0 460466493.85134888 448701951.46374512 0 0 0 0 297417060.44456482 386638692.86427307 0 386638692.86427307 352520916.79193115 0 0 0 0 55589891.490972519 268478522.89445496 0 268478522.89445496 436064647.48876953 0 0 0 0 171944252.27781677 410324032.43307495 0 410324032.43307495 348598910.59596252 0 0 0 0 176497874.79134369 383950739.3164978 0 383950739.3164978 366559143.8961792 0 0 0 0 575477143.13914108 396179717.54203796 0 396179717.54203796 543490709.68139648 0 0 0 0 241904954.95914459 360065322.3400116 0 360065322.3400116 547565576.27637482 0 0 0 0 372514118.12644601 193188920.46316051 0 193188920.46316051 382956169.83673096 0 0 0 0 386450814.73632431 428557863.49580383 0 428557863.49580383 304193693.43731689 0 0 0 0 261232417.6099304 458794284.91843939 0 458794284.91843939 232048382.3392334 0 0 0 0 254589069.77741277 306131245.59676552 0 306131245.59676552 192094385.8821106 0 0 0 0 208096170.52368164 391976272.50189209 0 391976272.50189209 148828462.16061401 0 0 0 0 204699629.78218842 437715627.71575928 0 437715627.71575928 193330413.38000488 0 0 0 0 205255571.01113892 408745513.57595825 0 408745513.57595825 244194651.98742676 0 0 0 0 207103470.40478516 381800662.66668701 0 381800662.66668701 360568519.53530884 0 0 0 0 218040949.0849762 447124960.8644104 0 447124960.8644104 291462512.36657715 0 0 0 0 219378439.10654449 377059814.67755127 0 377059814.67755127 134179353.06604004 0 0 0 0 194424408.38535309 474387686.13653564 0 474387686.13653564 179401073.74432373 0 0 0 0 233575590.6912508 423706447.83029366 0 423706447.83029366 165936500.19219971 0 0 0 0 202559520.4056778 471649279.75854492 0 471649279.75854492 116309517.24832153 0 0 0 0 212398317.52812767 434600017.95383835 0 434600017.95383835 105539511.73150635 0 0 0 0 168815874.22512817 479214975.86087036 0 479214975.86087036 64594359.968551636 0 0 0 0 175001086.9519608 377212098.61685658 0 377212098.61685658 -10323345.326538086 0 0 0 0 21408790.59709549 354412097.181427 0 354412097.181427 -10221984.96673584 0 0 0 0 124563519.33210373 442274082.38204956 0 442274082.38204956 -85219486.09362793 0 0 0 0 140366923.84764862 386556137.15280151 0 386556137.15280151 8221552.6240081787 0 0 0 0 86142669.110393524 375160899.98983765 0 375160899.98983765 16644938.753723145 0 0 0 0 197630719.2426033 499970716.75488281 0 499970716.75488281 42063832.573547363 0 0 0 0 301783616.52798176 219153861.42065048 0 219153861.42065048 -46987432.7237854 0 0 0 0 97828574.35847044 182371179.05950165 0 182371179.05950165 -44665230.656524658 0 0 0 0 174831684.75055695 283597588.01695251 0 283597588.01695251 -8023100.8450927734 0 0 0 0 153358775.91726303 433418237.27108765 0 433418237.27108765 107004125.0148468 0 0 0 0 142026402.51527405 251008008.01959991 0 251008008.01959991 -257241565.15768433 0 0 0 0 134568586.60611725 368913798.88311768 0 368913798.88311768 -72807018.642700195 0 0 0 0 112821252.77154446 -21021745.131629944 0 -21021745.131629944 -171862813.43023682 0 0 0 0 223073010.54234695 232924373.24638367 0 232924373.24638367 -313412428.08622742 0 0 0 0 391249340.87361145 157910422.97062683 0 157910422.97062683 -96684289.021774292 0 0 0 0 427891986.25143051 -194718714.35042572 0 -194718714.35042572 -113128668.64578247 0 0 0 0 232969639.85775948 -105377177.18087006 0 -105377177.18087006 177070327.58978271 0 0 0 0 602007473.88962841 9456215.6797409058 0 9456215.6797409058 208661792.02267456 0 0 0 0 346023885.57759476 326180723.88023376 0 326180723.88023376 121969657.20935059 0 0 0 0 326169532.13349533 46247908.975250244 0 46247908.975250244 255611051.93118286 0 0 0 0 -105682312.80106544 -155305400.62615967 0 -155305400.62615967 499616198.41970825 0 0 0 0 156975220.70184612 -217625223.67408752 0 -217625223.67408752 26485.285049438477 0 0 0 0 162266020.17440033 -397666084.94528198 0 -397666084.94528198 433647073.3680191 0 0 0 0 209377455.97760391 -55789484.777999878 0 -55789484.777999878 218776167.39141846 0 0 0 0 379582039.08466053 -305812945.17277527 0 -305812945.17277527 517502666.24060059 0 0 0 0 61590215.053661346 -13003933.728256226 0 -13003933.728256226 -186862837.11621094 0 0 0 0 245777583.45677376 -283508436.45043182 0 -283508436.45043182 -380047418.75845337 0 0 0 0 -76252030.943382263 -267774486.17536163 0 -267774486.17536163 10617342.422409058 0 0 0 0 -23970148.7775383 -178147564.54524231 0 -178147564.54524231 -296693015.87365723 0 0 0 0 -289137217.19507098 -359702606.39502716 0 -359702606.39502716 3298237.6243133545 0 0 0 0 1847764.0182096858 -3487903.0299048051 0 -3487903.0299048051 15631455.452151909 0 0 0 0 -1475350.3979715109 5353186.7781677246 0 5353186.7781677246 2549206.3194656372 0 0 0 0 -72993800.939707279 21575531.039093018 0 21575531.039093018 94752473.214477539 0 0 0 0 -98557834.679172546 -366282076.97855425 0 -366282076.97855425 507326618.65753174 0 0 0 0 -238149064.10648251 -20138237.007034302 0 -20138237.007034302 -96184491.131481171 0 0 0 0 -348197663.96147156 -159926636.22453308 0 -159926636.22453308 1511357123.0773315 0 0 0 0 -378221965.70841885 342508809.41337585 0 342508809.41337585 788414718.41249084 0 0 0 0 -326825120.01386553 271354058.85867691 0 271354058.85867691 -185810010.64416504 0 0 0 0 105457.08012632735 -2246906.8252778687 0 -2246906.8252778687 12811847.286148459 0 0 0 0 -480454138.41874528 -100436357.1223526 0 -100436357.1223526 350666727.60734558 0 0 0 0 58777839.586544991 528128393.82470703 0 528128393.82470703 2400610755.82547 0 0 0 0 251090.19559088536 -1085566.5306602195 0 -1085566.5306602195 1213072.391068574 0 0 0 0 -772724429.64991951 275998495.97935486 0 275998495.97935486 2321727384.6683044 0 0 0 0 -649556691.80155754 -89343260.970321655 0 -89343260.970321655 3395117160.563858 0 0 0 0 -627965481.81747818 53204603.74848938 0 53204603.74848938 1556983630.1883507 0 0 0 0 -180807909.85543251 -398655322.57598877 0 -398655322.57598877 1597765967.4414825 0 0 0 0 -531312934.66407681 -218480030.59237671 0 -218480030.59237671 2234295778.3426666 0 0 0 0 52568100.614141464 -203922024.44346619 0 -203922024.44346619 577739241.57133484 0 0 0 0 -9278802.21849823 -359210277.59919739 0 -359210277.59919739 787502711.5083313 0 0 0 0 -344491536.08375466 -60434603.141760588 0 -60434603.141760588 1287177420.2446289 0 0 0 0 850095664.40337467 -233763492.61514282 0 -233763492.61514282 523940926.4932251 0 0 0 0 336231521.69996357 -639071118.56788635 0 -639071118.56788635 1244877148.3239441 0 0 0 0 -182046168.13365746 -382380273.70503235 0 -382380273.70503235 1501096967.7698059 0 0 0 0 -696787564.18499184 -520114702.87026978 0 -520114702.87026978 3327926443.6406784 0 0 0 0 953184937.52429771 -1307395572.0824318 0 -1307395572.0824318 2214316586.0984039 0 0 0 0 -532937660.74443388 -196180608.35502815 0 -196180608.35502815 1984580764.7303162 0 0 0 0 -721072744.110816 -159309688.69927216 0 -159309688.69927216 2228095267.4639587 0 0 0 0 -828686920.3807106 -188668286.32891846 0 -188668286.32891846 2019631188.2420959 0 0 0 0 -195669016.92537689 802783323.54529572 0 802783323.54529572 2403116432.0328445 0 0 0 0 -79795110.10887289 237783847.73901367 0 237783847.73901367 317496123.77085876 0 0 0 0 -373597779.97684813 -602030035.06744385 0 -602030035.06744385 -635994876.13346863 0 0 0 0 -349273678.04780006 -401974700.86985779 0 -401974700.86985779 165703527.07436562 0 0 0 0 -737793.56517975964 -9450455.528259147 0 -9450455.528259147 17077504.116585493 0 0 0 0 -165998292.73633194 -79883829.059410095 0 -79883829.059410095 193520646.85769653 0 0 0 0 -414965474.53257895 278499022.39840698 0 278499022.39840698 -188779065.43560791 0 0 0 0 -1108325173.2098279 -50625802.782558441 0 -50625802.782558441 914858838.18276978 0 0 0 0 -471297543.27188778 -351829912.84646606 0 -351829912.84646606 1024898626.0234146 0 0 0 0 -374216342.07313669 165590989.60248184 0 165590989.60248184 1032004763.2416687 0 0 0 0 -153677933.07294607 -224983003.10362244 0 -224983003.10362244 584058736.79973602 0 0 0 0 -786494669.43955803 42255900.903091431 0 42255900.903091431 1837218108.875412 0 0 0 0 -671010369.10439301 -176376175.8553772 0 -176376175.8553772 1898061424.9734726 0 0 0 0 -483697722.02916014 -148353508.67155838 0 -148353508.67155838 2441601990.1224976 0 0 0 0 -575900326.49593115 -420251199.84462738 0 -420251199.84462738 2387666620.4572144 0 0 0 0 62211281.6755867 -171685146.40861511 0 -171685146.40861511 2405735067.9416809 0 0 0 0 1250055143.2862499 -70124834.756484985 0 -70124834.756484985 2154639577.1970539 0 0 0 0 47650545.697858334 55491869.390716553 0 55491869.390716553 2158592764.5336609 0 0 0 0 406735864.73784721 281530134.81167603 0 281530134.81167603 1604293000.8317871 0 0 0 0 -108657643.90101671 -58334124.534347534 0 -58334124.534347534 2235040129.6716003 0 0 0 0 282926571.5803225 387551205.41094971 0 387551205.41094971 2649453488.8361359 0 0 0 0 -10379873.270564869 138824769.81318283 0 138824769.81318283 1566119036.7723083 0 0 0 0 417163441.85605884 -250371458.0567627 0 -250371458.0567627 1650294164.4935303 0 0 0 0 -256732354.23841619 -163647814.98138428 0 -163647814.98138428 1648850685.7358394 0 0 0 0 -130073057.54484463 107127134.2931366 0 107127134.2931366 744295358.04529572 0 0 0 0 271320920.46597064 -53172529.968292236 0 -53172529.968292236 804597274.73474121 0 0 0 0 163736613.75405857 37761437.06247139 0 37761437.06247139 186170438.15823364 0 0 0 0 104001647.62186933 -153127377.92241096 0 -153127377.92241096 109547847.27212524 0 0 0 0 118485462.15248248 92508698.127105713 0 92508698.127105713 434167508.45713806 0 0 0 0 -6225365.5078595877 -41736152.666549683 0 -41736152.666549683 870185113.85853577 0 0 0 0 158450078.06380594 81855715.778533936 0 81855715.778533936 888517303.68801308 0 0 0 0 78930.60573608405 -133051933.66969299 0 -133051933.66969299 966892612.66984558 0 0 0 0 -168039724.9334392 113244946.87786865 0 113244946.87786865 2027670698.9333344 0 0 0 0 -257613.01088171607 -130515161.63034821 0 -130515161.63034821 1713551238.5531769 0 0 0 0 5302184.1710245013 269238305.98236847 0 269238305.98236847 1316798236.1883545 0 0 0 0 -181604979.92988449 -340149985.4657135 0 -340149985.4657135 2109434063.1205139 0 0 0 0 -38552.631410890172 -249879604.58166409 0 -249879604.58166409 1843225478.9035339 0 0 0 0 491946.48019934696 -1540740.6268087104 0 -1540740.6268087104 3299038.3215510808 0 0 0 0 11564120.724396184 10086957.383758545 0 10086957.383758545 -28311509.039649963 0 0 0 0 -177732908.96423951 -273557949.25965881 0 -273557949.25965881 2885618477.6050873 0 0 0 0 708644115.64126372 -998242779.51603699 0 -998242779.51603699 1405183434.5445862 0 0 0 0 353530634.96047819 -883649597.56019592 0 -883649597.56019592 4100468112.0632324 0 0 0 0 324830.91119871626 -881335.37052222714 0 -881335.37052222714 1827690.5268246979 0 0 0 0 354142311.15156412 1210172050.4411774 0 1210172050.4411774 3945744407.5602341 0 0 0 0 300627.97366137378 -2289039.1888158023 0 -2289039.1888158023 4571360.8247343488 0 0 0 0 13304752.441953838 1570900.3020629883 0 1570900.3020629883 -17692455.842170715 0 0 0 0 87536.460059285164 -27279953.370674133 0 -27279953.370674133 32386026.602874756 0 0 0 0 21936536.071261823 -14478888.845367432 0 -14478888.845367432 33981712.823408127 0 0 0 0 100984256.44656542 47273936.302703857 0 47273936.302703857 -40398974.487197876 0 0 0 0 -19090718.661754906 -29119237.976745605 0 -29119237.976745605 25300185.376953125 0 0 0 0 -13805398.506753117 -11725410.936531067 0 -11725410.936531067 105377828.32197571 0 0 0 0 245108.15548666037 -119081.64014680684 0 -119081.64014680684 -63416.850469568744 0 0 0 0 3644987.1849319935 5486984.7890777588 0 5486984.7890777588 -10408830.778137207 0 0 0 0 -4482426.5153409839 2499609.8650054932 0 2499609.8650054932 2081562.2097930908 0 0 0 0 691765.32541809184 8226.7786820828915 0 8226.7786820828915 -151482.4203668274 0 0 0 0 2387936.1578279734 2430731.2652587891 0 2430731.2652587891 -3324876.0369262695 0 0 0 0 -18366910.340587497 -9258599.6604309082 0 -9258599.6604309082 95136827.881393433 0 0 0 0 -356436.19654872216 1206521.3463406041 0 1206521.3463406041 4775961.3705042899 0 0 0 0 122129.35740294581 710080.68478323519 0 710080.68478323519 4112229.3506944217 0 0 0 0 481030.31453347678 2814983.5413513184 0 2814983.5413513184 17126844.516357422 0 0 0 0 -119378.97390210044 296578.66543126851 0 296578.66543126851 2210657.610835854 0 0 0 0 793.71344808935487 570771.57806396484 0 570771.57806396484 2217845.783493042 0 0 0 0 -28408.712327062545 6864262.2540283203 0 6864262.2540283203 19583647.033447266 0 0 0 0 5997458.7481506988 7462552.1573638916 0 7462552.1573638916 140711645.7747345 0 0 0 0 344001.1976996825 774514.1326187551 0 774514.1326187551 1905770.8469018936 0 0 0 0 -64487.286098159566 -37486440.110630758 0 -37486440.110630758 63837545.602416992 0 0 0 0 16191180.821520947 -43259845.294311523 0 -43259845.294311523 33056154.745483398 0 0 0 0 8101373.0505531132 -8212676.6233634949 0 -8212676.6233634949 51672318.45803833 0 0 0 0 -14277439.912691683 -9179194.1325073242 0 -9179194.1325073242 49115799.805725098 0 0 0 0 11780397.168284789 6115240.8428764343 0 6115240.8428764343 54173091.415161133 0 0 0 0 -149287030.42782602 -126145943.20204163 0 -126145943.20204163 276644680.85934448 0 0 0 0 118719240.07958013 -274169128.88725281 0 -274169128.88725281 -51711805.390242577 0 0 0 0 -53995933.817569345 -299443322.00046539 0 -299443322.00046539 416974803.09985352 0 0 0 0 -422405.92767664592 -140489301.33032227 0 -140489301.33032227 34341718.602722168 0 0 0 0 265645253.24167997 -419898981.61401367 0 -419898981.61401367 392789408.35391617 0 0 0 0 -812472.23355066776 -157418459.3089447 0 -157418459.3089447 877023624.04931641 0 0 0 0 25861352.520433493 -338555988.46644592 0 -338555988.46644592 316219486.96009445 0 0 0 0 -280242426.13323933 -118131261.83216095 0 -118131261.83216095 673625028.47000122 0 0 0 0 -245597172.80458522 -299385523.51670837 0 -299385523.51670837 210140253.26943207 0 0 0 0 -389987039.42509317 177230713.31813049 0 177230713.31813049 35073705.859909058 0 0 0 0 -1488245.7405010331 1558122.0000437871 0 1558122.0000437871 1182921.6223396212 0 0 0 0 -732930262.07252645 150981545.01562881 0 150981545.01562881 -23890254.240783691 0 0 0 0 -346325877.24457705 119504860.43986511 0 119504860.43986511 -119088174.99523926 0 0 0 0 -731810131.39491057 156340890.12205505 0 156340890.12205505 1443071.0066833496 0 0 0 0 -109600385.37842715 -209647723.14135742 0 -209647723.14135742 -35673490.682556152 0 0 0 0 -503460776.45249784 -56086516.107772827 0 -56086516.107772827 -22994756.786981583 0 0 0 0 -460921101.52070343 -303148637.75789642 0 -303148637.75789642 -383565326.39575195 0 0 0 0 -115488057.32203411 -105568022.07150269 0 -105568022.07150269 -293354024.79072571 0 0 0 0 -827557489.68256772 241280164.62693405 0 241280164.62693405 -58076785.513397217 0 0 0 0 -1311713.2918012135 -254263.14083486795 0 -254263.14083486795 1771229.0009756461 0 0 0 0 -25569555.693934441 4035748.78515625 0 4035748.78515625 4237984.5866699219 0 0 0 0 -454290353.11568481 19714962.453239441 0 19714962.453239441 -33906413.866668701 0 0 0 0 -981022351.33319736 -47447648.917175293 0 -47447648.917175293 -42454280.790973663 0 0 0 0 -663362579.74930024 -403463931.36436462 0 -403463931.36436462 -230948100.84448242 0 0 0 0 -707244603.45442271 -356605375.51272583 0 -356605375.51272583 -266467313.3409729 0 0 0 0 -471336466.84587121 3132422.6265563965 0 3132422.6265563965 -416812229.62515068 0 0 0 0 -147366334.81424668 -135069822.47523689 0 -135069822.47523689 -284638294.68273926 0 0 0 0 -132189861.99679798 -164448152.81800842 0 -164448152.81800842 -48929089.606421947 0 0 0 0 64142929.804048285 -236010491.18959045 0 -236010491.18959045 -264981154.75202942 0 0 0 0 -55924636.593581051 -91971084.918212891 0 -91971084.918212891 -326996723.86927032 0 0 0 0 219481.41608788483 -125869384.41685717 0 -125869384.41685717 -332815961.1008606 0 0 0 0 -29927828.289350331 -93659102.452438354 0 -93659102.452438354 -299280276.67918396 0 0 0 0 -44832600.261281461 -154394176.32756805 0 -154394176.32756805 -323109519.39656067 0 0 0 0 -70697094.502794445 -73587591.548210144 0 -73587591.548210144 -216272924.76551819 0 0 0 0 -44738.549002670654 -145960643.11780548 0 -145960643.11780548 -227931475.12275696 0 0 0 0 66099174.54082799 -74049731.632827759 0 -74049731.632827759 -71163946.685104847 0 0 0 0 -82471068.405607045 -121179235.83402252 0 -121179235.83402252 -72678455.742706299 0 0 0 0 -8842272.2308080345 -3078779.338224411 0 -3078779.338224411 174431303.85614014 0 0 0 0 -81610552.143668294 -112435966.47579956 0 -112435966.47579956 377407078.3000412 0 0 0 0 125369.7909400264 -156731813.36353302 0 -156731813.36353302 164354579.79244995 0 0 0 0 -169582747.67458153 -273428400.90104675 0 -273428400.90104675 162504402.78811646 0 0 0 0 -115476919.24275947 -251725060.43541718 0 -251725060.43541718 -135155598.68988037 0 0 0 0 -88305643.762176514 -85690339.952056885 0 -85690339.952056885 232037260.66774368 0 0 0 0 33912295.735057026 -219237032.11318874 0 -219237032.11318874 -52841279.154708862 0 0 0 0 -275786143.7953217 -175096484.24662781 0 -175096484.24662781 -47384132.198921204 0 0 0 0 -249803066.67524752 -369471344.55958939 0 -369471344.55958939 -81348047.493377686 0 0 0 0 -587928689.36771941 -302979398.3838501 0 -302979398.3838501 -94388893.458450317 0 0 0 0 -122581646.5562993 -229632220.70569801 0 -229632220.70569801 -173018286.63348389 0 0 0 0 -141348761.57285336 -175843548.75859165 0 -175843548.75859165 -387235887.62457275 0 0 0 0 -424646769.004601 -100039256.06999207 0 -100039256.06999207 -221104850.1410675 0 0 0 0 -373753487.9628129 -265304693.71615601 0 -265304693.71615601 -310258653.65203857 0 0 0 0 -477358759.88700938 -466024333.68832397 0 -466024333.68832397 -238316128.71998978 0 0 0 0 -90626505.178356171 -14088408.442199707 0 -14088408.442199707 69842849.43560791 0 0 0 0 -59474198.86977005 -35182406.748565674 0 -35182406.748565674 -64423518.694824219 0 0 0 0 -83172394.479515076 -91980955.856048584 0 -91980955.856048584 84943388.670562744 0 0 0 0 -44698137.528274536 42745417.047027588 0 42745417.047027588 9478475.4700317383 0 0 0 0 -2316853.6938419119 -4761631.9572692066 0 -4761631.9572692066 17124596.122512996 0 0 0 0 9357549.6968574524 33231863.538726807 0 33231863.538726807 -21478753.253417969 0 0 0 0 -300853861.83164978 -254052603.61573792 0 -254052603.61573792 -32140335.71723938 0 0 0 0 -872752768.94040704 -485180689.37773895 0 -485180689.37773895 1905901.4332275391 0 0 0 0 -494533193.61194468 -498291787.35495758 0 -498291787.35495758 -93223912.778747559 0 0 0 0 -547931305.70137668 -366691682.62711525 0 -366691682.62711525 8861997.4691009521 0 0 0 0 -382268040.89034414 -599737252.00720215 0 -599737252.00720215 -472404566.86661911 0 0 0 0 -524150738.04311991 136422958.87098694 0 136422958.87098694 -11896381.924980164 0 0 0 0 -9931033.9308273681 -4141092.2980459332 0 -4141092.2980459332 11044252.157344341 0 0 0 0 -14861918.437962532 -12399336.93365097 0 -12399336.93365097 26073986.642379761 0 0 0 0 43702186.936851501 125320918.17599487 0 125320918.17599487 -50489156.819801331 0 0 0 0 -1478059.3790124087 -2443524.4760263115 0 -2443524.4760263115 4001192.3395590372 0 0 0 0 -24410953.602113724 -14112472.193115234 0 -14112472.193115234 40890053.457260132 0 0 0 0 -4282198.1472909804 -4983432.2118579969 0 -4983432.2118579969 18988673.867174119 0 0 0 0 -5024848.4015474319 -36094.957122802734 0 -36094.957122802734 27728376.244338989 0 0 0 0 -18294713.738096237 -8659786.1409759521 0 -8659786.1409759521 25648498.829650879 0 0 0 0 -12897607.784139633 -15225944.812080383 0 -15225944.812080383 3774973.2399597168 0 0 0 0 -4239685.2028026581 -33706440.509674072 0 -33706440.509674072 -30749628.539138794 0 0 0 0 -18285342.330852032 -6306315.9556121826 0 -6306315.9556121826 29617.715576171875 0 0 0 0 -10060687.565000534 -47048379.960449219 0 -47048379.960449219 11895364.372802734 0 0 0 0 -18794732.068367004 -27818666.835357666 0 -27818666.835357666 -8536548.2816467285 0 0 0 0 11321843.106578827 -29916603.126098633 0 -29916603.126098633 -17138065.748535156 0 0 0 0 -25169012.416191101 -7359004.5804443359 0 -7359004.5804443359 -30898487.925598145 0 0 0 0 -74040447.057461739 -64868431.224815369 0 -64868431.224815369 -93839085.984375 0 0 0 0 -22479624.034387112 -46650847.809513092 0 -46650847.809513092 -104762109.24462891 0 0 0 0 6212.0762693388388 -74177.84862613678 0 -74177.84862613678 75516.637516583316 0 0 0 0 -280904.99422923848 -323799.37236788869 0 -323799.37236788869 491244.63782568648 0 0 0 0 -36770630.727676392 34615282.406616211 0 34615282.406616211 33767661.575012207 0 0 0 0 -21355896.110137939 -57470701.397705078 0 -57470701.397705078 -111799198.78833008 0 0 0 0 -1060501.4060167922 349220.45686084777 0 349220.45686084777 1255279.1492193947 0 0 0 0 876965.53313827515 -12655499.357460022 0 -12655499.357460022 10412197.624938965 0 0 0 0 2790484.2032680511 1330707.4835357666 0 1330707.4835357666 11179803.443037033 0 0 0 0 -2624735.6372812428 -497485.79671298712 0 -497485.79671298712 3660478.5084492937 0 0 0 0 -3057799.7592219152 273662.57837899774 0 273662.57837899774 4123363.0746123195 0 0 0 0 -29445569.700762749 -5164100.7106628418 0 -5164100.7106628418 8590010.8536376953 0 0 0 0 -28635972.156097412 9052813.6282348633 0 9052813.6282348633 38377566.33996582 0 0 0 0 -92355010.119102478 1840465.2482910156 0 1840465.2482910156 15478237.50769043 0 0 0 0 -44120119.147960663 21868160.095336914 0 21868160.095336914 -12931336.103881836 0 0 0 0 130295.67274844088 -2085840.8041935712 0 -2085840.8041935712 1210559.0983419567 0 0 0 0 -617153.87735748291 -855801.81365966797 0 -855801.81365966797 564690.1794128418 0 0 0 0 -1939963.308681109 -2472578.4673390761 0 -2472578.4673390761 12359309.763931334 0 0 0 0 -5643805.7557953596 -13877512.181797266 0 -13877512.181797266 24510972.742736816 0 0 0 0 -153897.40001487732 -5036186.5794677734 0 -5036186.5794677734 522235.99816894531 0 0 0 0 -157608.80413145386 -2007703.811212942 0 -2007703.811212942 111836.24681526423 0 0 0 0 -1716170.6159820557 -2101746.7462158203 0 -2101746.7462158203 -1714157.3061523438 0 0 0 0 -973154.60466673411 -982592.50186473131 0 -982592.50186473131 10878.101550780237 0 0 0 0 -1372731.0062997239 -1120602.5515545085 0 -1120602.5515545085 6058012.6435458967 0 0 0 0 -6868696.0166104883 39218553.455492973 0 39218553.455492973 11098122.621032715 0 0 0 0 -6717699.9555428633 -9561237.9256796539 0 -9561237.9256796539 10140461.792236492 0 0 0 0 4951542.6108970642 18237635.742095947 0 18237635.742095947 31891337.864227295 0 0 0 0 -4536533.3089317512 6111179.6261367276 0 6111179.6261367276 14492477.826410368 0 0 0 0 21241315.769926548 4970967.5414848328 0 4970967.5414848328 16741518.262969971 0 0 0 0 -28184682.97139883 26631801.301643372 0 26631801.301643372 13565482.652832031 0 0 0 0 -16261895.208457947 5737115.6314239502 0 5737115.6314239502 8604299.6091880798 0 0 0 0 1142794.0775928497 -8045605.8121337891 0 -8045605.8121337891 34131192.999908447 0 0 0 0 -7368567.1493778229 -2319740.512878418 0 -2319740.512878418 33060743.045684814 0 0 0 0 -47383191.102505207 6333767.890712738 0 6333767.890712738 78845064.381622314 0 0 0 0 -32065097.121394157 37582643.909896851 0 37582643.909896851 -15554895.099914551 0 0 0 0 -1851243.4366086898 -427693.37004347146 0 -427693.37004347146 3329607.1376745701 0 0 0 0 79476313.296642303 -81334337.85848999 0 -81334337.85848999 51391825.294784546 0 0 0 0 -978329.42319783662 93960.880521312356 0 93960.880521312356 1292130.549481988 0 0 0 0 20787496.83203125 -22604546.474456787 0 -22604546.474456787 -16910977.97088623 0 0 0 0 -88006746.970527649 152399526.112854 0 152399526.112854 -64385661.952941895 0 0 0 0 -63450666.338392258 27576746.652801514 0 27576746.652801514 66127871.0730896 0 0 0 0 -53386700.742168427 -136338596.1546936 0 -136338596.1546936 -35875113.542533875 0 0 0 0 15762312.172195435 -6437591.7994003296 0 -6437591.7994003296 -72678934.908447266 0 0 0 0 -881159.68959865998 -179014.69809705019 0 -179014.69809705019 1191878.0615600795 0 0 0 0 -71939940.69043541 -146264993.07858276 0 -146264993.07858276 45742099.448883057 0 0 0 0 -20908983.815380096 15584900.972885132 0 15584900.972885132 16789250.487182617 0 0 0 0 -41619808.628925323 -21653938.344238281 0 -21653938.344238281 4082097.7280273438 0 0 0 0 -3937491.21699091 -3610811.242359411 0 -3610811.242359411 18164946.068884119 0 0 0 0 -4322206.6140987873 -16651484.382034302 0 -16651484.382034302 -125432641.18928909 0 0 0 0 12732708.556315422 14742097.054168701 0 14742097.054168701 9978131.8698730469 0 0 0 0 -1059198.6017317548 -2865073.1771521941 0 -2865073.1771521941 50139.866250023246 0 0 0 0 -7554309.2297058105 2313636.2233886719 0 2313636.2233886719 2745341.6423339844 0 0 0 0 -4665113.8814260531 -5616982.2557711154 0 -5616982.2557711154 9841423.4898715615 0 0 0 0 -11646819.734517574 11695420.683799744 0 11695420.683799744 -1424106.7073974609 0 0 0 0 -2963520.9980457006 6674930.1082110405 0 6674930.1082110405 3387892.8254139423 0 0 0 0 -4745188.5238785716 1202807.9722101232 0 1202807.9722101232 5067268.3324517161 0 0 0 0 -5320782.2536582947 -19579089.317642212 0 -19579089.317642212 45655696.821594238 0 0 0 0 -19158005.472158432 -11838599.280700684 0 -11838599.280700684 46547715.364974976 0 0 0 0 -6527539.9973783344 1525511.3405922651 0 1525511.3405922651 12123696.961199284 0 0 0 0 -5653760.3202285767 -10583191.855239868 0 -10583191.855239868 38682609.183578491 0 0 0 0 -12185434.028069496 830936.64694213867 0 830936.64694213867 -36732869.334655762 0 0 0 0 -8805672.6479988098 52027022.447715759 0 52027022.447715759 -5027640.6273803711 0 0 0 0 60788614.293082237 4677546.28125 0 4677546.28125 -36801190.889758348 0 0 0 0 -137845511.62612009 159256437.97375488 0 159256437.97375488 -163774579.62850952 0 0 0 0 -45416771.778736115 -14465635.065132141 0 -14465635.065132141 -12193928.249938965 0 0 0 0 -1869194.092419595 1422037.3913573781 0 1422037.3913573781 2692130.0033731163 0 0 0 0 -20767735.687082291 -47088340.499130249 0 -47088340.499130249 -24793493.445373535 0 0 0 0 105159834.66615009 -27748697.43170166 0 -27748697.43170166 -45322049.337242126 0 0 0 0 153074074.45191288 118608263.39122009 0 118608263.39122009 10054308.179649353 0 0 0 0 -147294466.37670374 -14966589.094543457 0 -14966589.094543457 461163041.7590332 0 0 0 0 -55941658.596289635 25881141.368255615 0 25881141.368255615 6311533.9724121094 0 0 0 0 -83995236.051981926 12206233.14037323 0 12206233.14037323 380819353.06134033 0 0 0 0 67684800.776069641 -5351005.1102142334 0 -5351005.1102142334 -46988485.38765049 0 0 0 0 -38288120.16545105 36810875.59034729 0 36810875.59034729 22068069.714662075 0 0 0 0 -12502395.998816749 3446445.5557747483 0 3446445.5557747483 15952059.772424899 0 0 0 0 -107379.25456409995 -1750116.530712314 0 -1750116.530712314 1979485.2022714717 0 0 0 0 -31028983.097465515 7454052.2083053589 0 7454052.2083053589 19229884.984848022 0 0 0 0 -11076340.413872242 7708768.9893608093 0 7708768.9893608093 8265508.6240844727 0 0 0 0 -21743242.226230621 9395590.3200759888 0 9395590.3200759888 29683220.732650757 0 0 0 0 -9172227.8315857351 1134258.5507060066 0 1134258.5507060066 10989383.339620888 0 0 0 0 -20418528.583330154 -7952925.1663513184 0 -7952925.1663513184 31554008.628097534 0 0 0 0 -52036634.503129959 12677030.628425598 0 12677030.628425598 59529188.945983887 0 0 0 0 -47146123.51170826 3546499.6507415771 0 3546499.6507415771 11980041.071136475 0 0 0 0 17116393.148531914 -19427539.381134033 0 -19427539.381134033 -13923102.651657104 0 0 0 0 -4982226.8227017093 8497811.6869300008 0 8497811.6869300008 11092970.158086002 0 0 0 0 -15173522.948825195 -1661619.943676509 0 -1661619.943676509 10550055.914220974 0 0 0 0 -161357872.61722374 -67783533.053672791 0 -67783533.053672791 -13702089.740359306 0 0 0 0 -8727407.6687524356 -3586972.6595182568 0 -3586972.6595182568 4773224.3582992386 0 0 0 0 -134094862.8894558 192857556.15245056 0 192857556.15245056 -129660258.32658768 0 0 0 0 278575278.12841797 -87564638.560394287 0 -87564638.560394287 -346879592.54162455 0 0 0 0 -151928325.79351997 77834148.696075439 0 77834148.696075439 -30617302.360086918 0 0 0 0 -2803865.7992103705 -2006651.9644940868 0 -2006651.9644940868 1279181.8382895067 0 0 0 0 -345208368.87847567 451011032.29913044 0 451011032.29913044 -179599405.46069336 0 0 0 0 -373036132.37114716 161869973.8719101 0 161869973.8719101 56779251.770782471 0 0 0 0 -216660088.67671347 80332302.360180855 0 80332302.360180855 95178239.647171021 0 0 0 0 -813757774.06391144 -90843762.897911072 0 -90843762.897911072 130327671.8228302 0 0 0 0 -941255748.36340332 643572370.67654419 0 643572370.67654419 340719405.77098846 0 0 0 0 -902816453.63320065 184937467.48315239 0 184937467.48315239 683287521.29205322 0 0 0 0 -132758839.06795311 -137935836.27641296 0 -137935836.27641296 53463920.695800781 0 0 0 0 -199202736.81763458 -150074616.76641846 0 -150074616.76641846 54322720.962028503 0 0 0 0 -237402629.67357111 -63355624.323692322 0 -63355624.323692322 53872347.036865234 0 0 0 0 -106734684.84199905 40501560.90196991 0 40501560.90196991 6861241.7796936035 0 0 0 0 -28793611.662721634 -1220016.6765899658 0 -1220016.6765899658 20141566.224029541 0 0 0 0 -221795595.9413414 48939224.412467957 0 48939224.412467957 20170247.742004395 0 0 0 0 -61833953.730704308 -24993367.326194763 0 -24993367.326194763 -44671103.9662323 0 0 0 0 -47610798.035236359 15941914.221282959 0 15941914.221282959 31100486.213600159 0 0 0 0 17704983.52571106 15723287.395576477 0 15723287.395576477 -13486632.072982788 0 0 0 0 -24593388.844612122 32236065.579147339 0 32236065.579147339 28807261.70211792 0 0 0 0 -15496720.320921727 -4061792.290200837 0 -4061792.290200837 9761801.3430424631 0 0 0 0 4613765.5479383469 6060643.4816131592 0 6060643.4816131592 49190919.665771484 0 0 0 0 -37323931.582760811 14664917.78012085 0 14664917.78012085 106061064.16448975 0 0 0 0 -37834074.856513977 -66490933.857757568 0 -66490933.857757568 59589911.634197235 0 0 0 0 -18236926.407188416 -54670249.862197876 0 -54670249.862197876 48201003.40259552 0 0 0 0 -27219291.732702255 42130562.378250122 0 42130562.378250122 56076656.346076965 0 0 0 0 -1240016.4947948456 -11141058.753799438 0 -11141058.753799438 -15547505.770187378 0 0 0 0 348806.93632787466 -4594607.9630063847 0 -4594607.9630063847 4956487.5665771812 0 0 0 0 4222274.5304145813 -23814859.057189941 0 -23814859.057189941 -11842085.55078125 0 0 0 0 6886916.7192925885 -5396693.2303084359 0 -5396693.2303084359 187254.24689146876 0 0 0 0 20674892.051296234 39005279.306911469 0 39005279.306911469 -2581119.2874755859 0 0 0 0 -18581066.009056091 12255771.843994141 0 12255771.843994141 -5852048.0506973267 0 0 0 0 7969948.3377456665 -12891156.185180664 0 -12891156.185180664 -25276665.4246521 0 0 0 0 184201.79721781053 -4171110.2613330483 0 -4171110.2613330483 3918250.2593075223 0 0 0 0 4982037.1758554224 -10431092.594456095 0 -10431092.594456095 7372763.6164555699 0 0 0 0 -2327692.2535438538 -7841189.0312271118 0 -7841189.0312271118 -2992845.2991027832 0 0 0 0 -2440167.2665634155 -7371468.3078613281 0 -7371468.3078613281 -3806501.2754516602 0 0 0 0 -472475.99319267645 -550951.3624753952 0 -550951.3624753952 -755580.59266202152 0 0 0 0 -5055878.2246551514 -6699332.0223388672 0 -6699332.0223388672 -6966232.9266967773 0 0 0 0 -187151.10578016751 -677740.80636148155 0 -677740.80636148155 -516573.57881084085 0 0 0 0 -11754670.966253281 -16861526.724388123 0 -16861526.724388123 -1492129.7652282715 0 0 0 0 10942387.923873901 282770.29858398438 0 282770.29858398438 -25837329.044555664 0 0 0 0 -17729512.712257385 -8551324.4233703613 0 -8551324.4233703613 10302015.063537598 0 0 0 0 -12819001.357402802 6719185.5272216797 0 6719185.5272216797 35224833.070800781 0 0 0 0 -19476091.279167175 -10499907.906570435 0 -10499907.906570435 25749469.539272308 0 0 0 0 -1505626.3968658447 2921948.2032470703 0 2921948.2032470703 1434352.2542114258 0 0 0 0 -16319846.037727356 -3037521.673828125 0 -3037521.673828125 25752380.092712402 0 0 0 0 -21251146.362556458 -13584091.789031982 0 -13584091.789031982 45006734.207588196 0 0 0 0 -16849680.914237976 -4598218.4049530029 0 -4598218.4049530029 63282226.322807312 0 0 0 0 -5330046.5991487503 14526971.520591736 0 14526971.520591736 54251518.307556152 0 0 0 0 289802.50144004822 9245435.6408081055 0 9245435.6408081055 18126909.312316895 0 0 0 0 -19224141.839648247 -22234668.317432404 0 -22234668.317432404 5535734.5284729004 0 0 0 0 -415831.05243105069 -226717.9771021083 0 -226717.9771021083 208300.01901176572 0 0 0 0 -400574.10774253216 -275809.95316497982 0 -275809.95316497982 28254.103945605457 0 0 0 0 65420247.612495422 -4284875.5294799805 0 -4284875.5294799805 45722199.049957275 0 0 0 0 61962224.561504364 -6619142.7539367676 0 -6619142.7539367676 -19654424.067153931 0 0 0 0 40887553.924619675 -43923458.801147461 0 -43923458.801147461 -2245592.9663085938 0 0 0 0 -34619431.228431702 -26840750.850219727 0 -26840750.850219727 3270089.8883666992 0 0 0 0 10738393.143449783 -74685948.432655334 0 -74685948.432655334 53441690.777954102 0 0 0 0 -6037955.4648275562 -813058.32756070793 0 -813058.32756070793 6960328.6133164763 0 0 0 0 332660230.84835815 -146909531.21960449 0 -146909531.21960449 -25958585.367462158 0 0 0 0 67461522.919128418 -143755152.48976135 0 -143755152.48976135 221318296.00927734 0 0 0 0 81805910.079380989 -785181520.27317047 0 -785181520.27317047 1066530535.9542542 0 0 0 0 200025460.11236572 -915241166.85665894 0 -915241166.85665894 1195878688.701355 0 0 0 0 217101018.7957716 -658671731.40454865 0 -658671731.40454865 767468322.97561646 0 0 0 0 56069939.881795883 -468945080.22753906 0 -468945080.22753906 607361822.0998714 0 0 0 0 139937942.0018959 -95489564.692092896 0 -95489564.692092896 305959066.36882019 0 0 0 0 -2318379.1036424749 501901.12986897677 0 501901.12986897677 5664238.0319008157 0 0 0 0 -1816001.5940551758 -5038799.252532959 0 -5038799.252532959 13655756.628356934 0 0 0 0 -32380931.966593266 -14899615.790220261 0 -14899615.790220261 17001520.614959717 0 0 0 0 -18213018.705810547 -1461034.6753234863 0 -1461034.6753234863 20206687.022583008 0 0 0 0 571877.19467530213 242120.35910965502 0 242120.35910965502 -803984.36286830902 0 0 0 0 7124034.0351409912 -5828409.485534668 0 -5828409.485534668 13564422.881408691 0 0 0 0 5195156.1022331063 -5756305.2729674056 0 -5756305.2729674056 1973316.9651929103 0 0 0 0 -76274284.386871338 -120439610.73789215 0 -120439610.73789215 1585387760.1270752 0 0 0 0 -746893703.42829132 -486586772.49377441 0 -486586772.49377441 6800665.529586792 0 0 0 0 45196.864387044683 -176143.1055290699 0 -176143.1055290699 325894.0162261948 0 0 0 0 -246665489.04854965 -41706597.092651367 0 -41706597.092651367 -38656662.070175171 0 0 0 0 -241097399.7348938 -49235960.296272278 0 -49235960.296272278 -32769401.881622314 0 0 0 0 -978277960.8174057 8860110.611907959 0 8860110.611907959 57355433.84588623 0 0 0 0 -80443486.221855164 191497518.81056976 0 191497518.81056976 -71943922.193557739 0 0 0 0 91936784.945922852 -93154439.56048584 0 -93154439.56048584 -56422598.562072754 0 0 0 0 30493843.505378723 13635676.324836731 0 13635676.324836731 -127886930.13232422 0 0 0 0 131184241.39722824 -160938408.14524841 0 -160938408.14524841 -23982708.988700867 0 0 0 0 -15125633.490585327 -93271509.040153503 0 -93271509.040153503 243276722.62716675 0 0 0 0 -132690073.55072021 -125154110.99118042 0 -125154110.99118042 25660806.29750061 0 0 0 0 -10370966.228971234 -1465193.2441803738 0 -1465193.2441803738 4739349.9035064578 0 0 0 0 -978214717.57052231 343373909.23960876 0 343373909.23960876 159716614.75831604 0 0 0 0 -517773927.57676411 -794467862.47145844 0 -794467862.47145844 -847708253.00057983 0 0 0 0 -3820738.7049965542 -321358.04457700253 0 -321358.04457700253 1382823.4310658714 0 0 0 0 71234104.899730682 -525197112.02929688 0 -525197112.02929688 -1155415285.5522461 0 0 0 0 -1402183265.8529816 -1527368763.2945709 0 -1527368763.2945709 6159844.2190093994 0 0 0 0 83612211.441802979 -281257602.06299591 0 -281257602.06299591 180098731.09821415 0 0 0 0 463927677.75651169 -1759693630.8651733 0 -1759693630.8651733 330249726.99157715 0 0 0 0 -6905968.5130805969 -973995706.29651642 0 -973995706.29651642 -91665727.219726562 0 0 0 0 -2101791502.9741974 -301754566.38809204 0 -301754566.38809204 408738184.81008911 0 0 0 0 -815399773.8124342 -367036629.17861938 0 -367036629.17861938 318275990.52374268 0 0 0 0 -594612706.98600006 -897798600.04966736 0 -897798600.04966736 36712577.120697021 0 0 0 0 -641323715.30155182 -548354890.42599487 0 -548354890.42599487 -33791306.832061768 0 0 0 0 -578036531.30490971 -216731647.72774124 0 -216731647.72774124 -322314003.7828064 0 0 0 0 -22518729.18952179 -968616823.55952454 0 -968616823.55952454 -869158101.54962921 0 0 0 0 1292310.1637021638 -922516.41286438704 0 -922516.41286438704 2266586.4748347178 0 0 0 0 -42197434.592178345 -377189977.71591187 0 -377189977.71591187 2378817464.8788147 0 0 0 0 -180633872.6269722 -481341996.78024292 0 -481341996.78024292 -1222681505.8180161 0 0 0 0 570219664.38948727 -1483563623.9822884 0 -1483563623.9822884 1447918625.8552551 0 0 0 0 591534074.70278549 -1646066179.1472168 0 -1646066179.1472168 -126026803.65855217 0 0 0 0 762388398.89132285 -747249527.35481715 0 -747249527.35481715 867527409.39141846 0 0 0 0 575291138.34771729 -877808285.04820251 0 -877808285.04820251 820720004.36616135 0 0 0 0 199712983.32269669 -953259452.30090332 0 -953259452.30090332 2157135172.6820679 0 0 0 0 747566614.92461991 -1284075958.6309788 0 -1284075958.6309788 1236747556.8293152 0 0 0 0 693208483.26632118 -744068294.38851929 0 -744068294.38851929 579958197.7150631 0 0 0 0 435529992.81251144 -507045948.318573 0 -507045948.318573 539988918.66079712 0 0 0 0 632807194.36174583 -946701229.40679932 0 -946701229.40679932 892691007.3769989 0 0 0 0 505740528.37117195 -728423400.48710632 0 -728423400.48710632 697490272.56272888 0 0 0 0 621869958.56940079 -1284596256.9552193 0 -1284596256.9552193 469569214.08990479 0 0 0 0 553280860.30561066 -618608247.41947174 0 -618608247.41947174 502157840.35780334 0 0 0 0 1217886557.4053636 -566582557.87168121 0 -566582557.87168121 504956240.16802979 0 0 0 0 1061292513.349905 -831303895.28311157 0 -831303895.28311157 289727820.4662323 0 0 0 0 1360419842.2761497 -1095955691.9675751 0 -1095955691.9675751 182352645.93482208 0 0 0 0 2693108207.1274738 -250765247.25485992 0 -250765247.25485992 229373568.35518408 0 0 0 0 1132370919.2545724 606305973.18196487 0 606305973.18196487 2463481809.8232422 0 0 0 0 416525035.89519882 -599735733.59817505 0 -599735733.59817505 546430318.2915802 0 0 0 0 799729299.00931954 -1516468005.0238199 0 -1516468005.0238199 2112079812.5223541 0 0 0 0 2705152209.4399223 583211800.47900391 0 583211800.47900391 117329201.28045654 0 0 0 0 250432.30630198028 793849.15093786828 0 793849.15093786828 7609363.8656942695 0 0 0 0 1340502742.2664461 -1761259855.0932102 0 -1761259855.0932102 1874240107.2976074 0 0 0 0 -2145932511.4335442 -673717904.02709579 0 -673717904.02709579 1135648378.3707581 0 0 0 0 -884506633.00856018 338193498.12214661 0 338193498.12214661 1025146705.7532034 0 0 0 0 -459541325.77948189 253556174.31765747 0 253556174.31765747 698863099.68327332 0 0 0 0 -251187311.62196541 1127138035.5312729 0 1127138035.5312729 2506655030.9609127 0 0 0 0 -1097622069.1516514 998048920.04394531 0 998048920.04394531 431828425.47623444 0 0 0 0 -877835751.13873291 286582591.63339233 0 286582591.63339233 835008761.59970093 0 0 0 0 -448933726.48006058 1041982941.6783295 0 1041982941.6783295 -1309489535.404129 0 0 0 0 -746617358.51860046 1203596890.0616455 0 1203596890.0616455 -61575104.865219116 0 0 0 0 263161807.48023796 232820017.80734253 0 232820017.80734253 -880571740.24072266 0 0 0 0 1221581901.9364624 131217471.31327057 0 131217471.31327057 -251026898.69092178 0 0 0 0 -109059.46008025389 3460421.3110783119 0 3460421.3110783119 21684862.596503571 0 0 0 0 -323632917.30508876 -309013148.53343868 0 -309013148.53343868 602428417.605896 0 0 0 0 375364194.1024456 580409470.62792397 0 580409470.62792397 146636269.11331177 0 0 0 0 87245929.959400177 387014937.40170288 0 387014937.40170288 4360185.3025970459 0 0 0 0 94954165.134613514 337669274.89695358 0 337669274.89695358 318553608.49731445 0 0 0 0 -1614812.428738086 5974940.6930452697 0 5974940.6930452697 34758420.578147411 0 0 0 0 178600139.98272324 448489654.93141174 0 448489654.93141174 43890163.801055908 0 0 0 0 -511916580.94862103 -28645363.210699081 0 -28645363.210699081 6729016.3729858398 0 0 0 0 144807323.0515213 565249607.81010437 0 565249607.81010437 -162526940.20986557 0 0 0 0 63385605.968900681 576691327.49034882 0 576691327.49034882 164668991.13409424 0 0 0 0 17846432.691875458 627422261.70896912 0 627422261.70896912 363729171.42233276 0 0 0 0 -302721026.08605289 191597456.93656158 0 191597456.93656158 734371963.19284058 0 0 0 0 -1072323792.181566 435719900.4974575 0 435719900.4974575 759036438.96936035 0 0 0 0 -567472517.16358376 523762051.46315765 0 523762051.46315765 658149893.98199463 0 0 0 0 -149897032.89027786 76252308.762878418 0 76252308.762878418 1010160033.6071777 0 0 0 0 -211731910.50194168 288353006.60949707 0 288353006.60949707 459062003.44337463 0 0 0 0 -142355326.82922554 -4524209.0807762146 0 -4524209.0807762146 1014665166.7187347 0 0 0 0 341705.68538944796 -2938305.5620396286 0 -2938305.5620396286 735585.89029470086 0 0 0 0 107076801.09685802 -228213578.75408936 0 -228213578.75408936 300515533.0620575 0 0 0 0 -135604459.80710125 -168727922.56143188 0 -168727922.56143188 661852348.52947998 0 0 0 0 -56398520.022708893 8387822.7399597168 0 8387822.7399597168 736300822.36860657 0 0 0 0 -132937429.42825699 -132242457.51724243 0 -132242457.51724243 834713331.44070435 0 0 0 0 -58103216.892852783 -23680112.116004944 0 -23680112.116004944 571702614.90255737 0 0 0 0 2027643.6907567158 -5642897.541640766 0 -5642897.541640766 1156450.3782671429 0 0 0 0 -55049220.536423683 118149409.07827377 0 118149409.07827377 -217130258.93435669 0 0 0 0 2313754.8746901695 -3717564.0668687969 0 -3717564.0668687969 -6465430.5278095901 0 0 0 0 -54307504.771734238 -136503299.53294373 0 -136503299.53294373 -147528409.9677124 0 0 0 0 54030298.852184296 -77286574.622772217 0 -77286574.622772217 -98972331.186660767 0 0 0 0 54982935.319396973 -18597612.601531982 0 -18597612.601531982 -182979291.77887917 0 0 0 0 35385453.318226814 -139374727.22437477 0 -139374727.22437477 -156397377.10247803 0 0 0 0 69141558.363259315 -217089089.43107605 0 -217089089.43107605 1626814.7877807617 0 0 0 0 28925659.704719543 -63211471.933197021 0 -63211471.933197021 -91126633.446258545 0 0 0 0 141024680.74987793 -92035564.967834473 0 -92035564.967834473 -136791004.77067566 0 0 0 0 30653608.057178497 -166877771.21817017 0 -166877771.21817017 776718774.98402405 0 0 0 0 109780484.3826561 -31363588.286987305 0 -31363588.286987305 68701390.458135605 0 0 0 0 -4851481.2691428298 6853802.396947233 0 6853802.396947233 47653685.75083112 0 0 0 0 -525374643.60720253 137029698.27262878 0 137029698.27262878 501560270.52674866 0 0 0 0 -1297652603.8403945 -327297410.17891693 0 -327297410.17891693 -165392085.79086304 0 0 0 0 -11949756.335907647 2783935.0391933192 0 2783935.0391933192 60764536.733378664 0 0 0 0 -1828501066.6732607 376917421.87479973 0 376917421.87479973 1488323658.8564758 0 0 0 0 -205528282.73614883 -149648278.44842529 0 -149648278.44842529 10157041.079605103 0 0 0 0 -18521349.350333303 -24175481.109970242 0 -24175481.109970242 11292985.241468262 0 0 0 0 -44131544.776628494 -64604642.213790894 0 -64604642.213790894 9571271.3800506592 0 0 0 0 -154545967.33785903 595373630.43138885 0 595373630.43138885 1899175088.5765839 0 0 0 0 828434995.98774576 -358484503.47892761 0 -358484503.47892761 -1067649135.7442589 0 0 0 0 169323597.61427873 -912640852.25161743 0 -912640852.25161743 3009015193.8900909 0 0 0 0 -2478142.615815754 -7835234.4717131741 0 -7835234.4717131741 9441508.2451164722 0 0 0 0 -659617376.98286533 -47383328.367338181 0 -47383328.367338181 5867669540.6966553 0 0 0 0 -515100237.51111972 -411688742.29389668 0 -411688742.29389668 2874137378.8517456 0 0 0 0 -518313906.89811361 1314518172.7000809 0 1314518172.7000809 4805324811.0979996 0 0 0 0 -1004470416.5226996 1594347234.1577225 0 1594347234.1577225 5982949296.6367569 0 0 0 0 -282343725.44051975 1659563662.4647636 0 1659563662.4647636 5719991074.4632568 0 0 0 0 -575478766.47516489 1036357725.8027496 0 1036357725.8027496 5088417876.0458374 0 0 0 0 3167015146.4306111 2850075153.1941528 0 2850075153.1941528 5989805506.3109436 0 0 0 0 2594507604.3061385 3333653942.5112267 0 3333653942.5112267 1969888190.3339233 0 0 0 0 1605998529.5136466 1188288898.1853027 0 1188288898.1853027 -855457789.68426514 0 0 0 0 -323748968.55420434 2215921844.7089386 0 2215921844.7089386 4253429722.3268127 0 0 0 0 -317578157.08350486 2582532664.9581604 0 2582532664.9581604 6003273971.6406326 0 0 0 0 -521773165.09150165 857739848.66335797 0 857739848.66335797 3808359770.7169189 0 0 0 0 177744755.60403073 1471179087.7833405 0 1471179087.7833405 2870388191.761055 0 0 0 0 544868522.68467724 528315230.46269226 0 528315230.46269226 950085856.44104004 0 0 0 0 366500255.90178823 765556085.70001221 0 765556085.70001221 1734507384.0065022 0 0 0 0 818839834.53198338 195159623.57049561 0 195159623.57049561 215776322.61032104 0 0 0 0 244484223.25624895 -240448028.1730938 0 -240448028.1730938 -100478012.875 0 0 0 0 -371056138.53059101 -464470527.37758636 0 -464470527.37758636 -20985501.723205566 0 0 0 0 -65069338.866756126 153383590.13020515 0 153383590.13020515 1206821716.0876465 0 0 0 0 256974005.1597991 -497248571.18624115 0 -497248571.18624115 -178517600.05935669 0 0 0 0 -447151382.66300005 -166286560.87230682 0 -166286560.87230682 1492974512.1934662 0 0 0 0 -12650922.101496127 -27983715.77277584 0 -27983715.77277584 5668176.8172204811 0 0 0 0 -29066936.241170883 6358583.0983123779 0 6358583.0983123779 -67230961.710510254 0 0 0 0 298462446.72575474 12822345.60483551 0 12822345.60483551 -720038663.72865295 0 0 0 0 -8153289.584918567 -14656205.795610718 0 -14656205.795610718 14967959.064386755 0 0 0 0 -6718573.488825798 -11441031.719917297 0 -11441031.719917297 4412077.8777732849 0 0 0 0 -4706211.0897057112 -9653322.8698152825 0 -9653322.8698152825 6514414.9356632158 0 0 0 0 1252312.5349731445 -41812027.949310303 0 -41812027.949310303 -184197894.75113678 0 0 0 0 -8389904.480691433 -5510211.4921607971 0 -5510211.4921607971 13072687.2315979 0 0 0 0 -4601708.3255691528 -7448990.6728363037 0 -7448990.6728363037 6141449.2321929932 0 0 0 0 -9332024.4640364647 -5693595.9594993591 0 -5693595.9594993591 8378509.0030212402 0 0 0 0 -7801462.2529318333 -10304206.514543533 0 -10304206.514543533 3645181.804473877 0 0 0 0 -642890850.01521111 346149006.01197815 0 346149006.01197815 -60276248.494392395 0 0 0 0 -551319745.35306501 -201564893.82998276 0 -201564893.82998276 223357056.73614502 0 0 0 0 -446685648.60787296 19710263.108184814 0 19710263.108184814 452828119.06417847 0 0 0 0 -466970126.86656189 -260195819.75389099 0 -260195819.75389099 378339729.63279724 0 0 0 0 -11846292.654351428 -6266543.6288279258 0 -6266543.6288279258 21017082.124127835 0 0 0 0 -11707207.444983244 -8631659.0639953613 0 -8631659.0639953613 5946285.7295227051 0 0 0 0 -12474606.942873955 -11744502.825469971 0 -11744502.825469971 4457544.0779380798 0 0 0 0 -6214359.3889027005 -9095981.90168944 0 -9095981.90168944 20212766.271515802 0 0 0 0 3154176.0200710068 6180930.8222991228 0 6180930.8222991228 13643858.349429309 0 0 0 0 -54749.723495258426 -1542930.0097664148 0 -1542930.0097664148 3663283.2389593869 0 0 0 0 -469701525.84264153 -1020757965.6349449 0 -1020757965.6349449 5515028482.7666245 0 0 0 0 162168203.90159699 3591416624.1856689 0 3591416624.1856689 5976877842.9165039 0 0 0 0 465395909.34747458 1319353755.4701691 0 1319353755.4701691 3742160479.5469894 0 0 0 0 2352674.4280239912 1945124.8140211999 0 1945124.8140211999 4131512.3929666355 0 0 0 0 -227887211.72000644 -262814835.28132629 0 -262814835.28132629 7808905460.4257202 0 0 0 0 -579454086.94018149 -1843534839.2114716 0 -1843534839.2114716 5973435382.4080963 0 0 0 0 -881140357.29952228 -288527555.6968689 0 -288527555.6968689 2942826442.7485199 0 0 0 0 -5975450.3631385565 -5138918.5933227539 0 -5138918.5933227539 5518033.4732055664 0 0 0 0 1243120328.2167161 -1784184479.3720779 0 -1784184479.3720779 2726968769.8097534 0 0 0 0 5449388398.570507 -2220948175.1986084 0 -2220948175.1986084 -2100859197.9133301 0 0 0 0 -2520428.1188423969 -7525005.5765265003 0 -7525005.5765265003 2089584.4879580587 0 0 0 0 -2456506.5924462462 -6229206.2778552314 0 -6229206.2778552314 769499.83111865819 0 0 0 0 425596147.94986928 186823635.17195892 0 186823635.17195892 -545645520.64761353 0 0 0 0 -3706750.1636383696 -13980799.115579046 0 -13980799.115579046 8629006.0754682347 0 0 0 0 167093764.94848537 180043293.83009338 0 180043293.83009338 -210410965.79346466 0 0 0 0 -132856073.57199496 -939646035.06212807 0 -939646035.06212807 2522543076.3155975 0 0 0 0 -953314.36715677939 -14770632.716621459 0 -14770632.716621459 5938101.2296869829 0 0 0 0 8309670.1037176847 -19943171.524501801 0 -19943171.524501801 -10741445.324768066 0 0 0 0 -12062291.045680046 -8367048.7576141357 0 -8367048.7576141357 5762904.9127349854 0 0 0 0 -6650322.497422941 -8735375.9977332093 0 -8735375.9977332093 16664155.162969142 0 0 0 0 -36725084.036289215 -39935848.095428467 0 -39935848.095428467 25650190.001815796 0 0 0 0 14516888.91346252 -45262179.392911911 0 -45262179.392911911 4409395.8316650391 0 0 0 0 -8488757.631811142 -7143788.6514816284 0 -7143788.6514816284 9046779.9080924988 0 0 0 0 -152955265.29675865 -28275100.868606567 0 -28275100.868606567 102438070.24484253 0 0 0 0 -6197848.3633657768 -2415944.4805715256 0 -2415944.4805715256 15901268.087268412 0 0 0 0 -88923656.398483276 -7839820.4067077637 0 -7839820.4067077637 6884403.1890497208 0 0 0 0 -134224396.77051735 -52276341.592483521 0 -52276341.592483521 105624879.90270996 0 0 0 0 -193351986.16595078 46200081.564575195 0 46200081.564575195 -29001457.568725586 0 0 0 0 67447671.630187511 -25450813.297111511 0 -25450813.297111511 -11216233.019683838 0 0 0 0 9181922.3485981748 -7164009.0097860843 0 -7164009.0097860843 -5298112.8170513213 0 0 0 0 21168137.03409481 -111847242.86395264 0 -111847242.86395264 80754650.508270264 0 0 0 0 -40912762.874979019 52390198.770751953 0 52390198.770751953 -382365784.02172852 0 0 0 0 -123714627.25675607 -204296336.54323387 0 -204296336.54323387 -147851643.64825439 0 0 0 0 -144672239.51519644 -38637610.382696152 0 -38637610.382696152 10857637.555053711 0 0 0 0 -265278464.71504736 705469441.44931793 0 705469441.44931793 464543576.46627808 0 0 0 0 -202460698.27362251 201499120.80931091 0 201499120.80931091 821621361.52449036 0 0 0 0 -109956444.75666428 528245480.29093933 0 528245480.29093933 1147924515.2630615 0 0 0 0 1705055636.6310167 -1711522334.8900604 0 -1711522334.8900604 -524060005.05529785 0 0 0 0 -150302312.31035233 823154002.39454651 0 823154002.39454651 3891300573.3882446 0 0 0 0 2542561729.3930016 745616133.49317932 0 745616133.49317932 -72710373.801452637 0 0 0 0 -457985377.8577404 233684695.42153931 0 233684695.42153931 12127147.688018799 0 0 0 0 1640858.9703159942 -2349669.3145878017 0 -2349669.3145878017 3079978.6719218493 0 0 0 0 -186491817.06695241 -2081121948.489604 0 -2081121948.489604 -286488816.39321899 0 0 0 0 482104290.30185509 10291884.330184937 0 10291884.330184937 -1783956119.4526978 0 0 0 0 -1319981.0284197032 -2662860.9786547944 0 -2662860.9786547944 1351482.3925474156 0 0 0 0 281570440.95288467 292138704.57516479 0 292138704.57516479 -421227023.94396973 0 0 0 0 6713877.1877773013 -6772041.3837376684 0 -6772041.3837376684 16941.843507230282 0 0 0 0 146824.81045596447 -1595279.8672272945 0 -1595279.8672272945 -275482.02293916047 0 0 0 0 359589889.04780769 -476586900.51708984 0 -476586900.51708984 -2372416875.8795166 0 0 0 0 -544834097.575423 -316576361.0961132 0 -316576361.0961132 -153956007.98950195 0 0 0 0 16965.688762857113 -128377.38737120479 0 -128377.38737120479 409875.65466943756 0 0 0 0 4037205.4063933482 -7063540.3958235011 0 -7063540.3958235011 967919.76491392776 0 0 0 0 -1246278.6929701795 -8609326.4111506119 0 -8609326.4111506119 2693039.935158506 0 0 0 0 -22400849.908981323 56708241.247009277 0 56708241.247009277 -178488124.65133667 0 0 0 0 -328961644.78163719 -578950616.70061111 0 -578950616.70061111 263759988.36341858 0 0 0 0 15541387.28707695 93348618.6590271 0 93348618.6590271 -155172024.87692261 0 0 0 0 127228717.48364449 -102237777.52246094 0 -102237777.52246094 -155232220.39685059 0 0 0 0 -80171328.688314438 -21892488.181442261 0 -21892488.181442261 10069965.707489014 0 0 0 0 -105494633.0472374 -209853748.07998657 0 -209853748.07998657 689548670.72189331 0 0 0 0 190046528.83358955 -430072405.64341736 0 -430072405.64341736 558822405.04119873 0 0 0 0 -32238615.236202478 48170220.550704956 0 48170220.550704956 -76536314.53609848 0 0 0 0 56165391.925341174 151056636.62450409 0 151056636.62450409 34501479.655273438 0 0 0 0 391439816.20397758 -287123215.67160034 0 -287123215.67160034 149601793.939785 0 0 0 0 -583827.86738171801 -1146011.1844767183 0 -1146011.1844767183 3154319.8549790531 0 0 0 0 -669184394.48441315 1112020813.56353 0 1112020813.56353 2929103719.3485031 0 0 0 0 -925881139.09111142 265686160.26839828 0 265686160.26839828 2310956138.0864868 0 0 0 0 229005681.90481472 -872521601.93707275 0 -872521601.93707275 1334969877.8357544 0 0 0 0 -269096017.27685547 411327946.56342316 0 411327946.56342316 1675387460.4427948 0 0 0 0 -51595400.690834999 328226812.72480774 0 328226812.72480774 535980150.89083862 0 0 0 0 506471676.48864031 194785531.87509155 0 194785531.87509155 511225237.3203125 0 0 0 0 269674887.18574357 -382688383.59872437 0 -382688383.59872437 1330556317.6119843 0 0 0 0 179734957.38144368 262686473.62552643 0 262686473.62552643 418868770.36386108 0 0 0 0 46887698.87231636 -239029029.31442642 0 -239029029.31442642 43479812.65612793 0 0 0 0 -4957338.8581566336 9331281.3556755874 0 9331281.3556755874 15912331.14935945 0 0 0 0 73057741.734643936 -58948020.947753906 0 -58948020.947753906 240213330.78904724 0 0 0 0 -17708973.023436546 -55721024.567375183 0 -55721024.567375183 266294891.22958374 0 0 0 0 -419672190.03745937 -158246474.65052223 0 -158246474.65052223 2308042119.023468 0 0 0 0 463985014.3168087 -680596967.45620728 0 -680596967.45620728 713107544.80918884 0 0 0 0 478128454.06690025 969366021.0969162 0 969366021.0969162 751300713.3361969 0 0 0 0 -677759.22935785353 3776189.3098020889 0 3776189.3098020889 5310521.0511573553 0 0 0 0 703717079.7697401 -1318263042.7807999 0 -1318263042.7807999 2236255666.5602722 0 0 0 0 -184671522.82351112 70535040.951522827 0 70535040.951522827 941793179.57203674 0 0 0 0 -398457377.17868662 -41202303.693011284 0 -41202303.693011284 1018694142.8172913 0 0 0 0 -277955453.30140781 -53428308.698303223 0 -53428308.698303223 1004738923.217308 0 0 0 0 51909671.02255404 -267921423.18173504 0 -267921423.18173504 482127887.73129272 0 0 0 0 -275648419.22787476 -28554327.28163147 0 -28554327.28163147 868821938.27166748 0 0 0 0 -90972566.725804329 122276396.8421936 0 122276396.8421936 495670973.19885254 0 0 0 0 -105064329.07353067 232206086.63035583 0 232206086.63035583 995119027.08154297 0 0 0 0 -250892688.29803717 -281278964.70983505 0 -281278964.70983505 650696090.4803772 0 0 0 0 228480469.68557453 274950549.93029785 0 274950549.93029785 324935574.02174377 0 0 0 0 -698627.071000305 -215156.78235068917 0 -215156.78235068917 1344647.7381887436 0 0 0 0 280195992.37754917 30128757.539142609 0 30128757.539142609 846510874.19058228 0 0 0 0 -120877382.66197383 -16945590.382316589 0 -16945590.382316589 974438016.2678833 0 0 0 0 281420701.9013772 14505661.789108276 0 14505661.789108276 741311847.59085083 0 0 0 0 -152305342.4793005 -46134108.431274414 0 -46134108.431274414 1034805779.8660603 0 0 0 0 234627779.63042355 -16045474.11769104 0 -16045474.11769104 741372230.85693049 0 0 0 0 291270652.15689707 64875482.721153259 0 64875482.721153259 633604634.11990356 0 0 0 0 378774649.3181138 -29694140.679222107 0 -29694140.679222107 735683168.29748535 0 0 0 0 475389366.93977737 -195804891.35202026 0 -195804891.35202026 816597056.70114136 0 0 0 0 684132497.41751873 -42392428.309989929 0 -42392428.309989929 522062085.68096924 0 0 0 0 621855957.94805384 -249375792.0345726 0 -249375792.0345726 808461041.14294434 0 0 0 0 -123443912.0223875 249001353.34105682 0 249001353.34105682 633983267.75741577 0 0 0 0 426130934.93471193 -7648833.293258667 0 -7648833.293258667 223801346.13900757 0 0 0 0 -125830433.22723389 165176276.36101532 0 165176276.36101532 373770192.35186768 0 0 0 0 -182196788.9381218 15798278.674272537 0 15798278.674272537 677848350.00390625 0 0 0 0 -342723045.05598831 175705587.53016663 0 175705587.53016663 872336804.92002869 0 0 0 0 -352879430.29056263 135414939.14875793 0 135414939.14875793 1214751607.4656067 0 0 0 0 -282656157.3769474 499870252.35456848 0 499870252.35456848 624566866.72912598 0 0 0 0 -206757400.27220726 98835750.11390686 0 98835750.11390686 480237964.92298126 0 0 0 0 -19575528.37838459 -133779657.80522156 0 -133779657.80522156 -106659921.7129364 0 0 0 0 -20707690.147288322 -151278616.76561737 0 -151278616.76561737 -375769785.51521301 0 0 0 0 -646068765.86935043 -316515790.78973389 0 -316515790.78973389 322594402.26428986 0 0 0 0 176702707.84993196 195279914.25100708 0 195279914.25100708 -454734272.8299408 0 0 0 0 -381285414.01498508 -406540556.81524849 0 -406540556.81524849 249172355.93255615 0 0 0 0 -423170672.15496874 -44442332.811210632 0 -44442332.811210632 9369272.3845214844 0 0 0 0 4828496.6299454644 -10072276.642529566 0 -10072276.642529566 8370807.4928777963 0 0 0 0 515574.86561343819 -2372972.4799056649 0 -2372972.4799056649 1271381.9623194411 0 0 0 0 92132728.129009351 -520315334.96071672 0 -520315334.96071672 1562613538.9217529 0 0 0 0 373568409.81397891 2235729387.0103588 0 2235729387.0103588 5975264218.1858826 0 0 0 0 148195806.43871275 1253415076.3014145 0 1253415076.3014145 2018159479.9430141 0 0 0 0 -998523403.40547109 70140052.771160126 0 70140052.771160126 5987167213.6074371 0 0 0 0 993181816.11638379 -1474507024.3239288 0 -1474507024.3239288 3832702383.3703003 0 0 0 0 -986117514.87772834 -745348670.50863647 0 -745348670.50863647 5955781696.2848816 0 0 0 0 1963669963.9326253 -1438329559.8228686 0 -1438329559.8228686 519470237.86090088 0 0 0 0 1971491560.2224684 -545834326.63290405 0 -545834326.63290405 -330303557.24707031 0 0 0 0 2296009.6656754278 -3421081.137486048 0 -3421081.137486048 4395283.9517811537 0 0 0 0 741605773.85450125 134521283.58030701 0 134521283.58030701 -110532874.50173569 0 0 0 0 1465055724.5835094 -474723921.80770874 0 -474723921.80770874 19492655.849884033 0 0 0 0 591110986.06963003 -61702777.130439758 0 -61702777.130439758 -995797271.98937988 0 0 0 0 1440384127.6660469 -858209510.36228752 0 -858209510.36228752 -1115659944.0373535 0 0 0 0 1047136666.6479344 -947093912.55223846 0 -947093912.55223846 128194168.57035828 0 0 0 0 1040239196.146348 -1128507393.9705734 0 -1128507393.9705734 -388245593.98934937 0 0 0 0 957895326.40779257 -755302529.59222412 0 -755302529.59222412 -134123386.63130188 0 0 0 0 474254703.36846876 -350063983.20851898 0 -350063983.20851898 508483676.02749634 0 0 0 0 702837097.93999147 -227192615.67114258 0 -227192615.67114258 194031507.82571507 0 0 0 0 1175413329.6216369 -651273144.26615906 0 -651273144.26615906 561937965.71774292 0 0 0 0 762719862.42496204 -304846218.63613892 0 -304846218.63613892 462531297.42337036 0 0 0 0 2633139005.5014019 -1794858643.5065002 0 -1794858643.5065002 -465589915.8873291 0 0 0 0 832398323.26537883 -617412593.44528198 0 -617412593.44528198 1724309029.9303589 0 0 0 0 -585167762.60154545 -206558199.81254578 0 -206558199.81254578 2023954773.0574951 0 0 0 0 -1453903461.1505046 -979181156.15588379 0 -979181156.15588379 3524561914.6918488 0 0 0 0 -624416510.80006981 -90856580.525787354 0 -90856580.525787354 1731959763.9036865 0 0 0 0 856036.10698428121 -533122.90917412937 0 -533122.90917412937 410078.69287849963 0 0 0 0 -1840565416.9045117 1779452578.2514191 0 1779452578.2514191 -1102433898.020874 0 0 0 0 -1275206684.9410257 -565704549.18103027 0 -565704549.18103027 3484577171.6348572 0 0 0 0 1155077303.3118548 -200085453.91212749 0 -200085453.91212749 -245114394.50778198 0 0 0 0 -71617720.155982733 -469537822.94606018 0 -469537822.94606018 1205292240.5028992 0 0 0 0 645887.48670130421 826334.54624786973 0 826334.54624786973 2989990.084023729 0 0 0 0 709008205.33100104 -1233059054.6833801 0 -1233059054.6833801 949925109.20869064 0 0 0 0 1075185788.5162749 -340235293.73718262 0 -340235293.73718262 282378878.36096191 0 0 0 0 -210798560.36398226 227193702.86923218 0 227193702.86923218 -250444208.93901062 0 0 0 0 -200970.67440212046 -2694037.4731653035 0 -2694037.4731653035 2746959.2314786911 0 0 0 0 169636.55821674585 -1171532.4668964203 0 -1171532.4668964203 1182592.1049627811 0 0 0 0 -101332094.95787835 -570861381.2511673 0 -570861381.2511673 645977355.57295227 0 0 0 0 -663314684.82641232 378008169.20980072 0 378008169.20980072 687726870.35532379 0 0 0 0 352233959.82762146 -315093753.12348938 0 -315093753.12348938 -604898622.23171997 0 0 0 0 332290681.52074802 -1280257522.7878571 0 -1280257522.7878571 1666319070.9386978 0 0 0 0 442453114.08547723 568282990.47092438 0 568282990.47092438 -166017736.84968567 0 0 0 0 -851347282.38255429 -252818085.0992527 0 -252818085.0992527 5968916684.9408264 0 0 0 0 -94041.138630632398 -1286460.582858596 0 -1286460.582858596 1176111.2813448906 0 0 0 0 -269465687.18154192 -1416767005.5626526 0 -1416767005.5626526 5895897103.3925781 0 0 0 0 -200733.85240646274 -2351325.8162111589 0 -2351325.8162111589 2009900.0117698461 0 0 0 0 -1148324029.9282885 393634756.2960434 0 393634756.2960434 3760732533.6434021 0 0 0 0 1322945410.8516712 -1298409372.3288879 0 -1298409372.3288879 1680754546.8434143 0 0 0 0 -1549066.0611831218 48766977.363525391 0 48766977.363525391 2752194611.0089111 0 0 0 0 -460308.35944247228 -917320.66151326289 0 -917320.66151326289 4897735.5928437561 0 0 0 0 62668357.581235863 -1054829570.6662598 0 -1054829570.6662598 5961000318.1135864 0 0 0 0 202661977.37974444 1070721299.7051239 0 1070721299.7051239 2758159222.5510712 0 0 0 0 -857083697.36569846 -129902094.66035843 0 -129902094.66035843 3413394518.6575317 0 0 0 0 -932175851.75331759 638872734.94525146 0 638872734.94525146 5975723153.9720325 0 0 0 0 561187143.73667753 -564229900.90717983 0 -564229900.90717983 -951903789.40167236 0 0 0 0 464362412.7593115 926470321.47011566 0 926470321.47011566 848296836.53924561 0 0 0 0 -226458.89967493276 -16944048.542922974 0 -16944048.542922974 -11677617.265304565 0 0 0 0 1672673523.3022621 -1242815531.5866928 0 -1242815531.5866928 -121303587.97979736 0 0 0 0 -1109788.7520934148 2592115.9627460986 0 2592115.9627460986 5526322.5607298762 0 0 0 0 -110154955.52306135 -89527335.784347534 0 -89527335.784347534 -59465484.817687988 0 0 0 0 -678257.42465192615 1646580.7477135286 0 1646580.7477135286 4686246.3194078282 0 0 0 0 -274413.88262266928 -1206277.1348492983 0 -1206277.1348492983 6655850.0671359897 0 0 0 0 -67107321.645477295 66277247.794082642 0 66277247.794082642 -52486522.867507935 0 0 0 0 762198666.10111916 -530703864.64295959 0 -530703864.64295959 165153800.30276203 0 0 0 0 13840339.460394338 264192747.36175728 0 264192747.36175728 236548446.47698975 0 0 0 0 303436.75728683919 -109519366.22998047 0 -109519366.22998047 -127887663.50448608 0 0 0 0 -196098317.85768315 115175418.63305664 0 115175418.63305664 542972589.21191406 0 0 0 0 -162098820.12674263 13876377.075057983 0 13876377.075057983 358497421.51370239 0 0 0 0 -71752835.188040972 166429098.07539368 0 166429098.07539368 71367693.777984619 0 0 0 0 -739962.93867773621 -248274074.68140179 0 -248274074.68140179 762063200.93511963 0 0 0 0 -229940840.69799066 -683129804.91174316 0 -683129804.91174316 355612630.93640137 0 0 0 0 -230701410.51940987 -38202187.486934662 0 -38202187.486934662 1238720768.3953247 0 0 0 0 -392247941.70731521 -1359799850.3347473 0 -1359799850.3347473 2436500440.0367432 0 0 0 0 281666906.62517321 -607891483.13171387 0 -607891483.13171387 897022067.31744385 0 0 0 0 -993575.22268326604 -303436.86123420298 0 -303436.86123420298 4228875.095015198 0 0 0 0 811673735.86433005 331610.27919006348 0 331610.27919006348 1870625144.4237671 0 0 0 0 660179621.11005068 -591218464.19085693 0 -591218464.19085693 896061912.05998421 0 0 0 0 30334.419820384595 -972903.0399466895 0 -972903.0399466895 2643363.3233337104 0 0 0 0 823632215.41959918 -733637928.51181793 0 -733637928.51181793 508550094.48165894 0 0 0 0 -713254.71227117651 -145659.85037770867 0 -145659.85037770867 2049519.4866416156 0 0 0 0 -348067562.52596289 375727441.62637711 0 375727441.62637711 670173995.7520752 0 0 0 0 299089724.52143717 -536373454.57336426 0 -536373454.57336426 158521795.23599243 0 0 0 0 1585221850.7680812 -1313475466.9053345 0 -1313475466.9053345 1676385382.5588379 0 0 0 0 1314586818.9074442 -30859837.747314453 0 -30859837.747314453 862291579.10263062 0 0 0 0 232761254.80684471 -158257134.63082886 0 -158257134.63082886 699152091.51114142 0 0 0 0 373718049.12770486 -624129187.84106445 0 -624129187.84106445 697952193.38713551 0 0 0 0 726601102.86542881 -262208121.98323059 0 -262208121.98323059 652475412.57147217 0 0 0 0 216851542.70724607 -364120815.72379303 0 -364120815.72379303 969510849.60491943 0 0 0 0 240900137.72665811 -309099658.68005371 0 -309099658.68005371 682608480.31403351 0 0 0 0 257767348.46218109 -697560009.420784 0 -697560009.420784 726603455.40258789 0 0 0 0 255947526.66503683 -439865869.47389221 0 -439865869.47389221 740063863.6907959 0 0 0 0 70911976.284414649 -548029648.52609253 0 -548029648.52609253 749003251.78197479 0 0 0 0 72773426.02738297 -578052238.93284607 0 -578052238.93284607 1055599925.3996582 0 0 0 0 158513712.18838799 -575212628.80845642 0 -575212628.80845642 1032655192.2451477 0 0 0 0 -46346783.850689955 -537462650.97534752 0 -537462650.97534752 1144844664.131012 0 0 0 0 -111921763.35375822 -306392598.16159058 0 -306392598.16159058 960562645.4637146 0 0 0 0 -267191864.24713337 -370693138.42466736 0 -370693138.42466736 951272509.68994141 0 0 0 0 -24701668.790397212 -374463411.4953537 0 -374463411.4953537 681814110.01387024 0 0 0 0 -75998856.813494593 -248424929.74565125 0 -248424929.74565125 975524000.04612732 0 0 0 0 137317588.5265179 -565774215.18273926 0 -565774215.18273926 1007014722.5844231 0 0 0 0 208993666.67080259 -414113951.89012146 0 -414113951.89012146 1262743422.3206482 0 0 0 0 2290712.6482662167 -263248788.29433441 0 -263248788.29433441 1181639910.0254974 0 0 0 0 159672567.42780852 -993598759.84332275 0 -993598759.84332275 2022749989.8529053 0 0 0 0 -377115.35782932653 -824094.54524828494 0 -824094.54524828494 3437017.0247100443 0 0 0 0 1013080978.4119923 -1573960271.9896545 0 -1573960271.9896545 1601104905.8665466 0 0 0 0 786838.91998305102 -344290208.73652649 0 -344290208.73652649 143573173.70243835 0 0 0 0 1019573988.3135754 -812412057.32467651 0 -812412057.32467651 942473731.16430664 0 0 0 0 141214027.75182635 -604512883.97329712 0 -604512883.97329712 1240442286.9863586 0 0 0 0 488959229.15787899 -937610592.34371948 0 -937610592.34371948 1376257074.2338257 0 0 0 0 2365117.9977307701 -14045592.731953474 0 -14045592.731953474 49298599.517915651 0 0 0 0 -337039799.74173212 -404916554.43004799 0 -404916554.43004799 608924747.81820679 0 0 0 0 -513968402.74754333 -120339120.87129211 0 -120339120.87129211 190936489.11541748 0 0 0 0 -92630063.888547897 -37444130.487014771 0 -37444130.487014771 88995417.540644646 0 0 0 0 4842523.3587099258 78860152.918623298 0 78860152.918623298 126837990.80130768 0 0 0 0 45422669.691675186 -143709568.81373978 0 -143709568.81373978 77819344.346388578 0 0 0 0 -142160661.74402428 17097797.232639313 0 17097797.232639313 170993473.15208435 0 0 0 0 -60819747.866449833 -22822493.322346687 0 -22822493.322346687 67005946.844055176 0 0 0 0 -345776678.07054138 -151879643.52761841 0 -151879643.52761841 69183076.079971313 0 0 0 0 295062380.23251343 -64440010.10546875 0 -64440010.10546875 -161361687.13409424 0 0 0 0 91000786.939186096 420289200.88751221 0 420289200.88751221 214850541.13434601 0 0 0 0 2800728.1576763075 798092.36829283834 0 798092.36829283834 3284966.5195645764 0 0 0 0 -259033400.80143785 -196678230.79549503 0 -196678230.79549503 15122189.008041382 0 0 0 0 -186841653.35255623 67429489.821772575 0 67429489.821772575 184301436.8608551 0 0 0 0 -134615337.28129959 -306119019.15261841 0 -306119019.15261841 -180148974.15707016 0 0 0 0 2782835.8367725145 -78943.769972074777 0 -78943.769972074777 -1083766.2968779802 0 0 0 0 276893566.16028976 -82181572.684646606 0 -82181572.684646606 25759300.205368042 0 0 0 0 -381868520.91506195 164338283.42863464 0 164338283.42863464 11275765.302246094 0 0 0 0 -24291856.126556396 131925957.11405945 0 131925957.11405945 124299639.89257812 0 0 0 0 -312397287.62211609 28334163.348236084 0 28334163.348236084 275041545.81689453 0 0 0 0 -164657251.17182922 218574194.12371826 0 218574194.12371826 447146575.94059753 0 0 0 0 -82395713.689002991 -130518479.50675964 0 -130518479.50675964 365876581.94474411 0 0 0 0 -84554543.186191559 -74508476.426933289 0 -74508476.426933289 -98844621.042114258 0 0 0 0 -106198420.73880005 -26059686.462463379 0 -26059686.462463379 -183013733.76443481 0 0 0 0 -563738128.95971298 68063552.151885986 0 68063552.151885986 454572767.09856415 0 0 0 0 -617522888.50670242 -402394352.17637634 0 -402394352.17637634 208696589.05415726 0 0 0 0 -261503150.52768373 72122994.749564171 0 72122994.749564171 -517945813.16601562 0 0 0 0 6493034.5593900681 -7468382.6189918481 0 -7468382.6189918481 -6643882.9740851223 0 0 0 0 1368196.2954676729 -7189049.7196409367 0 -7189049.7196409367 40676591.443869621 0 0 0 0 268614837.68033808 584758268.78516769 0 584758268.78516769 509460751.59983826 0 0 0 0 -174552378.47587585 -39884440.118717194 0 -39884440.118717194 631292967.33190918 0 0 0 0 -134554142.70468712 52300991.750789642 0 52300991.750789642 -166382711.80259705 0 0 0 0 -52149226.193958282 -206744329.68663025 0 -206744329.68663025 96750870.324081421 0 0 0 0 -705977321.04377747 -416519009.14465332 0 -416519009.14465332 -27681046.105037689 0 0 0 0 13772409.300381778 -14565998.006026778 0 -14565998.006026778 19666913.186849535 0 0 0 0 7336464.7174301147 -3578868.2073478699 0 -3578868.2073478699 17467248.368461609 0 0 0 0 -3806973.7825255394 35174347.490242004 0 35174347.490242004 65504303.694549561 0 0 0 0 9909338.1298332214 5205729.9699211121 0 5205729.9699211121 32273200.781028748 0 0 0 0 1569590.8888154901 3742463.3782323375 0 3742463.3782323375 1540856.410903044 0 0 0 0 -28780478.843967915 14488358.040356636 0 14488358.040356636 68898354.529571533 0 0 0 0 -39927052.946105957 -8810939.7175636292 0 -8810939.7175636292 58499988.150314331 0 0 0 0 6594058.4469547272 12870986.361064911 0 12870986.361064911 48442444.283636093 0 0 0 0 -34251426.868096352 182819868.85123062 0 182819868.85123062 129967535.08033752 0 0 0 0 -29086546.908075333 87120260.031639099 0 87120260.031639099 16553329.652671814 0 0 0 0 -282566479.36244965 -162414522.65927124 0 -162414522.65927124 405428918.7223053 0 0 0 0 -510150424.77724433 428709140.98757362 0 428709140.98757362 -355881440.55700397 0 0 0 0 45654852.657032013 -49983435.985391617 0 -49983435.985391617 -300425813.2930851 0 0 0 0 573518913.97019053 -1110388963.5835195 0 -1110388963.5835195 410997907.24876595 0 0 0 0 585913319.75496864 -906073953.57408524 0 -906073953.57408524 1006226038.8485565 0 0 0 0 65434.891245697654 798944.88308118423 0 798944.88308118423 3933523.7850584975 0 0 0 0 -160993921.98033035 192535261.9566747 0 192535261.9566747 -196421417.43266678 0 0 0 0 -96707235.916904688 67669322.230864763 0 67669322.230864763 -88154531.116544724 0 0 0 0 159587948.77858782 251233551.08848333 0 251233551.08848333 -565558322.69207907 0 0 0 0 211365760.13357782 -57601267.738383293 0 -57601267.738383293 1215788905.0084245 0 0 0 0 576436461.76913178 243718971.54698169 0 243718971.54698169 -464452906.70469379 0 0 0 0 28461112.579315186 -422694751.15124512 0 -422694751.15124512 724739383.58355713 0 0 0 0 -237507988.30084348 -299903325.41457748 0 -299903325.41457748 857651835.13195801 0 0 0 0 887257.0217151395 -3665403.7067727121 0 -3665403.7067727121 203565.77891347557 0 0 0 0 -8939760.8249123022 10323675.706762698 0 10323675.706762698 5194288.3546499945 0 0 0 0 78090022.633347511 71463531.875736237 0 71463531.875736237 -71455221.085418701 0 0 0 0 -1092392.9459815086 -6968400.5360808698 0 -6968400.5360808698 42144401.021220937 0 0 0 0 -1174740885.0146132 -237580637.03941131 0 -237580637.03941131 765941991.91090488 0 0 0 0 -406868517.11328125 -1213986861.6454008 0 -1213986861.6454008 1680736209.5389748 0 0 0 0 -183875954.89278126 153701252.03987885 0 153701252.03987885 -588590012.34911346 0 0 0 0 120884066.3876332 264239048.38575459 0 264239048.38575459 368499809.36623955 0 0 0 0 2534154.7300702413 -1673165.4747626199 0 -1673165.4747626199 886356.14864046499 0 0 0 0 537684813.20121503 -831816929.00786114 0 -831816929.00786114 190710259.33072186 0 0 0 0 165484002.74875385 70468892.890956402 0 70468892.890956402 892713850.06901741 0 0 0 0 -69455388.453065872 232630373.56739092 0 232630373.56739092 -362874491.18043852 0 0 0 0 269220710.75249612 -137682608.0393635 0 -137682608.0393635 -159457290.93080854 0 0 0 0 -464017164.84988546 -274306120.53690457 0 -274306120.53690457 -63911126.468501091 0 0 0 0 5127052.779907506 -3799209.0717984997 0 -3799209.0717984997 3846942.2856936674 0 0 0 0 -94900969.742235661 -143283259.71456277 0 -143283259.71456277 -157019790.12287283 0 0 0 0 96963849.132442534 148612080.73408544 0 148612080.73408544 -134701418.73080063 0 0 0 0 382158085.00437796 -39829332.465676308 0 -39829332.465676308 -226937549.21320724 0 0 0 0 29706317.113251686 -108992600.66149521 0 -108992600.66149521 29481755.53875351 0 0 0 0 6287400.5524539948 -143662494.13445759 0 -143662494.13445759 111327602.63716316 0 0 0 0 269285822.35238373 -175011472.27237225 0 -175011472.27237225 -165895928.668643 0 0 0 0 -85379917.954457283 -13770255.227890015 0 -13770255.227890015 -56810672.966310024 0 0 0 0 9127194.9328771234 31924281.273395538 0 31924281.273395538 110571124.09599304 0 0 0 0 -73512363.440593481 -1245513.2512922287 0 -1245513.2512922287 39676858.145067215 0 0 0 0 -213875537.12187862 -702183817.2538538 0 -702183817.2538538 -1404082348.3292122 0 0 0 0 -1445265.1062398592 190403.02790942584 0 190403.02790942584 2151457.6135931485 0 0 0 0 246562676.92107499 -16793022.451494694 0 -16793022.451494694 -248555868.00240135 0 0 0 0 273583306.21445578 8496051.3989062309 0 8496051.3989062309 -572708191.46859932 0 0 0 0 330163572.75817895 -145959849.38471127 0 -145959849.38471127 -405385101.84817219 0 0 0 0 219430944.8893466 -256245408.24849701 0 -256245408.24849701 -557076658.18618214 0 0 0 0 83724007.145426035 -308924634.81843376 0 -308924634.81843376 -348974474.61117935 0 0 0 0 272302411.88370454 -122822765.09427905 0 -122822765.09427905 -326143936.65522957 0 0 0 0 -56325231.578944683 -207143248.40706635 0 -207143248.40706635 -100465430.86854553 0 0 0 0 96052020.844319135 -226652522.34256494 0 -226652522.34256494 -217360135.61623764 0 0 0 0 268157746.16752517 -121421697.30315399 0 -121421697.30315399 -153894583.01733208 0 0 0 0 58443960.40143013 -71948104.340378761 0 -71948104.340378761 18522337.284263611 0 0 0 0 -2379686.1665148498 6062537.456226551 0 6062537.456226551 18493089.103942737 0 0 0 0 360035445.16275227 188432951.02735519 0 188432951.02735519 -38540509.014133453 0 0 0 0 -10102713.308995247 411351496.67359924 0 411351496.67359924 -12629730.186569214 0 0 0 0 -184021368.80403471 -181489763.83606911 0 -181489763.83606911 269145252.43109131 0 0 0 0 -649102029.44389534 683320018.56824398 0 683320018.56824398 -27381190.673431396 0 0 0 0 1079179767.9087749 444939360.94215012 0 444939360.94215012 -38731921.465551376 0 0 0 0 -83003743.472769976 226753663.99612117 0 226753663.99612117 146924949.11863708 0 0 0 0 871705530.19345987 -316414525.78844452 0 -316414525.78844452 192087098.47251892 0 0 0 0 -397686.96945235092 1191907.4315153672 0 1191907.4315153672 5688243.8407826591 0 0 0 0 -166931771.50782633 33695826.923758984 0 33695826.923758984 575854437.94590759 0 0 0 0 455592610.24351025 -2415925.3426399231 0 -2415925.3426399231 22833863.73304975 0 0 0 0 347567300.56685424 -392958639.56832981 0 -392958639.56832981 283103667.47766113 0 0 0 0 211618383.67726988 1150854851.1391315 0 1150854851.1391315 -861468997.54022884 0 0 0 0 77864851.279452562 -521764270.12186527 0 -521764270.12186527 1597115059.8671875 0 0 0 0 -848389273.39268064 989536761.36314392 0 989536761.36314392 380120195.81700897 0 0 0 0 850666928.59504032 1317887585.9984093 0 1317887585.9984093 432840583.69408226 0 0 0 0 711868559.33426702 -1073710635.483593 0 -1073710635.483593 -701290249.48207283 0 0 0 0 2132335078.8924732 -869324173.33415365 0 -869324173.33415365 -676613815.84992981 0 0 0 0 -181665519.03367329 -728118685.70298386 0 -728118685.70298386 1605888593.1708107 0 0 0 0 -251740296.14996529 -373586829.85325623 0 -373586829.85325623 75016986.617797852 0 0 0 0 -520370975.35062027 -263256626.35502625 0 -263256626.35502625 35647809.506324768 0 0 0 0 -624823412.29482269 -316523965.97250366 0 -316523965.97250366 862450217.4396286 0 0 0 0 -51555464.637000084 519604154.3685112 0 519604154.3685112 1125146027.1524162 0 0 0 0 10930803.300813675 208520478.98941422 0 208520478.98941422 180613475.39318848 0 0 0 0 -181157789.75893497 78834230.558612823 0 78834230.558612823 225250194.9244051 0 0 0 0 -430044954.76255131 -158592097.67190933 0 -158592097.67190933 23270598.952733994 0 0 0 0 -87928404.235245705 65001625.145783424 0 65001625.145783424 164829919.21606827 0 0 0 0 -179632975.47963905 205327384.84331942 0 205327384.84331942 223701996.76357269 0 0 0 0 103554483.10033417 -85434580.455211639 0 -85434580.455211639 159195746.36663246 0 0 0 0 327289.45869349968 117851.39837005455 0 117851.39837005455 3783089.2731556194 0 0 0 0 199366337.0196228 -28208100.187585831 0 -28208100.187585831 64524833.248550415 0 0 0 0 100896868.10179627 19268873.105470058 0 19268873.105470058 44438825.091011047 0 0 0 0 100902781.46658134 -44615341.57478714 0 -44615341.57478714 76317459.995876312 0 0 0 0 1441090.3723003904 -1531011.9153795503 0 -1531011.9153795503 11539391.486937566 0 0 0 0 16901108.575908661 -30398804.500123978 0 -30398804.500123978 124257321.98532677 0 0 0 0 15838912.855734229 -22641846.251384616 0 -22641846.251384616 119281949.44284058 0 0 0 0 -3341663.813791275 3163946.7484893799 0 3163946.7484893799 105929221.98478317 0 0 0 0 12297749.415956497 -16417310.62443161 0 -16417310.62443161 92670342.24679184 0 0 0 0 10820742.292402267 -9637852.5161190033 0 -9637852.5161190033 62834080.871665955 0 0 0 0 17184534.540804148 853066.70448660851 0 853066.70448660851 40452410.187568665 0 0 0 0 20572231.835292935 -14207964.840040684 0 -14207964.840040684 34047405.086151123 0 0 0 0 47240267.579157829 -12879666.075206757 0 -12879666.075206757 46719656.555358887 0 0 0 0 45337512.115064144 -10215199.911904812 0 -10215199.911904812 56263150.130569458 0 0 0 0 76437014.767809868 -550862.20409584045 0 -550862.20409584045 27398472.972675323 0 0 0 0 52063892.859624863 17542084.327087402 0 17542084.327087402 47406856.189476013 0 0 0 0 506568169.17656791 -71153625.083626747 0 -71153625.083626747 -1391126933.0978088 0 0 0 0 8709568.2027041912 -33629768.837893486 0 -33629768.837893486 128906959.61169243 0 0 0 0 469523.05699878256 -5660700.5713769784 0 -5660700.5713769784 22910118.453181773 0 0 0 0 -5272602.4680252075 -323493.2547454834 0 -323493.2547454834 9700740.1308135986 0 0 0 0 -46371.46782423649 -2257634.4769186769 0 -2257634.4769186769 31315496.930937394 0 0 0 0 -4231926.87870719 2223987.2497340329 0 2223987.2497340329 14309652.894286834 0 0 0 0 -4273144.7213821411 2046212.1870498657 0 2046212.1870498657 8809396.7356567383 0 0 0 0 8908.5306751169264 -10051746.488955131 0 -10051746.488955131 33001786.426347628 0 0 0 0 -3314662.4726105575 -6151008.0461812504 0 -6151008.0461812504 29594376.132475734 0 0 0 0 -412353751.05642253 -459083757.0591743 0 -459083757.0591743 -364538673.21672058 0 0 0 0 -412135982.63736248 -466552175.76852036 0 -466552175.76852036 -147061455.29000092 0 0 0 0 -12808912.25230217 -22066436.746017456 0 -22066436.746017456 138887534.50674248 0 0 0 0 8885395.7843446732 -26720168.335609436 0 -26720168.335609436 136700981.378685 0 0 0 0 -15162312.816420555 -2425957.1198577881 0 -2425957.1198577881 53716398.339748383 0 0 0 0 165758.015262075 -1358391.6520133829 0 -1358391.6520133829 8741622.8800132945 0 0 0 0 -6828838.4672670364 12524525.976362228 0 12524525.976362228 86584910.112922668 0 0 0 0 -7630021.6697387695 5878195.9781227112 0 5878195.9781227112 62734345.60231781 0 0 0 0 -4708976.9139070511 5101823.264339447 0 5101823.264339447 50049507.566745758 0 0 0 0 -10858673.882987976 -9062276.0128593445 0 -9062276.0128593445 60098846.720971107 0 0 0 0 7260354.1160383224 6069262.896987915 0 6069262.896987915 7595841.8457288742 0 0 0 0 -23664782.285954475 1510856.5361394882 0 1510856.5361394882 51406724.574325562 0 0 0 0 -21107054.083930969 -6401425.3043766022 0 -6401425.3043766022 57164474.511543274 0 0 0 0 -3472047.4498017244 3198706.8151780348 0 3198706.8151780348 18639939.737947915 0 0 0 0 -42186759.992103577 63016467.702787399 0 63016467.702787399 94394894.159064293 0 0 0 0 -11032005.166432381 -6199403.6043930054 0 -6199403.6043930054 21378055.603292465 0 0 0 0 -6028503.9768066108 299306.26427553035 0 299306.26427553035 25864657.411520153 0 0 0 0 -10713663.278465271 -2881383.8718204498 0 -2881383.8718204498 33053749.126068115 0 0 0 0 -4988838.9852056503 -347520.38847541809 0 -347520.38847541809 22954118.973724365 0 0 0 0 -1282560.7095528627 -6996342.4159660414 0 -6996342.4159660414 34173373.56736362 0 0 0 0 1416351.4189910889 -7746275.6915893555 0 -7746275.6915893555 35430609.24067688 0 0 0 0 -1355131.3772525787 -3332380.2399978638 0 -3332380.2399978638 25217435.03720665 0 0 0 0 -4189181.3917427557 1553907.7357410165 0 1553907.7357410165 15678802.819286816 0 0 0 0 -9052211.6519079208 -319509.96754455566 0 -319509.96754455566 11895366.306213379 0 0 0 0 -9114440.5657119751 48160.497863769531 0 48160.497863769531 9820237.3840026855 0 0 0 0 -7994967.348737848 8472112.575293418 0 8472112.575293418 19545143.508211479 0 0 0 0 -6267508.0596224098 -192895.81184903998 0 -192895.81184903998 12347584.198834464 0 0 0 0 -1475822.7537588105 -6873582.8225940205 0 -6873582.8225940205 37662613.981891833 0 0 0 0 97057.502208421007 -7173758.1162892096 0 -7173758.1162892096 36921245.478338748 0 0 0 0 -482313.01998901367 -1157406.2594604492 0 -1157406.2594604492 13330930.239833832 0 0 0 0 -710729.57935333252 -1278800.9042129517 0 -1278800.9042129517 13328239.117950439 0 0 0 0 -1121501.8075800939 -513849.89312215336 0 -513849.89312215336 6805911.32643985 0 0 0 0 -4653935.464114638 -1400840.0934858173 0 -1400840.0934858173 11445263.878699832 0 0 0 0 -14987052.507732868 6161155.6819667816 0 6161155.6819667816 9604698.5198669434 0 0 0 0 -61780152.135246277 48899684.461181641 0 48899684.461181641 62923705.878936768 0 0 0 0 -9744028.6160095558 4168266.8426393382 0 4168266.8426393382 29092258.421198294 0 0 0 0 -14520239.925209045 2607553.1294403076 0 2607553.1294403076 3862705.8941726685 0 0 0 0 -70620073.344535828 17358389.380340576 0 17358389.380340576 62700643.767242432 0 0 0 0 -1473535.9752113856 -7858513.2766974755 0 -7858513.2766974755 33682249.457313187 0 0 0 0 904633.38287353516 -7170379.9140625 0 -7170379.9140625 35572779.706073761 0 0 0 0 -10711595.680091858 -1167313.2010955811 0 -1167313.2010955811 18516790.579154968 0 0 0 0 -10540379.320941925 -1160112.7427635193 0 -1160112.7427635193 18433678.419654846 0 0 0 0 -8737879.0181884766 2495380.6249160767 0 2495380.6249160767 9202013.1103210449 0 0 0 0 -3414823.4928615894 736249.38567830063 0 736249.38567830063 12536122.110663917 0 0 0 0 -3466656.1193877086 -5646547.2450675257 0 -5646547.2450675257 34041844.44124788 0 0 0 0 -10409102.219449816 9707944.8798113577 0 9707944.8798113577 23725379.389496289 0 0 0 0 -9272249.1185571998 -3512171.266481515 0 -3512171.266481515 38608589.428156644 0 0 0 0 -523089290.13559198 -232844502.44847488 0 -232844502.44847488 -173399569.50746155 0 0 0 0 -693407976.87146378 -402428714.30776882 0 -402428714.30776882 215493810.51210403 0 0 0 0 -657054243.81387711 -133600667.0635643 0 -133600667.0635643 -139860993.0464592 0 0 0 0 -12884810.665537581 19360507.745589122 0 19360507.745589122 18052558.365090393 0 0 0 0 -38798757.036148071 1238627.7061767578 0 1238627.7061767578 14357060.329498291 0 0 0 0 -3790115.8641461972 -13962148.596870659 0 -13962148.596870659 16750987.872078836 0 0 0 0 -40453498.271697998 1155673.180847168 0 1155673.180847168 15106868.944244385 0 0 0 0 -2918335.3417347893 -17678979.411171697 0 -17678979.411171697 45727748.420293301 0 0 0 0 -32589599.790313721 -4716259.1493148804 0 -4716259.1493148804 11750805.845367432 0 0 0 0 -20390743.511021495 15457644.847043686 0 15457644.847043686 40303454.420987077 0 0 0 0 -12064244.819872364 -4418076.5473716073 0 -4418076.5473716073 40001880.972072706 0 0 0 0 -21129478.092277527 1862446.2875671387 0 1862446.2875671387 7991990.4053344727 0 0 0 0 -66573557.722412109 -19337198.717514038 0 -19337198.717514038 48345563.908843994 0 0 0 0 -77004780.928293228 8811365.1339454651 0 8811365.1339454651 85669700.688415527 0 0 0 0 -87802436.582229614 -7407962.4798736572 0 -7407962.4798736572 72797026.629501343 0 0 0 0 -125259403.88035583 -26408023.014320374 0 -26408023.014320374 93577955.546844482 0 0 0 0 -91832242.831787109 -52338313.514785767 0 -52338313.514785767 40016166.864452362 0 0 0 0 7307421.0039482117 79859550.102138519 0 79859550.102138519 48707354.971893311 0 0 0 0 -12637550.67428527 5258476.0433495641 0 5258476.0433495641 26391904.258079551 0 0 0 0 -144912902.3443985 -66175219.504852295 0 -66175219.504852295 67836455.625717163 0 0 0 0 -228529905.27339554 59553077.974597931 0 59553077.974597931 206365073.20344543 0 0 0 0 2287714.9776842012 -19771829.281965207 0 -19771829.281965207 57835778.702634968 0 0 0 0 -64466338.988718033 -86319363.223196983 0 -86319363.223196983 64602100.227272034 0 0 0 0 -1929698.303889421 -6212885.8000732753 0 -6212885.8000732753 6966481.6965889297 0 0 0 0 -1010878029.628108 295742090.07347298 0 295742090.07347298 392311215.02452087 0 0 0 0 -690721042.35773849 -57417315.85219574 0 -57417315.85219574 136397585.77450085 0 0 0 0 -9342825.6086933278 -6498283.8228756264 0 -6498283.8228756264 35801419.79939393 0 0 0 0 -654397.86350381188 -19225733.298602484 0 -19225733.298602484 -9908132.1081090197 0 0 0 0 -40725083.89884758 5071654.1060142517 0 5071654.1060142517 7221099.6893615723 0 0 0 0 -61257841.140674591 -11801873.45350647 0 -11801873.45350647 73323106.840377808 0 0 0 0 66695588.654754639 32585119.612541199 0 32585119.612541199 62505965.914138794 0 0 0 0 -42599204.313827515 86907006.497606277 0 86907006.497606277 290305822.97210693 0 0 0 0 -55001380.610305786 13689110.716064453 0 13689110.716064453 7063531.6126289368 0 0 0 0 -136133724.07813263 24684890.130226135 0 24684890.130226135 57766910.975646973 0 0 0 0 -104800356.50090027 -28409223.227630615 0 -28409223.227630615 78353926.561645508 0 0 0 0 -175560421.10848618 -18462275.079689026 0 -18462275.079689026 87300966.884521484 0 0 0 0 -61410486.821159363 4062938.7310791016 0 4062938.7310791016 61912984.871341705 0 0 0 0 -70686774.224868774 31520153.799285889 0 31520153.799285889 119380885.54842567 0 0 0 0 -119669675.80666351 -6206877.5071563721 0 -6206877.5071563721 120544624.62112427 0 0 0 0 -102084379.44281006 9407476.247253418 0 9407476.247253418 113214795.06634521 0 0 0 0 -63791451.568130493 29955197.31552124 0 29955197.31552124 99494317.382919312 0 0 0 0 -47446816.447911263 72068456.715679169 0 72068456.715679169 171079122.58673096 0 0 0 0 -53794931.124740601 25739233.795501709 0 25739233.795501709 112698999.32559204 0 0 0 0 -64790387.654724121 41858906.002929688 0 41858906.002929688 135322295.96554565 0 0 0 0 62710799.04927063 90559460.360870361 0 90559460.360870361 111842874.37689209 0 0 0 0 1136385.9780275915 3212057.0501471907 0 3212057.0501471907 2390964.3722086623 0 0 0 0 142465098.04763031 118145905.39286804 0 118145905.39286804 104174388.10675049 0 0 0 0 -359020588.80161285 -298799787.56920624 0 -298799787.56920624 -92028671.087453842 0 0 0 0 107566443.56567192 219230489.92845535 0 219230489.92845535 164823628.39279175 0 0 0 0 87526390.908180237 48766318.01385498 0 48766318.01385498 83762549.079406738 0 0 0 0 -71943610.592233658 24379522.970685959 0 24379522.970685959 166620790.48120117 0 0 0 0 21614012.50100708 113874045.15837097 0 113874045.15837097 185353430.95489502 0 0 0 0 48055921.12978363 104778206.7293396 0 104778206.7293396 117370068.35009766 0 0 0 0 138186428.42372322 607662273.41054535 0 607662273.41054535 -252520401.45880127 0 0 0 0 -284918814.38394165 -96822172.020050049 0 -96822172.020050049 326602734.75372314 0 0 0 0 45671051.055847168 39460994.927185059 0 39460994.927185059 91321194.215270996 0 0 0 0 -465607042.19645691 17622142.387702942 0 17622142.387702942 1191423006.8568115 0 0 0 0 -119211754.39342499 -66213975.97996521 0 -66213975.97996521 224008432.37579346 0 0 0 0 -178701811.52256775 -77098320.382904053 0 -77098320.382904053 330114264.00637817 0 0 0 0 -143558289.44431305 -9985045.7688140869 0 -9985045.7688140869 148558961.69189453 0 0 0 0 -201052074.91685486 -21804208.139846802 0 -21804208.139846802 285091047.51751709 0 0 0 0 -128440957.82544708 -48669993.950973511 0 -48669993.950973511 225747236.4039917 0 0 0 0 -182240549.5701828 -118734371.4888916 0 -118734371.4888916 196463711.42633057 0 0 0 0 -12761120.557214694 10790058.904049195 0 10790058.904049195 20026563.224396393 0 0 0 0 873382.17498779297 70448068.808898926 0 70448068.808898926 68368892.374786377 0 0 0 0 -69642447.852462292 34643234.902009964 0 34643234.902009964 108259087.05578613 0 0 0 0 -40744823.34324646 43650566.377685547 0 43650566.377685547 72561086.129577637 0 0 0 0 7643274.1077575684 50361686.63394165 0 50361686.63394165 89463841.952140808 0 0 0 0 -11512189.236602783 70528824.349212646 0 70528824.349212646 84224662.74786377 0 0 0 0 -11144195.153701782 65735787.433135986 0 65735787.433135986 107398797.20187378 0 0 0 0 -39797274.617033958 52181549.46849823 0 52181549.46849823 101304123.46704102 0 0 0 0 -9435149.5523529053 72610092.624725342 0 72610092.624725342 113636407.66122437 0 0 0 0 -58963172.00245285 38160901.975147247 0 38160901.975147247 61771124.531616211 0 0 0 0 3100479.7645339966 72412520.901504517 0 72412520.901504517 40289415.081237793 0 0 0 0 -36193884.562423706 52160156.270721436 0 52160156.270721436 70677395.938140869 0 0 0 0 -41434542.809402466 58232191.314819336 0 58232191.314819336 78749959.829284668 0 0 0 0 -4311984.9080810547 42274361.56010437 0 42274361.56010437 -8442597.9846801758 0 0 0 0 1267641.0898666382 -4926378.0937652588 0 -4926378.0937652588 15240133.924102783 0 0 0 0 -7556458.5992573593 1969540.5549291447 0 1969540.5549291447 38223477.189454049 0 0 0 0 -1517387.4053993644 -8489878.3695132025 0 -8489878.3695132025 33677644.33553426 0 0 0 0 -7016659.3480072021 -902862.09005737305 0 -902862.09005737305 11989203.567108154 0 0 0 0 41424692.051193237 36405718.33770752 0 36405718.33770752 -136966010.57849121 0 0 0 0 71691836.831565857 -1895968.4952392578 0 -1895968.4952392578 -94606526.639282227 0 0 0 0 -37865299.201751709 117555547.71887207 0 117555547.71887207 -172140646.8613739 0 0 0 0 136318.40812660754 -771824.64250186086 0 -771824.64250186086 2770268.2304687761 0 0 0 0 46999497.632354736 1931831.5414123535 0 1931831.5414123535 -14749433.39453125 0 0 0 0 -7265428.7214252446 5590348.6915545166 0 5590348.6915545166 40281563.785823122 0 0 0 0 -11092313.9012146 411280.2229309082 0 411280.2229309082 14779837.50793457 0 0 0 0 -12303464.027425766 5150141.2817420959 0 5150141.2817420959 13396573.823455811 0 0 0 0 -46662636.409362793 75371063.096923828 0 75371063.096923828 47281412.942077637 0 0 0 0 -9113182.139319187 6791619.838434957 0 6791619.838434957 20722038.805219688 0 0 0 0 -3073501.5769343292 -3093938.3466195632 0 -3093938.3466195632 9424150.8317264915 0 0 0 0 -128732303.28076172 -26297541.11730957 0 -26297541.11730957 104259049.69482422 0 0 0 0 -5876065.5196865201 7563698.4918169081 0 7563698.4918169081 8248915.9746514559 0 0 0 0 -70331747.308345795 56096883.562011719 0 56096883.562011719 -26379050.97845459 0 0 0 0 -81315736.140548706 43503992.33001709 0 43503992.33001709 32692785.667358398 0 0 0 0 -98991366.472320557 21820547.53918457 0 21820547.53918457 43685637.628173828 0 0 0 0 -155859292.32615662 122590921.09295654 0 122590921.09295654 79983847.901794434 0 0 0 0 -149134169.41732216 33458214.920310974 0 33458214.920310974 214725698.77697754 0 0 0 0 -136115197.67672729 44538203.056396484 0 44538203.056396484 80242142.869750977 0 0 0 0 -113724576.82851076 -6998118.9918899536 0 -6998118.9918899536 32512183.053833008 0 0 0 0 -108157741.19018555 -4851768.4018554688 0 -4851768.4018554688 -4808722.6838378906 0 0 0 0 -136607959.87014771 14238997.694091797 0 14238997.694091797 144636678.03569031 0 0 0 0 -113707876.16948748 -7941488.1101865768 0 -7941488.1101865768 78867145.945800781 0 0 0 0 -98166291.909179688 18411842.464904785 0 18411842.464904785 39710357.120849609 0 0 0 0 -97702594.862548828 4054492.7214355469 0 4054492.7214355469 18768476.59777832 0 0 0 0 -96792127.702148438 1587859.3568115234 0 1587859.3568115234 -6685514.4848632812 0 0 0 0 -81675286.361785889 18937929.254333496 0 18937929.254333496 -27315134.202697754 0 0 0 0 -80907416.985076904 26353550.770507812 0 26353550.770507812 -8854792.6934814453 0 0 0 0 -84140458.452011108 33577659.669494629 0 33577659.669494629 2085776.7453613281 0 0 0 0 -23546588.687034607 -2854326.6206626892 0 -2854326.6206626892 7438959.0615234375 0 0 0 0 -74833457.034423828 35660902.256896973 0 35660902.256896973 -12194334.096710205 0 0 0 0 -77543697.676147461 29473498.913513184 0 29473498.913513184 -18347704.282165527 0 0 0 0 -5419248.588525746 4767124.118664667 0 4767124.118664667 27501986.862828262 0 0 0 0 -84231448.817123413 12520931.083892822 0 12520931.083892822 -49112985.116516113 0 0 0 0 -697983.07110431045 222991.7774643898 0 222991.7774643898 4964882.5060108826 0 0 0 0 142379056.77911377 -180134317.31497192 0 -180134317.31497192 -138676785.14990234 0 0 0 0 -23985450.727401733 215464458.35812378 0 215464458.35812378 -138160155.248703 0 0 0 0 -67624544.318035126 35539672.908905029 0 35539672.908905029 -26946615.664855957 0 0 0 0 -2373074.6820459366 321436001.92572784 0 321436001.92572784 212782687.14146423 0 0 0 0 294071.29591336939 267006.83934662491 0 267006.83934662491 624603.84632356465 0 0 0 0 -386810827.17299271 -263451720.15853882 0 -263451720.15853882 -87616028.880270004 0 0 0 0 285427438.30359125 305244733.41150665 0 305244733.41150665 -223810531.69714355 0 0 0 0 -152058647.32722008 217526447.35770035 0 217526447.35770035 419570760.72525024 0 0 0 0 -359683604.54691315 18927178.143341064 0 18927178.143341064 444541327.27482605 0 0 0 0 -302144983.98806858 70867620.246425629 0 70867620.246425629 473518715.36709595 0 0 0 0 -147587021.8695507 -23066921.454216003 0 -23066921.454216003 130312938.50782776 0 0 0 0 -229672837.28951073 42318510.262069702 0 42318510.262069702 199835788.12656593 0 0 0 0 -236136978.17185879 107170976.69373322 0 107170976.69373322 212935202.7414093 0 0 0 0 -408902201.78213322 35964343.501551151 0 35964343.501551151 267756013.84066772 0 0 0 0 -26357752.765869141 42647363.370315552 0 42647363.370315552 142630251.58618164 0 0 0 0 -14700166.717084885 105883733.75976562 0 105883733.75976562 122146062.98294067 0 0 0 0 -8181111.2616322041 158967434.43569946 0 158967434.43569946 151288385.39375305 0 0 0 0 -71987912.029172897 7237841.8534469604 0 7237841.8534469604 378904329.05513763 0 0 0 0 -104523821.31546736 113508366.51925468 0 113508366.51925468 192966148.25320435 0 0 0 0 63912522.827120304 32641491.223205566 0 32641491.223205566 295884476.59994507 0 0 0 0 67532471.701091766 -248721712.54040527 0 -248721712.54040527 450085141.58867264 0 0 0 0 210698967.76616335 -220310804.01143074 0 -220310804.01143074 377773174.67500305 0 0 0 0 78321769.03678894 -100957716.64359283 0 -100957716.64359283 81984720.413040161 0 0 0 0 -319494198.56753588 -35587236.772705078 0 -35587236.772705078 253573476.22740173 0 0 0 0 -638664244.61238098 -443261224.66106415 0 -443261224.66106415 8814159.5109786987 0 0 0 0 1911761.1100500058 574378.71933984011 0 574378.71933984011 -931636.284012869 0 0 0 0 70480085.565045476 296878875.94687957 0 296878875.94687957 412472921.47940063 0 0 0 0 -366355223.2935406 28573782.033193827 0 28573782.033193827 118385248.69035339 0 0 0 0 -233685515.04790878 -96172563.67805481 0 -96172563.67805481 -103716874.2754364 0 0 0 0 -282247377.48501968 -31484069.789825439 0 -31484069.789825439 289676735.53713989 0 0 0 0 456503898.23313904 -260371758.66090775 0 -260371758.66090775 530422794.0713501 0 0 0 0 640703552.71913242 -528558302.94134521 0 -528558302.94134521 451171000.00332642 0 0 0 0 316953109.14814949 -419691191.62211609 0 -419691191.62211609 458721434.86657715 0 0 0 0 323876881.80398941 -241403198.61618042 0 -241403198.61618042 275374107.11062622 0 0 0 0 297477977.10684681 -354405499.64658356 0 -354405499.64658356 479206751.62507629 0 0 0 0 412590071.93311381 -265075820.86645508 0 -265075820.86645508 81342136.876739502 0 0 0 0 284088162.91513872 -400474885.99131775 0 -400474885.99131775 714730208.91040039 0 0 0 0 365619250.01186877 -184263698.36194229 0 -184263698.36194229 770636991.57614136 0 0 0 0 211139478.28033304 -369039427.16492844 0 -369039427.16492844 658979183.84976196 0 0 0 0 -33519001.682858706 249262610.18774414 0 249262610.18774414 -202750203.64788437 0 0 0 0 -2173487.7306941669 -57332.363882102072 0 -57332.363882102072 2729545.6795565784 0 0 0 0 -10228419.432495832 24879010.701072693 0 24879010.701072693 -81579579.708953857 0 0 0 0 -15019756.549589634 351514758.50954437 0 351514758.50954437 121934164.6880722 0 0 0 0 -44468389.70538643 74808534.072788239 0 74808534.072788239 579947617.56584167 0 0 0 0 248147628.54756445 -88084823.337818146 0 -88084823.337818146 549828148.73287964 0 0 0 0 175988818.04495519 -174459888.98994827 0 -174459888.98994827 460958893.63365173 0 0 0 0 320592657.17047501 -453440037.84091187 0 -453440037.84091187 653923856.13866234 0 0 0 0 349211296.0102886 -386520672.252285 0 -386520672.252285 778672933.08482361 0 0 0 0 317222342.88457692 -235587833.26111603 0 -235587833.26111603 814490873.82206726 0 0 0 0 356707738.70642328 -180460298.06893158 0 -180460298.06893158 890279939.5877533 0 0 0 0 617736086.93683147 -313355534.10925293 0 -313355534.10925293 735370630.00521851 0 0 0 0 424619131.17390728 -493898292.19249725 0 -493898292.19249725 859425290.12911129 0 0 0 0 583296365.14704132 -360864128.58058167 0 -360864128.58058167 1004059673.4024265 0 0 0 0 695003060.7945838 -169592777.18916702 0 -169592777.18916702 999971898.67411804 0 0 0 0 387951994.1906929 -1243255260.3252106 0 -1243255260.3252106 1155585078.3845749 0 0 0 0 241113961.19291544 -985961526.89366913 0 -985961526.89366913 1623028104.4103165 0 0 0 0 466967400.5703764 -293420597.70144653 0 -293420597.70144653 1345372828.179184 0 0 0 0 343882883.62661797 -897970376.46559525 0 -897970376.46559525 1000702459.6151276 0 0 0 0 513222026.41448969 -829740266.06325531 0 -829740266.06325531 845733959.16983795 0 0 0 0 379262968.47715425 -596606663.7062645 0 -596606663.7062645 515253823.16624451 0 0 0 0 702491695.48980999 -904273811.49652863 0 -904273811.49652863 663778399.18083954 0 0 0 0 957561746.56175554 -845392404.66949272 0 -845392404.66949272 612486349.6809845 0 0 0 0 290355999.04569721 -1399739377.4966011 0 -1399739377.4966011 1299464863.9139023 0 0 0 0 898183108.35676932 -1399838131.3736477 0 -1399838131.3736477 876639223.52000427 0 0 0 0 352827067.98075676 -1203483249.2759705 0 -1203483249.2759705 924452988.39720535 0 0 0 0 464536169.89048147 -1101572093.3239441 0 -1101572093.3239441 877627187.38554382 0 0 0 0 -558621260.72612762 -760212044.52319717 0 -760212044.52319717 1000516773.5310974 0 0 0 0 50699597.17209816 -467345622.26171112 0 -467345622.26171112 392355083.43673134 0 0 0 0 -136540531.80606079 -218932550.43270874 0 -218932550.43270874 346322552.00892258 0 0 0 0 110417202.54529381 -339250891.1396122 0 -339250891.1396122 196580265.50898743 0 0 0 0 -118429076.68957138 2087987.566947937 0 2087987.566947937 120787220.29099274 0 0 0 0 109052559.27328348 -278460765.64748001 0 -278460765.64748001 376993691.25469971 0 0 0 0 378374724.93324852 -598302900.00816345 0 -598302900.00816345 512726746.94361496 0 0 0 0 444384824.41607857 -543932319.14202881 0 -543932319.14202881 339341009.96622753 0 0 0 0 806375146.10838127 -923788533.4258194 0 -923788533.4258194 596468866.41430283 0 0 0 0 459809754.25318861 -506166057.67408371 0 -506166057.67408371 413132674.04273987 0 0 0 0 703796026.50453663 -919742363.3604126 0 -919742363.3604126 986270779.52616882 0 0 0 0 1090198558.6192799 -836964970.73825073 0 -836964970.73825073 291773745.05104065 0 0 0 0 592955882.48498154 -547167276.11339569 0 -547167276.11339569 135815868.8465271 0 0 0 0 719703599.99457932 -288559970.48101807 0 -288559970.48101807 17956793.560791016 0 0 0 0 297031780.46631885 -120490571.62640476 0 -120490571.62640476 208102623.22157288 0 0 0 0 251231338.57587624 -513378137.6074295 0 -513378137.6074295 491727322.99759674 0 0 0 0 294611048.24247742 -68554240.372116089 0 -68554240.372116089 30433727.828613281 0 0 0 0 305559352.98425293 -116024200.63442993 0 -116024200.63442993 201982448.14936829 0 0 0 0 272643460.82284927 -289507782.8753891 0 -289507782.8753891 -36276872.895935059 0 0 0 0 362765730.00460815 3416647.3682746887 0 3416647.3682746887 -67395909.071289062 0 0 0 0 90792682.786055803 -518827773.62997437 0 -518827773.62997437 -200714248.90582275 0 0 0 0 33365836.531009674 -79414897.85723877 0 -79414897.85723877 260115482.39664459 0 0 0 0 985044204.69716263 167489617.87254333 0 167489617.87254333 -65424181.430870056 0 0 0 0 742481767.71408558 -303063981.96720505 0 -303063981.96720505 -155253623.22129822 0 0 0 0 1743739137.2878408 -591916722.23835373 0 -591916722.23835373 -100663021.12701416 0 0 0 0 1467278498.6126785 -973736798.63494873 0 -973736798.63494873 -139079811.20053101 0 0 0 0 1615494718.227248 -1687993610.6141949 0 -1687993610.6141949 -175988437.68281555 0 0 0 0 2910252117.2270403 -1164263449.507576 0 -1164263449.507576 -340677828.33313179 0 0 0 0 1501433944.3281865 -894872548.13914108 0 -894872548.13914108 -294933477.70850372 0 0 0 0 3568178509.6512942 -2114672232.4376907 0 -2114672232.4376907 831233978.5605011 0 0 0 0 1254238199.6455564 -1405578603.7992592 0 -1405578603.7992592 1820228637.1449432 0 0 0 0 1944775680.798403 156144248.73042679 0 156144248.73042679 3490158205.8046045 0 0 0 0 1974239294.3358202 -2383857731.0309181 0 -2383857731.0309181 2871479294.6789017 0 0 0 0 1648900982.9904528 -2611861016.3588829 0 -2611861016.3588829 3371826442.4907837 0 0 0 0 -214506651.50581074 -117445469.71438217 0 -117445469.71438217 3518369862.4381943 0 0 0 0 536037517.21322298 -92336623.893346786 0 -92336623.893346786 7232760.9228363037 0 0 0 0 3132431542.7873402 359515702.3863368 0 359515702.3863368 -403373026.99455261 0 0 0 0 6737761.5084803393 -3534334.9509488568 0 -3534334.9509488568 2626703.8366179131 0 0 0 0 -1012535445.2279663 -46293080.045715332 0 -46293080.045715332 109655221.66135406 0 0 0 0 -581343182.41185379 72404674.666946411 0 72404674.666946411 232195759.38562584 0 0 0 0 -187648414.88343513 -329292569.7875824 0 -329292569.7875824 -227615535.71114349 0 0 0 0 3854653.4212594391 -4605173.2933527417 0 -4605173.2933527417 674843.34573977441 0 0 0 0 -950003813.33461666 -569724315.34648895 0 -569724315.34648895 -228544969.37194645 0 0 0 0 17949368.032608986 -288157476.0821991 0 -288157476.0821991 -1036809264.6999969 0 0 0 0 2938403.477963536 -2886273.1395774893 0 -2886273.1395774893 -206018.5373513028 0 0 0 0 907746911.27547538 -2017463621.4790268 0 -2017463621.4790268 -487426562.75372314 0 0 0 0 -892841615.11997509 -402822636.3396225 0 -402822636.3396225 1280338215.0153651 0 0 0 0 868137841.64217663 -1956467297.7558136 0 -1956467297.7558136 719947244.20335197 0 0 0 0 554829299.61168242 -1290850026.9681625 0 -1290850026.9681625 485606448.93178177 0 0 0 0 1312820366.7722552 -1424078166.9914875 0 -1424078166.9914875 399404823.60999298 0 0 0 0 598906426.89284766 -546729155.59166718 0 -546729155.59166718 2012234085.9557571 0 0 0 0 -648955656.81783891 -172759658.75905228 0 -172759658.75905228 2064768498.8528137 0 0 0 0 -663547703.31590009 -762022780.71834183 0 -762022780.71834183 1242567650.8041229 0 0 0 0 -1740287649.9038587 -1540260387.1020641 0 -1540260387.1020641 558080629.37522125 0 0 0 0 -1241872657.8319502 -3957024.6146125793 0 -3957024.6146125793 298577128.27310944 0 0 0 0 -2240466390.1914349 -471056610.8079071 0 -471056610.8079071 -243695983.20231247 0 0 0 0 1732637.1404628092 -2078994.5411176272 0 -2078994.5411176272 42874.162126585841 0 0 0 0 -1163281857.238874 299991678.26456451 0 299991678.26456451 1466500976.3974838 0 0 0 0 -754755100.64440632 -318657528.17874527 0 -318657528.17874527 -351941889.47607422 0 0 0 0 -1031689551.1846275 -498024496.25873566 0 -498024496.25873566 -432109698.45572662 0 0 0 0 249687694.33596838 102734692.11104965 0 102734692.11104965 93137335.787200928 0 0 0 0 -4181407.7432991229 -172852.12682978436 0 -172852.12682978436 6439219.8642515205 0 0 0 0 -3651387491.6023941 438149974.48718262 0 438149974.48718262 1488743597.0288849 0 0 0 0 -1050817248.2980042 -512363003.30025482 0 -512363003.30025482 242539321.76089478 0 0 0 0 -3129905944.4049358 1859680734.0390472 0 1859680734.0390472 -1551632697.0359344 0 0 0 0 -2561855596.1351323 -673552911.93129683 0 -673552911.93129683 403922794.15190125 0 0 0 0 -1190767381.3788104 -87512544.318431854 0 -87512544.318431854 645360399.90804291 0 0 0 0 -1284459987.4645758 2224787794.6183434 0 2224787794.6183434 61210872.128599167 0 0 0 0 -677110038.22459531 1362631871.1126709 0 1362631871.1126709 2223256478.6395645 0 0 0 0 -624409927.42877793 305192855.97350311 0 305192855.97350311 1768413052.8050613 0 0 0 0 -867280724.61197281 490499403.44000435 0 490499403.44000435 1632215687.0985565 0 0 0 0 -364725350.68494809 754238997.3728714 0 754238997.3728714 2539261560.9248505 0 0 0 0 29557313.684022665 440331407.08797455 0 440331407.08797455 3381736198.2901535 0 0 0 0 -1411652127.9625854 -180773342.72846985 0 -180773342.72846985 3238477196.0314865 0 0 0 0 -1706905028.5962324 252773371.37433815 0 252773371.37433815 5986925052.7029037 0 0 0 0 -1781021484.1412289 1108244322.4903526 0 1108244322.4903526 4118023381.8772564 0 0 0 0 -1246821421.7636003 1114731846.7505436 0 1114731846.7505436 4097428167.699913 0 0 0 0 397108690.17818242 917545886.4957428 0 917545886.4957428 5983642908.6047745 0 0 0 0 -1925544065.3908377 127792468.52214289 0 127792468.52214289 6377663363.3903198 0 0 0 0 -2287495556.1588817 2239786749.1724892 0 2239786749.1724892 4745950674.4832153 0 0 0 0 777133069.07602394 -1856923383.2729301 0 -1856923383.2729301 3481798607.9394989 0 0 0 0 1317571103.0244827 -1741920354.830616 0 -1741920354.830616 2375162802.7033072 0 0 0 0 2049422863.9405065 -2166781617.6367111 0 -2166781617.6367111 2339539748.1814785 0 0 0 0 1118124340.561913 -2441253376.2787457 0 -2441253376.2787457 2753205253.2795486 0 0 0 0 1732714729.3870928 -2514514328.1485538 0 -2514514328.1485538 2650442988.1051788 0 0 0 0 536884663.66416526 -1975102152.8838501 0 -1975102152.8838501 3183546380.5529404 0 0 0 0 3418372876.6011829 -762786243.82750511 0 -762786243.82750511 3338963203.4253693 0 0 0 0 788121833.91213357 -1042851085.6591606 0 -1042851085.6591606 3148446194.0395355 0 0 0 0 -100591983.95553803 117077703.34017181 0 117077703.34017181 3999114399.0403061 0 0 0 0 -239670312.79766178 1835587461.0778046 0 1835587461.0778046 2523416786.6434364 0 0 0 0 537626363.30760992 -2489316807.0039024 0 -2489316807.0039024 2533740672.2381439 0 0 0 0 -2955.9693426483295 -927249.24447032309 0 -927249.24447032309 4527107.0423232317 0 0 0 0 1524712415.3053799 -1946966806.5963516 0 -1946966806.5963516 618906391.90261078 0 0 0 0 154934173.95894375 549064860.10421467 0 549064860.10421467 802041842.61676025 0 0 0 0 381201949.18245178 -2354040989.6639023 0 -2354040989.6639023 2525614480.8837509 0 0 0 0 -1131475551.9333439 -1146233606.4131908 0 -1146233606.4131908 5973043118.8959389 0 0 0 0 -22430.569403706908 -1604715.129408496 0 -1604715.129408496 4567653.5688856393 0 0 0 0 -404343833.05167812 1663403735.4592409 0 1663403735.4592409 2004407763.3008957 0 0 0 0 -52038447.859314591 -447286767.1466217 0 -447286767.1466217 5969819144.4876776 0 0 0 0 1390983929.1619668 -2065724778.8545589 0 -2065724778.8545589 3261437502.848465 0 0 0 0 172412697.45290443 -1841194213.2248001 0 -1841194213.2248001 5985427384.955307 0 0 0 0 -11457972.143193457 -578765750.51569843 0 -578765750.51569843 3105622238.9384384 0 0 0 0 225505789.89173675 -2045184196.0429783 0 -2045184196.0429783 3955569923.6352158 0 0 0 0 1330525177.8977056 -3219834802.2241039 0 -3219834802.2241039 3602099007.8972778 0 0 0 0 367814233.0720529 -2905068908.8544197 0 -2905068908.8544197 5987408574.0966606 0 0 0 0 1036077880.5289924 -2180402024.8518028 0 -2180402024.8518028 2973511260.504097 0 0 0 0 1037165935.4243389 -2606106759.0053558 0 -2606106759.0053558 3458446462.3615456 0 0 0 0 4028631.0940471063 -3514600.4674441833 0 -3514600.4674441833 10442184.971697172 0 0 0 0 1645390681.4079142 -4132631859.7667675 0 -4132631859.7667675 5970369463.6762705 0 0 0 0 5476608427.4411249 -3775363541.1336803 0 -3775363541.1336803 1710870877.5670738 0 0 0 0 2459108.9496358293 -5604288.656043577 0 -5604288.656043577 26296970.750397056 0 0 0 0 49572855.637918472 -1017742030.4274597 0 -1017742030.4274597 683053350.90310287 0 0 0 0 1486684703.2306008 -487590969.16146851 0 -487590969.16146851 190988227.19306755 0 0 0 0 61587702.829706192 290856995.73315811 0 290856995.73315811 176676219.97046471 0 0 0 0 1053779358.5678968 -2169514205.1825066 0 -2169514205.1825066 2738536868.4928818 0 0 0 0 1064360131.5849319 -2131540204.4063845 0 -2131540204.4063845 2777963607.5523529 0 0 0 0 1166352806.9680104 -1413028294.8658791 0 -1413028294.8658791 933260917.55182648 0 0 0 0 1583377670.2948027 -2414255430.6059995 0 -2414255430.6059995 2291272116.2180634 0 0 0 0 335334259.11641836 -585580929.13907623 0 -585580929.13907623 1252467473.8259277 0 0 0 0 569372478.35431373 -1151448620.5269194 0 -1151448620.5269194 1657160413.4161148 0 0 0 0 782700202.2853806 -1123387176.1681175 0 -1123387176.1681175 1486943343.6051788 0 0 0 0 30655245.806671619 -211296130.77865982 0 -211296130.77865982 1443962302.1846771 0 0 0 0 11162673.270506144 335437954.22728729 0 335437954.22728729 574248605.36741638 0 0 0 0 2350943.5053896508 -418802.53364107572 0 -418802.53364107572 -744174.13097265363 0 0 0 0 344760679.33538055 -253361230.49594116 0 -253361230.49594116 -108069590.36158752 0 0 0 0 -2066522.5744934082 -198338313.90512085 0 -198338313.90512085 17146123.895050049 0 0 0 0 474651807.35389471 -6205602.1280059814 0 -6205602.1280059814 121257489.96559906 0 0 0 0 320655621.83816338 167589302.996315 0 167589302.996315 8019772.627281189 0 0 0 0 455540435.28559494 -4164652.1085186005 0 -4164652.1085186005 -93007233.499725342 0 0 0 0 665487274.27626514 -536183471.2315197 0 -536183471.2315197 495674148.13584137 0 0 0 0 197537427.15336514 234734432.10734558 0 234734432.10734558 294008032.11069489 0 0 0 0 -865481505.58486557 -145322371.36366844 0 -145322371.36366844 406380616.75131989 0 0 0 0 1202317.1246233687 -6245729.9152553212 0 -6245729.9152553212 33345586.069447283 0 0 0 0 -86954610.298043251 191240202.70568466 0 191240202.70568466 -89241107.507522583 0 0 0 0 10161083.131084204 19935705.45116806 0 19935705.45116806 63322536.706291199 0 0 0 0 176048354.59325123 107642486.03675842 0 107642486.03675842 -44039590.993728638 0 0 0 0 -37067803.093188286 234148442.93370438 0 234148442.93370438 194710.90530586243 0 0 0 0 -565196119.03147411 136810914.70393372 0 136810914.70393372 121678936.66606903 0 0 0 0 -194037199.80451965 -4616789.3018169403 0 -4616789.3018169403 10454773.008056641 0 0 0 0 -71084920.174755573 105565084.82507896 0 105565084.82507896 -14692191.594909668 0 0 0 0 141177077.65008593 133904313.3924408 0 133904313.3924408 -39956762.880706787 0 0 0 0 -38910735.761083603 42040439.901287079 0 42040439.901287079 107665607.9963913 0 0 0 0 147756031.96914291 114223684.86130524 0 114223684.86130524 -13287281.08140564 0 0 0 0 8087765.8515142221 -1955033.009548571 0 -1955033.009548571 5297458.938158486 0 0 0 0 13155663.237876892 -1677711.2094039917 0 -1677711.2094039917 15485371.522964478 0 0 0 0 8463876.6056363713 -3585086.5119535625 0 -3585086.5119535625 -430253.61906093359 0 0 0 0 -577999094.2403717 -370845227.99656677 0 -370845227.99656677 -69198865.319503784 0 0 0 0 -100844869.00584412 -99064714.704391479 0 -99064714.704391479 -135712755.96720886 0 0 0 0 3197053.363822937 -38670390.107875824 0 -38670390.107875824 -197960744.39707947 0 0 0 0 11822793.93059285 -10730777.077750534 0 -10730777.077750534 7518075.2470614165 0 0 0 0 -14887064.078269958 -15294279.712203979 0 -15294279.712203979 -8629983.8488769531 0 0 0 0 10861664.564137936 -217419700.37132645 0 -217419700.37132645 -9990741.5552368164 0 0 0 0 139201483.75780678 43552636.707077026 0 43552636.707077026 -3189313.3017578125 0 0 0 0 8585628.0602555647 -2353565.1504373169 0 -2353565.1504373169 -3798294.9093726426 0 0 0 0 28167228.912422657 -48360687.392814636 0 -48360687.392814636 -58578051.238124847 0 0 0 0 14314037.080321033 -9291811.7538442463 0 -9291811.7538442463 9598147.2197301537 0 0 0 0 197580679.81066275 -44130208.453033447 0 -44130208.453033447 -177354839.65341187 0 0 0 0 3530754.2994574136 -2612235.0408062935 0 -2612235.0408062935 11866399.261602916 0 0 0 0 4387438.8617588179 -2122048.4242119193 0 -2122048.4242119193 -2672013.6250071004 0 0 0 0 164807769.51702929 80571787.256713867 0 80571787.256713867 -11603099.950141907 0 0 0 0 43630209.334920049 -22259422.0692873 0 -22259422.0692873 -48224230.561401367 0 0 0 0 170504867.38592434 85436840.67798996 0 85436840.67798996 -36746134.763931274 0 0 0 0 -251569559.59288716 256438680.10392499 0 256438680.10392499 -107547979.82736826 0 0 0 0 -211867555.46737313 206525693.51874828 0 206525693.51874828 -196582981.41835594 0 0 0 0 912322.49007095094 2654975.3934238073 0 2654975.3934238073 8610931.4987742528 0 0 0 0 698508924.46774197 -297142546.41407681 0 -297142546.41407681 187554796.62521935 0 0 0 0 379342050.08073044 -121922003.17106152 0 -121922003.17106152 113218821.91027069 0 0 0 0 248410387.98153698 -178564327.71076798 0 -178564327.71076798 400516494.24333572 0 0 0 0 90307874.43065834 -55471836.314371109 0 -55471836.314371109 599261924.29952717 0 0 0 0 306311296.70883036 -176758101.57607079 0 -176758101.57607079 389916087.36453056 0 0 0 0 1000195378.8240361 -301565227.25659084 0 -301565227.25659084 67340978.396503448 0 0 0 0 698572010.84555912 -306272338.9256013 0 -306272338.9256013 189518751.47887611 0 0 0 0 498291089.00266647 -728395172.01648331 0 -728395172.01648331 1159489088.3921318 0 0 0 0 427140462.37582588 -473169275.5888586 0 -473169275.5888586 886336919.68281364 0 0 0 0 -250740255.50628966 244699470.15359071 0 244699470.15359071 -9921725.3674240112 0 0 0 0 3051322606.3676434 -1768531979.5194626 0 -1768531979.5194626 -128932902.75014639 0 0 0 0 -158515384.51708603 18654653.705745697 0 18654653.705745697 25784568.110186577 0 0 0 0 -246259513.81669235 111573160.63948631 0 111573160.63948631 118227621.43844616 0 0 0 0 -252680408.51586342 196559737.28884315 0 196559737.28884315 107285115.86350298 0 0 0 0 -237471414.81833076 232328244.37238598 0 232328244.37238598 -29705499.011852264 0 0 0 0 -189662529.5972681 120963833.86359406 0 120963833.86359406 31015627.215078354 0 0 0 0 -220622195.06933653 197791686.93500543 0 197791686.93500543 -112989959.0380764 0 0 0 0 -373708830.11619484 335687716.59022784 0 335687716.59022784 -138709281.09158134 0 0 0 0 -273293917.01652455 204957300.00012827 0 204957300.00012827 -47198476.989959717 0 0 0 0 -259960513.04246998 265965135.80275345 0 265965135.80275345 -86948893.051845074 0 0 0 0 -362450337.25872326 254723358.88982725 0 254723358.88982725 -44186276.800388336 0 0 0 0 -236133881.2570858 252166777.08548975 0 252166777.08548975 -78002187.683932304 0 0 0 0 -265629649.6179111 235225328.53997815 0 235225328.53997815 -4882674.8344764709 0 0 0 0 3512560.6244202452 -16516747.397825405 0 -16516747.397825405 392933.07596174628 0 0 0 0 -821562928.36143947 248358558.17634058 0 248358558.17634058 15569146.722165585 0 0 0 0 -220222622.26005363 74426514.943351746 0 74426514.943351746 90810080.061454773 0 0 0 0 -595758.22036927624 -5737105.4698329745 0 -5737105.4698329745 39408179.979831971 0 0 0 0 -658755251.55717242 121933052.92947102 0 121933052.92947102 33758678.978655338 0 0 0 0 -400018684.47335505 78585325.985579014 0 78585325.985579014 6350367.6015467644 0 0 0 0 -145934431.49207461 48903156.194106102 0 48903156.194106102 -28639817.046394825 0 0 0 0 3006346.5987528213 -16325638.194732163 0 -16325638.194732163 -575591.33185792994 0 0 0 0 -194350176.57888162 -46667681.004836082 0 -46667681.004836082 148790159.3006897 0 0 0 0 651798.10780402913 -6163185.8087131968 0 -6163185.8087131968 36819493.760655493 0 0 0 0 -198958250.08024323 41247529.818608284 0 41247529.818608284 2927770.3436918259 0 0 0 0 -183654489.18294591 51871094.981841326 0 51871094.981841326 -3701656.497628212 0 0 0 0 -245714286.5181458 229441177.99284077 0 229441177.99284077 -107728358.21280384 0 0 0 0 -324441950.94631243 151209272.56263208 0 151209272.56263208 -44567392.396659017 0 0 0 0 -242945321.0993315 214804503.68466604 0 214804503.68466604 -30945446.239982605 0 0 0 0 -145984546.45105553 86322938.909428596 0 86322938.909428596 -30369029.638289928 0 0 0 0 -206398323.83147788 180792328.52180958 0 180792328.52180958 -77437492.879519939 0 0 0 0 -217631142.37439835 167085791.01890349 0 167085791.01890349 -93867758.390717506 0 0 0 0 -101316870.75289023 66037504.892537117 0 66037504.892537117 -80153554.159073114 0 0 0 0 -138957656.99075696 30396180.282599688 0 30396180.282599688 575535.57191467285 0 0 0 0 -195537199.3361423 148803108.39175797 0 148803108.39175797 -114406566.4652586 0 0 0 0 -50379574.279962063 6265052.9621133804 0 6265052.9621133804 24480671.162405014 0 0 0 0 778220.42887563433 -3704372.8044991586 0 -3704372.8044991586 -57401.859869581182 0 0 0 0 -208189239.38821077 86188227.025643349 0 86188227.025643349 -631065782.16611099 0 0 0 0 -73069364.784462839 -18133200.407475471 0 -18133200.407475471 -1669721.5443967879 0 0 0 0 -83373504.091730177 -32324440.807150841 0 -32324440.807150841 -29603982.269930363 0 0 0 0 -267217998.15616527 -329487429.34788442 0 -329487429.34788442 34911137.893066406 0 0 0 0 -386278683.40200126 -177402886.17619324 0 -177402886.17619324 491788539.97399902 0 0 0 0 -115919402.64972758 -171972779.08298588 0 -171972779.08298588 163678870.5168401 0 0 0 0 -84019086.444946885 -57309191.874209404 0 -57309191.874209404 178355962.19507408 0 0 0 0 -88891816.909694612 -199550722.49515486 0 -199550722.49515486 -17049870.563508987 0 0 0 0 -5781375.9085202217 11426533.147829056 0 11426533.147829056 -100843638.92208576 0 0 0 0 -50334073.106696069 -2062846.3610479832 0 -2062846.3610479832 -43243417.513328552 0 0 0 0 2287401.4831736088 -119636207.37512779 0 -119636207.37512779 48033178.591445923 0 0 0 0 107084760.26073027 -113698009.1537838 0 -113698009.1537838 20904071.799366951 0 0 0 0 117430878.38847733 70926259.519565582 0 70926259.519565582 -63671770.996202469 0 0 0 0 -206187359.6806407 225934812.51373529 0 225934812.51373529 -72557811.552806854 0 0 0 0 -73546684.649713516 150909823.46070528 0 150909823.46070528 -213817739.99876881 0 0 0 0 -138768972.63369203 94735120.123641491 0 94735120.123641491 -49084166.403402805 0 0 0 0 -443636265.94496644 239609767.26406544 0 239609767.26406544 -100936040.42270851 0 0 0 0 -238187063.53987694 97562083.3696208 0 97562083.3696208 -149725142.73843408 0 0 0 0 331634578.7793169 -269883124.07761765 0 -269883124.07761765 115139217.13993454 0 0 0 0 1023799.4075291913 3554607.6816633167 0 3554607.6816633167 11828738.047060166 0 0 0 0 945082280.99914837 -509814582.08500767 0 -509814582.08500767 -322259596.36024475 0 0 0 0 -435496998.1199131 458444299.89493489 0 458444299.89493489 -232195151.8469677 0 0 0 0 899695296.2356987 -331053394.20052338 0 -331053394.20052338 330370684.93533325 0 0 0 0 -111364418.67828894 7507922.0221381187 0 7507922.0221381187 -237281933.42823315 0 0 0 0 -139997709.65688229 263964023.36104012 0 263964023.36104012 -452130306.04259682 0 0 0 0 -129543501.65282798 -78884836.409004211 0 -78884836.409004211 -74892336.348080128 0 0 0 0 -606556809.96362793 499674898.35223103 0 499674898.35223103 391576989.91862297 0 0 0 0 -158645845.64948106 40137607.450460434 0 40137607.450460434 372998119.82763004 0 0 0 0 131650537.98998499 102215962.85739183 0 102215962.85739183 382425609.94553459 0 0 0 0 -269345858.23082078 -304102025.02296317 0 -304102025.02296317 2381355005.3851414 0 0 0 0 52592361.534520656 -168155261.76073849 0 -168155261.76073849 66245475.038360596 0 0 0 0 272942623.73341894 -12241039.17685318 0 -12241039.17685318 -139738150.08313757 0 0 0 0 -14857200.760322213 -307969262.81322384 0 -307969262.81322384 -159108705.29229641 0 0 0 0 143488322.10896686 -135178408.4053154 0 -135178408.4053154 -49657262.734224796 0 0 0 0 260713147.31064504 242971108.29452038 0 242971108.29452038 174694700.19980222 0 0 0 0 64306154.757000983 -49057817.015727758 0 -49057817.015727758 198712929.52107811 0 0 0 0 -6068062.3051537275 -38589720.291018963 0 -38589720.291018963 1088844004.6427021 0 0 0 0 -387763303.86025238 205531248.1721558 0 205531248.1721558 858385329.14288139 0 0 0 0 135530001.51859891 27539790.810909271 0 27539790.810909271 897394694.31256199 0 0 0 0 539003760.21629059 1068856064.0490112 0 1068856064.0490112 1774617640.7831573 0 0 0 0 -1024412978.5340112 1534660229.2144265 0 1534660229.2144265 5985869052.9581852 0 0 0 0 1966682800.3827188 2962844246.9067411 0 2962844246.9067411 2582975709.919611 0 0 0 0 -1023466124.3276192 1529455684.4027557 0 1529455684.4027557 5972251749.2837925 0 0 0 0 -825949955.56155968 112743206.63722372 0 112743206.63722372 3659694469.1480112 0 0 0 0 -866472503.40805268 -110636065.4847405 0 -110636065.4847405 2498789008.2115893 0 0 0 0 -874826819.88856089 -1167964315.7556636 0 -1167964315.7556636 5984857480.3110161 0 0 0 0 -52773590.538106561 -1032109008.1424432 0 -1032109008.1424432 1892941969.1286542 0 0 0 0 -410479.33536953956 -881505.59788498981 0 -881505.59788498981 7900989.6210629018 0 0 0 0 1088779759.3474841 -3200178305.7525063 0 -3200178305.7525063 5974432293.4695625 0 0 0 0 94380205.365374327 1277875442.4906311 0 1277875442.4906311 1246922420.4542828 0 0 0 0 -515051483.48665327 758425681.61044598 0 758425681.61044598 5972047255.0728998 0 0 0 0 -333942433.68392479 -1356355253.4707956 0 -1356355253.4707956 5973338671.3408623 0 0 0 0 -413048021.1259743 -287442183.82558918 0 -287442183.82558918 2056067007.7440815 0 0 0 0 366497068.5532828 -252241222.96235561 0 -252241222.96235561 2057242816.1413174 0 0 0 0 826094594.96292734 -496431529.16502285 0 -496431529.16502285 489403280.9329052 0 0 0 0 371596738.94889772 -538908767.49196053 0 -538908767.49196053 -88300826.307724953 0 0 0 0 693049185.14192224 -16613872.139439106 0 -16613872.139439106 470327556.96573257 0 0 0 0 168414018.6250726 -308257271.56650925 0 -308257271.56650925 -43956728.29928112 0 0 0 0 740565246.82863379 -446433934.91623878 0 -446433934.91623878 -12075910.275468826 0 0 0 0 118886467.63850141 107602070.02891731 0 107602070.02891731 -69440752.507476807 0 0 0 0 767431711.95625043 134826560.41462517 0 134826560.41462517 -158382354.66333008 0 0 0 0 480219861.37318993 -100544350.99057674 0 -100544350.99057674 -3210041.5756053925 0 0 0 0 10396043.366452813 -6072738.5002269745 0 -6072738.5002269745 877460.89267015457 0 0 0 0 149183884.13805676 -322284117.71055412 0 -322284117.71055412 127248271.97456169 0 0 0 0 61150246.819589853 -180506756.99624443 0 -180506756.99624443 168744240.39641666 0 0 0 0 174178495.14030933 -291504253.86497116 0 -291504253.86497116 146120536.95496178 0 0 0 0 699506.39541929471 3578931.5221136687 0 3578931.5221136687 13960719.728984337 0 0 0 0 288355806.18453729 -360272612.59115219 0 -360272612.59115219 187484570.59578133 0 0 0 0 289364481.67198992 -385791874.44021702 0 -385791874.44021702 425025012.9708519 0 0 0 0 -393848401.86144733 -290837838.63542128 0 -290837838.63542128 2011893305.3203006 0 0 0 0 179979.48283302784 2194428.639268728 0 2194428.639268728 13415828.330912881 0 0 0 0 -380915208.73591393 -230895054.32948112 0 -230895054.32948112 268921910.90798283 0 0 0 0 -5082869.4568967819 72832344.446304321 0 72832344.446304321 128108374.76430893 0 0 0 0 291504082.01339394 -290364570.95197201 0 -290364570.95197201 168218903.90110016 0 0 0 0 5404085.6137561956 4019825.2498788219 0 4019825.2498788219 6719842.7001641989 0 0 0 0 612079.97621407162 -678667.93803897605 0 -678667.93803897605 2539666.324048385 0 0 0 0 69838747.547029153 -1262604444.8756323 0 -1262604444.8756323 2932776334.0748596 0 0 0 0 -541395068.46081877 860003431.8373127 0 860003431.8373127 5921082476.4270248 0 0 0 0 1083610340.685811 203787427.18941879 0 203787427.18941879 -606974305.05781555 0 0 0 0 91872437.479796603 83175730.340084076 0 83175730.340084076 -615770588.33068871 0 0 0 0 -1080856665.3249969 -106644714.00021172 0 -106644714.00021172 5960192077.9465122 0 0 0 0 1688746.5854506318 -549966.56774010556 0 -549966.56774010556 4537236.1635881774 0 0 0 0 267020553.50618821 1159610013.8017788 0 1159610013.8017788 3404236665.0473747 0 0 0 0 874385601.20355678 -1633324624.3265157 0 -1633324624.3265157 1491629860.3762856 0 0 0 0 480052408.49668908 340666233.70451641 0 340666233.70451641 -428744216.72853756 0 0 0 0 -686471728.41731513 29227852.488361359 0 29227852.488361359 255078223.15707207 0 0 0 0 104532581.92686 66000045.028833628 0 66000045.028833628 -120933134.96956444 0 0 0 0 -29043230.164979935 217762546.06908035 0 217762546.06908035 -43223003.561896324 0 0 0 0 -11340083.704970611 12810136.095094681 0 12810136.095094681 106407353.97830248 0 0 0 0 89494.855827046908 5005242.5139239533 0 5005242.5139239533 13376943.270986639 0 0 0 0 1701117.593340249 -538041.30156424455 0 -538041.30156424455 9768553.0557145122 0 0 0 0 20310881.587789603 -17663687.483548164 0 -17663687.483548164 -392721911.9935379 0 0 0 0 -65688821.636664636 -43265572.159239769 0 -43265572.159239769 91826529.533859253 0 0 0 0 108711974.08846253 64008505.824918985 0 64008505.824918985 30417992.127410889 0 0 0 0 1175374.7359471847 415125.4072967394 0 415125.4072967394 4255142.1978635527 0 0 0 0 -58447019.029013343 109120243.8805027 0 109120243.8805027 -337007182.79652023 0 0 0 0 2500667.2169308923 4276256.6226225737 0 4276256.6226225737 2734725.4923959747 0 0 0 0 16739431.999053776 20344682.037603378 0 20344682.037603378 -2285234.9195652008 0 0 0 0 5510594.5374859571 14735246.295650482 0 14735246.295650482 9660507.17004776 0 0 0 0 -12976854.142472411 9018737.7494141757 0 9018737.7494141757 42091677.325622559 0 0 0 0 -12927072.294874191 3649460.6889877319 0 3649460.6889877319 37287815.097648621 0 0 0 0 -7503042.3856187165 7762217.3089122772 0 7762217.3089122772 28869568.798164368 0 0 0 0 -8078796.9291158915 6080335.5547151566 0 6080335.5547151566 35735164.360954285 0 0 0 0 1053570.3190083271 7329797.6584219132 0 7329797.6584219132 23176267.444546461 0 0 0 0 -868636.85751231469 477140.30209806189 0 477140.30209806189 19515166.190251116 0 0 0 0 -4972027.9032300413 1282294.8733334541 0 1282294.8733334541 2869643.6672515869 0 0 0 0 -4639998.1495289803 5469095.0139694214 0 5469095.0139694214 35660096.329166412 0 0 0 0 -724277.6383366466 464337.50285394851 0 464337.50285394851 19005955.981207553 0 0 0 0 492352.90688577847 1333797.3839703528 0 1333797.3839703528 16680999.020052401 0 0 0 0 -147805044.29702187 40028418.214008331 0 40028418.214008331 28775348.747753143 0 0 0 0 -121315493.48920727 24482608.854703903 0 24482608.854703903 27009674.987962723 0 0 0 0 39313153.789177895 50268252.266420364 0 50268252.266420364 -25287480.148925781 0 0 0 0 6252104.0640296936 54784504.827537537 0 54784504.827537537 -25802628.243971825 0 0 0 0 -10246766.6102916 117482595.83927345 0 117482595.83927345 -34185421.234062195 0 0 0 0 -39723042.617420197 136645579.06916809 0 136645579.06916809 -41493372.694015503 0 0 0 0 -177558167.72424912 233717333.97802925 0 233717333.97802925 -53573401.855018616 0 0 0 0 -333933466.77579165 255950482.39165115 0 255950482.39165115 -83650818.406694412 0 0 0 0 -271570423.54953063 -174926613.65194368 0 -174926613.65194368 246217842.31399155 0 0 0 0 20406734.80661235 18474568.315536499 0 18474568.315536499 4824351.7938461304 0 0 0 0 -445697.65765569138 163581.69349003304 0 163581.69349003304 1026640.1373579605 0 0 0 0 -419093512.47607327 -179360051.28217316 0 -179360051.28217316 155244091.48171997 0 0 0 0 201218687.20462584 99788723.623764992 0 99788723.623764992 -142018232.43192291 0 0 0 0 82088994.082222939 185472693.87397385 0 185472693.87397385 -141028803.5565834 0 0 0 0 139574337.17305613 -62449982.075878143 0 -62449982.075878143 -6711841.4633178711 0 0 0 0 60487796.57236433 -52141406.905548096 0 -52141406.905548096 49421320.76231575 0 0 0 0 90117477.088987052 91466376.636555672 0 91466376.636555672 86220569.118501663 0 0 0 0 873696.11700833065 -167678.76847391948 0 -167678.76847391948 255.38918327353895 0 0 0 0 218469357.56979215 -1716662.3879759312 0 -1716662.3879759312 -88219320.322509766 0 0 0 0 56082019.077349663 -4814031.9149971008 0 -4814031.9149971008 -27893991.012152672 0 0 0 0 75424543.282080173 10297159.954114914 0 10297159.954114914 -27778382.117851257 0 0 0 0 61545383.207931519 57697141.612911224 0 57697141.612911224 -66203326.077236176 0 0 0 0 41113226.028098106 21626289.968322754 0 21626289.968322754 -31419055.676239014 0 0 0 0 48420981.280417442 1829040.3313512802 0 1829040.3313512802 -18739147.787994385 0 0 0 0 43758871.500777245 7055866.3813796043 0 7055866.3813796043 -5338565.9440612793 0 0 0 0 26006570.233674407 15505672.069694042 0 15505672.069694042 -7360536.3123779297 0 0 0 0 29054500.716931533 38459864.04752174 0 38459864.04752174 -19930072.794288635 0 0 0 0 24264435.149703026 22367982.755252838 0 22367982.755252838 -4267382.9390602112 0 0 0 0 29179834.139494419 23481315.471586227 0 23481315.471586227 -9983081.1272964478 0 0 0 0 15155338.528558969 11074988.828493118 0 11074988.828493118 17930048.895584106 0 0 0 0 2729269.6983642578 12205594.547412872 0 12205594.547412872 29425333.315132141 0 0 0 0 -54731271.751630783 -78075719.241374016 0 -78075719.241374016 12899585.896734238 0 0 0 0 -46061154.047101319 -53419057.701986551 0 -53419057.701986551 14037282.49697876 0 0 0 0 -42619078.150657654 -32040791.816970825 0 -32040791.816970825 -771276.68630027771 0 0 0 0 -46651642.158462405 -63771126.637133956 0 -63771126.637133956 -25408728.99687767 0 0 0 0 -550894.61099843355 496072.32261264254 0 496072.32261264254 3145695.3089757403 0 0 0 0 -50545158.948468208 -83757863.667134762 0 -83757863.667134762 -21065335.342399597 0 0 0 0 -134697447.54115295 283435269.668396 0 283435269.668396 -104581346.76745796 0 0 0 0 -3016165.1792583466 17713912.820114136 0 17713912.820114136 24853524.103317261 0 0 0 0 -7217716.4979047775 18413549.104743958 0 18413549.104743958 32039664.209156036 0 0 0 0 3290754.1800620183 -195965.15585712437 0 -195965.15585712437 12740015.831135256 0 0 0 0 -225424.84715819359 20963150.266143799 0 20963150.266143799 29287723.76820755 0 0 0 0 74246938.408782959 53378878.462734222 0 53378878.462734222 140341602.9223175 0 0 0 0 -3196726.6187737212 982271.83668919071 0 982271.83668919071 11520782.966383379 0 0 0 0 10383148.530789375 15649986.839286804 0 15649986.839286804 24032783.669902802 0 0 0 0 2920693.0613623857 4214285.5817079544 0 4214285.5817079544 20248607.532981873 0 0 0 0 -4738159.286796093 16797888.351821899 0 16797888.351821899 26852141.510326385 0 0 0 0 -17496937.424189568 11758214.089691162 0 11758214.089691162 24486891.935503483 0 0 0 0 -10394545.271421432 22757395.394357681 0 22757395.394357681 21983781.419338226 0 0 0 0 -7531813.9716644287 32640754.169734955 0 32640754.169734955 8720833.8433532715 0 0 0 0 6054020.2046387196 20766631.30251503 0 20766631.30251503 10809356.657516479 0 0 0 0 -30374251.471944332 50289061.468547821 0 50289061.468547821 1741897.5900993347 0 0 0 0 -16432393.604887724 12166620.63699913 0 12166620.63699913 22020632.378959656 0 0 0 0 -34354562.869490623 13368331.47923851 0 13368331.47923851 26847412.549638748 0 0 0 0 -35943885.623437881 -6025928.5223007202 0 -6025928.5223007202 10138078.493209839 0 0 0 0 -3182944.2134035947 2906418.6102536647 0 2906418.6102536647 21133586.031636987 0 0 0 0 -25700040.005608976 5130232.3948478699 0 5130232.3948478699 24923063.583702087 0 0 0 0 2715428.6282715006 -5556349.4080979358 0 -5556349.4080979358 16024987.840244517 0 0 0 0 -11955539.18761611 2483776.1758899689 0 2483776.1758899689 34697582.823532104 0 0 0 0 3943562.7568123764 -511920.33800289856 0 -511920.33800289856 14903941.972307831 0 0 0 0 -20826303.19024086 -7561969.256187439 0 -7561969.256187439 5681383.3566055298 0 0 0 0 6995767.7441487312 8287284.0306301117 0 8287284.0306301117 22955447.834762573 0 0 0 0 19975314.021452665 -5615818.4685668945 0 -5615818.4685668945 11723777.002380371 0 0 0 0 -19122303.347415328 -1146403.5261802673 0 -1146403.5261802673 39429981.480751038 0 0 0 0 -10743563.999652147 -6218342.8528823853 0 -6218342.8528823853 27262256.051300049 0 0 0 0 -15129682.972658157 -3974757.9730987549 0 -3974757.9730987549 26155655.636161804 0 0 0 0 -15812647.784126282 2260659.6997451782 0 2260659.6997451782 37370915.646003723 0 0 0 0 -14548234.712187767 4740317.024723053 0 4740317.024723053 38497185.355819702 0 0 0 0 27458338.763654709 -111865644.02138901 0 -111865644.02138901 -453907131.14028931 0 0 0 0 -83501890.609708786 -73118498.542013168 0 -73118498.542013168 -259620698.79922676 0 0 0 0 -54068613.102015495 -110472769.51203823 0 -110472769.51203823 -84202984.044804573 0 0 0 0 -24190515.286678314 -199910104.66491699 0 -199910104.66491699 -152924259.17109871 0 0 0 0 -37412200.675477624 -95110606.1299932 0 -95110606.1299932 -231264205.7593689 0 0 0 0 -8724149.4274020195 -225430158.22780991 0 -225430158.22780991 -51783562.977907181 0 0 0 0 413446019.81350279 36350281.254590034 0 36350281.254590034 -876916317.25961876 0 0 0 0 249866088.73344803 -77580157.551914215 0 -77580157.551914215 -303258991.28112757 0 0 0 0 -130849075.92956448 11838630.393074036 0 11838630.393074036 -296477826.42232859 0 0 0 0 -57414534.312653542 -194900904.72982788 0 -194900904.72982788 -310309190.44053268 0 0 0 0 217832660.56871206 -291110110.91280913 0 -291110110.91280913 413213861.16149902 0 0 0 0 684375.81243431184 189563.86483563017 0 189563.86483563017 321903.10305091878 0 0 0 0 468981890.14243257 -1220102377.7656393 0 -1220102377.7656393 1302097802.7456264 0 0 0 0 237515991.76296735 -200190073.39742088 0 -200190073.39742088 612900789.55054951 0 0 0 0 1836204.0036324 449186.52640448231 0 449186.52640448231 922443.57410059217 0 0 0 0 89600665.353518009 -206232498.73729706 0 -206232498.73729706 504904166.05555725 0 0 0 0 105971052.42272019 -231791205.50278091 0 -231791205.50278091 387591471.04517174 0 0 0 0 -122020714.01242054 -141769721.17004585 0 -141769721.17004585 449646424.46958542 0 0 0 0 283598.10215883341 118724.84975246945 0 118724.84975246945 -155133.93814890645 0 0 0 0 113464283.24015248 -227092995.39438725 0 -227092995.39438725 206143673.03563309 0 0 0 0 85987669.446235716 -66780317.92011261 0 -66780317.92011261 52786208.95532608 0 0 0 0 2384852.2305815713 -429233.35371705983 0 -429233.35371705983 5649.0787366479635 0 0 0 0 162532557.61942333 -151861846.07024384 0 -151861846.07024384 100938260.37953568 0 0 0 0 -5229048.0217251778 -9714342.60638237 0 -9714342.60638237 22695240.617588043 0 0 0 0 44877185.190574169 -4625813.6307621002 0 -4625813.6307621002 -1469659.2813682556 0 0 0 0 82104.803977012634 2231766.3761034012 0 2231766.3761034012 -1304644.2275667191 0 0 0 0 2248727.8785409317 -171924.92645882256 0 -171924.92645882256 2581552.2781597571 0 0 0 0 -47994514.128930807 -152214444.06126547 0 -152214444.06126547 -160737568.41465569 0 0 0 0 -28583580.066720009 -148651349.79132175 0 -148651349.79132175 -163471200.7958684 0 0 0 0 -108157889.92421913 -34392450.819558144 0 -34392450.819558144 -35030792.743655205 0 0 0 0 -87130229.935314178 -103930234.57402611 0 -103930234.57402611 42158838.50843811 0 0 0 0 34264619.496276855 7763406.4671669006 0 7763406.4671669006 -4241301.7137641907 0 0 0 0 34302984.719611168 -208329852.83586597 0 -208329852.83586597 73935905.109719753 0 0 0 0 -121383176.35389996 -107269175.04045868 0 -107269175.04045868 18194430.84936142 0 0 0 0 3078069.8600773569 -792699.79688298609 0 -792699.79688298609 6033252.2947154902 0 0 0 0 -100609535.60834312 -79116876.834158897 0 -79116876.834158897 43489492.218441963 0 0 0 0 -57958500.260564804 -75895750.67010498 0 -75895750.67010498 19840624.66872108 0 0 0 0 -69668476.86961174 -42732679.783205986 0 -42732679.783205986 79378168.832901001 0 0 0 0 -67630092.938583374 -58403120.441026688 0 -58403120.441026688 27612572.467635155 0 0 0 0 -89383001.507709503 -22745350.188796043 0 -22745350.188796043 104487398.02740955 0 0 0 0 -75128167.882646561 -27071217.05269289 0 -27071217.05269289 102801069.8657465 0 0 0 0 -61405197.86846447 30013046.936536789 0 30013046.936536789 222590569.25252628 0 0 0 0 -47183738.28852272 -78633420.888270378 0 -78633420.888270378 139272006.43465042 0 0 0 0 -80729527.262502253 -43397242.386045873 0 -43397242.386045873 104373860.14103508 0 0 0 0 -33202687.967664719 -181286316.10774517 0 -181286316.10774517 -1759881.2869701385 0 0 0 0 -33737536.209931947 -82197627.871090755 0 -82197627.871090755 53498957.085191727 0 0 0 0 110788222.26251221 -172345109.00678062 0 -172345109.00678062 109645100.92494011 0 0 0 0 107440173.81031799 -168275014.00407314 0 -168275014.00407314 280577865.07663727 0 0 0 0 58897839.133500099 -103730813.03166389 0 -103730813.03166389 328546337.00080061 0 0 0 0 41855227.738362312 78761334.433429718 0 78761334.433429718 267257904.64887047 0 0 0 0 -16287956.589486599 -9397156.5404701233 0 -9397156.5404701233 214873684.40945435 0 0 0 0 201422100.13397336 -63707572.997775078 0 -63707572.997775078 237807134.85270882 0 0 0 0 147291516.08799696 131256706.26771975 0 131256706.26771975 57914423.335857391 0 0 0 0 22338361.611415386 100357408.02569151 0 100357408.02569151 305848033.03806496 0 0 0 0 -11279347.356329918 56052609.230391979 0 56052609.230391979 140415528.72786617 0 0 0 0 15126761.056883335 61014270.621628284 0 61014270.621628284 135038471.59665966 0 0 0 0 53893774.321465492 93732102.604347706 0 93732102.604347706 115341394.78893661 0 0 0 0 91369423.317249775 68466869.860872507 0 68466869.860872507 66472122.5415802 0 0 0 0 96839531.862099171 76355790.356745243 0 76355790.356745243 55967944.452288643 0 0 0 0 63331880.007356644 65747903.679053783 0 65747903.679053783 66433470.414166927 0 0 0 0 63619589.4388116 63559646.590368211 0 63559646.590368211 64037943.387981415 0 0 0 0 9669937.7956838608 50091645.643072128 0 50091645.643072128 81943176.735019207 0 0 0 0 -258754130.76746845 -168149116.74288082 0 -168149116.74288082 -24083542.079421997 0 0 0 0 -234235998.02439308 -287591126.88568211 0 -287591126.88568211 -140132756.47174454 0 0 0 0 6111872.104007042 -4402068.0987490052 0 -4402068.0987490052 7496812.7537794039 0 0 0 0 377743.3291425705 32119035.855650902 0 32119035.855650902 55714937.508307561 0 0 0 0 -558092.09610557556 34655274.601608276 0 34655274.601608276 60390840.461471558 0 0 0 0 30390644.551194668 36453636.211332321 0 36453636.211332321 57481173.173649788 0 0 0 0 26596755.113275528 44617650.705759048 0 44617650.705759048 59691452.075397491 0 0 0 0 -19517632.632199287 27540856.819852829 0 27540856.819852829 77715056.1749897 0 0 0 0 -9434916.6779623032 41958997.292139053 0 41958997.292139053 82958625.922891617 0 0 0 0 -5510398.2533540726 29018072.511176586 0 29018072.511176586 65919571.574562073 0 0 0 0 -36146351.134797096 15474347.506184578 0 15474347.506184578 71678944.035470963 0 0 0 0 -18694483.082448483 25033302.517355561 0 25033302.517355561 74946229.076704025 0 0 0 0 -48654904.54747963 -3261621.1145000458 0 -3261621.1145000458 75180136.256435394 0 0 0 0 -38619203.031823158 22093844.660676956 0 22093844.660676956 106931282.65863991 0 0 0 0 -52417408.982177734 3176615.7387104034 0 3176615.7387104034 85619566.123090744 0 0 0 0 -34506847.263929367 20865810.578894615 0 20865810.578894615 100096666.1460923 0 0 0 0 7398247.513677597 52991368.754712582 0 52991368.754712582 95761929.668406487 0 0 0 0 -57166169.062322617 19383548.737099648 0 19383548.737099648 137112051.67470074 0 0 0 0 -7210377.3590198755 36394358.233936667 0 36394358.233936667 103946089.12958145 0 0 0 0 -74562066.210792065 -13798780.854841709 0 -13798780.854841709 96745158.532140732 0 0 0 0 -60359296.735748291 -12782796.302008629 0 -12782796.302008629 88903346.96049881 0 0 0 0 -59161211.079486847 -21752443.715639114 0 -21752443.715639114 68602151.627071381 0 0 0 0 -61918796.17965889 -33940326.438344955 0 -33940326.438344955 58278367.391542435 0 0 0 0 -57558506.218535185 -25063277.259322405 0 -25063277.259322405 51282583.457546234 0 0 0 0 -57605019.57119751 -17127214.408776283 0 -17127214.408776283 66458366.154285431 0 0 0 0 -52860572.909921646 -24565287.367734909 0 -24565287.367734909 39277894.973834991 0 0 0 0 -55621591.861641884 -30845009.517222404 0 -30845009.517222404 42340937.13927269 0 0 0 0 -58223141.863029003 -43354324.874196291 0 -43354324.874196291 20408207.172515869 0 0 0 0 -43194519.659576416 -27289240.386707783 0 -27289240.386707783 19319598.126930237 0 0 0 0 -53365620.49667263 -12893774.247173309 0 -12893774.247173309 37858761.38680315 0 0 0 0 -43932813.333247423 -25228180.848438144 0 -25228180.848438144 23503146.900331497 0 0 0 0 -17364686.029220581 -11296856.059913635 0 -11296856.059913635 28125121.24017334 0 0 0 0 -52915383.898097992 -16222201.67159605 0 -16222201.67159605 48689904.216122627 0 0 0 0 -50220130.990895271 -10960804.347195625 0 -10960804.347195625 54490767.469394684 0 0 0 0 -53485039.582992554 -8416795.1184139252 0 -8416795.1184139252 64791117.352557182 0 0 0 0 -45980536.463101864 -3593915.6156051159 0 -3593915.6156051159 64598367.869987488 0 0 0 0 -25446556.400297165 -17868976.990028381 0 -17868976.990028381 19317842.958824158 0 0 0 0 -14681444.066771984 -10953142.193088531 0 -10953142.193088531 21952020.769882202 0 0 0 0 -11101220.966348648 2737420.2232589722 0 2737420.2232589722 65579947.907936096 0 0 0 0 -24839769.218846798 -8588742.8578109741 0 -8588742.8578109741 14365239.833000183 0 0 0 0 -2057715.2074239049 -3057353.2952735671 0 -3057353.2952735671 17823525.325209837 0 0 0 0 -7009964.2959374301 10174630.390943965 0 10174630.390943965 22090331.119200334 0 0 0 0 -4851925.220518237 2176687.0223568897 0 2176687.0223568897 37512995.209391199 0 0 0 0 -173477763.06404686 -132493966.46772385 0 -132493966.46772385 18548365.897521973 0 0 0 0 7928710.8468887806 106918412.92712021 0 106918412.92712021 4491197.1293182373 0 0 0 0 -935853.51001558965 3251811.882980729 0 3251811.882980729 39501477.919184566 0 0 0 0 47823342.240614891 -12079698.603672028 0 -12079698.603672028 -166295238.3094635 0 0 0 0 59775050.785680771 130028939.58074951 0 130028939.58074951 203013436.27633667 0 0 0 0 -11438903.808324337 -4387456.8530883789 0 -4387456.8530883789 8579186.202507019 0 0 0 0 -425506.02078323835 923297.81796620041 0 923297.81796620041 6784531.5751162283 0 0 0 0 -16553860.531141758 151296184.2485466 0 151296184.2485466 180294035.89596558 0 0 0 0 -1151232.4163891468 1163456.3685784414 0 1163456.3685784414 4404254.4518285915 0 0 0 0 -7898384.8664417267 -18677487.209838867 0 -18677487.209838867 41663612.780174255 0 0 0 0 68449326.529515386 126234942.59303856 0 126234942.59303856 -2837741.2046051025 0 0 0 0 4906135.432192862 6160951.57234478 0 6160951.57234478 34803203.073104858 0 0 0 0 -101812688.36082172 -68910055.929512024 0 -68910055.929512024 -6358463.9732589722 0 0 0 0 483202.65208701324 -2773328.4942901134 0 -2773328.4942901134 28436435.696304321 0 0 0 0 -754528.5109059033 -552377.91629148647 0 -552377.91629148647 3164195.8148213215 0 0 0 0 -57950951.609150887 -13379561.630966187 0 -13379561.630966187 45674377.280410767 0 0 0 0 460162.30212629586 -4112370.8545713425 0 -4112370.8545713425 34200009.598754883 0 0 0 0 -76007793.303355217 28130874.896118164 0 28130874.896118164 105649225.9256897 0 0 0 0 -84524410.198116302 12507931.772987366 0 12507931.772987366 85665569.26714325 0 0 0 0 -279460051.23622131 19328804.771499634 0 19328804.771499634 113957447.37011719 0 0 0 0 -252102024.61884379 232453432.6753149 0 232453432.6753149 115841464.62478638 0 0 0 0 -51311931.686794281 175608309.06515503 0 175608309.06515503 58167503.870574951 0 0 0 0 -2982638.0015963675 2271162.0272995043 0 2271162.0272995043 43952686.232321337 0 0 0 0 35640582.705052853 57198318.756282806 0 57198318.756282806 48070830.205215454 0 0 0 0 -33028540.521210194 -12369709.395694733 0 -12369709.395694733 92949057.919799805 0 0 0 0 -70050248.206298828 21680841.252418518 0 21680841.252418518 108401989.42166138 0 0 0 0 1652159.8817720413 35733962.218833923 0 35733962.218833923 86126789.937347412 0 0 0 0 -65195672.593843222 32986651.225318909 0 32986651.225318909 132633906.61663818 0 0 0 0 -100949059.95779514 6970910.7704772949 0 6970910.7704772949 127420677.48423576 0 0 0 0 -38266523.868855476 16125332.453147411 0 16125332.453147411 68476873.035346031 0 0 0 0 -35447040.376029968 10101579.058839798 0 10101579.058839798 55156930.390470028 0 0 0 0 -40265179.208498001 7734550.0713634491 0 7734550.0713634491 41917136.665687084 0 0 0 0 -67518664.483368874 4906727.3799209595 0 4906727.3799209595 62126703.766162872 0 0 0 0 -28283276.731204033 12242787.841827869 0 12242787.841827869 56179948.383320808 0 0 0 0 -16726737.918189764 14225986.822111011 0 14225986.822111011 46627532.338577271 0 0 0 0 -10420733.035340071 33014317.247260571 0 33014317.247260571 64890570.751896858 0 0 0 0 -35385921.834914207 19199592.847481728 0 19199592.847481728 70300610.909844756 0 0 0 0 -10259287.956831584 4174165.9475714555 0 4174165.9475714555 29571156.83410975 0 0 0 0 32924852.840167999 -29855616.735691071 0 -29855616.735691071 37564138.406305313 0 0 0 0 -14503767.150705576 -22441761.022731781 0 -22441761.022731781 20628340.826438904 0 0 0 0 33301883.938357592 31725440.07970047 0 31725440.07970047 -6972345.0186462402 0 0 0 0 -698838.38401483046 -2734745.4094325006 0 -2734745.4094325006 7470407.8554572733 0 0 0 0 -35764459.423905373 25918746.367103577 0 25918746.367103577 -8740090.3246231079 0 0 0 0 -7228126.8753620498 5836102.0405677278 0 5836102.0405677278 48585431.17605643 0 0 0 0 -86046851.971809149 -40395612.87812233 0 -40395612.87812233 78833823.82611084 0 0 0 0 -16838745.199268878 -3872764.614623785 0 -3872764.614623785 37565519.223312378 0 0 0 0 -41644361.684656143 12868342.701156616 0 12868342.701156616 72157815.779563904 0 0 0 0 -43153950.267295763 -21181000.634777546 0 -21181000.634777546 47564478.177200317 0 0 0 0 -13117318.01782465 -3550193.1048736572 0 -3550193.1048736572 49239292.603079796 0 0 0 0 -13213116.400449276 3782440.3659410477 0 3782440.3659410477 50190508.045211792 0 0 0 0 -19809436.978260159 -10419954.262886047 0 -10419954.262886047 54917994.863815308 0 0 0 0 -22590658.198204041 2942562.9468193054 0 2942562.9468193054 48302187.063987732 0 0 0 0 -15059371.387859151 1879872.0800166838 0 1879872.0800166838 42695465.902606025 0 0 0 0 -15885042.753013611 -3624880.4083023071 0 -3624880.4083023071 37364313.031859398 0 0 0 0 -12441926.536109686 2855757.1805763245 0 2855757.1805763245 38594572.708602905 0 0 0 0 -25431523.027174711 -904709.22265052795 0 -904709.22265052795 29646761.636711121 0 0 0 0 853085.95153877139 -47320002.377242148 0 -47320002.377242148 43797665.202087402 0 0 0 0 -14784301.835249424 -25675111.210688591 0 -25675111.210688591 25270682.306003571 0 0 0 0 -9878043.8232240677 -423986.63897323608 0 -423986.63897323608 13167958.491426468 0 0 0 0 1043593.5667657852 13079078.433994293 0 13079078.433994293 19615580.622459412 0 0 0 0 180087.61658092617 -1513745.4418535477 0 -1513745.4418535477 100835.03983484954 0 0 0 0 -7238605.9840720892 -46651778.410770416 0 -46651778.410770416 122808686.17061615 0 0 0 0 -249595.27509338572 -1269332.6847099704 0 -1269332.6847099704 1477788.8898225091 0 0 0 0 57536725.617943525 -73830744.765548706 0 -73830744.765548706 46324475.646148682 0 0 0 0 -7492913.1795603279 2567421.1096042944 0 2567421.1096042944 34815354.87529435 0 0 0 0 -43363622.312348366 7299512.7143249512 0 7299512.7143249512 45513027.249328613 0 0 0 0 -29946371.471652985 22208110.341640472 0 22208110.341640472 62026852.331682205 0 0 0 0 -15300619.095915794 9020741.8121986389 0 9020741.8121986389 28686254.775719881 0 0 0 0 -1744568.5050868988 22147527.181271553 0 22147527.181271553 28021946.780105591 0 0 0 0 -19923056.405496597 6513655.1181030273 0 6513655.1181030273 17549379.641069412 0 0 0 0 -22495660.596464157 -217095.20649337769 0 -217095.20649337769 22608698.532516479 0 0 0 0 -19264965.339839041 -1595686.0016274452 0 -1595686.0016274452 8949256.464597702 0 0 0 0 -19325240.326951027 3371316.2081680298 0 3371316.2081680298 26040506.010858536 0 0 0 0 -11757658.292513108 8657548.9549401868 0 8657548.9549401868 24352268.123933204 0 0 0 0 -13478247.610291533 -2630262.8299217224 0 -2630262.8299217224 19862445.697601318 0 0 0 0 -26708063.331399441 1841494.4962673187 0 1841494.4962673187 7632007.039024353 0 0 0 0 -6915583.3925588448 1828337.6908467051 0 1828337.6908467051 12265626.750101954 0 0 0 0 2437351.7032464915 -12533089.561476946 0 -12533089.561476946 689298.91130991653 0 0 0 0 -14286054.299120916 11678801.300312055 0 11678801.300312055 25812508.506937068 0 0 0 0 -48704063.040582657 -16587962.650560379 0 -16587962.650560379 44952674.497204065 0 0 0 0 -6962731.6390743591 -8212659.0989105962 0 -8212659.0989105962 28837438.504596971 0 0 0 0 -64764812.378116608 -20630676.972434998 0 -20630676.972434998 44384696.031812906 0 0 0 0 -1979229.1579811312 -13871674.996705059 0 -13871674.996705059 30174304.088892452 0 0 0 0 -67240746.788728714 -22901497.752964973 0 -22901497.752964973 59871487.251752853 0 0 0 0 -146481881.37499237 -77556087.078018188 0 -77556087.078018188 30055454.333975792 0 0 0 0 -99918052.520175934 -11925500.722581863 0 -11925500.722581863 59618474.452337265 0 0 0 0 -62401871.257446289 -528546.69855499268 0 -528546.69855499268 57757660.630590439 0 0 0 0 -49834633.598611832 20323016.421035767 0 20323016.421035767 65256218.359804153 0 0 0 0 -101822180.76844853 25350891.816400826 0 25350891.816400826 97021867.280246735 0 0 0 0 40652632.324389458 3212311.8623723984 0 3212311.8623723984 37254517.922821045 0 0 0 0 -13758274.497467041 63326832.218616486 0 63326832.218616486 83069237.203775406 0 0 0 0 -75970514.123685837 40034121.098148346 0 40034121.098148346 102426614.62341022 0 0 0 0 113596908.07571363 149409831.66510224 0 149409831.66510224 133016397.66175652 0 0 0 0 -73349468.999219894 23014966.13288784 0 23014966.13288784 86595334.853431702 0 0 0 0 -147970582.27181244 22234218.647413254 0 22234218.647413254 133791974.15581512 0 0 0 0 -278030436.85010147 -71020814.59312439 0 -71020814.59312439 110844600.20858002 0 0 0 0 -121995994.07122803 -46363550.872032642 0 -46363550.872032642 -21441015.650648117 0 0 0 0 -158207620.21185303 -44762392.397371292 0 -44762392.397371292 312094274.54092121 0 0 0 0 167200052.14481068 -72051270.185171366 0 -72051270.185171366 17204230.294618607 0 0 0 0 -156356297.57964516 -30805524.173791885 0 -30805524.173791885 52742957.076302528 0 0 0 0 -86231826.309810638 -150040943.66217804 0 -150040943.66217804 -149731862.57717109 0 0 0 0 -274260730.08355141 -170007901.80731344 0 -170007901.80731344 61318181.909231186 0 0 0 0 28278722.904234886 41419565.552648544 0 41419565.552648544 55873382.966663599 0 0 0 0 -296189313.90573311 -128311378.74829102 0 -128311378.74829102 -5854585.5777931213 0 0 0 0 4712740.1211304758 -3226398.1698736493 0 -3226398.1698736493 14793398.668517288 0 0 0 0 28042156.16864109 33330400.903390408 0 33330400.903390408 56597604.993984699 0 0 0 0 -9996923.6219186783 -306483.38002967834 0 -306483.38002967834 21271774.398565292 0 0 0 0 -845306.9530023681 3097278.0298008109 0 3097278.0298008109 19047615.109033667 0 0 0 0 887520.02248966042 -11133741.816974152 0 -11133741.816974152 18902090.206587464 0 0 0 0 1776792.9755778313 25013101.420501947 0 25013101.420501947 60835742.029514313 0 0 0 0 -101720955.80501175 -79682394.029783249 0 -79682394.029783249 26733425.750164986 0 0 0 0 -202641680.89744091 -207870759.94926786 0 -207870759.94926786 -135872344.40862274 0 0 0 0 -830730.10646874644 -1271120.9938964127 0 -1271120.9938964127 3573108.7392929029 0 0 0 0 33920964.157056808 -91472548.933898926 0 -91472548.933898926 -66780432.420135498 0 0 0 0 -106017914.62520981 -32320617.978347778 0 -32320617.978347778 157850743.24619293 0 0 0 0 58831123.358186722 40417853.362075806 0 40417853.362075806 -289890618.13397217 0 0 0 0 63905950.498102188 15062235.985572815 0 15062235.985572815 -158232231.90161133 0 0 0 0 -70841398.737007141 89694290.278930664 0 89694290.278930664 200393830.20036316 0 0 0 0 49877509.92423439 141777464.92688751 0 141777464.92688751 2695459.9749755859 0 0 0 0 -40087907.520605564 -45661853.938621521 0 -45661853.938621521 80776410.847412109 0 0 0 0 -3628804.6704560909 -1300940.322309874 0 -1300940.322309874 3876203.9844274623 0 0 0 0 -163311729.28730774 -21082496.784439087 0 -21082496.784439087 154876080.63444901 0 0 0 0 -1092025.20085226 -838499.20422992855 0 -838499.20422992855 1165595.0524077686 0 0 0 0 66998200.870635986 -122410662.77047729 0 -122410662.77047729 127904103.04592896 0 0 0 0 354244123.7872963 -131779732.44517517 0 -131779732.44517517 -91243232.945480347 0 0 0 0 -41238247.613733292 163121667.0957222 0 163121667.0957222 228237225.99246216 0 0 0 0 100555622.93705177 208124850.63206482 0 208124850.63206482 157337319.1558075 0 0 0 0 -1194012.2629353059 -1602840.7910340354 0 -1602840.7910340354 -712745.15029422939 0 0 0 0 -187745524.32572556 237152700.38115692 0 237152700.38115692 148406969.62903595 0 0 0 0 -249962973.29862404 -138241242.22439575 0 -138241242.22439575 297080004.29336548 0 0 0 0 -13840716.204580151 -882235.05425526202 0 -882235.05425526202 20373294.197275866 0 0 0 0 69496432.133006096 -2014224.6308307648 0 -2014224.6308307648 -117125640.79211426 0 0 0 0 -191970182.99060059 -47744416.188339233 0 -47744416.188339233 10118135.842880249 0 0 0 0 90098519.607128143 -12962656.76322937 0 -12962656.76322937 13787748.60710907 0 0 0 0 -115324595.5942955 191571934.82115173 0 191571934.82115173 -47763816.730056763 0 0 0 0 -156143105.31207371 127892431.96424866 0 127892431.96424866 252477005.40837097 0 0 0 0 65323867.69761467 68864715.438972473 0 68864715.438972473 19993391.464569092 0 0 0 0 3565352.6315307617 -24664810.916145325 0 -24664810.916145325 124630666.57263947 0 0 0 0 -4288935.0149450302 22371933.757395864 0 22371933.757395864 86161.402853524312 0 0 0 0 173574.4811668396 97935885.451583862 0 97935885.451583862 57077477.64730835 0 0 0 0 -726986.70121002197 95524548.586341858 0 95524548.586341858 127385581.42993164 0 0 0 0 -10702114.045913171 20949033.587307379 0 20949033.587307379 -1496438.5055491552 0 0 0 0 -31247948.501132965 113318705.80017853 0 113318705.80017853 171972265.56542969 0 0 0 0 -94069791.892654419 13254783.84815979 0 13254783.84815979 219260837.08978271 0 0 0 0 9216685.2561683655 69165459.980602264 0 69165459.980602264 128920243.42025757 0 0 0 0 -15779196.438280124 21101545.683480993 0 21101545.683480993 148252.84564762563 0 0 0 0 -95426694.970039368 65758913.834518433 0 65758913.834518433 133589471.62636566 0 0 0 0 -78209914.398571014 39085701.234680176 0 39085701.234680176 113284436.94308472 0 0 0 0 -159512954.31680298 91183242.790908813 0 91183242.790908813 116737771.85955811 0 0 0 0 -119689996.87076569 22765037.895385742 0 22765037.895385742 132093294.94940186 0 0 0 0 -122738019.18071747 45027119.812522888 0 45027119.812522888 48369890.932189941 0 0 0 0 -130691437.97939301 109655640.29989624 0 109655640.29989624 27765072.344234467 0 0 0 0 -158681305.09215546 79372814.044219971 0 79372814.044219971 152142762.08760071 0 0 0 0 107901502.57275391 -117323772.49642944 0 -117323772.49642944 94915369.218383789 0 0 0 0 103055979.36365986 -55680057.133935928 0 -55680057.133935928 52562301.336791992 0 0 0 0 14403.43543561548 -2430836.5806734934 0 -2430836.5806734934 5301298.7353114188 0 0 0 0 25026503.492454529 14898353.303588867 0 14898353.303588867 107630848.92289734 0 0 0 0 47721081.242145538 -162439112.13749695 0 -162439112.13749695 255620543.88763428 0 0 0 0 -3479906.301651001 -47324264.277252197 0 -47324264.277252197 174646875.96955872 0 0 0 0 -37656400.838256836 21748516.957427979 0 21748516.957427979 284704063.83630753 0 0 0 0 -53601084.573097229 50408157.024703979 0 50408157.024703979 234911341.32373047 0 0 0 0 -5971950.8670711517 1057768.8550109863 0 1057768.8550109863 41035320.207542419 0 0 0 0 -11135346.500199093 948376.4409327656 0 948376.4409327656 26761188.437003024 0 0 0 0 -33761795.141197205 -1664156.1112136841 0 -1664156.1112136841 10887258.801397324 0 0 0 0 -122960934.45051575 -30213439.346282959 0 -30213439.346282959 115757242.64611816 0 0 0 0 -11015116.221712302 10289127.415866526 0 10289127.415866526 31475447.239066362 0 0 0 0 -3645042.2125091553 11555043.809234619 0 11555043.809234619 79700847.485149384 0 0 0 0 -112760079.00896454 -18417848.791549683 0 -18417848.791549683 115263195.52307129 0 0 0 0 -107918061.778862 51327588.682617188 0 51327588.682617188 110850097.14880371 0 0 0 0 -39647379.793836594 7881757.6750621796 0 7881757.6750621796 13992298.587921143 0 0 0 0 -10874165.637935983 -16989728.594398603 0 -16989728.594398603 39885426.548937917 0 0 0 0 -40641579.789527893 2264931.2779388428 0 2264931.2779388428 -894257.54555130005 0 0 0 0 -45315138.740097046 11280017.408874512 0 11280017.408874512 98657542.272758484 0 0 0 0 -87132245.282089233 -50985468.565307617 0 -50985468.565307617 57801022.228637695 0 0 0 0 -5461584.4395904541 -67481668.483978271 0 -67481668.483978271 125405819.14349365 0 0 0 0 -23845994.085891724 -5697852.7079162598 0 -5697852.7079162598 88163126.727508545 0 0 0 0 -36882969.45117569 27795699.727378845 0 27795699.727378845 30265944.264465332 0 0 0 0 -14478932.36609751 -17124.497255410999 0 -17124.497255410999 42149342.66053246 0 0 0 0 -13468171.890452437 -5118784.0359295234 0 -5118784.0359295234 53176723.975006782 0 0 0 0 -12697587.672052301 844405.02531313291 0 844405.02531313291 28764246.494807571 0 0 0 0 -10403434.1152457 -9119068.8838768005 0 -9119068.8838768005 37625073.720420837 0 0 0 0 -74940893.729528427 -30175391.659805298 0 -30175391.659805298 57807468.742919922 0 0 0 0 -33684360.836522102 -20912144.123981476 0 -20912144.123981476 6353274.1039428711 0 0 0 0 -438751.88832349004 2062368.8234661543 0 2062368.8234661543 -456005.18136683106 0 0 0 0 39061921.250886917 -31212115.925979614 0 -31212115.925979614 33746749.242389679 0 0 0 0 -322689.1137815835 -827887.77197513729 0 -827887.77197513729 838693.7816824764 0 0 0 0 150467254.41922617 54621689.334121704 0 54621689.334121704 61261379.788970947 0 0 0 0 -10021335.557326935 -170070.52565760165 0 -170070.52565760165 15989862.782139249 0 0 0 0 189353323.12732697 -2770958.0053710938 0 -2770958.0053710938 36117079.65953064 0 0 0 0 -8679901.4208631516 11955823.001480103 0 11955823.001480103 57332531.854068756 0 0 0 0 -149917344.216465 127961004.99935913 0 127961004.99935913 77136561.922729492 0 0 0 0 3713682.6441630572 11368892.137521744 0 11368892.137521744 45844164.693603516 0 0 0 0 -39307752.06583786 -75104300.343566895 0 -75104300.343566895 81676820.936309814 0 0 0 0 -14040660.090775501 3215411.7867903113 0 3215411.7867903113 46864203.550292969 0 0 0 0 -6335975.4619743936 6608146.2067712741 0 6608146.2067712741 29323265.035358869 0 0 0 0 -47552322.824373245 -49699088.030532837 0 -49699088.030532837 83703966.816741943 0 0 0 0 59349918.285841942 71245581.008674622 0 71245581.008674622 -34188905.415588379 0 0 0 0 -39118791.521770477 6626765.1987075806 0 6626765.1987075806 107053090.92301941 0 0 0 0 -21611890.41660038 17416094.260804728 0 17416094.260804728 8150963.0524620526 0 0 0 0 -64308287.987941742 74480370.851318359 0 74480370.851318359 112290561.86523438 0 0 0 0 -93535638.971828461 -30973172.677368164 0 -30973172.677368164 26391328.581787109 0 0 0 0 15220063.571422577 91678969.012786865 0 91678969.012786865 55246189.248596191 0 0 0 0 -6682606.4979162514 -830248.67498331517 0 -830248.67498331517 8151156.5710365642 0 0 0 0 -30042048.928790092 13381604.293708801 0 13381604.293708801 117323756.19155884 0 0 0 0 41752494.296749115 15665058.37840271 0 15665058.37840271 -76178436.763702393 0 0 0 0 3160306.8881640136 -1059807.2950439453 0 -1059807.2950439453 79329523.288497925 0 0 0 0 -7998711.0385680199 18008890.611305237 0 18008890.611305237 75018541.463317871 0 0 0 0 -24823443.633036613 25969460.829864502 0 25969460.829864502 99804785.822555542 0 0 0 0 -28038083.847846985 -25902041.492263794 0 -25902041.492263794 103342370.81759644 0 0 0 0 -3706122.9451760203 33375755.394329071 0 33375755.394329071 -3153228.9088516235 0 0 0 0 -69506819.238058627 39355948.179823399 0 39355948.179823399 72845081.959838867 0 0 0 0 83358.823642730713 14104609.947532654 0 14104609.947532654 41113675.269625306 0 0 0 0 -4450707.2872272134 24897673.608551025 0 24897673.608551025 41265688.042633057 0 0 0 0 -43282596.30921936 21626535.820671082 0 21626535.820671082 36085689.95211792 0 0 0 0 -32846644.568276405 2345247.2049636841 0 2345247.2049636841 68436790.183643341 0 0 0 0 -714585.07303489977 -986763.08588133752 0 -986763.08588133752 4417396.5120755248 0 0 0 0 -52689665.726727486 25585943.853050232 0 25585943.853050232 70551511.661399841 0 0 0 0 -4400422.9002933502 17735495.366882324 0 17735495.366882324 31257210.86738205 0 0 0 0 -10137746.72264564 -50547225.988098145 0 -50547225.988098145 58201896.746277809 0 0 0 0 -3064681.3350639534 -2233723.795992177 0 -2233723.795992177 6004989.2460084707 0 0 0 0 1152664.8702347875 21270713.546173096 0 21270713.546173096 33097965.558227539 0 0 0 0 -2571776.1684117317 13917115.534912109 0 13917115.534912109 28899830.137176514 0 0 0 0 -2586941.9863500595 12573147.225189209 0 12573147.225189209 46945603.963562012 0 0 0 0 -5984961.0233383179 -4241045.1459655762 0 -4241045.1459655762 50602036.69934082 0 0 0 0 352800.1344704628 16795191.570381165 0 16795191.570381165 27245989.60269928 0 0 0 0 -1232420.3801607015 -601098.78125919402 0 -601098.78125919402 14379308.567162324 0 0 0 0 -4863635.8940304955 7102003.5086265001 0 7102003.5086265001 28729045.957435749 0 0 0 0 -24324595.282501057 2625108.7248160839 0 2625108.7248160839 28285881.510559082 0 0 0 0 60001721.595550537 -10479248.205841064 0 -10479248.205841064 -92655251.175773621 0 0 0 0 -2142847.7287473273 -1047478.2572506815 0 -1047478.2572506815 9895879.1448004358 0 0 0 0 -3249112.0009337813 2816351.5087227821 0 2816351.5087227821 1570400.1756591797 0 0 0 0 -1524837.2627087305 4186194.4685431588 0 4186194.4685431588 12460968.963358052 0 0 0 0 -1876128.0675194548 5997599.8819140568 0 5997599.8819140568 16313468.110539734 0 0 0 0 -2762749.6931037488 -1688499.9983452372 0 -1688499.9983452372 23674971.885138318 0 0 0 0 -57810241.590058804 57821733.439903259 0 57821733.439903259 -67360303.863647461 0 0 0 0 -6716799.7039500475 12699045.362133026 0 12699045.362133026 39067882.051822662 0 0 0 0 -42274701.98689127 106341263.27226257 0 106341263.27226257 244617995.47496033 0 0 0 0 47121.71548380005 4343453.5699665798 0 4343453.5699665798 -254452.14440631866 0 0 0 0 78110932.053287506 -88688833.376434326 0 -88688833.376434326 -143160638.38031006 0 0 0 0 -287012232.69282675 364590059.121315 0 364590059.121315 430141252.91296387 0 0 0 0 -43290391.184704781 -45600701.240982056 0 -45600701.240982056 26834713.033859253 0 0 0 0 -73900013.896659851 -36285082.412288666 0 -36285082.412288666 13719916.001266479 0 0 0 0 -61373554.078532934 11525973.043876648 0 11525973.043876648 31326101.116577148 0 0 0 0 904020.39042021206 8945923.441670388 0 8945923.441670388 21924501.680241995 0 0 0 0 -12648354.11521107 27371894.430329978 0 27371894.430329978 26406670.24798584 0 0 0 0 -29087423.6770432 16422227.783317566 0 16422227.783317566 31234607.000346661 0 0 0 0 -29326928.189504862 -6243705.5445976257 0 -6243705.5445976257 36739331.646484375 0 0 0 0 -30580651.084074497 -10514759.331108093 0 -10514759.331108093 30801003.779521942 0 0 0 0 -32037240.997318506 -8236626.5501937866 0 -8236626.5501937866 29298573.359695435 0 0 0 0 -567856.31470143795 -5579179.109744072 0 -5579179.109744072 32854530.154159546 0 0 0 0 -23899810.456427574 7208937.7440299988 0 7208937.7440299988 41030058.06022644 0 0 0 0 -15099257.158723354 9993259.475440979 0 9993259.475440979 17050658.511016846 0 0 0 0 -24575963.185541153 3325679.3979110718 0 3325679.3979110718 16783420.023156643 0 0 0 0 3527211.2413673401 17929499.677093506 0 17929499.677093506 17346291.194610596 0 0 0 0 -62314581.644874573 9660384.7437667847 0 9660384.7437667847 44790735.101821899 0 0 0 0 -49086078.930763245 -11671350.546340942 0 -11671350.546340942 21415859.376464844 0 0 0 0 -1825007.9920220273 -287275.47834658995 0 -287275.47834658995 1762019.6856332347 0 0 0 0 71106784.239445686 67104745.885799408 0 67104745.885799408 45797879.578674316 0 0 0 0 50930404.390893936 86429211.957794189 0 86429211.957794189 74928457.840852737 0 0 0 0 -22816606.088954926 15752890.987411499 0 15752890.987411499 30072641.410339355 0 0 0 0 -18440372.939056396 364959.82929992676 0 364959.82929992676 19437830.436416626 0 0 0 0 3588831.0857696533 6507584.0525970459 0 6507584.0525970459 16853139.711029053 0 0 0 0 -42172102.700962067 14958726.660964966 0 14958726.660964966 34019417.951889038 0 0 0 0 -11741600.977781961 6416865.2729416024 0 6416865.2729416024 21480152.771714836 0 0 0 0 -44085438.018211365 8687258.8414840698 0 8687258.8414840698 32733959.713653564 0 0 0 0 17918431.487242699 49853500.968605042 0 49853500.968605042 27937442.678634644 0 0 0 0 -13152752.371570202 4305853.4281043969 0 4305853.4281043969 19119338.163497329 0 0 0 0 -36569769.830472946 -24776999.640586853 0 -24776999.640586853 30477905.795465946 0 0 0 0 -34293617.608548403 -21791040.466644287 0 -21791040.466644287 -6381843.8664550781 0 0 0 0 642111.95577753335 1047996.9850880653 0 1047996.9850880653 1226539.8502911478 0 0 0 0 43357624.717153072 40201237.367069244 0 40201237.367069244 128876529.93701172 0 0 0 0 13486568.437414169 57548424.426986694 0 57548424.426986694 149265929.08256149 0 0 0 0 21149333.437990189 15231680.812934875 0 15231680.812934875 21059060.710693359 0 0 0 0 -25606579.085220337 -9883593.5114440918 0 -9883593.5114440918 79362990.27507019 0 0 0 0 -64819533.741550565 -21372565.313418388 0 -21372565.313418388 78935547.113922119 0 0 0 0 -5404507.3575734077 -1540829.3027245179 0 -1540829.3027245179 1833244.2594217211 0 0 0 0 -12883389.265185356 -3582844.3935089111 0 -3582844.3935089111 65769313.97605896 0 0 0 0 -19627808.825733185 -11753044.917800903 0 -11753044.917800903 -3019510.320098877 0 0 0 0 -14954263.453849275 -1082266.0066838339 0 -1082266.0066838339 19218460.553367883 0 0 0 0 -17381967.898651123 -5256214.0181427002 0 -5256214.0181427002 -15861.95426940918 0 0 0 0 -2342541.6932515921 -375628.92016391829 0 -375628.92016391829 1355468.0407477021 0 0 0 0 5943075.9150257111 34237526.60144043 0 34237526.60144043 71390937.781341553 0 0 0 0 -1822973.1872636275 -316236.60188806057 0 -316236.60188806057 1793196.3108955026 0 0 0 0 33628748.54914403 69943931.096725464 0 69943931.096725464 61363406.458984375 0 0 0 0 -54376111.422981262 -27227307.60925293 0 -27227307.60925293 36404885.069625854 0 0 0 0 -38552134.997675896 -115835196.39227295 0 -115835196.39227295 56201963.350280762 0 0 0 0 -26001869.956054688 32660900.101280212 0 32660900.101280212 124930884.79634094 0 0 0 0 -219753024.89059258 107370059.64129639 0 107370059.64129639 97678724.824752808 0 0 0 0 -87959215.673300982 -101893033.55263519 0 -101893033.55263519 125074804.68835449 0 0 0 0 -3102245.2474372815 -495562.752642937 0 -495562.752642937 3011288.7181280255 0 0 0 0 -60761425.5303936 104230617.45675659 0 104230617.45675659 72841253.401275635 0 0 0 0 9346733.4450396299 28756458.788789749 0 28756458.788789749 72502515.898529053 0 0 0 0 -11336613.657993793 71787155.461509705 0 71787155.461509705 -33135637.613708496 0 0 0 0 22209144.846765518 9067086.0386581421 0 9067086.0386581421 83721583.482303619 0 0 0 0 -1959834.3537755255 30047.70052883774 0 30047.70052883774 3339605.5140043199 0 0 0 0 51505886.789028168 -11328492.446899414 0 -11328492.446899414 139926858.14692688 0 0 0 0 -162117246.89570475 216426715.75689697 0 216426715.75689697 497939044.38122559 0 0 0 0 617869676.41883659 300365286.40052795 0 300365286.40052795 278079950.64323425 0 0 0 0 1486609344.1755066 596680521.45938873 0 596680521.45938873 -174441440.99213409 0 0 0 0 794216856.56275558 1308485228.2790222 0 1308485228.2790222 1222241233.0205994 0 0 0 0 82529186.90708828 170978145.67545319 0 170978145.67545319 426162137.85105133 0 0 0 0 33119125.346874237 19907038.122909546 0 19907038.122909546 -57595291.601455688 0 0 0 0 21542471.635620117 140803957.39374542 0 140803957.39374542 -7374702.9707946777 0 0 0 0 50671807.904420853 236510509.06504059 0 236510509.06504059 291562870.33056641 0 0 0 0 -77253234.034797668 143150617.39701843 0 143150617.39701843 381539785.63342285 0 0 0 0 -3955770.9761845702 1924065.4151821733 0 1924065.4151821733 8917579.0919063017 0 0 0 0 44854772.743480682 47667076.041107178 0 47667076.041107178 44481541.371581078 0 0 0 0 248907309.98989105 42948474.626052856 0 42948474.626052856 135632209.68844604 0 0 0 0 -78598284.275393844 123676818.82305956 0 123676818.82305956 311135835.63653564 0 0 0 0 -17388406.790359497 382879369.40286255 0 382879369.40286255 392365832.69590759 0 0 0 0 -7415010.1760635376 35054809.041488647 0 35054809.041488647 73339002.096893311 0 0 0 0 -4513152.3758340683 6380363.1921091229 0 6380363.1921091229 16115921.553694114 0 0 0 0 -3172554.5192108154 24246934.522705078 0 24246934.522705078 56630133.735870361 0 0 0 0 -32440663.075149536 18943999.146911621 0 18943999.146911621 72361840.952606201 0 0 0 0 -29304399.896994591 6197885.0236930847 0 6197885.0236930847 52987835.412872314 0 0 0 0 11445304.344551086 62870535.603897095 0 62870535.603897095 73119981.994805336 0 0 0 0 -32084055.940142632 15127029.12569046 0 15127029.12569046 67490368.50994873 0 0 0 0 30374711.104942322 50983726.511550903 0 50983726.511550903 123633759.42300415 0 0 0 0 60541123.368286133 111363720.14227295 0 111363720.14227295 158271081.55539995 0 0 0 0 11584623.361946106 42908269.475601196 0 42908269.475601196 158355452.7713623 0 0 0 0 -88196764.68188858 159163432.7127533 0 159163432.7127533 306424567.2598877 0 0 0 0 238361777.05735016 178206261.04866028 0 178206261.04866028 125354354.01824951 0 0 0 0 111028671.46634483 96880829.440910339 0 96880829.440910339 102051393.36810303 0 0 0 0 217482805.99257278 62430246.923675537 0 62430246.923675537 45811352.301879883 0 0 0 0 103280990.45606613 119058892.7926712 0 119058892.7926712 116215192.21392822 0 0 0 0 83445576.083572388 96883116.736816406 0 96883116.736816406 93639485.453186035 0 0 0 0 33579131.908149719 84040408.910858154 0 84040408.910858154 131333543.30310059 0 0 0 0 461068.06394402077 3611787.4245425146 0 3611787.4245425146 1808707.8109282702 0 0 0 0 -74288637.161897659 24351536.653121948 0 24351536.653121948 49388141.296539307 0 0 0 0 388710435.64620972 333700067.84398651 0 333700067.84398651 113509775.46008301 0 0 0 0 -55892156.144062042 110956695.27770996 0 110956695.27770996 310663853.87904501 0 0 0 0 296907177.86595726 105354144.31787872 0 105354144.31787872 43859447.085571289 0 0 0 0 8374215.0548210144 29514550.87827301 0 29514550.87827301 15155474.920623779 0 0 0 0 2272350.5467001614 9877410.2431303784 0 9877410.2431303784 5021529.4170835912 0 0 0 0 31806883.016899109 24612945.587602615 0 24612945.587602615 -9653061.6712646484 0 0 0 0 -1840516.3337831702 4827202.1992059574 0 4827202.1992059574 7330556.8324914798 0 0 0 0 59780936.312919617 47491643.032089233 0 47491643.032089233 41072744.571960449 0 0 0 0 92036866.715700626 80932701.75856781 0 80932701.75856781 50374929.732635498 0 0 0 0 47917096.522132874 80095351.729293823 0 80095351.729293823 88056057.646697998 0 0 0 0 90603625.185523987 31985832.432312012 0 31985832.432312012 42362412.361516953 0 0 0 0 48649445.315143585 57365822.093170166 0 57365822.093170166 42850145.900634766 0 0 0 0 4645821.882242078 7014188.5423893444 0 7014188.5423893444 4497961.3815910667 0 0 0 0 44208950.293922424 24016427.944709778 0 24016427.944709778 11784863.224367142 0 0 0 0 76243503.927131653 51547659.135597229 0 51547659.135597229 14592044.7631073 0 0 0 0 29815580.88205719 20172220.693260193 0 20172220.693260193 12305383.129951477 0 0 0 0 26854130.257284164 41121670.583473206 0 41121670.583473206 26821407.969100952 0 0 0 0 2113541033.0659266 2190793336.461731 0 2190793336.461731 1933593260.1803041 0 0 0 0 178190.50589664094 385046.4245813787 0 385046.4245813787 4879619.1521583125 0 0 0 0 2285483476.7919426 1853460678.188612 0 1853460678.188612 1659978368.4985199 0 0 0 0 1521544099.4781773 1575875893.7386284 0 1575875893.7386284 1750454555.7215881 0 0 0 0 36399770.017570496 -8487437.9178314209 0 -8487437.9178314209 11622181.760971069 0 0 0 0 13784722.167960167 18731936.171203613 0 18731936.171203613 39511496.902374268 0 0 0 0 70136518.621702194 19567841.458068848 0 19567841.458068848 8507487.9476318359 0 0 0 0 -1504202.451341331 1544858.6291075796 0 1544858.6291075796 3132019.2423544303 0 0 0 0 63263830.751094818 54480450.791152954 0 54480450.791152954 49283368.065216064 0 0 0 0 -17488811.263788939 9292774.462852478 0 9292774.462852478 49567832.103935242 0 0 0 0 -18504979.096148014 5668647.5883789062 0 5668647.5883789062 40263437.263847351 0 0 0 0 -26293251.628901243 4853590.0382022858 0 4853590.0382022858 43696149.742538452 0 0 0 0 -18566466.602112532 -2401959.4900932312 0 -2401959.4900932312 35836322.290893555 0 0 0 0 -5223805.6567451954 6512153.7308387756 0 6512153.7308387756 32107374.85736084 0 0 0 0 -10548574.44013834 4936014.5322418213 0 4936014.5322418213 41770369.998867035 0 0 0 0 -12241321.529138446 5299897.2281913757 0 5299897.2281913757 49411489.281051636 0 0 0 0 -1452165.2573904991 3624303.3150787354 0 3624303.3150787354 49611784.891269684 0 0 0 0 2947896.8868060112 8488238.4379501343 0 8488238.4379501343 43884318.041519165 0 0 0 0 -7880302.4622555524 762312.85714422166 0 762312.85714422166 24077015.279390223 0 0 0 0 -1837940.5691571236 10879297.692344666 0 10879297.692344666 49188975.040618896 0 0 0 0 172651.04209496139 1098218.279241465 0 1098218.279241465 3642032.6463847905 0 0 0 0 -1413334.3086647987 11770648.702442169 0 11770648.702442169 41540438.471839905 0 0 0 0 -6435875.8676316878 4811494.4053375386 0 4811494.4053375386 25800364.91417785 0 0 0 0 -4954254.7310279608 4907590.8996419907 0 4907590.8996419907 41053200.680267334 0 0 0 0 3637239.4811859131 19573955.198196411 0 19573955.198196411 41779073.682891846 0 0 0 0 -13260122.354016906 10968706.635885123 0 10968706.635885123 27216530.49853944 0 0 0 0 17985854.771446228 20190197.200683594 0 20190197.200683594 45929357.563491821 0 0 0 0 16425312.545692444 26207939.051635742 0 26207939.051635742 49610513.283782959 0 0 0 0 10598898.126945496 14736179.552947998 0 14736179.552947998 45086076.170501709 0 0 0 0 -4964465.4514694214 22390211.360443115 0 22390211.360443115 60140350.518188477 0 0 0 0 -6977764.3520956039 3185418.0912475586 0 3185418.0912475586 10531022.169952393 0 0 0 0 5770497.3309936523 72779300.037475586 0 72779300.037475586 134664450.84698486 0 0 0 0 5770497.3311920166 72779300.03717041 0 72779300.03717041 134664450.8469162 0 0 0 0 5770497.331161499 72779300.037139893 0 72779300.037139893 134664450.84677124 0 0 0 0 -7363488.9727840312 10966239.969287246 0 10966239.969287246 22253446.787226863 0 0 0 0 7538041.2025680542 40091602.543075562 0 40091602.543075562 75682731.58644104 0 0 0 0 -12785318.290119793 3190062.8632727489 0 3190062.8632727489 24131285.591777243 0 0 0 0 16792625.267303467 61814995.49697876 0 61814995.49697876 96120167.258300781 0 0 0 0 -7291366.2226066589 57605783.445953369 0 57605783.445953369 119487289.42840576 0 0 0 0 35956529.184528351 79934342.034950256 0 79934342.034950256 112763110.33428955 0 0 0 0 51915628.020339966 66883690.461008072 0 66883690.461008072 48041205.551574707 0 0 0 0 27104188.564182281 57635542.665504456 0 57635542.665504456 63287290.229553223 0 0 0 0 47596004.032333374 81423765.269683838 0 81423765.269683838 90500708.220249176 0 0 0 0 37061339.054954529 45328556.676639557 0 45328556.676639557 32887427.958251953 0 0 0 0 35795087.327510834 47106465.55191803 0 47106465.55191803 40967824.023059845 0 0 0 0 33917299.566127777 46628528.993057251 0 46628528.993057251 60357480.391067505 0 0 0 0 292380.03662323952 14082186.587657928 0 14082186.587657928 51376557.094436646 0 0 0 0 -12357253.621532535 9590586.5308948252 0 9590586.5308948252 35218333.945746131 0 0 0 0 26418706.815940857 50592909.518102646 0 50592909.518102646 58993134.179077148 0 0 0 0 26875611.630489349 54290048.88710022 0 54290048.88710022 80923975.844745636 0 0 0 0 -4340465.270603776 22773651.195823669 0 22773651.195823669 41429757.713485718 0 0 0 0 -3496117.1182374954 25638938.183803558 0 25638938.183803558 50278939.354881287 0 0 0 0 -12513853.187140942 12033468.029754639 0 12033468.029754639 64711576.876861572 0 0 0 0 -13783492.438008308 7230587.5264186859 0 7230587.5264186859 46556844.097366333 0 0 0 0 -13564901.112467527 9882859.6339912415 0 9882859.6339912415 28612031.409914017 0 0 0 0 -10447160.596626759 10904108.176177979 0 10904108.176177979 27852346.694599152 0 0 0 0 -10636606.970959187 14573473.436351776 0 14573473.436351776 37463184.908569336 0 0 0 0 -53561551.273781776 12499012.154762268 0 12499012.154762268 57627688.742362976 0 0 0 0 4807581.3187437337 8472377.2866902091 0 8472377.2866902091 16628544.340167537 0 0 0 0 961529.30643804371 -102052279.45012426 0 -102052279.45012426 -95478973.102661133 0 0 0 0 -10309181.618017912 13974822.958717346 0 13974822.958717346 23214106.720794678 0 0 0 0 -680473.21093392372 39412856.689159155 0 39412856.689159155 29771642.44178009 0 0 0 0 -3331060.8798975851 9423038.8482946083 0 9423038.8482946083 26246948.933157604 0 0 0 0 39812486.269081116 42158945.815628052 0 42158945.815628052 38523282.640975952 0 0 0 0 -9578746.9512315746 17341002.353388097 0 17341002.353388097 33880628.650317281 0 0 0 0 21941675.450930722 23290303.957439326 0 23290303.957439326 18765822.465538427 0 0 0 0 21283537.511794169 73317968.962440491 0 73317968.962440491 -10107516.642364502 0 0 0 0 34159215.933486938 39988431.090515137 0 39988431.090515137 40600283.358322144 0 0 0 0 30970849.618081093 28440896.556707382 0 28440896.556707382 27998630.761077881 0 0 0 0 7648786.8107425869 9102980.6460626293 0 9102980.6460626293 10191204.685327157 0 0 0 0 -34347808.252498627 -25530664.146083832 0 -25530664.146083832 -21625406.201931 0 0 0 0 8743970.1425147057 8870503.3904399872 0 8870503.3904399872 13417307.612823486 0 0 0 0 5124249.2287197113 13228690.360099792 0 13228690.360099792 20744149.480834961 0 0 0 0 16191692.071606087 7400036.6884187683 0 7400036.6884187683 1152228.674628567 0 0 0 0 847880.51566384267 -1283588.7729777284 0 -1283588.7729777284 -1170813.4145664684 0 0 0 0 -216838018.11212718 434059094.06772995 0 434059094.06772995 3858051218.7020264 0 0 0 0 772314084.68957448 26121488.773193359 0 26121488.773193359 -2103463444.6072388 0 0 0 0 329257326.49237537 316648657.10359955 0 316648657.10359955 3851188018.3170776 0 0 0 0 1265214555.4807842 2056634587.5516701 0 2056634587.5516701 5986408899.3304596 0 0 0 0 -152788852.70834747 1909164151.5298767 0 1909164151.5298767 6703018590.7067947 0 0 0 0 -828605506.9144733 2115502226.3590851 0 2115502226.3590851 8683381820.7880707 0 0 0 0 597078531.54794121 2224310121.5716286 0 2224310121.5716286 3156314846.9008408 0 0 0 0 253900422.82631853 -459000494.4494276 0 -459000494.4494276 2989590577.3440628 0 0 0 0 10105035.032330677 18685220.927652359 0 18685220.927652359 30796457.826532364 0 0 0 0 -111095131.09485957 155670921.36914062 0 155670921.36914062 -15962045.054672241 0 0 0 0 5288883.55968442 2795522.3978345692 0 2795522.3978345692 15679556.073142231 0 0 0 0 982326.44383304217 3464422.7952219546 0 3464422.7952219546 5304635.886307627 0 0 0 0 -146447033.1733411 120797374.53134155 0 120797374.53134155 -23244714.95079422 0 0 0 0 -130165684.92249045 200716686.43856049 0 200716686.43856049 152448482.03176117 0 0 0 0 381885642.06089067 254277229.53783035 0 254277229.53783035 -56267677.075901031 0 0 0 0 -508550369.69316697 -524618364.64684677 0 -524618364.64684677 249183289.97951508 0 0 0 0 795806130.42926657 3062905440.538249 0 3062905440.538249 5980683646.5181198 0 0 0 0 1895610.401291342 3094030.1195287183 0 3094030.1195287183 11982016.660744004 0 0 0 0 -437374310.64402652 -1175704839.4713211 0 -1175704839.4713211 5950588158.5672808 0 0 0 0 591598638.47981894 1378351286.4306183 0 1378351286.4306183 2462502200.8969688 0 0 0 0 545819631.40825379 -181072805.74903488 0 -181072805.74903488 -94989645.920646667 0 0 0 0 1941009414.8320296 2187310051.6897898 0 2187310051.6897898 2438795672.3536224 0 0 0 0 1891417065.6219759 2677916019.1425171 0 2677916019.1425171 2872519857.525383 0 0 0 0 1452115116.901247 2024550089.670002 0 2024550089.670002 2217281614.9148407 0 0 0 0 2043815048.0896797 2063705982.6519012 0 2063705982.6519012 2133354066.146965 0 0 0 0 1429728144.8712924 2059019090.7970734 0 2059019090.7970734 2676558252.3948822 0 0 0 0 2074930117.3353786 2102684382.464241 0 2102684382.464241 1937478730.8747244 0 0 0 0 1575855397.5424981 1267675442.9066467 0 1267675442.9066467 1351607724.606041 0 0 0 0 3455099.8514351174 2219986.1875156984 0 2219986.1875156984 11839157.053328581 0 0 0 0 3543087.1565513611 17597587.783714294 0 17597587.783714294 21938921.476638794 0 0 0 0 1906232.2720492817 15330942.858062949 0 15330942.858062949 15915369.377813295 0 0 0 0 4874624.4041806925 12521529.035234967 0 12521529.035234967 11384374.340367503 0 0 0 0 -131618.81322351168 5421311.8518219953 0 5421311.8518219953 23502872.267337635 0 0 0 0 32249176.074659348 32840193.047569275 0 32840193.047569275 -351691965.78045654 0 0 0 0 1507986298.3395915 1267817709.0295525 0 1267817709.0295525 1371128816.1341858 0 0 0 0 2971053268.5336723 2260395498.9561462 0 2260395498.9561462 1336845037.4675155 0 0 0 0 2786604165.8762898 3081343713.6084137 0 3081343713.6084137 2623734248.7491989 0 0 0 0 3003620267.5109668 3815283078.4550056 0 3815283078.4550056 4924672934.8067322 0 0 0 0 3408461334.6797547 3268353107.3806152 0 3268353107.3806152 4706167823.3943443 0 0 0 0 7125405300.6282578 5483823319.9556313 0 5483823319.9556313 4501579264.8950806 0 0 0 0 -327153463.38039398 -857799314.09881592 0 -857799314.09881592 3788157838.2741699 0 0 0 0 239806.92461026506 1829117.3675324377 0 1829117.3675324377 8760246.4689794257 0 0 0 0 543903713.94913423 929898329.18829155 0 929898329.18829155 -802887652.11376953 0 0 0 0 5039711226.203989 2692003991.5741119 0 2692003991.5741119 779083144.26845932 0 0 0 0 3487045492.1922493 3822922741.6264725 0 3822922741.6264725 8297512933.8237381 0 0 0 0 5120679890.3724766 3961725869.0177917 0 3961725869.0177917 6184349013.4132309 0 0 0 0 5053418010.0873051 1452370599.4190934 0 1452370599.4190934 6963083847.385498 0 0 0 0 3495627701.6371427 2699616679.8327789 0 2699616679.8327789 5983658366.8992386 0 0 0 0 1777921497.0135522 2568052714.313385 0 2568052714.313385 6748761298.1187057 0 0 0 0 590044291.00713718 2546590875.796154 0 2546590875.796154 5988170925.821106 0 0 0 0 1746894706.0784831 2295629366.6392193 0 2295629366.6392193 4817267666.6612091 0 0 0 0 1167410918.4139295 2270638546.4896317 0 2270638546.4896317 3225108921.3130531 0 0 0 0 1612336451.7206006 3184320374.0752411 0 3184320374.0752411 4820880551.0121307 0 0 0 0 927688308.40656495 2446946128.0484238 0 2446946128.0484238 3891843072.1745758 0 0 0 0 -84914539.552687049 1504314253.3474884 0 1504314253.3474884 4395550353.3622818 0 0 0 0 -670800760.4990536 1672232856.365593 0 1672232856.365593 5971464454.6368017 0 0 0 0 -1465070030.2590559 304415367.48500824 0 304415367.48500824 3619322025.5195465 0 0 0 0 -606809082.6833396 1642852553.9601898 0 1642852553.9601898 3821148531.9899797 0 0 0 0 373288016.52247721 1807792312.8329544 0 1807792312.8329544 3223173475.8468857 0 0 0 0 384715089.60428542 1622387405.9586792 0 1622387405.9586792 3130233903.3031845 0 0 0 0 -24859587.558904037 1299870235.0984459 0 1299870235.0984459 2923090293.5791779 0 0 0 0 860379369.44983053 1627944824.1587296 0 1627944824.1587296 2373705250.9137497 0 0 0 0 851724205.83940613 1546958378.89254 0 1546958378.89254 2405422130.8875198 0 0 0 0 -492781110.10768509 469627116.6399231 0 469627116.6399231 3257537621.4857826 0 0 0 0 -356009232.39591694 25471360.077817857 0 25471360.077817857 2150641666.9565735 0 0 0 0 -81007957.771351814 1060009292.2061872 0 1060009292.2061872 2708024323.8830414 0 0 0 0 242222224.10612154 948844278.04193878 0 948844278.04193878 2632087036.4826775 0 0 0 0 -812207334.06509149 886061130.53503513 0 886061130.53503513 3451156516.2106171 0 0 0 0 -297247110.74934101 795818432.48155975 0 795818432.48155975 3339356775.3633118 0 0 0 0 -188812580.8543303 1014030724.8110275 0 1014030724.8110275 3408316894.7126465 0 0 0 0 663666555.98633575 787107628.90278625 0 787107628.90278625 3278392920.3195648 0 0 0 0 -5265912.0562539129 -48997.637525383383 0 -48997.637525383383 9091474.7191604525 0 0 0 0 1272949114.0724411 3082775923.2816162 0 3082775923.2816162 5983015290.3918686 0 0 0 0 -146238451.7228519 1078275111.6574073 0 1078275111.6574073 3576303875.95578 0 0 0 0 -142047795.41991234 1018704171.1697159 0 1018704171.1697159 2947808257.9978256 0 0 0 0 -891481751.25852942 -574395131.7730484 0 -574395131.7730484 1163795677.9772797 0 0 0 0 -4441916.8504266106 118075.16416657716 0 118075.16416657716 9919519.720926851 0 0 0 0 -130982191.35578251 1471834197.3359985 0 1471834197.3359985 4134955073.9250183 0 0 0 0 -2232407951.710494 798930033.24544525 0 798930033.24544525 5983799671.6068726 0 0 0 0 -53607832.218704343 1514269546.6610641 0 1514269546.6610641 3137104209.630249 0 0 0 0 -1086855798.9049277 947988322.2216301 0 947988322.2216301 3713520337.6016922 0 0 0 0 -742546318.62118316 100912837.41704178 0 100912837.41704178 5690583189.2355042 0 0 0 0 139797282.7672565 -118255682.92920303 0 -118255682.92920303 4476393129.1390076 0 0 0 0 -1194340501.8443031 -1348872882.2926483 0 -1348872882.2926483 6274495612.0886078 0 0 0 0 -2747976289.1986532 895686227.93582153 0 895686227.93582153 4074997957.9729156 0 0 0 0 -1330341.6694887597 1551010.0762063488 0 1551010.0762063488 3113998.549821496 0 0 0 0 -317937987.50911236 66013359.559677124 0 66013359.559677124 3008952330.4333572 0 0 0 0 -1356992478.4420929 -258593272.45890808 0 -258593272.45890808 4902829859.0769043 0 0 0 0 -1857687825.9160728 69347483.284240723 0 69347483.284240723 4823217420.1029968 0 0 0 0 -214191169.27250385 -843711060.12588501 0 -843711060.12588501 3585815229.0273285 0 0 0 0 -342864858.07505512 -245489099.59165955 0 -245489099.59165955 2386936100.1725769 0 0 0 0 1033089894.4095922 -1252788172.5021362 0 -1252788172.5021362 3595050383.8386078 0 0 0 0 841841292.28645992 2733157579.2306595 0 2733157579.2306595 5266593441.6434479 0 0 0 0 -605425172.12705135 3314345629.5094299 0 3314345629.5094299 7052029158.5238953 0 0 0 0 -2704030.2467294149 56443.278293773532 0 56443.278293773532 4115154.8888934031 0 0 0 0 -299600018.44945717 2213834160.8167877 0 2213834160.8167877 5526627405.1895905 0 0 0 0 -2847438311.6831207 1243350880.5554047 0 1243350880.5554047 3234673553.0911865 0 0 0 0 -2550259563.4996986 -1363034156.6260147 0 -1363034156.6260147 2375954786.8426113 0 0 0 0 -2316143617.4761181 457828219.52488708 0 457828219.52488708 5211253327.1688232 0 0 0 0 -2188894871.0286751 26624065.895202637 0 26624065.895202637 4333031956.0361328 0 0 0 0 -2130561367.2474937 1206863015.0046387 0 1206863015.0046387 7111922504.1029377 0 0 0 0 -1887931483.3128433 1106130201.4562378 0 1106130201.4562378 5923379560.8124809 0 0 0 0 -2168437343.270999 322671145.91895103 0 322671145.91895103 5878853159.1697388 0 0 0 0 -944863184.54724264 1058866093.8453064 0 1058866093.8453064 3891733700.2445679 0 0 0 0 -1102948584.7113695 1502470069.2636337 0 1502470069.2636337 5055245741.1997681 0 0 0 0 -2122349215.0093689 560030113.53918457 0 560030113.53918457 4937217656.0440674 0 0 0 0 -1441609810.243309 707720488.05221558 0 707720488.05221558 4834561893.5850677 0 0 0 0 -1428560265.5032425 906051973.53944397 0 906051973.53944397 4014935082.7585449 0 0 0 0 -1652279170.2928448 221627246.17478943 0 221627246.17478943 4132318240.4539795 0 0 0 0 -1142426013.5669003 510324744.45300293 0 510324744.45300293 3861475007.732193 0 0 0 0 -1121666389.2289162 673898803.24026489 0 673898803.24026489 4059105101.4377403 0 0 0 0 -841426497.38856125 813760710.71665192 0 813760710.71665192 2766114906.8575134 0 0 0 0 -887431509.80103874 1073711532.2245407 0 1073711532.2245407 3891501883.4336243 0 0 0 0 -361223216.29257441 570676668.8037796 0 570676668.8037796 2055121249.4681702 0 0 0 0 -329089741.61449194 1072140211.4372931 0 1072140211.4372931 3385172659.7647095 0 0 0 0 -367404465.76769257 1104590552.4565964 0 1104590552.4565964 3367188952.1253662 0 0 0 0 -518034609.04197216 1069733883.4927559 0 1069733883.4927559 39762268.448150635 0 0 0 0 -1269899773.4947891 833353909.54680634 0 833353909.54680634 2150122105.6580734 0 0 0 0 -713792035.15981293 411164456.13851929 0 411164456.13851929 2692795673.8497677 0 0 0 0 -543086941.14399767 713486719.8665657 0 713486719.8665657 1989540172.2268829 0 0 0 0 -67533516.736509323 -4526978.9981155396 0 -4526978.9981155396 144655878.29292679 0 0 0 0 -2656514.2933036359 2408702.6271724477 0 2408702.6271724477 4588267.6717465073 0 0 0 0 170641906.17236757 -30774868.624343872 0 -30774868.624343872 -1134342132.585022 0 0 0 0 -244528735.88773894 380170079.69272614 0 380170079.69272614 281863232.73002625 0 0 0 0 272375971.92066425 415501805.61523914 0 415501805.61523914 331054805.2928772 0 0 0 0 289253921.85397637 -1093480627.3659058 0 -1093480627.3659058 1654930297.5017395 0 0 0 0 194949260.10768986 -340968919.74398804 0 -340968919.74398804 686861610.57194519 0 0 0 0 363271315.07452774 -56553105.065307617 0 -56553105.065307617 -439491968.24991608 0 0 0 0 -7155905.3624124844 10316002.431528781 0 10316002.431528781 14844828.655524924 0 0 0 0 -235172483.99114895 -31436067.162559509 0 -31436067.162559509 31964824.516937256 0 0 0 0 5457453.8207377205 19852324.66376476 0 19852324.66376476 26559597.890434563 0 0 0 0 -220420836.50777191 185394110.16348267 0 185394110.16348267 249312037.41282654 0 0 0 0 16575417.590401649 17439877.568683624 0 17439877.568683624 4984977.631439209 0 0 0 0 -1616156.0357565749 7144064.2696704641 0 7144064.2696704641 14107180.869151991 0 0 0 0 20087911.523789406 39575719.251840591 0 39575719.251840591 22415291.153167725 0 0 0 0 9380639.116651535 20563652.038612366 0 20563652.038612366 15884402.829864502 0 0 0 0 6825767.518658638 32923768.114564896 0 32923768.114564896 50459241.004882812 0 0 0 0 7888560.3609657995 23849417.000642404 0 23849417.000642404 26778205.878952697 0 0 0 0 -8919130.290845871 75844727.548744202 0 75844727.548744202 56995370.45747757 0 0 0 0 -11056133.853149343 -3586344.2834603563 0 -3586344.2834603563 15280413.277876087 0 0 0 0 618988223.13028622 1157331873.4745483 0 1157331873.4745483 2018408320.4814758 0 0 0 0 10657301.207159042 55347747.578811646 0 55347747.578811646 67117270.932861328 0 0 0 0 339295995.5155158 838168692.24985504 0 838168692.24985504 1946435250.9595795 0 0 0 0 -328895.36993367691 -160577.71973203123 0 -160577.71973203123 674673.4197794348 0 0 0 0 -226078028.79029083 885580554.58331299 0 885580554.58331299 3511674495.7010498 0 0 0 0 -179998550.02260208 101925204.79583073 0 101925204.79583073 48424364.740234375 0 0 0 0 19082934.776973724 26732880.326644897 0 26732880.326644897 -8434139.8888702393 0 0 0 0 5545873.0608473299 3337981.1831466183 0 3337981.1831466183 9775408.8623366803 0 0 0 0 602274872.48144627 1002000252.2546234 0 1002000252.2546234 2642159814.5368805 0 0 0 0 529910292.47177505 1307298362.0396118 0 1307298362.0396118 3245910238.6001892 0 0 0 0 472411627.33512878 1536930196.816925 0 1536930196.816925 3069061680.3369141 0 0 0 0 880582299.07783675 1259037122.2292976 0 1259037122.2292976 2379404344.2715454 0 0 0 0 -305782227.78087842 738432486.92624378 0 738432486.92624378 -1035251826.8916016 0 0 0 0 480729901.86524391 1990842710.2496567 0 1990842710.2496567 4549793412.73069 0 0 0 0 1024079.9708268652 648102.06895408779 0 648102.06895408779 3450087.6693049818 0 0 0 0 871696175.07906318 1415166803.7155724 0 1415166803.7155724 1201975886.7141113 0 0 0 0 561145967.25307941 841745229.33916473 0 841745229.33916473 1035156137.0176163 0 0 0 0 1254778812.4852934 1933659097.2349968 0 1933659097.2349968 1740441018.2235107 0 0 0 0 506144009.53913641 1241047268.4055328 0 1241047268.4055328 2277942165.1646729 0 0 0 0 649129294.34050786 1352039817.4252243 0 1352039817.4252243 1438025059.0446014 0 0 0 0 507011230.88805282 871960865.90470886 0 871960865.90470886 749024042.70202637 0 0 0 0 386712140.69776726 870457432.1378479 0 870457432.1378479 811003544.69572449 0 0 0 0 994839829.03843069 1398222099.9983749 0 1398222099.9983749 931467260.87958145 0 0 0 0 792314616.53928995 1525406163.0734863 0 1525406163.0734863 1248503941.4510345 0 0 0 0 769457511.31540728 1342748514.9618893 0 1342748514.9618893 1204329795.0625 0 0 0 0 1134997873.8078203 1164922470.6481323 0 1164922470.6481323 1280100264.7404671 0 0 0 0 1157540160.2628932 1556635622.010643 0 1556635622.010643 1300974893.3415489 0 0 0 0 791254887.73908567 1602753919.3968277 0 1602753919.3968277 1615515786.3713837 0 0 0 0 499363054.15528679 1018073450.4768219 0 1018073450.4768219 1739580209.7661285 0 0 0 0 199895438.36128998 781412678.40987015 0 781412678.40987015 1985754810.9491577 0 0 0 0 -845731560.99566245 -477855024.24561882 0 -477855024.24561882 341297560.28469849 0 0 0 0 -75330889.853099823 229098408.72560883 0 229098408.72560883 1351470513.5346069 0 0 0 0 -85736353.09842205 724082796.73329926 0 724082796.73329926 2060190724.1635914 0 0 0 0 715687918.12376595 1345297784.27034 0 1345297784.27034 -699001604.01034546 0 0 0 0 696414525.32788563 1437816050.9957275 0 1437816050.9957275 1382235401.3460236 0 0 0 0 720117368.24109507 1552872572.5938683 0 1552872572.5938683 557928718.00140381 0 0 0 0 -543186818.3477354 -410722556.08224106 0 -410722556.08224106 5981060445.0191498 0 0 0 0 -88950.252163629484 -17237817.875995636 0 -17237817.875995636 3575197486.2345276 0 0 0 0 -23948461.575660598 211527402.361866 0 211527402.361866 1526746391.1246185 0 0 0 0 17542187.288626425 10010426.528740287 0 10010426.528740287 737435409.7575531 0 0 0 0 121406947.01258284 715511460.35300446 0 715511460.35300446 6969138324.0210876 0 0 0 0 350550853.35373878 -2342482253.8153687 0 -2342482253.8153687 6872242597.8168945 0 0 0 0 -134484.87096469876 1471237.0225264132 0 1471237.0225264132 3240184.7420506179 0 0 0 0 -1783645701.6696155 -589927024.82984543 0 -589927024.82984543 5228275267.0393982 0 0 0 0 973961.37414704566 3249569.3534769863 0 3249569.3534769863 5494293.0108352676 0 0 0 0 -717694705.07444298 -74658423.924209595 0 -74658423.924209595 3225607811.5085449 0 0 0 0 19156822.368920114 74501367.983316898 0 74501367.983316898 2051425863.8477936 0 0 0 0 -12433439.21026063 35225102.652374268 0 35225102.652374268 2116666436.3504181 0 0 0 0 27210301.190036178 -658683400.90621948 0 -658683400.90621948 3377191358.0792847 0 0 0 0 1328789.011069298 1553777.934260264 0 1553777.934260264 2313090.6343537048 0 0 0 0 -400172861.56989956 71859567.575073242 0 71859567.575073242 6599655249.2886505 0 0 0 0 178487885.62978959 3458175285.970047 0 3458175285.970047 174727558.21229553 0 0 0 0 363382698.56735933 1649531406.4307098 0 1649531406.4307098 2734099002.9287872 0 0 0 0 1378074994.2832069 2124092923.7503052 0 2124092923.7503052 1627970415.575531 0 0 0 0 278389207.08357811 -294367523.24319458 0 -294367523.24319458 1362015953.0467854 0 0 0 0 240112044.51092911 3035781226.2679749 0 3035781226.2679749 4451658917.4057007 0 0 0 0 1511562723.6956196 -406618211.98202515 0 -406618211.98202515 5665168628.8686523 0 0 0 0 -204060418.31184673 1291005243.8866425 0 1291005243.8866425 5480194845.0697021 0 0 0 0 115305264.4823308 249623388.3034668 0 249623388.3034668 1427840729.6776962 0 0 0 0 1400167847.7860374 797798525.08977413 0 797798525.08977413 7006628211.7375336 0 0 0 0 -174667642.84088334 63370236.920761108 0 63370236.920761108 5451059091.9334831 0 0 0 0 1559161426.9792449 -1648289664.5896683 0 -1648289664.5896683 6094880662.9020691 0 0 0 0 111922536.15111032 -435101811.5548172 0 -435101811.5548172 5985324802.8302479 0 0 0 0 1961325.5057525442 1481559.7153123766 0 1481559.7153123766 2885437.6299499758 0 0 0 0 -568525155.63685036 -1030661440.1802444 0 -1030661440.1802444 5561278040.1639862 0 0 0 0 -126306569.45276642 -1309799626.5151291 0 -1309799626.5151291 4228107232.5900269 0 0 0 0 524381.4590206102 3304595.8799976856 0 3304595.8799976856 5754643.781478554 0 0 0 0 6278057735.928648 721056969.09564209 0 721056969.09564209 3125274705.8480377 0 0 0 0 -76226099.574429512 -4592349135.6328888 0 -4592349135.6328888 7658498654.5544052 0 0 0 0 2248922.4692427889 4742309.2399863228 0 4742309.2399863228 7750023.685871765 0 0 0 0 756309683.21862793 952190393.62850571 0 952190393.62850571 -314609833.33181763 0 0 0 0 1175466460.0252752 2804744145.5159149 0 2804744145.5159149 1053069890.7278595 0 0 0 0 -282739140.82617867 -65076836.56086731 0 -65076836.56086731 2485327246.2626262 0 0 0 0 411484701.23467588 -723083699.78640747 0 -723083699.78640747 2490588276.1244507 0 0 0 0 -1008741569.4692936 357400211.98645782 0 357400211.98645782 140683305.88345337 0 0 0 0 4647357.5685982788 13147073.268361513 0 13147073.268361513 19998859.717888385 0 0 0 0 -338856755.34638405 -920487654.48368835 0 -920487654.48368835 372286106.20251846 0 0 0 0 957465379.52658463 -179819461.78657532 0 -179819461.78657532 -175914377.11006165 0 0 0 0 -50100508.61730957 -496016749.84233856 0 -496016749.84233856 249034783.68499756 0 0 0 0 -115700029.54060054 28900704.586746216 0 28900704.586746216 312042961.61819458 0 0 0 0 -179562602.23756599 -135757828.56466675 0 -135757828.56466675 129799277.353302 0 0 0 0 -149358753.76960182 -136518525.33372498 0 -136518525.33372498 115185514.2977705 0 0 0 0 135720680.16286469 404520252.61083984 0 404520252.61083984 1174387391.9543457 0 0 0 0 -2920691.277009964 87606426.062347412 0 87606426.062347412 130453746.47625732 0 0 0 0 -11612175.886942452 -8418198.3157263622 0 -8418198.3157263622 13133309.653153736 0 0 0 0 -31398945.721520424 33381893.313858032 0 33381893.313858032 97300677.452423096 0 0 0 0 -6141344.9913682202 -9364845.6758139133 0 -9364845.6758139133 2653791.973220177 0 0 0 0 -365703839.34634209 305762421.28575134 0 305762421.28575134 303974182.24829102 0 0 0 0 -2514259.77705843 -4425602.9540195465 0 -4425602.9540195465 4439545.6399383545 0 0 0 0 -83237654.46846199 -128046415.7961731 0 -128046415.7961731 423404417.99318695 0 0 0 0 82962885.007060051 28626430.715538025 0 28626430.715538025 -155888225.28009033 0 0 0 0 13182523.723180771 -301067217.85903168 0 -301067217.85903168 -428734808.98344421 0 0 0 0 -1215744.2707748674 849285.14279675484 0 849285.14279675484 4698107.9848636165 0 0 0 0 -3137500.9270148221 -2902273.6838020729 0 -2902273.6838020729 -646973.26480659842 0 0 0 0 302642136.51507568 170914894.51743317 0 170914894.51743317 -785908750.7258606 0 0 0 0 -287967785.27040195 -278072131.13336182 0 -278072131.13336182 -204161512.29281616 0 0 0 0 -5214724.763067727 -10092773.83228864 0 -10092773.83228864 1698069.8965832144 0 0 0 0 -133084589.20748138 -32971801.689544678 0 -32971801.689544678 80957575.16595459 0 0 0 0 -289597597.01744652 163944403.1302948 0 163944403.1302948 -55008135.12928772 0 0 0 0 -328332545.80400419 132627809.20954132 0 132627809.20954132 467300964.49523926 0 0 0 0 -6637910.1770257615 -6085736.7331775725 0 -6085736.7331775725 1013552.4556263238 0 0 0 0 -51487314.488391548 -113984690.25811005 0 -113984690.25811005 -418875109.34796143 0 0 0 0 377081295.90217066 -202527969.29692078 0 -202527969.29692078 -404391781.02230835 0 0 0 0 -86955761.377347887 131387203.50683594 0 131387203.50683594 121669705.9647522 0 0 0 0 532181616.76095212 727865144.80308151 0 727865144.80308151 453338776.40377808 0 0 0 0 -105392661.73095798 -369267921.5426178 0 -369267921.5426178 -218411547.15774536 0 0 0 0 606340208.37029052 -151614517.44979858 0 -151614517.44979858 -334753650.1431427 0 0 0 0 -775624709.58545899 12525274.016681671 0 12525274.016681671 1579657237.0621033 0 0 0 0 -1336140.9424563311 1328410.3446231037 0 1328410.3446231037 578335.07972225547 0 0 0 0 250010605.24891555 622532812.3842926 0 622532812.3842926 456586869.67321777 0 0 0 0 1144714406.7682114 1528145217.7698059 0 1528145217.7698059 2371451109.2072449 0 0 0 0 1713768119.8427081 1585964666.0884552 0 1585964666.0884552 2285526542.6222839 0 0 0 0 -53167656.513101578 56105728.80090332 0 56105728.80090332 1715832848.1568375 0 0 0 0 -136445910.55407578 148678302.20147705 0 148678302.20147705 1422486434.4941559 0 0 0 0 160801127.6197567 700941237.94012451 0 700941237.94012451 2167696671.2547607 0 0 0 0 -291342550.72337389 583990995.09609985 0 583990995.09609985 2600540122.144516 0 0 0 0 -686470686.15823698 792747580.82095337 0 792747580.82095337 2507170676.3156738 0 0 0 0 -1163340885.1223998 590996818.72103882 0 590996818.72103882 2197726711.0337219 0 0 0 0 -94789475.876683652 979384295.93896484 0 979384295.93896484 1896189268.6653748 0 0 0 0 -405766279.63425326 -481265469.43054199 0 -481265469.43054199 -536658232.83432007 0 0 0 0 187426144.60882181 571718906.1508255 0 571718906.1508255 1302787915.5612183 0 0 0 0 -569902009.05428314 -580920086.7587204 0 -580920086.7587204 405838443.39611816 0 0 0 0 245937878.11053967 448514803.37573242 0 448514803.37573242 -467950524.4528656 0 0 0 0 8808840.1148300171 102917562.88401794 0 102917562.88401794 -385856012.4148407 0 0 0 0 267818416.64728928 428601493.93670654 0 428601493.93670654 -554313679.12649536 0 0 0 0 -2271501.8712035413 -1450268.0948770493 0 -1450268.0948770493 489688.84641612321 0 0 0 0 468382433.53636599 816128659.16882324 0 816128659.16882324 620207163.02993774 0 0 0 0 -335698746.35132599 -131124498.49362183 0 -131124498.49362183 1163281322.4629135 0 0 0 0 -331862060.57007027 -187394254.90032959 0 -187394254.90032959 127768557.67015076 0 0 0 0 -1714995553.0464115 -130084528.09369659 0 -130084528.09369659 1911740980.2944183 0 0 0 0 926096384.61047494 -215920153.38116074 0 -215920153.38116074 -369200873.57827759 0 0 0 0 -480967.13007754547 709618.07714397006 0 709618.07714397006 4894563.4722085893 0 0 0 0 -551579881.70929265 -421049269.99723816 0 -421049269.99723816 -385713229.41790771 0 0 0 0 -185049.75236531143 30615.101531733992 0 30615.101531733992 2242421.1117815226 0 0 0 0 314878257.17359883 827712592.48099709 0 827712592.48099709 627327855.62330627 0 0 0 0 -246890122.68368012 163611462.24295807 0 163611462.24295807 409324492.1766777 0 0 0 0 55366343.735649973 256125678.2245512 0 256125678.2245512 1273403248.9310455 0 0 0 0 394988.12789857521 189447845.88762665 0 189447845.88762665 -421437.43203735352 0 0 0 0 -192149665.12851754 -25966391.062614441 0 -25966391.062614441 671262348.18264771 0 0 0 0 -200025349.49956718 378302622.56998444 0 378302622.56998444 454571600.75285339 0 0 0 0 -729505022.74506843 -119229619.77047729 0 -119229619.77047729 197160858.22750473 0 0 0 0 -132157646.97256583 22030324.850906372 0 22030324.850906372 76807770.849884033 0 0 0 0 -389795105.708951 270380611.50437164 0 270380611.50437164 51160459.281650543 0 0 0 0 -172569787.97950143 420534246.16002846 0 420534246.16002846 -75076089.454467773 0 0 0 0 -266091023.50312757 -83045853.571182251 0 -83045853.571182251 204895506.16333771 0 0 0 0 676259502.56765711 644891608.34602356 0 644891608.34602356 -562160774.11885071 0 0 0 0 -353744.23990881967 1378408.321123824 0 1378408.321123824 3819252.4795161337 0 0 0 0 -528823336.92172003 -1280671676.348114 0 -1280671676.348114 798036170.73294067 0 0 0 0 -351702.51928719261 609875.13830726407 0 609875.13830726407 4959266.6665813625 0 0 0 0 27327818.229722023 -485216695.70222473 0 -485216695.70222473 344072288.46105957 0 0 0 0 -1056841252.8040166 -614268178.50063324 0 -614268178.50063324 902927137.69984436 0 0 0 0 215939087.43008709 -192182808.64618683 0 -192182808.64618683 -1027748532.2974854 0 0 0 0 -500245145.79561043 -566681144.45782471 0 -566681144.45782471 73883660.456710815 0 0 0 0 -1216564604.8017106 736450501.36846924 0 736450501.36846924 574047634.97097778 0 0 0 0 -2242426835.0783386 478071422.76086807 0 478071422.76086807 975453306.72387695 0 0 0 0 -598466.34159695962 2431654.4322589925 0 2431654.4322589925 10883994.452475041 0 0 0 0 -83737.735291808742 649946.89825266553 0 649946.89825266553 1166394.004891783 0 0 0 0 1253823832.4895203 520868847.30879974 0 520868847.30879974 -369871521.58239746 0 0 0 0 8182354.528151989 1219834711.8179245 0 1219834711.8179245 -84838596.856262207 0 0 0 0 27166451.599969506 -62255239.090904236 0 -62255239.090904236 1253127386.2770844 0 0 0 0 -63050879.54392004 -569981749.73782349 0 -569981749.73782349 -275073855.88709259 0 0 0 0 1492616136.6218185 1883762110.6452789 0 1883762110.6452789 19330927.480987549 0 0 0 0 1490610725.6505547 1265160264.2750549 0 1265160264.2750549 -683847783.28444672 0 0 0 0 1089145879.1477871 1871287672.2158661 0 1871287672.2158661 1145456388.5001373 0 0 0 0 989303841.34026718 1615984326.8370056 0 1615984326.8370056 524660047.07675171 0 0 0 0 1337387832.9380035 2513701123.3106995 0 2513701123.3106995 1521079681.4501953 0 0 0 0 1200053972.959795 1673624923.6850471 0 1673624923.6850471 1450635552.7108765 0 0 0 0 954271051.48201942 1248286970.8061066 0 1248286970.8061066 1741222186.821022 0 0 0 0 755727909.17241502 1381051883.0542946 0 1381051883.0542946 1659591648.8545532 0 0 0 0 1198233689.2128582 914511502.834198 0 914511502.834198 1532158017.1257019 0 0 0 0 1958099871.9795675 1265296222.8439178 0 1265296222.8439178 721950180.15275574 0 0 0 0 1789868514.4443693 386783547.47167969 0 386783547.47167969 1983365498.4904175 0 0 0 0 813357372.56802845 474804858.64013672 0 474804858.64013672 2326358370.5037689 0 0 0 0 160167309.78597927 1071579639.4054565 0 1071579639.4054565 2113972803.2472687 0 0 0 0 406646932.08324623 -794457959.15318298 0 -794457959.15318298 948445180.26863098 0 0 0 0 -21858015.76847887 -466809856.8378067 0 -466809856.8378067 748130886.77740479 0 0 0 0 -120559184.12151909 -209611652.03972244 0 -209611652.03972244 -158830229.82575989 0 0 0 0 518468271.61110115 -486885033.09632874 0 -486885033.09632874 484500889.12760925 0 0 0 0 209364.04403506964 -2592700.8683921397 0 -2592700.8683921397 823375.5658359006 0 0 0 0 740722695.2898941 -644495746.80260468 0 -644495746.80260468 529669320.19732666 0 0 0 0 786877061.50191367 1047360201.9507446 0 1047360201.9507446 1627524936.8572998 0 0 0 0 -1599274.1761180593 -2825633.9972218648 0 -2825633.9972218648 4097627.9794557244 0 0 0 0 858243416.338727 947181857.87150574 0 947181857.87150574 814311826.32437134 0 0 0 0 309892928.90192223 876943031.31744385 0 876943031.31744385 1943707394.3080444 0 0 0 0 596319141.25150013 1069639983.323288 0 1069639983.323288 1883702144.6788101 0 0 0 0 376994830.45604002 1119552204.9143219 0 1119552204.9143219 1874292989.8825073 0 0 0 0 764875563.37527561 435820803.62513733 0 435820803.62513733 141331087.20529175 0 0 0 0 -5371641.172299047 -6555016.086423263 0 -6555016.086423263 4134008.0187231004 0 0 0 0 293835457.12965393 -96610223.653930664 0 -96610223.653930664 118303730.72762585 0 0 0 0 68622489.412436962 822241058.25780487 0 822241058.25780487 1424329753.7852478 0 0 0 0 399664174.22399807 619366436.10340118 0 619366436.10340118 988802972.70907593 0 0 0 0 144558329.93732262 854927223.46316528 0 854927223.46316528 1236119984.5827026 0 0 0 0 -190343323.06956577 444411731.07470703 0 444411731.07470703 1004322291.246521 0 0 0 0 -331028715.98900223 797114570.86434937 0 797114570.86434937 265478297.00146484 0 0 0 0 -512154.93624067865 276842.06436110288 0 276842.06436110288 752747.00348879397 0 0 0 0 294214875.37355042 823558195.03945923 0 823558195.03945923 1095550659.2941971 0 0 0 0 197820351.76758003 982405359.27377319 0 982405359.27377319 1422952456.6619873 0 0 0 0 390705301.79048538 936661585.98275757 0 936661585.98275757 1168706104.9518738 0 0 0 0 412697447.57768917 865120699.38063049 0 865120699.38063049 1329943168.1811829 0 0 0 0 277283467.2665453 846302581.56866455 0 846302581.56866455 1535959184.792984 0 0 0 0 330932953.19178641 1160220332.2517281 0 1160220332.2517281 1753015610.6546021 0 0 0 0 412593985.08157921 802202782.45309448 0 802202782.45309448 1405918308.8549118 0 0 0 0 388535129.95033741 1000935859.9221954 0 1000935859.9221954 1931461713.530159 0 0 0 0 768828850.28827095 1189598188.9360046 0 1189598188.9360046 1991756131.177948 0 0 0 0 394133247.90435934 987606231.35783386 0 987606231.35783386 2339216172.3667297 0 0 0 0 681487828.58951902 1233138135.841217 0 1233138135.841217 2428608108.9313126 0 0 0 0 1068016265.2070675 824337740.86479187 0 824337740.86479187 2189920096.7922745 0 0 0 0 613917445.54348183 943588527.15076447 0 943588527.15076447 2163283478.4067993 0 0 0 0 588719411.2163868 826765580.58399963 0 826765580.58399963 1949762962.8968697 0 0 0 0 1693398860.2328272 1509876367.3320618 0 1509876367.3320618 2154323100.7481384 0 0 0 0 687112143.89389038 1081458138.0817261 0 1081458138.0817261 1985734733.4118347 0 0 0 0 -459227.98729061475 39898.651195041835 0 39898.651195041835 2074153.1256775633 0 0 0 0 444556264.12708139 -42804073.321403503 0 -42804073.321403503 -1225806243.3151245 0 0 0 0 159018836.84165096 1594198634.3245697 0 1594198634.3245697 4192557005.8125 0 0 0 0 1573531.2262089429 364184.72905011475 0 364184.72905011475 569975.49916446581 0 0 0 0 4272564.9160498977 70439551.778366089 0 70439551.778366089 451758038.95344543 0 0 0 0 855813517.17149973 920878840.23252869 0 920878840.23252869 -331775890.06800842 0 0 0 0 770347606.82268667 1424022144.5788879 0 1424022144.5788879 1539177314.099472 0 0 0 0 824307014.78366709 1211698173.5942688 0 1211698173.5942688 938423349.82052612 0 0 0 0 -461304.96276323951 -1235315.7029171586 0 -1235315.7029171586 1667782.8895443082 0 0 0 0 -9199290.8060297966 327700296.3109436 0 327700296.3109436 986097405.79782104 0 0 0 0 389606526.47925377 239473296.15284729 0 239473296.15284729 445865098.57899475 0 0 0 0 34372300.50309895 135676678.84535503 0 135676678.84535503 176875640.43991089 0 0 0 0 2708911.9334874749 -45877929.504087448 0 -45877929.504087448 150685285.3666687 0 0 0 0 -76847819.130746126 -133316825.75713348 0 -133316825.75713348 -79029518.700027466 0 0 0 0 -377924820.68759501 45322010.922241211 0 45322010.922241211 213764417.78429794 0 0 0 0 -102368705.5435493 180191631.37338257 0 180191631.37338257 388470277.97967529 0 0 0 0 275651504.04105401 -22842652.687133789 0 -22842652.687133789 27110036.772483826 0 0 0 0 140261429.32644987 234206894.8412323 0 234206894.8412323 -88081727.806488037 0 0 0 0 876805660.34732771 -98912118.475280762 0 -98912118.475280762 -129241964.31361389 0 0 0 0 831061263.74948692 -20331924.903533936 0 -20331924.903533936 515813466.35794067 0 0 0 0 238181.15371557185 -581480.92450365424 0 -581480.92450365424 720347.39638255537 0 0 0 0 328119927.33843303 -28521238.125694275 0 -28521238.125694275 230168125.34333801 0 0 0 0 591477047.9673996 -109015856.79771423 0 -109015856.79771423 1273457914.6364746 0 0 0 0 694206517.28669596 142566262.50865173 0 142566262.50865173 1076963183.8430786 0 0 0 0 252927526.01607513 215295858.27192688 0 215295858.27192688 2801980553.316452 0 0 0 0 319210734.65094376 999686463.79470825 0 999686463.79470825 3798906275.4910889 0 0 0 0 1106963335.794157 1387555136.2028198 0 1387555136.2028198 3025322105.9212646 0 0 0 0 385468068.29227257 1221568887.5551147 0 1221568887.5551147 2066455476.8007355 0 0 0 0 441809711.43556118 344640392.71611023 0 344640392.71611023 2462487978.9972534 0 0 0 0 415614807.01148033 847293103.03788757 0 847293103.03788757 814325915.19057465 0 0 0 0 -83227330.72351408 982805877.2215271 0 982805877.2215271 1766932501.2939148 0 0 0 0 356051068.69560528 1154158883.4613295 0 1154158883.4613295 1389062322.433197 0 0 0 0 732918865.45490646 1636584380.5319366 0 1636584380.5319366 1717588305.9972229 0 0 0 0 465317682.04335403 1268851663.5210724 0 1268851663.5210724 1624897080.1332092 0 0 0 0 665055872.58952141 1788694513.8966064 0 1788694513.8966064 1476488956.1387329 0 0 0 0 784138973.82212639 1970944495.0563202 0 1970944495.0563202 1755325130.6205139 0 0 0 0 750610881.12460041 2037485222.8933563 0 2037485222.8933563 2148453871.6954193 0 0 0 0 874064964.52705252 2288065156.7250295 0 2288065156.7250295 2568462705.2838135 0 0 0 0 304956460.99296653 1472321033.2072067 0 1472321033.2072067 2648132533.0710449 0 0 0 0 -1391624414.9158382 -455223149.66857147 0 -455223149.66857147 2053016265.0349884 0 0 0 0 -116055.4822543012 1655320.051918319 0 1655320.051918319 5958532.4052360505 0 0 0 0 1646966600.5592194 2449492543.735878 0 2449492543.735878 1461117994.7939758 0 0 0 0 -502337679.22729731 676171107.64823151 0 676171107.64823151 3382125554.4044189 0 0 0 0 867645189.27714121 2079097257.6226134 0 2079097257.6226134 4321579388.2791138 0 0 0 0 -227405377.22887033 -165486251.45840454 0 -165486251.45840454 1281577121.572876 0 0 0 0 -869830332.69535589 -123946288.72625732 0 -123946288.72625732 2833731560.9279785 0 0 0 0 704493958.84880686 1352648199.7871876 0 1352648199.7871876 1969215426.6170044 0 0 0 0 -438310934.39767313 716278777.24412537 0 716278777.24412537 2828637207.0310516 0 0 0 0 -29848126.723026276 675304403.15127563 0 675304403.15127563 2593114326.981926 0 0 0 0 643129856.06963301 1472740400.1742554 0 1472740400.1742554 3026263086.0903406 0 0 0 0 333844627.77720213 1679703661.4844971 0 1679703661.4844971 3782121819.5803833 0 0 0 0 3496744482.5396614 1081845698.9090881 0 1081845698.9090881 3042544652.4057007 0 0 0 0 2817446765.3047523 173886823.12225342 0 173886823.12225342 3760948056.6353607 0 0 0 0 59500.948128963122 454160.1148879528 0 454160.1148879528 2395613.7689642757 0 0 0 0 581686520.44067717 -231943927.595541 0 -231943927.595541 92709533.87991333 0 0 0 0 1739490034.819484 1750829283.4632149 0 1750829283.4632149 1657967470.5258179 0 0 0 0 120517874.6297586 -250136676.7445488 0 -250136676.7445488 1202329329.8424683 0 0 0 0 815003018.21507406 315586248.65834045 0 315586248.65834045 -531372327.66731262 0 0 0 0 -201355584.38967991 31503642.520530701 0 31503642.520530701 180433456.86737251 0 0 0 0 1269510459.3349323 943991837.33070374 0 943991837.33070374 396053003.62372971 0 0 0 0 393101999.20455551 1288585651.6623306 0 1288585651.6623306 1956086121.6631775 0 0 0 0 91065221.211937621 884474018.97885895 0 884474018.97885895 1302362271.5696564 0 0 0 0 140672642.19750547 722642146.58136749 0 722642146.58136749 696161867.86572266 0 0 0 0 -935301.94493040501 385473065.84768164 0 385473065.84768164 1300029376.4127197 0 0 0 0 -189439823.96924579 468727432.55553436 0 468727432.55553436 1653896532.9191666 0 0 0 0 -195483229.55432504 540024768.2937088 0 540024768.2937088 2099025577.8976135 0 0 0 0 53046995.33377564 66562897.532226562 0 66562897.532226562 -244618876.05275726 0 0 0 0 190548.30611451925 798524.85125396401 0 798524.85125396401 455615.20948920399 0 0 0 0 8577691.6921284236 2457201.5013650209 0 2457201.5013650209 -24001.041259866208 0 0 0 0 642155462.91691589 383856857.24525452 0 383856857.24525452 420517889.72814178 0 0 0 0 13030390.817337036 -564246.69180297852 0 -564246.69180297852 23403973.976165771 0 0 0 0 20884851.07159996 -10923752.330184937 0 -10923752.330184937 11424286.537765503 0 0 0 0 22456036.669525146 -4448206.2772064209 0 -4448206.2772064209 -13958816.841949463 0 0 0 0 21649911.957249641 -3455335.9987297058 0 -3455335.9987297058 4631780.5398254395 0 0 0 0 16546003.672458649 1635059.849029541 0 1635059.849029541 11799922.161773682 0 0 0 0 1407597.6800189945 8746242.918845892 0 8746242.918845892 8540332.7546880394 0 0 0 0 -30153127.36825221 16214696.823204041 0 16214696.823204041 12623770.714416504 0 0 0 0 7776315.476770401 631305.70733642578 0 631305.70733642578 -972435.41017150879 0 0 0 0 12783730.768602371 19876127.361953735 0 19876127.361953735 17393044.883514404 0 0 0 0 20082560.761888146 21165016.903030396 0 21165016.903030396 -2974632.2118530273 0 0 0 0 7786615.6102995872 13408384.297210693 0 13408384.297210693 -4275575.1724853516 0 0 0 0 20164945.552331448 18111253.672607422 0 18111253.672607422 -10715912.101287842 0 0 0 0 -873325.32336011529 26173687.24181366 0 26173687.24181366 -3081846.0837402344 0 0 0 0 -23257646.573111296 5367025.6872711182 0 5367025.6872711182 6179354.1571960449 0 0 0 0 12809613.833729267 3286095.0470809937 0 3286095.0470809937 2338147.3862609863 0 0 0 0 6910128.3038644791 10473179.121063232 0 10473179.121063232 2446262.1592636108 0 0 0 0 25311229.50439167 7408625.1918029785 0 7408625.1918029785 2846639.4309844971 0 0 0 0 -61179739.511730194 -8901649.2062072754 0 -8901649.2062072754 29603461.005828857 0 0 0 0 28862360.01378727 -65288772.72819519 0 -65288772.72819519 58432400.004882812 0 0 0 0 113759113.81142521 -52543414.933197021 0 -52543414.933197021 58637542.605225563 0 0 0 0 -49888784.660636783 65693645.452072144 0 65693645.452072144 5952230.7879333496 0 0 0 0 -63680524.57773155 -3057288.3263702393 0 -3057288.3263702393 14011247.436340332 0 0 0 0 16577067.280615807 33794622.893859863 0 33794622.893859863 202845.94018554688 0 0 0 0 15030228.131046295 24922881.892944336 0 24922881.892944336 -14274979.3699646 0 0 0 0 67694080.191443443 24841654.782318115 0 24841654.782318115 -33460618.793701172 0 0 0 0 45697458.079659939 -15995361.559020996 0 -15995361.559020996 202789305.35614014 0 0 0 0 89478011.86796689 -67517456.001953125 0 -67517456.001953125 51525875.50970459 0 0 0 0 78826785.149632275 25357396.330265045 0 25357396.330265045 -153548540.40039062 0 0 0 0 -27967187.502070546 -178442572.30999756 0 -178442572.30999756 186165251.11129761 0 0 0 0 156958300.06936204 135692552.15103149 0 135692552.15103149 433891208.99467468 0 0 0 0 118856472.84980375 -72024553.889432907 0 -72024553.889432907 226064335.32131958 0 0 0 0 -123001539.11220121 184271708.03341675 0 184271708.03341675 947843204.13647461 0 0 0 0 -23480976.701780796 -97363645.147994995 0 -97363645.147994995 190048102.10076904 0 0 0 0 51474700.324602604 96479702.95110321 0 96479702.95110321 595176264.17741394 0 0 0 0 119840248.58138752 8336596.4599914551 0 8336596.4599914551 117719764.78902435 0 0 0 0 171309948.23191738 377838956.07913208 0 377838956.07913208 670720816.24374771 0 0 0 0 262742364.86359644 393810467.41313171 0 393810467.41313171 52838252.221282959 0 0 0 0 341852294.06703711 406186679.52891731 0 406186679.52891731 409057931.05206299 0 0 0 0 213589627.49812698 661993937.8026619 0 661993937.8026619 1280826741.1193237 0 0 0 0 441288182.66570234 816246749.86569786 0 816246749.86569786 1411227017.4645386 0 0 0 0 418753637.2679534 428224248.86228943 0 428224248.86228943 798002290.72532654 0 0 0 0 2159831.6686803522 3115965.2913154364 0 3115965.2913154364 -923432.73995137215 0 0 0 0 13514737.198721886 -82540274.188705444 0 -82540274.188705444 429707939.48477173 0 0 0 0 224390101.73012161 542665650.58622742 0 542665650.58622742 594223287.81998444 0 0 0 0 430451104.1885618 888582459.84056139 0 888582459.84056139 1549491588.5606079 0 0 0 0 342619721.5348773 307064950.1758728 0 307064950.1758728 905520620.38008118 0 0 0 0 653256344.56826019 621419406.63290405 0 621419406.63290405 1566249539.2967682 0 0 0 0 970792500.17943692 1203465963.0501938 0 1203465963.0501938 1535693173.7808533 0 0 0 0 456341951.58261108 1002409010.9356842 0 1002409010.9356842 2380176759.7053175 0 0 0 0 538084388.08915615 1472366394.6227055 0 1472366394.6227055 2016667935.112793 0 0 0 0 -387889.84743865905 476749.41405518353 0 476749.41405518353 1422900.5339180306 0 0 0 0 229947268.70205593 1090464693.4348755 0 1090464693.4348755 2018565933.2330017 0 0 0 0 751413356.71445227 1208950052.4543076 0 1208950052.4543076 1727282585.0102692 0 0 0 0 37923097.523007154 371038914.86056519 0 371038914.86056519 1027935401.1668854 0 0 0 0 473037533.06748724 943852420.48835754 0 943852420.48835754 1525871880.3283997 0 0 0 0 420131984.09565067 976734721.73446655 0 976734721.73446655 2017209168.5066986 0 0 0 0 429601230.61645126 1166796463.2654266 0 1166796463.2654266 1728251537.031086 0 0 0 0 185138370.21452045 612236151.17597961 0 612236151.17597961 1546664721.4992676 0 0 0 0 740589999.04532909 1200433443.081665 0 1200433443.081665 1825390918.9685173 0 0 0 0 471506518.092978 1010638081.4105682 0 1010638081.4105682 1872677340.9976044 0 0 0 0 533320458.18521738 993812157.29800415 0 993812157.29800415 1927837679.166687 0 0 0 0 458706572.37747955 1360899116.230896 0 1360899116.230896 2216463731.805851 0 0 0 0 548930373.13897324 988890304.48277283 0 988890304.48277283 2242104046.5286179 0 0 0 0 -558327.30338798231 636839.49087087065 0 636839.49087087065 2911231.4046012461 0 0 0 0 572927804.17314434 1459221693.1729889 0 1459221693.1729889 2203228162.8272095 0 0 0 0 560723747.04364491 1107359214.2779236 0 1107359214.2779236 2257553304.0322723 0 0 0 0 634846103.08403134 912019647.9408226 0 912019647.9408226 1901323268.5056458 0 0 0 0 515600549.28694916 992673181.04328156 0 992673181.04328156 2266385961.5970612 0 0 0 0 4853202.9940171065 1724717.279531844 0 1724717.279531844 468078.06491184235 0 0 0 0 165352075.64351082 97642163.11668396 0 97642163.11668396 -448910273.70834351 0 0 0 0 7239810.9980981853 2230608.8480975553 0 2230608.8480975553 129597.05958062783 0 0 0 0 355715655.42686176 466986927.86650848 0 466986927.86650848 1091483010.3886871 0 0 0 0 65616506.786125183 800120796.00437927 0 800120796.00437927 2184585908.040802 0 0 0 0 38918060.250452042 80713531.322174072 0 80713531.322174072 -311447693.50933838 0 0 0 0 -157976768.44710159 65444418.147247314 0 65444418.147247314 28065700.449028015 0 0 0 0 29659795.605939865 -15826351.637382507 0 -15826351.637382507 -87644332.99180603 0 0 0 0 -22674367.677866936 96743191.425590515 0 96743191.425590515 -79331871.840774536 0 0 0 0 -153930436.6264565 90253732.359649658 0 90253732.359649658 75692721.206604004 0 0 0 0 -172836453.63324213 116801334.42589378 0 116801334.42589378 336685801.69387817 0 0 0 0 -1205640.1038458846 -593675.63949669152 0 -593675.63949669152 870199.89632394165 0 0 0 0 -282923666.97990322 114149263.24107361 0 114149263.24107361 113297045.53491211 0 0 0 0 -43048452.088047028 4900898.9676971436 0 4900898.9676971436 115001927.83446503 0 0 0 0 -199131808.06557274 -92149121.665863037 0 -92149121.665863037 56683120.138320923 0 0 0 0 -101442690.61734271 282629383.29373169 0 282629383.29373169 215032812.05288696 0 0 0 0 -231551419.63755631 -97727146.636398315 0 -97727146.636398315 6481137.5975036621 0 0 0 0 149755097.42132807 147237879.34521484 0 147237879.34521484 -414428294.71424103 0 0 0 0 111993487.85465384 194857482.0778656 0 194857482.0778656 -268638095.94298935 0 0 0 0 99667515.200741053 78356746.642066956 0 78356746.642066956 29784884.680419922 0 0 0 0 -57659795.986865997 -37860039.198928833 0 -37860039.198928833 214717492.96278381 0 0 0 0 27558098.242579222 128705991.85839844 0 128705991.85839844 375713854.26329803 0 0 0 0 -1736773.7485304247 -1067880.6770538986 0 -1067880.6770538986 1662158.5925243944 0 0 0 0 32618092.526619911 -28359855.730560303 0 -28359855.730560303 124443303.83509827 0 0 0 0 25050946.269509792 26351249.696147919 0 26351249.696147919 -235447436.83132935 0 0 0 0 -45460437.708080888 -117956905.65441132 0 -117956905.65441132 232989073.69392395 0 0 0 0 -5935704.3606330762 1935022.2335313112 0 1935022.2335313112 149344.43728366494 0 0 0 0 19136744.448738813 -1914627.8175735474 0 -1914627.8175735474 83578399.454650879 0 0 0 0 30148113.038497925 -82603212.487762451 0 -82603212.487762451 54804232.920654297 0 0 0 0 -937387.64307228057 160950.7449857071 0 160950.7449857071 1143849.9221327603 0 0 0 0 35433075.341341972 -47629590.06577301 0 -47629590.06577301 -99865194.810203552 0 0 0 0 -56918645.323861122 -232852525.68844604 0 -232852525.68844604 -12695069.660560608 0 0 0 0 -233157054.78282368 214854086.89673615 0 214854086.89673615 312452062.50390625 0 0 0 0 45755093.665376663 -31549730.222473145 0 -31549730.222473145 -401470308.03781128 0 0 0 0 -9844121.3526752852 3708918.9864121303 0 3708918.9864121303 812342.02786397561 0 0 0 0 -35543909.829494476 88750590.743713379 0 88750590.743713379 195598550.47862244 0 0 0 0 57486072.142757416 -639187.58171081543 0 -639187.58171081543 -304976157.64762115 0 0 0 0 -13192003.66331258 5833516.1930473819 0 5833516.1930473819 2526831.1036881357 0 0 0 0 -13544463.184993744 32352787.34979248 0 32352787.34979248 -200141419.02069092 0 0 0 0 -15009348.596547604 45474744.674888611 0 45474744.674888611 86240515.649658203 0 0 0 0 -7914252.7591013908 35714091.426837921 0 35714091.426837921 72103424.948364258 0 0 0 0 16036833.812685013 58056577.576187134 0 58056577.576187134 27600008.921447754 0 0 0 0 -14209500.138327599 35016236.818405151 0 35016236.818405151 72031605.097930908 0 0 0 0 -9476117.3357105255 33188884.24130249 0 33188884.24130249 33524351.483642578 0 0 0 0 91675842.542201996 123401855.42353058 0 123401855.42353058 13936219.280700684 0 0 0 0 17400956.721551895 -16375950.440155029 0 -16375950.440155029 -66638120.524230957 0 0 0 0 -2099852.04567126 1421498.0813511536 0 1421498.0813511536 3080746.9665425271 0 0 0 0 -47702694.602721989 57947976.533038616 0 57947976.533038616 72040889.349975586 0 0 0 0 14976958.558111191 30580589.444999695 0 30580589.444999695 31278223.780548096 0 0 0 0 15695245.589585304 9538629.5364837646 0 9538629.5364837646 -31430832.557922363 0 0 0 0 -2085256.2739265682 4340742.2142352685 0 4340742.2142352685 5011693.3717372864 0 0 0 0 -6718400.9336013794 5798161.1691589355 0 5798161.1691589355 26854403.473388672 0 0 0 0 18206493.525161743 14944190.991294861 0 14944190.991294861 7039286.1713867188 0 0 0 0 26705208.866222382 12241830.569778442 0 12241830.569778442 -3064974.4811096191 0 0 0 0 27464649.255596638 10737422.82983017 0 10737422.82983017 -23440317.375244141 0 0 0 0 19559731.045945168 32091663.706371307 0 32091663.706371307 -2127185.6573181152 0 0 0 0 14427768.935884476 29754563.052322388 0 29754563.052322388 29895031.057769775 0 0 0 0 3319113.2437767982 -3349157.1896972656 0 -3349157.1896972656 -1313290.4212188721 0 0 0 0 -3470488.6325333719 2202164.4160949439 0 2202164.4160949439 11840783.479032129 0 0 0 0 11772935.377103545 4261007.4941482544 0 4261007.4941482544 -3852279.3225097656 0 0 0 0 506447.28993703367 1303453.8210944235 0 1303453.8210944235 -680732.62061183155 0 0 0 0 -8313391.9046282768 5185022.9762115479 0 5185022.9762115479 12042503.044433594 0 0 0 0 147448.55719575804 8188393.6719919741 0 8188393.6719919741 7758647.9553526342 0 0 0 0 -1524435.5639283359 21973487.854301453 0 21973487.854301453 12498922.717971802 0 0 0 0 -9647466.7801034953 4874963.8294190206 0 4874963.8294190206 11546735.681851432 0 0 0 0 6785021.30638834 9139358.144839175 0 9139358.144839175 8162620.6705409139 0 0 0 0 -10223963.879776955 12863102.840255737 0 12863102.840255737 43182179.503173828 0 0 0 0 28404748.679580688 3555846.6119689941 0 3555846.6119689941 19141060.63973999 0 0 0 0 5124620.988527298 6038388.2235717773 0 6038388.2235717773 30703312.219345093 0 0 0 0 1974173.7569573009 3823593.3572954796 0 3823593.3572954796 -1077173.4917459041 0 0 0 0 433871.7821172378 1663795.922189042 0 1663795.922189042 2409486.480479762 0 0 0 0 -11694833.56405589 -248011.08101553097 0 -248011.08101553097 18549179.482346423 0 0 0 0 -4889678.8373823166 692664.4504699707 0 692664.4504699707 7392798.0970611572 0 0 0 0 81385142.103417873 40565778.173160553 0 40565778.173160553 30000647.357971191 0 0 0 0 -15606417.616170663 22434104.40821496 0 22434104.40821496 23253972.818052977 0 0 0 0 26021777.824615479 2144936.6672897339 0 2144936.6672897339 36142112.914255142 0 0 0 0 68299749.880813599 24831202.339447021 0 24831202.339447021 74124108.155670166 0 0 0 0 -6331538.9003424644 56177524.552875519 0 56177524.552875519 -35558470.582763672 0 0 0 0 -15800614.537649099 9806233.6159216166 0 9806233.6159216166 6229586.4026199803 0 0 0 0 58313745.451618195 33597258.388061523 0 33597258.388061523 -199177522.03344727 0 0 0 0 -14811120.027620316 28397720.893875122 0 28397720.893875122 85049737.048583984 0 0 0 0 -30193081.290618896 247412995.39611816 0 247412995.39611816 208828800.01013184 0 0 0 0 -7426308.5429210663 63033256.217498779 0 63033256.217498779 -113138344.17024612 0 0 0 0 -4169562.9669423671 6177469.2321800059 0 6177469.2321800059 -3137278.0039642453 0 0 0 0 -84697820.481273651 127042109.85471725 0 127042109.85471725 -154625026.2338562 0 0 0 0 123525146.43970871 85282880.587417603 0 85282880.587417603 16997255.609268188 0 0 0 0 38405902.803081512 110926976.06954956 0 110926976.06954956 -173554420.87768555 0 0 0 0 62326250.033924103 110092745.63132477 0 110092745.63132477 -137375504.30075073 0 0 0 0 33366176.030673981 83905368.026397705 0 83905368.026397705 -150477751.65127563 0 0 0 0 -433632369.64751625 491897538.74987793 0 491897538.74987793 -180161768.29492188 0 0 0 0 541741104.40693665 289006737.61655617 0 289006737.61655617 -272595554.56933594 0 0 0 0 318724954.06162453 -149039477.59541321 0 -149039477.59541321 40114568.164108276 0 0 0 0 293102013.31492805 -62701916.200454712 0 -62701916.200454712 -131299160.22079468 0 0 0 0 280227057.1874485 -126906156.29027557 0 -126906156.29027557 70560303.217018127 0 0 0 0 309754864.6860199 408979598.10211182 0 408979598.10211182 -258924153.25253296 0 0 0 0 853147010.66641235 35256779.844390869 0 35256779.844390869 -221102370.8890419 0 0 0 0 -37419605.440675735 -166256973.95581818 0 -166256973.95581818 292752254.3614502 0 0 0 0 359813912.34937096 -242711030.74513245 0 -242711030.74513245 138175826.63887787 0 0 0 0 130976550.90623093 -390878807.01535034 0 -390878807.01535034 541532457.46282959 0 0 0 0 185683266.5342226 -157586569.50610352 0 -157586569.50610352 56044559.957336426 0 0 0 0 136853048.35570145 -96377289.678390503 0 -96377289.678390503 108102127.91056442 0 0 0 0 -38888491.851425469 -153191487.99803209 0 -153191487.99803209 393944915.79882812 0 0 0 0 73470226.456501961 22654697.301559448 0 22654697.301559448 -110589437.91867065 0 0 0 0 25000098.139295101 -69136234.583930969 0 -69136234.583930969 78777996.358062744 0 0 0 0 87137732.924415588 -41739733.739578247 0 -41739733.739578247 38604387.272672653 0 0 0 0 148318115.43688393 56641273.243736267 0 56641273.243736267 -157669136.17034912 0 0 0 0 79560180.67719841 64577769.684844971 0 64577769.684844971 -198907141.94656372 0 0 0 0 34992196.816496491 65963835.455604553 0 65963835.455604553 -153144196.64440918 0 0 0 0 30019224.017110825 -11801663.404148102 0 -11801663.404148102 -122914248.31100464 0 0 0 0 9150837.1639652252 54599265.157974243 0 54599265.157974243 -217422672.72651672 0 0 0 0 -30920058.568836927 -60515687.831172943 0 -60515687.831172943 -183107163.47555542 0 0 0 0 -52139365.791236401 35619228.961540222 0 35619228.961540222 -149941083.58526611 0 0 0 0 -19182157.53084898 -64864712.110441208 0 -64864712.110441208 -60336258.114105225 0 0 0 0 -12285661.479934692 71002346.510269165 0 71002346.510269165 29536639.475761414 0 0 0 0 17446617.401077271 46027967.173080444 0 46027967.173080444 -137884384.0251236 0 0 0 0 -61355073.820440769 114494900.58309937 0 114494900.58309937 -38945751.732070923 0 0 0 0 27768713.263553619 -34716596.328201294 0 -34716596.328201294 -439781926.19337082 0 0 0 0 -123558552.63886288 -183307633.47712708 0 -183307633.47712708 493062602.08004761 0 0 0 0 -13647013.711170673 50419513.922660828 0 50419513.922660828 -30055392.767755508 0 0 0 0 -113034838.82578325 18716753.829544067 0 18716753.829544067 204661588.5322876 0 0 0 0 -59279302.687551498 83413455.836502075 0 83413455.836502075 177420643.50990677 0 0 0 0 76151097.284832001 -167547773.52310181 0 -167547773.52310181 1317975014.7935333 0 0 0 0 -853902.60357100237 615760.95972377062 0 615760.95972377062 1253183.7753383294 0 0 0 0 5505047.49599123 -386075785.49127197 0 -386075785.49127197 1259751503.6884308 0 0 0 0 -33099824.042732775 -68703121.475524902 0 -68703121.475524902 243071663.8013916 0 0 0 0 -23387606.950042725 24144203.567855835 0 24144203.567855835 160880542.61074066 0 0 0 0 -105809691.54915428 129654900.05137634 0 129654900.05137634 502666065.84249878 0 0 0 0 -149313139.25489807 -173295754.77197266 0 -173295754.77197266 804208701.88243866 0 0 0 0 -150259176.48478413 -101416596.35578918 0 -101416596.35578918 525582559.36047363 0 0 0 0 -53294086.882340431 -155739990.26844788 0 -155739990.26844788 496485946.81274414 0 0 0 0 -2255719.5082168579 -304122647.26307678 0 -304122647.26307678 627663319.39381409 0 0 0 0 -4144850.5046368125 -198499.12385312468 0 -198499.12385312468 880176.81717059016 0 0 0 0 -260163052.22521257 -422580354.05390167 0 -422580354.05390167 445816229.76794434 0 0 0 0 -77761476.088122845 -120338138.00847816 0 -120338138.00847816 647483471.44345093 0 0 0 0 111467954.32189178 9378640.1698303223 0 9378640.1698303223 -162496279.97372437 0 0 0 0 -207487667.35179281 -311994462.40799713 0 -311994462.40799713 108313922.33764648 0 0 0 0 -1547530.8914746335 -961345.61512628943 0 -961345.61512628943 1195034.4226558395 0 0 0 0 -128295916.12414265 -233724193.85549927 0 -233724193.85549927 1659438587.7119598 0 0 0 0 468648126.93339729 85887406.637939453 0 85887406.637939453 -588921656.37487793 0 0 0 0 -528334.87680329382 42291.044138990343 0 42291.044138990343 545812.23371304385 0 0 0 0 -120251375.25624394 -313938038.66527176 0 -313938038.66527176 1641767963.3657684 0 0 0 0 -13768148.481201172 168835715.5198822 0 168835715.5198822 244497691.15695953 0 0 0 0 -3752501.9738769289 -157303.75804565847 0 -157303.75804565847 737478.3034183383 0 0 0 0 -56909511.167287827 -7321825.5291595459 0 -7321825.5291595459 375216651.62406921 0 0 0 0 37893096.53071022 92447642.826828003 0 92447642.826828003 -33616206.303649902 0 0 0 0 10048035.380607605 198482299.76222229 0 198482299.76222229 -7029558.0092468262 0 0 0 0 41444661.327205658 -6699409.7310409546 0 -6699409.7310409546 -152877181.15250397 0 0 0 0 99372.579110000283 1071313.2431837022 0 1071313.2431837022 -298617.21439740062 0 0 0 0 -334326720.67556381 -49120546.630813599 0 -49120546.630813599 19102777.672515869 0 0 0 0 -1387066.3808612227 20991927.579399586 0 20991927.579399586 -8483741.5801696777 0 0 0 0 25718346.220363617 38514093.178970337 0 38514093.178970337 -10418161.66709137 0 0 0 0 18005936.388861656 30367916.49048996 0 30367916.49048996 -4117843.8828125 0 0 0 0 153534499.28215861 -303308020.50501108 0 -303308020.50501108 63363958.964706421 0 0 0 0 -1872526.5578033188 54471.070939481258 0 54471.070939481258 508135.60930779576 0 0 0 0 107396140.39599419 -3790352.1015625 0 -3790352.1015625 -104982952.16290283 0 0 0 0 -340383046.4997406 -306646370.66018677 0 -306646370.66018677 518289227.49501801 0 0 0 0 -95591828.733141899 -103601026.32769012 0 -103601026.32769012 143499906.62710571 0 0 0 0 -300657165.39250565 115487941.87029266 0 115487941.87029266 4110005.4991111755 0 0 0 0 -104511260.99129868 -153588369.16340637 0 -153588369.16340637 -8761361.5847625732 0 0 0 0 -195326512.64219093 321225938.66520691 0 321225938.66520691 413756509.37965393 0 0 0 0 -219631953.82618093 -155793545.26528859 0 -155793545.26528859 205636576.89007568 0 0 0 0 153883223.52071762 -178107332.25904846 0 -178107332.25904846 272174866.04104519 0 0 0 0 236014828.62348938 423787772.88606262 0 423787772.88606262 229024241.28076172 0 0 0 0 471354490.52593994 273453925.34332275 0 273453925.34332275 203002870.57715797 0 0 0 0 521345283.67527008 462481974.70323181 0 462481974.70323181 215101406.75557232 0 0 0 0 -166617898.3228693 4701912.8040161133 0 4701912.8040161133 271334984.67266846 0 0 0 0 515000309.67910004 469714907.20648193 0 469714907.20648193 295995405.39322662 0 0 0 0 10894355.876647968 -10184692.068361767 0 -10184692.068361767 7576384.3626753092 0 0 0 0 -4874724.3414897071 608191.30310281366 0 608191.30310281366 5088951.8762251735 0 0 0 0 438729905.9180603 267210820.36807251 0 267210820.36807251 -325231942.68389893 0 0 0 0 2041543815.6031246 -305353023.84155273 0 -305353023.84155273 -177121126.51100159 0 0 0 0 1042427441.0406723 467016827.86882019 0 467016827.86882019 62932987.09526825 0 0 0 0 5191863.3203704506 -3837229.9759823829 0 -3837229.9759823829 1519560.6368611455 0 0 0 0 745345699.7721386 793521714.31791687 0 793521714.31791687 1095584520.9296799 0 0 0 0 468532103.5725708 290794743.35046387 0 290794743.35046387 413145518.66223145 0 0 0 0 185132534.38263702 43957218.610946655 0 43957218.610946655 1849411136.2404556 0 0 0 0 874019297.58041668 -1036491054.4862976 0 -1036491054.4862976 1467932147.2801514 0 0 0 0 2382911625.0014973 -442338096.79585266 0 -442338096.79585266 165928908.38240051 0 0 0 0 719826882.10162354 114899585.11015511 0 114899585.11015511 64662826.357086182 0 0 0 0 1009063953.4570823 -594006276.56611633 0 -594006276.56611633 331674996.16023254 0 0 0 0 127488629.00467682 -298580179.78586578 0 -298580179.78586578 799791869.68945312 0 0 0 0 107467667.36022186 -432081128.5714035 0 -432081128.5714035 714637284.13208008 0 0 0 0 -165292127.41996384 -182950437.53546143 0 -182950437.53546143 602905707.76742554 0 0 0 0 -172303209.53309822 -263471181.60165405 0 -263471181.60165405 618819041.31657028 0 0 0 0 -402939084.88107902 -292284362.76563311 0 -292284362.76563311 830821531.77575684 0 0 0 0 -394631346.38982582 87264056.370132446 0 87264056.370132446 512177110.29559326 0 0 0 0 692496.25417097344 367023833.54686248 0 367023833.54686248 787951997.90356445 0 0 0 0 90970.23116120242 1176798.1090827212 0 1176798.1090827212 3309768.8311216012 0 0 0 0 79173073.744533598 47829215.694030762 0 47829215.694030762 -293017644.24212646 0 0 0 0 -172271744.36980197 217180425.95409405 0 217180425.95409405 1468056237.8075867 0 0 0 0 -168705073.96812505 17258534.038764954 0 17258534.038764954 1926157785.7269897 0 0 0 0 168835703.61811328 540912642.52249146 0 540912642.52249146 805527919.13152313 0 0 0 0 215687675.86235487 379051991.57530785 0 379051991.57530785 -14715861.953826904 0 0 0 0 -551761801.78229642 -400419296.70476532 0 -400419296.70476532 539032909.17977142 0 0 0 0 -34966.835744250915 219396.13856182806 0 219396.13856182806 2069271.1846779585 0 0 0 0 161028269.50465977 717997353.37648773 0 717997353.37648773 689153724.13549042 0 0 0 0 291366855.49748325 295197206.34759521 0 295197206.34759521 -73702055.286499023 0 0 0 0 -106249.55603106471 619867.28245851398 0 619867.28245851398 4447538.9029761851 0 0 0 0 480109435.40875053 153380671.59518433 0 153380671.59518433 279572.67337036133 0 0 0 0 636625595.38617289 328025188.39316559 0 328025188.39316559 230936418.88092041 0 0 0 0 489091146.81838369 55024500.831802368 0 55024500.831802368 69233463.759063721 0 0 0 0 162600999.02096319 -10119891.818328857 0 -10119891.818328857 998963033.49801636 0 0 0 0 67112017.829073906 -22176990.807403564 0 -22176990.807403564 1282158176.5080566 0 0 0 0 149506004.32174587 47822784.888366699 0 47822784.888366699 1121921388.7175903 0 0 0 0 150987962.83359373 132953757.71409845 0 132953757.71409845 1396998680.9689331 0 0 0 0 -77338103.728067398 148712456.75354004 0 148712456.75354004 1948534621.2823792 0 0 0 0 842308169.64427638 749746280.16674423 0 749746280.16674423 1080092624.1932068 0 0 0 0 228088678.12621737 151265596.00688171 0 151265596.00688171 1427125557.8304901 0 0 0 0 764840.34988602286 1599631.5050862283 0 1599631.5050862283 4004837.2847138718 0 0 0 0 7017465.9362068176 30093368.407714844 0 30093368.407714844 -190944957.112854 0 0 0 0 -76522898.187297821 -318958316.3463974 0 -318958316.3463974 1621821560.2425537 0 0 0 0 480682.3285241127 36214248.998901367 0 36214248.998901367 -195580334.74853516 0 0 0 0 460543.48555448651 36144969.960850239 0 36144969.960850239 -65420692.721557617 0 0 0 0 137734381.68249321 -154881771.26525879 0 -154881771.26525879 977720600.29441833 0 0 0 0 772114.44507875736 1714586.2023673728 0 1714586.2023673728 5599206.2251242176 0 0 0 0 -15458651.313051701 45638775.631958008 0 45638775.631958008 -43393794.180786133 0 0 0 0 -858895.91967773438 -102379954.90899658 0 -102379954.90899658 1129491741.4242249 0 0 0 0 -203453616.96817017 -38356990.343017578 0 -38356990.343017578 1231642872.12854 0 0 0 0 57385448.301836014 -146042550.99221802 0 -146042550.99221802 1119387119.6237793 0 0 0 0 55543321.976831436 -187681059.0043335 0 -187681059.0043335 1162117065.5106812 0 0 0 0 15450527.313222885 -179653509.97720337 0 -179653509.97720337 1228575221.34552 0 0 0 0 -10745822.161094666 -165717026.23760986 0 -165717026.23760986 1180588081.8312988 0 0 0 0 55008004.532529831 -147171987.62979126 0 -147171987.62979126 1486806947.0562134 0 0 0 0 88167605.770116329 -347914929.29589844 0 -347914929.29589844 1091451975.9613037 0 0 0 0 -14918926.590414524 -252922133.20599365 0 -252922133.20599365 1287362120.6478729 0 0 0 0 -1346344.543708337 -2241531.5819363222 0 -2241531.5819363222 3009882.7919450477 0 0 0 0 4843680.9036240578 -237912092.11602783 0 -237912092.11602783 1132285363.2030029 0 0 0 0 15972941.749890327 -165691882.302948 0 -165691882.302948 1107955242.4766541 0 0 0 0 10059920.845870018 -195680783.44714355 0 -195680783.44714355 1155416594.4107971 0 0 0 0 51363207.338860512 -199828611.95916748 0 -199828611.95916748 1102738220.5070801 0 0 0 0 51530561.162804604 -154003096.85791016 0 -154003096.85791016 1181413662.380249 0 0 0 0 47822257.639339328 -173484686.63436127 0 -173484686.63436127 1142978910.8041992 0 0 0 0 56872948.444714546 -206314892.96588135 0 -206314892.96588135 1174182435.5163574 0 0 0 0 50315306.314245224 -172801255.88687134 0 -172801255.88687134 1162697566.5601196 0 0 0 0 55348448.546321869 -190858118.5272522 0 -190858118.5272522 1245660667.7276001 0 0 0 0 36341331.699419022 -183357627.08618164 0 -183357627.08618164 1187148396.427124 0 0 0 0 -112732544.34651756 -140676695.75646973 0 -140676695.75646973 1251766800.2000122 0 0 0 0 35471438.366472244 -195146837.87121582 0 -195146837.87121582 1220900268.1286621 0 0 0 0 187694846.38434982 -282682584.83886719 0 -282682584.83886719 1294793946.0961914 0 0 0 0 -5327573.6630535126 -295684618.40875244 0 -295684618.40875244 1387828346.7001953 0 0 0 0 115624193.92414856 -169844947.65893555 0 -169844947.65893555 1228709477.500061 0 0 0 0 -35001.897595938179 -51060.835944820195 0 -51060.835944820195 84028.767040640116 0 0 0 0 259655990.59825134 -480485961.95458984 0 -480485961.95458984 1468232862.829895 0 0 0 0 -4179456.80727005 -197027828.17474365 0 -197027828.17474365 1246133343.9386597 0 0 0 0 50054276.733901024 -302093932.34194946 0 -302093932.34194946 1222125421.8217621 0 0 0 0 -22356182.260772705 -237229397.76019287 0 -237229397.76019287 1210187211.5530701 0 0 0 0 159111820.51036024 -97866964.527618408 0 -97866964.527618408 1178721504.4874115 0 0 0 0 118792213.12706852 -287113492.41427612 0 -287113492.41427612 1153418950.7318115 0 0 0 0 93330086.314844608 -181825956.06469727 0 -181825956.06469727 810888488.77410889 0 0 0 0 60919618.008432388 -241378156.21984863 0 -241378156.21984863 982964352.29769897 0 0 0 0 75026377.068437576 -233678862.94830322 0 -233678862.94830322 1104255411.642395 0 0 0 0 -27006047.894276619 -240631818.35479736 0 -240631818.35479736 1105097652.3515015 0 0 0 0 -62833923.620007694 -178297834.19490814 0 -178297834.19490814 969899989.93539429 0 0 0 0 -34156505.556835145 -11366387.258905411 0 -11366387.258905411 806959415.67279053 0 0 0 0 93309200.576118469 -185330742.33972168 0 -185330742.33972168 779553951.24273682 0 0 0 0 203859912.56889439 127326786.80455017 0 127326786.80455017 623265280.32735443 0 0 0 0 73321938.984162331 -69832351.66394043 0 -69832351.66394043 1123384095.4694824 0 0 0 0 98202521.985316277 -102060195.06451416 0 -102060195.06451416 1057269735.5185852 0 0 0 0 201019648.37430573 147533872.27597046 0 147533872.27597046 1009462896.0801268 0 0 0 0 467832183.05883217 171856306.92185688 0 171856306.92185688 -3653723.8076171875 0 0 0 0 500393227.87863016 91603852.610443115 0 91603852.610443115 -201113013.04187775 0 0 0 0 395648538.2106384 120387117.35978699 0 120387117.35978699 -35607201.919891357 0 0 0 0 111940696.58472037 -163096475.09159851 0 -163096475.09159851 301032420.72782898 0 0 0 0 -284235370.45914507 -552493895.3973999 0 -552493895.3973999 519914256.75099182 0 0 0 0 -62079336.824147761 248515786.79687691 0 248515786.79687691 175484697.93713379 0 0 0 0 -475670.66610220424 222643.13150223345 0 222643.13150223345 637368.61362347752 0 0 0 0 91949303.127813101 312371630.22736359 0 312371630.22736359 -559800114.62573242 0 0 0 0 -1912099.5080901016 541729.23564520478 0 541729.23564520478 -37625.923599425703 0 0 0 0 49078166.720974654 -42258934.315910339 0 -42258934.315910339 -745358461.006073 0 0 0 0 -96858024.863857985 383480542.83287048 0 383480542.83287048 -39992934.950881958 0 0 0 0 15553375.934772491 81240811.319915771 0 81240811.319915771 452399658.57006836 0 0 0 0 -1207382.9482197438 777760.02446507663 0 777760.02446507663 1716447.1778962165 0 0 0 0 157394136.55975103 -241358882.11381531 0 -241358882.11381531 316967950.86133957 0 0 0 0 -127569869.65997577 -287743598.79021454 0 -287743598.79021454 843302188.87632751 0 0 0 0 41819943.819055319 -132988020.22366714 0 -132988020.22366714 925611236.50787354 0 0 0 0 26398509.829399109 -291282067.52130127 0 -291282067.52130127 1039736317.586731 0 0 0 0 -47775774.991226912 -204580067.06166077 0 -204580067.06166077 1254044657.1422729 0 0 0 0 16263615.079522133 -53642733.452392578 0 -53642733.452392578 1345836413.2740326 0 0 0 0 150959057.10311937 -361945961.91349792 0 -361945961.91349792 780067740.93115234 0 0 0 0 74958799.190055847 -43398568.930282593 0 -43398568.930282593 1216682836.0518951 0 0 0 0 94248772.891486168 -386654569.21728516 0 -386654569.21728516 1240523216.984314 0 0 0 0 -1499659.206763118 121318.89056711644 0 121318.89056711644 376201.68529644608 0 0 0 0 206175336.3608799 76131999.691329956 0 76131999.691329956 -128519030.72720337 0 0 0 0 -213994828.11469269 129067798.30923462 0 129067798.30923462 14791563.975860596 0 0 0 0 -118326874.63930464 -264248753.63230896 0 -264248753.63230896 1522291771.0357361 0 0 0 0 -2149911.4484254275 -2068134.0058891997 0 -2068134.0058891997 1781001.7027995307 0 0 0 0 -799001757.83303452 -178354953.40118408 0 -178354953.40118408 -115357592.87732315 0 0 0 0 -510761825.98905087 -32602177.144729614 0 -32602177.144729614 122749894.22344971 0 0 0 0 -252025070.26089334 -582350195.80912018 0 -582350195.80912018 -198144506.7711792 0 0 0 0 -126006911.25925064 -32197046.749938965 0 -32197046.749938965 119841988.79844666 0 0 0 0 -72969340.817626476 -12735401.740722656 0 -12735401.740722656 86121600.521438599 0 0 0 0 -174365668.60707951 40575466.275062561 0 40575466.275062561 112675285.7633667 0 0 0 0 -25086613.224031448 85428813.630371094 0 85428813.630371094 23861067.12097168 0 0 0 0 32130881.158621788 -10611924.761436462 0 -10611924.761436462 126788946.16616821 0 0 0 0 3093629.7242164612 113802652.09543228 0 113802652.09543228 115212962.06002808 0 0 0 0 -35332072.831016541 59227430.842956543 0 59227430.842956543 37792506.819366455 0 0 0 0 -10164153.613840103 49419961.32875061 0 49419961.32875061 38768693.050180435 0 0 0 0 -55935237.043922424 59786175.639816284 0 59786175.639816284 113681267.97123146 0 0 0 0 -36644544.163389683 22687765.231369019 0 22687765.231369019 14986930.168609619 0 0 0 0 -1070861.9843559265 27521726.630630493 0 27521726.630630493 -3107259.6166534424 0 0 0 0 -38694300.910966873 23616834.09601593 0 23616834.09601593 46963903.412173271 0 0 0 0 -23665165.806832552 8868845.7882738113 0 8868845.7882738113 14523037.440612793 0 0 0 0 -3368826.210070705 2675747.5478431545 0 2675747.5478431545 14023243.732869565 0 0 0 0 -83392116.640029669 11705885.526237488 0 11705885.526237488 46324724.731231689 0 0 0 0 -22950214.122883797 3196250.5650177002 0 3196250.5650177002 49968311.647262573 0 0 0 0 4941896.3046137094 11657925.027561188 0 11657925.027561188 24450460.335540771 0 0 0 0 8446801.4805488586 10891267.731330872 0 10891267.731330872 2485783.4512634277 0 0 0 0 -9097828.9077987671 17620644.3099823 0 17620644.3099823 6220510.4077568054 0 0 0 0 -1991486.163296131 3686710.3158447593 0 3686710.3158447593 3596895.4020452946 0 0 0 0 -82038376.094644547 1464312.3223724365 0 1464312.3223724365 21828949.696136475 0 0 0 0 -45351613.795183659 13743843.400817871 0 13743843.400817871 16569094.531860352 0 0 0 0 -19938145.580308199 -170214141.741642 0 -170214141.741642 9274588.0024414062 0 0 0 0 -3544492.2340674689 2469453.5834933929 0 2469453.5834933929 14004208.110525981 0 0 0 0 34628310.769410133 -29781567.473434448 0 -29781567.473434448 25024600.486572266 0 0 0 0 -1410383.9636214119 960346.25294462591 0 960346.25294462591 2733404.3683841676 0 0 0 0 302647409.40966797 125123556.45159912 0 125123556.45159912 70798419.773925781 0 0 0 0 307330768.53358555 46135883.794448853 0 46135883.794448853 5221405.075668335 0 0 0 0 300255032.18110847 -104611280.45135498 0 -104611280.45135498 -21101877.666152954 0 0 0 0 -105620717.94169426 -312469012.22949219 0 -312469012.22949219 -38773469.861450195 0 0 0 0 247896958.63883591 -298282657.32992554 0 -298282657.32992554 -402503471.7134552 0 0 0 0 491102705.43464661 -35328314.669799805 0 -35328314.669799805 -265728035.85351562 0 0 0 0 -1686189.5915351128 3745160.7025266439 0 3745160.7025266439 10511670.126084402 0 0 0 0 -3159612.387049675 6315457.9363174438 0 6315457.9363174438 26753714.477966309 0 0 0 0 -16488111.093729496 7861269.9389190674 0 7861269.9389190674 284823.20697021484 0 0 0 0 -19983670.96425122 30066941.953624725 0 30066941.953624725 -20455389.362060547 0 0 0 0 -37966005.677339077 52527568.652191162 0 52527568.652191162 2402154.4867248535 0 0 0 0 -61439738.582362175 66537247.993499756 0 66537247.993499756 13538450.007759094 0 0 0 0 -60492880.033150673 58274225.033416748 0 58274225.033416748 8643931.8552856445 0 0 0 0 -57357449.929601192 36134137.245941162 0 36134137.245941162 11504841.372402191 0 0 0 0 -33333309.503887177 33543252.910369873 0 33543252.910369873 11745835.164253235 0 0 0 0 -19602092.655670166 32556716.59085083 0 32556716.59085083 -28850036.461608887 0 0 0 0 -20899549.738527298 46367029.793640137 0 46367029.793640137 -43490815.529006958 0 0 0 0 -39479332.63367939 47167077.389709473 0 47167077.389709473 -16497356.251586914 0 0 0 0 -17202113.866500854 57622089.149871826 0 57622089.149871826 -25589379.932556152 0 0 0 0 -43197817.985601187 68325188.793548584 0 68325188.793548584 -25967551.85760498 0 0 0 0 -33591477.569286823 112721986.1293335 0 112721986.1293335 -77861570.907806396 0 0 0 0 -26343570.231403351 86119738.023071289 0 86119738.023071289 -67094280.923458099 0 0 0 0 -26812355.852361284 82091012.330078125 0 82091012.330078125 5609102.8209533691 0 0 0 0 -37904683.456932545 91318330.653869629 0 91318330.653869629 -17155039.453979492 0 0 0 0 -38154439.421171665 76698654.318481445 0 76698654.318481445 -5250304.4090881348 0 0 0 0 -42557412.358030319 80766025.495300293 0 80766025.495300293 9095772.5602416992 0 0 0 0 -29894033.343085766 95814266.005065918 0 95814266.005065918 12480495.811248779 0 0 0 0 -54727623.934321165 84082933.341186523 0 84082933.341186523 46390324.764587402 0 0 0 0 -14690317.051638007 88870901.852226257 0 88870901.852226257 35698069.686538696 0 0 0 0 -77967029.315080166 60623944.633636475 0 60623944.633636475 45456020.974090576 0 0 0 0 -73980847.265609264 20785817.225097656 0 20785817.225097656 59374375.000549316 0 0 0 0 -78242769.749310046 41653607.36621511 0 41653607.36621511 33049683.310882568 0 0 0 0 -55737697.55015707 41734608.849609375 0 41734608.849609375 28542077.098754883 0 0 0 0 -214067905.490798 -80635991.481826782 0 -80635991.481826782 6565977.0024642944 0 0 0 0 337072.74464186281 1392302.940141812 0 1392302.940141812 531105.05323782563 0 0 0 0 -3690809.5558838844 66421332.073135376 0 66421332.073135376 305141822.50198364 0 0 0 0 55149684.405441284 27117589.298156738 0 27117589.298156738 29139270.617828369 0 0 0 0 479527.74202756514 261039.79679112136 0 261039.79679112136 -112810.47987179458 0 0 0 0 -92544586.053955436 -425343911.89796448 0 -425343911.89796448 7218551.6947231293 0 0 0 0 -20275929.485255837 7408198.1333770752 0 7408198.1333770752 -40793045.090034485 0 0 0 0 -180729334.2718218 56440885.787244797 0 56440885.787244797 139262974.46136475 0 0 0 0 152657761.75426349 70273930.181335449 0 70273930.181335449 133484389.53546143 0 0 0 0 -27853332.506800693 -38349903.906571388 0 -38349903.906571388 379469807.75610352 0 0 0 0 343681941.56270784 -255439604.01835632 0 -255439604.01835632 243918381.87889099 0 0 0 0 384480944.48338473 -637813695.18647766 0 -637813695.18647766 767183896.70565033 0 0 0 0 -322551.95089500427 -327739.19905585051 0 -327739.19905585051 2069121.9302502275 0 0 0 0 64986439.090568714 -116911390.64942741 0 -116911390.64942741 625906801.72061157 0 0 0 0 2452460.0711256946 100253750.98927307 0 100253750.98927307 208866121.00793457 0 0 0 0 94820405.485756576 -63096138.513793945 0 -63096138.513793945 214358369.28530073 0 0 0 0 95561.583010207265 83387549.064437866 0 83387549.064437866 80191880.175521851 0 0 0 0 186485.45254320509 111713.30012044311 0 111713.30012044311 -157564.08281564713 0 0 0 0 60485681.017871618 83980923.977005005 0 83980923.977005005 23477595.579101562 0 0 0 0 -12711864.547005683 47677764.035232544 0 47677764.035232544 140492315.84484863 0 0 0 0 140821.45289895765 79084.128568656743 0 79084.128568656743 -172389.49270451069 0 0 0 0 -14452294.066782638 62406637.957176208 0 62406637.957176208 20068190.996673584 0 0 0 0 25233259.658200383 112999339.7219162 0 112999339.7219162 -143992703.1604538 0 0 0 0 51668221.26121258 -27055895.41497612 0 -27055895.41497612 -135902663.03485107 0 0 0 0 -100650.93150728983 73415194.847000122 0 73415194.847000122 -122005165.68737793 0 0 0 0 -19232194.074601449 -17741390.541625977 0 -17741390.541625977 39952122.215423584 0 0 0 0 1093418.7217374593 -92869205.12789917 0 -92869205.12789917 107341297.53462219 0 0 0 0 233341.32316980476 -531742.17050684243 0 -531742.17050684243 1429259.7187132686 0 0 0 0 37978595.645749062 -40462360.660644531 0 -40462360.660644531 98837070.839050293 0 0 0 0 2382126.4296015799 -10957835.156768799 0 -10957835.156768799 27804365.968063354 0 0 0 0 -8810625.088758558 -6397974.8135375977 0 -6397974.8135375977 29713181.65486145 0 0 0 0 -52793.855461776373 1016.2076327577233 0 1016.2076327577233 108135.05054910481 0 0 0 0 -4798882.0249765962 2050237.1848449707 0 2050237.1848449707 14687829.585540771 0 0 0 0 -8686717.8052387983 -4361390.0889587402 0 -4361390.0889587402 4164652.1723632812 0 0 0 0 8302339.4389234185 -36535633.277542114 0 -36535633.277542114 53170889.970001221 0 0 0 0 -82169.587554359256 -9273.6421551704407 0 -9273.6421551704407 150952.34604713321 0 0 0 0 138195.97708393296 36034293.873001099 0 36034293.873001099 44461702.807449341 0 0 0 0 -13060076.56481152 7384495.9638977051 0 7384495.9638977051 -19706189.644634247 0 0 0 0 57721.822983347098 37413302.40118701 0 37413302.40118701 27139619.906188965 0 0 0 0 -45546.478710538257 29591306.404701132 0 29591306.404701132 -30401886.83807373 0 0 0 0 -14749664.310719214 45601828.080031157 0 45601828.080031157 -22517476.780395508 0 0 0 0 -202707.34921459144 374874.36374608427 0 374874.36374608427 3445747.4799172282 0 0 0 0 204466662.26420295 -207874310.53807795 0 -207874310.53807795 404861619.20803833 0 0 0 0 197194628.83606637 -571266523.52627563 0 -571266523.52627563 569965034.9197998 0 0 0 0 -31196467.241249323 -203356144.05105591 0 -203356144.05105591 525920882.64971924 0 0 0 0 121797233.74937153 -249443102.36795044 0 -249443102.36795044 385958594.92674637 0 0 0 0 126135340.88944125 -229546485.68280792 0 -229546485.68280792 444807893.07549286 0 0 0 0 467398.23865195684 1251462.6993900985 0 1251462.6993900985 5268049.3899550289 0 0 0 0 -26325057.974572599 3831854.7397460938 0 3831854.7397460938 13831453.155151367 0 0 0 0 -25508098.42832619 33419344.228088379 0 33419344.228088379 -8091305.7167510986 0 0 0 0 1184534.8244422376 -1563471.3039245605 0 -1563471.3039245605 10288477.115142822 0 0 0 0 -15156912.23596409 -4410774.107383728 0 -4410774.107383728 32859283.027572632 0 0 0 0 -508620.93757212162 8908705.5130004883 0 8908705.5130004883 41803780.816772461 0 0 0 0 2573752.4120808244 3358543.370803833 0 3358543.370803833 -668534.86814117432 0 0 0 0 -22113295.310998678 15628270.176765442 0 15628270.176765442 21383920.6456604 0 0 0 0 22983584.112086296 -132731570.71391296 0 -132731570.71391296 299933190.26785278 0 0 0 0 1657965.79810297 1726096.5592924207 0 1726096.5592924207 7385351.4938753843 0 0 0 0 40124874.584552765 -149892993.20153809 0 -149892993.20153809 247417675.52529907 0 0 0 0 95595633.342386723 -158734449.95224762 0 -158734449.95224762 304920068.81414223 0 0 0 0 -102417.15837998316 649655.9622464478 0 649655.9622464478 1041957.0091473125 0 0 0 0 109693345.96407843 -290777129.91881466 0 -290777129.91881466 625785039.16012573 0 0 0 0 43073611.13313961 -56521542.566093445 0 -56521542.566093445 -80328592.028152466 0 0 0 0 -20480698.313708782 -9504262.8974151611 0 -9504262.8974151611 86585005.460922241 0 0 0 0 -21068151.649069428 -16892134.31746006 0 -16892134.31746006 18551811.982147217 0 0 0 0 -91287.777156475 1262753.6210667938 0 1262753.6210667938 3129436.7358113267 0 0 0 0 -8699846.5808143616 -15875706.475112915 0 -15875706.475112915 4543457.4131774902 0 0 0 0 20296726.307798862 -225634008.37992859 0 -225634008.37992859 413851009.21563721 0 0 0 0 -6130537.7176399231 -692990.64413452148 0 -692990.64413452148 15847603.269073486 0 0 0 0 196845806.65476227 -85812374.676055908 0 -85812374.676055908 55282124.316101074 0 0 0 0 234838.13519032579 1784880.865277037 0 1784880.865277037 6003182.978111838 0 0 0 0 -32805.104995727539 -3865669.0142288208 0 -3865669.0142288208 17494421.069458008 0 0 0 0 -8126633.9156322479 -2669698.6427612305 0 -2669698.6427612305 20656151.856002808 0 0 0 0 -7220863.8243932724 23446050.218200684 0 23446050.218200684 -4601499.9918823242 0 0 0 0 -6746177.5691771507 495358.01689910889 0 495358.01689910889 17799125.356445312 0 0 0 0 -3430727.5272688568 3232397.3478177376 0 3232397.3478177376 13620532.755519703 0 0 0 0 -6476531.3058409691 18152749.927268028 0 18152749.927268028 -7477438.5859985352 0 0 0 0 22093074.840948105 -5175391.2228546143 0 -5175391.2228546143 5184210.8276672363 0 0 0 0 -181922200.88474464 95991593.001251221 0 95991593.001251221 -749640581.83441162 0 0 0 0 -7906075.7336433129 1318440.5922865123 0 1318440.5922865123 15620236.568797931 0 0 0 0 -280177308.74705791 227860667.48010826 0 227860667.48010826 285313600.99395752 0 0 0 0 -450353.59625985194 1102250.8817189634 0 1102250.8817189634 1778893.5777342319 0 0 0 0 -134293522.30469775 -348274999.7712059 0 -348274999.7712059 129913095.45870972 0 0 0 0 625801164.319175 458294102.4786129 0 458294102.4786129 242894182.75311279 0 0 0 0 153961014.9052144 427701880.38956237 0 427701880.38956237 273960910.39398193 0 0 0 0 -82662418.646888733 -204972496.70802689 0 -204972496.70802689 1022817390.8168335 0 0 0 0 782444267.53023529 -530303693.41116333 0 -530303693.41116333 226453378.78272629 0 0 0 0 123280354.48590419 -512782734.96444941 0 -512782734.96444941 234479958.43206787 0 0 0 0 19019671.670659065 -212054662.45742035 0 -212054662.45742035 377432915.23040771 0 0 0 0 -53373603.757230759 -172641292.30513 0 -172641292.30513 379740299.47004604 0 0 0 0 -80987168.244568944 -220281252.08285522 0 -220281252.08285522 544407563.41757202 0 0 0 0 22851462.182386398 188722421.6375885 0 188722421.6375885 382740793.3670578 0 0 0 0 2276965.2567437086 -927282.0015777275 0 -927282.0015777275 130590.99805989861 0 0 0 0 540157078.09284401 -359108776.92293549 0 -359108776.92293549 122864563.93664551 0 0 0 0 20378056.884214401 200994115.19708252 0 200994115.19708252 813442973.40701294 0 0 0 0 118456721.30701065 64470693.283691406 0 64470693.283691406 -33552580.648651123 0 0 0 0 16277343.506637573 -450941.17057800293 0 -450941.17057800293 79365812.955657959 0 0 0 0 57054614.538757324 38583873.983840942 0 38583873.983840942 112396164.38734436 0 0 0 0 18182759.139579773 -32579387.599761963 0 -32579387.599761963 61284482.847198486 0 0 0 0 11993651.19520092 -20340014.391166687 0 -20340014.391166687 10446436.6434021 0 0 0 0 5734143.2036581766 -2122457.4837209284 0 -2122457.4837209284 1113943.219494909 0 0 0 0 3367568.6607713075 -6133938.7011054903 0 -6133938.7011054903 14003260.677400634 0 0 0 0 2294602.9750008583 -5595267.8619537354 0 -5595267.8619537354 20919417.051116943 0 0 0 0 38274188.799604654 -34214520.556274414 0 -34214520.556274414 -56937568.886169434 0 0 0 0 48561094.928612709 2942129.5333557129 0 2942129.5333557129 13042964.401426315 0 0 0 0 -1133076.7413802743 -6613714.002910614 0 -6613714.002910614 32415756.423828125 0 0 0 0 -256614.40524077415 -7050111.8745346069 0 -7050111.8745346069 32470614.214447021 0 0 0 0 -577219.22910520947 4775878.5756532475 0 4775878.5756532475 30353846.007335111 0 0 0 0 -589454.99494951963 -1468429.7912445068 0 -1468429.7912445068 59879257.09412384 0 0 0 0 -5148193.4410960078 -644296.09320068359 0 -644296.09320068359 51479348.090148926 0 0 0 0 1702153.1193919182 1733740.2540130615 0 1733740.2540130615 36160319.785072327 0 0 0 0 3873497.439237833 -10483116.982204437 0 -10483116.982204437 24033465.181060791 0 0 0 0 6145592.9302973747 -7712069.0838775635 0 -7712069.0838775635 20955885.207672119 0 0 0 0 -817759.23159529176 3053854.2595732212 0 3053854.2595732212 20852690.089490615 0 0 0 0 -3454965.0808948278 10813784.291595459 0 10813784.291595459 47945088.079818726 0 0 0 0 1932547.085490033 25058413.892852783 0 25058413.892852783 72697409.330413818 0 0 0 0 -6132278.8867277503 -16066198.484703064 0 -16066198.484703064 59994672.04498291 0 0 0 0 -1029368.4913708912 -1186240.3255932629 0 -1186240.3255932629 9154801.4479879886 0 0 0 0 -8834692.8937951326 6075318.998916626 0 6075318.998916626 25362085.17175293 0 0 0 0 7789080.7070501447 -16783944.894439697 0 -16783944.894439697 33061709.423706055 0 0 0 0 -2256334.0511227446 1962606.3728028685 0 1962606.3728028685 3938320.8833433688 0 0 0 0 -3422925.3342346549 -8946195.5598640442 0 -8946195.5598640442 26343232.239349365 0 0 0 0 3039992.1577134132 -8604063.1337585449 0 -8604063.1337585449 24490596.684432983 0 0 0 0 2354214.2481802837 -5364724.4363685735 0 -5364724.4363685735 15362604.230484441 0 0 0 0 1598804.5382641554 -8542900.7366762161 0 -8542900.7366762161 23332271.009246826 0 0 0 0 -1612789.9913345575 -5463495.952003479 0 -5463495.952003479 21956123.451934814 0 0 0 0 32765769.179662704 33597948.596572876 0 33597948.596572876 101588987.9152832 0 0 0 0 2568570.8352440177 1269645.4946589917 0 1269645.4946589917 11142013.959445611 0 0 0 0 -9725858.5119913816 3193499.5035705566 0 3193499.5035705566 19639419.805969238 0 0 0 0 -9267415.7101974599 -5899320.7607302666 0 -5899320.7607302666 29594368.94708252 0 0 0 0 2427931.2426015139 -5157235.178894043 0 -5157235.178894043 20928920.21880722 0 0 0 0 -9006706.0516218543 -680669.758644104 0 -680669.758644104 40469622.164260864 0 0 0 0 13137425.722278312 -37693699.425773621 0 -37693699.425773621 77944703.791107178 0 0 0 0 -12130828.322301202 -3983112.7816591263 0 -3983112.7816591263 42114228.29083252 0 0 0 0 262147.47285861871 -1007308.0609878376 0 -1007308.0609878376 4118550.4615250379 0 0 0 0 2859052.4058697224 -22636556.117980957 0 -22636556.117980957 47752155.722019196 0 0 0 0 -7538881.0426654369 14726446.738128662 0 14726446.738128662 12134952.882980347 0 0 0 0 -6417650.0507893153 -10599838.440728188 0 -10599838.440728188 47435069.186828613 0 0 0 0 -12899921.209419012 -4402341.7592773438 0 -4402341.7592773438 71376119.278717041 0 0 0 0 -8372751.6080407649 -5080838.8196792603 0 -5080838.8196792603 49512329.120910645 0 0 0 0 18728.7374182645 139862.45147124678 0 139862.45147124678 151647.79598605633 0 0 0 0 -13440381.834800186 -9303319.454864502 0 -9303319.454864502 82934576.702545166 0 0 0 0 2839328.229807172 2330805.6201782227 0 2330805.6201782227 44763687.264068604 0 0 0 0 -6670469.8606846482 -22603689.663200378 0 -22603689.663200378 115977862.29708099 0 0 0 0 10791.217272375809 -957523.23654174805 0 -957523.23654174805 32519292.21295166 0 0 0 0 9884931.0581320152 4778698.0568847656 0 4778698.0568847656 11050376.661499023 0 0 0 0 124.4478852083821 52166.638597406447 0 52166.638597406447 66258.171655252576 0 0 0 0 -13541928.424948832 9453809.0377807617 0 9453809.0377807617 67089465.271850586 0 0 0 0 10779.723434421789 -13622828.859619141 0 -13622828.859619141 96695880.010391235 0 0 0 0 4367140.0941037871 17898217.765418053 0 17898217.765418053 41208680.716461182 0 0 0 0 -3672337.5816080086 -6271912.2426300049 0 -6271912.2426300049 20588577.377563477 0 0 0 0 239814.58918051422 21382082.4298172 0 21382082.4298172 -10263804.435913086 0 0 0 0 4403635.0042369366 -29202480.816375732 0 -29202480.816375732 102745019.79650879 0 0 0 0 326771.18925186631 -662504.54857661575 0 -662504.54857661575 2175782.0280865729 0 0 0 0 8529.7249300700514 16307747.258771718 0 16307747.258771718 -20042722.779724121 0 0 0 0 -153007638.88109016 -53817991.186416626 0 -53817991.186416626 127011917.36448288 0 0 0 0 54170136.096908569 -7566573.2332572937 0 -7566573.2332572937 -29164862.1355896 0 0 0 0 -157822867.47281086 -195806731.67570841 0 -195806731.67570841 10985956.06590271 0 0 0 0 15563095.76021073 -21416993.000171583 0 -21416993.000171583 22373668.751038298 0 0 0 0 15243122.041416168 21649538.487098694 0 21649538.487098694 -16965336.548916817 0 0 0 0 -70698802.913366318 64017835.021186829 0 64017835.021186829 212777232.53942871 0 0 0 0 -73633179.443031311 42702947.028457642 0 42702947.028457642 248080400.39639282 0 0 0 0 -2044246.5414276123 36472258.227584839 0 36472258.227584839 81362118.999221802 0 0 0 0 21285747.665881634 -18134344.865684509 0 -18134344.865684509 168574842.02331543 0 0 0 0 2098093.619770709 3493287.9713103734 0 3493287.9713103734 109858.6828257516 0 0 0 0 30101310.941768646 47106151.745635986 0 47106151.745635986 354726795.74789429 0 0 0 0 307937518.12299728 -57635338.965034485 0 -57635338.965034485 -3480158.5126037598 0 0 0 0 134085367.24951792 -145906114.15628815 0 -145906114.15628815 210252557.83915329 0 0 0 0 124500329.52912283 58160673.443138123 0 58160673.443138123 -40416142.187576294 0 0 0 0 287497982.25967503 -117286931.21116638 0 -117286931.21116638 692676.11204385757 0 0 0 0 421860690.15037441 -407606149.56847286 0 -407606149.56847286 223055433.48191833 0 0 0 0 252521783.29993439 -114504256.20471954 0 -114504256.20471954 67622315.59677124 0 0 0 0 462054997.25834191 -184316881.72202873 0 -184316881.72202873 -120139205.58932495 0 0 0 0 320110139.59798098 125516946.01911545 0 125516946.01911545 196224383.03308105 0 0 0 0 393687267.03620625 381110863.51419067 0 381110863.51419067 293236953.80903625 0 0 0 0 13562488.464848358 -15618787.214884482 0 -15618787.214884482 15021265.490317762 0 0 0 0 -103047525.33072996 -188172875.92783546 0 -188172875.92783546 -31806136.085906982 0 0 0 0 313938299.06736612 1206172.9234380722 0 1206172.9234380722 62500382.515594482 0 0 0 0 -64059848.679296494 80901393.765075684 0 80901393.765075684 295141785.49572754 0 0 0 0 -83396704.498505116 -19135024.362610817 0 -19135024.362610817 70679998.270858765 0 0 0 0 -465579442.55900002 -26888234.447319031 0 -26888234.447319031 142257017.79854584 0 0 0 0 143757906.78996849 174456336.99293518 0 174456336.99293518 -348255921.11767578 0 0 0 0 55567100.952108383 161615753.41083527 0 161615753.41083527 271325446.3600769 0 0 0 0 -2176900.794801333 4186742.8911241814 0 4186742.8911241814 2453287.0356215239 0 0 0 0 -60683221.327766418 10366043.652648926 0 10366043.652648926 11232015.991027832 0 0 0 0 -65333489.025903702 16450285.916946411 0 16450285.916946411 30397018.247749329 0 0 0 0 -53628350.515096664 29209517.920715332 0 29209517.920715332 22109232.851531982 0 0 0 0 -254588829.15949488 207369974.53569412 0 207369974.53569412 -104557165.53141785 0 0 0 0 -1123850.4617909323 -16272.068667411804 0 -16272.068667411804 1148356.4218894653 0 0 0 0 -3576215.2215425484 1447470.1061257198 0 1447470.1061257198 4367134.6287173405 0 0 0 0 -55828999.46238327 21102120.963699341 0 21102120.963699341 6328871.4893798828 0 0 0 0 -49273362.010967255 -6109170.4418563843 0 -6109170.4418563843 14341819.502399445 0 0 0 0 -105350.96521588974 4383316.6113374867 0 4383316.6113374867 8581862.5492980927 0 0 0 0 -38959999.177139282 -93372657.210693359 0 -93372657.210693359 -124817964.71944427 0 0 0 0 9439400.1147232056 -27464355.010299683 0 -27464355.010299683 -43509017.982543945 0 0 0 0 -5885183.7740831375 -36170092.375701904 0 -36170092.375701904 -37317783.890472412 0 0 0 0 56622085.736213684 152353698.07759094 0 152353698.07759094 116484072.51821899 0 0 0 0 -226681478.1447506 93602260.743637085 0 93602260.743637085 257022351.36834717 0 0 0 0 15369058.657928467 260403853.43824768 0 260403853.43824768 244642432.95178223 0 0 0 0 42311251.26537323 359616087.71044922 0 359616087.71044922 500245087.64263916 0 0 0 0 -91869.423521897756 1429452.5637283921 0 1429452.5637283921 3424054.1464250237 0 0 0 0 43994315.508600235 -560122216.49778748 0 -560122216.49778748 597669626.73894882 0 0 0 0 93314140.457379818 -683337608.07676697 0 -683337608.07676697 862814752.16943359 0 0 0 0 487809986.37805367 393926138.54286194 0 393926138.54286194 43759117.700073242 0 0 0 0 -756534707.93103409 45037698.558822632 0 45037698.558822632 193233006.93618774 0 0 0 0 -132204107.60801697 135095157.62989807 0 135095157.62989807 174875517.18589783 0 0 0 0 -119285032.37569809 194403175.09860229 0 194403175.09860229 347417078.18589306 0 0 0 0 -268309696.92618561 127510399.04742432 0 127510399.04742432 665748512.9559021 0 0 0 0 18155426.443033651 -28821076.929987267 0 -28821076.929987267 27829771.088439994 0 0 0 0 -236212160.19145203 109115663.4334259 0 109115663.4334259 355881080.722229 0 0 0 0 -10097465.294452153 -1808451.5558105558 0 -1808451.5558105558 16533638.568912642 0 0 0 0 -89693548.217723846 -62548503.656791687 0 -62548503.656791687 4186999.7805557251 0 0 0 0 -102983858.76009178 -58439194.82894516 0 -58439194.82894516 108381234.28076172 0 0 0 0 9568402.9878741466 -19158549.110007823 0 -19158549.110007823 13955714.681991551 0 0 0 0 -199878121.41344643 69947407.998271942 0 69947407.998271942 320676833.43780518 0 0 0 0 -130329751.01717758 -66735773.434326172 0 -66735773.434326172 60228023.334075928 0 0 0 0 1639024.2484087944 -5888398.009727478 0 -5888398.009727478 994418.70545959473 0 0 0 0 23105580.98593998 -12274484.533535004 0 -12274484.533535004 25568905.03024292 0 0 0 0 -461363.46959521621 -6318088.4148476198 0 -6318088.4148476198 19502007.9053008 0 0 0 0 7842792.2714271545 -27075780.923423767 0 -27075780.923423767 44845010.533027649 0 0 0 0 7656818.8246156294 -8674333.9924213234 0 -8674333.9924213234 15655218.440702468 0 0 0 0 -28147026.092569351 -58396921.543785095 0 -58396921.543785095 42878616.344909668 0 0 0 0 -102261479.82387257 49106498.123020172 0 49106498.123020172 63539267.890518188 0 0 0 0 -450968492.76426315 -3888130.6939086914 0 -3888130.6939086914 1212093324.5524292 0 0 0 0 -105364599.55454254 39483751.212646484 0 39483751.212646484 138843041.51144409 0 0 0 0 193316866.92486382 -154152532.47599792 0 -154152532.47599792 191285798.08380127 0 0 0 0 388466832.53858185 -212045860.09062195 0 -212045860.09062195 -987237875.76193237 0 0 0 0 318860916.53384399 -846035077.01174927 0 -846035077.01174927 -94336738.390045166 0 0 0 0 626649970.36525726 1041676287.8927612 0 1041676287.8927612 128797344.62073469 0 0 0 0 -1347404433.7572937 -84552386.960021973 0 -84552386.960021973 227237663.24645996 0 0 0 0 -323435978.00750732 401528272.46096802 0 401528272.46096802 -2291664460.9868774 0 0 0 0 -305606.45967325754 -392761.58331142366 0 -392761.58331142366 1405935.9122722 0 0 0 0 3392066.8053970337 1070287291.6293945 0 1070287291.6293945 128946811.34003758 0 0 0 0 2347327072.862606 -349795336.81640625 0 -349795336.81640625 240545433.57971191 0 0 0 0 -306627336.2231369 -59242972.560333252 0 -59242972.560333252 2216540554.1270752 0 0 0 0 -289589950.65745926 -143333388.47463989 0 -143333388.47463989 357659126.84841919 0 0 0 0 -102081349.03339195 -344320732.58552551 0 -344320732.58552551 -828426732.80361938 0 0 0 0 -3462380.7801855002 -3200486.4211925417 0 -3200486.4211925417 24011212.776923835 0 0 0 0 -5236969.6212768555 -8073778.3204650879 0 -8073778.3204650879 57294395.559906006 0 0 0 0 -11413216.816139221 -54097140.291931152 0 -54097140.291931152 64719419.092464447 0 0 0 0 11079700.164878845 -54363844.227508545 0 -54363844.227508545 56059421.115142822 0 0 0 0 12709228.320575096 -22845839.571040761 0 -22845839.571040761 38801192.883243322 0 0 0 0 -17243053.065124512 -58117405.064758301 0 -58117405.064758301 125797996.71508789 0 0 0 0 -3275454.1105613708 2726555.7042160034 0 2726555.7042160034 111170012.86022949 0 0 0 0 31105230.57768631 -78447840.651443481 0 -78447840.651443481 46056623.498977661 0 0 0 0 -30621723.772583008 -14530992.74080658 0 -14530992.74080658 227365642.1784668 0 0 0 0 -3026968.001489833 -4514885.9735211432 0 -4514885.9735211432 10045558.762441054 0 0 0 0 14876632.51530838 -94893100.15852356 0 -94893100.15852356 149520909.09069824 0 0 0 0 14338032.262521744 -41877485.867576599 0 -41877485.867576599 73336664.604644775 0 0 0 0 5771700.4985685935 -8040254.2485332116 0 -8040254.2485332116 18224950.347737774 0 0 0 0 17426156.123046875 -25468415.553375244 0 -25468415.553375244 25997903.608123779 0 0 0 0 27096069.671016693 -34347257.19720459 0 -34347257.19720459 20509299.015274048 0 0 0 0 -632451.54668045044 -5707972.3287849426 0 -5707972.3287849426 31707116.289337158 0 0 0 0 25162512.691017151 -63660087.548080444 0 -63660087.548080444 68259774.974811554 0 0 0 0 12023964.598802567 -37238041.797454834 0 -37238041.797454834 44008433.11485672 0 0 0 0 -1426919.9812928555 -13019855.251645699 0 -13019855.251645699 29764502.070853233 0 0 0 0 -1224505.5616493225 -18947513.580802917 0 -18947513.580802917 41212432.064117432 0 0 0 0 6557845.9376167692 -7424338.1261838302 0 -7424338.1261838302 30748340.701048002 0 0 0 0 -21469306.28137207 -28982304.854644775 0 -28982304.854644775 42471753.800842285 0 0 0 0 -680663.6819546381 -4673058.9083067514 0 -4673058.9083067514 3839616.3940340728 0 0 0 0 59812.165170281194 -14312188.733213443 0 -14312188.733213443 32879071.527765527 0 0 0 0 -4544156.8224029541 -14284418.881868362 0 -14284418.881868362 23333470.78326416 0 0 0 0 -10722075.841189384 -4822349.2963027954 0 -4822349.2963027954 25865165.37612915 0 0 0 0 888879.16865110397 -6146871.2182769775 0 -6146871.2182769775 31544694.624786377 0 0 0 0 -176607.02770423889 -14457987.023277283 0 -14457987.023277283 45937592.47190094 0 0 0 0 4545090.623198187 -882212.67355826497 0 -882212.67355826497 32076201.415499181 0 0 0 0 -999573.61082224455 -2723970.2469234467 0 -2723970.2469234467 10035371.335428223 0 0 0 0 14001542.557610512 -37870303.703960419 0 -37870303.703960419 63268409.57901001 0 0 0 0 18921006.32034874 -34844604.8019104 0 -34844604.8019104 48488974.452056885 0 0 0 0 9539888.5341281891 -23053987.802818298 0 -23053987.802818298 42602466.375972748 0 0 0 0 4695563.3628263474 -26680029.351390839 0 -26680029.351390839 43495754.940078735 0 0 0 0 9319435.3257846832 -24657560.050323486 0 -24657560.050323486 41893068.275939941 0 0 0 0 2360773.4061851501 -15202148.030761719 0 -15202148.030761719 33356510.582420349 0 0 0 0 -8658883.5799465179 -9157383.7614173889 0 -9157383.7614173889 39450300.481628418 0 0 0 0 8070175.5340328217 -24236268.2537117 0 -24236268.2537117 40364758.663314819 0 0 0 0 17588761.618534088 -30257556.585430145 0 -30257556.585430145 45554212.919433594 0 0 0 0 8925284.245344162 -21282524.933452606 0 -21282524.933452606 47959209.158462524 0 0 0 0 7646831.9746837616 -53017622.956748962 0 -53017622.956748962 72471728.483413696 0 0 0 0 21991933.088933945 -24847770.729415894 0 -24847770.729415894 51403773.951293945 0 0 0 0 -122681995.72486877 -17729749.118911743 0 -17729749.118911743 70174391.736366272 0 0 0 0 -757983.50495517859 -557503.86110636964 0 -557503.86110636964 3422350.6193190217 0 0 0 0 -78861064.780461788 101473276.50530624 0 101473276.50530624 -22357251.3138237 0 0 0 0 -78430738.950246811 59484888.829849243 0 59484888.829849243 54827560.941772461 0 0 0 0 -74154227.696850777 68196409.884872437 0 68196409.884872437 61874558.554855347 0 0 0 0 -87335281.273538589 62416748.394744873 0 62416748.394744873 74705881.61164856 0 0 0 0 -39760677.043368101 30197307.94937706 0 30197307.94937706 41205291.117271423 0 0 0 0 186136598.3474412 14589748.818569183 0 14589748.818569183 -40916966.9192276 0 0 0 0 -38788.622007779777 4819208.5472121164 0 4819208.5472121164 4423884.9760352932 0 0 0 0 -2139427.5972113525 -1644678.32375139 0 -1644678.32375139 6293504.2432007641 0 0 0 0 2991607792.6875343 -968065011.10906982 0 -968065011.10906982 262991153.14907837 0 0 0 0 51423821.33043766 192691905.57704926 0 192691905.57704926 -63216665.227996826 0 0 0 0 -297055720.83405876 60704913.90536499 0 60704913.90536499 75201058.041016579 0 0 0 0 249668617.55859756 -38965529.512557983 0 -38965529.512557983 44630589.875190735 0 0 0 0 305027206.92899418 10988605.327957153 0 10988605.327957153 -382548601.93577194 0 0 0 0 605505453.0216316 -509871487.42308807 0 -509871487.42308807 193480482.7949791 0 0 0 0 -3560406245.9463696 -274538932.80134964 0 -274538932.80134964 1812167671.9317169 0 0 0 0 187293884.66653633 -25908411.737066269 0 -25908411.737066269 140342535.86608887 0 0 0 0 182298844.65817642 -58136714.793617249 0 -58136714.793617249 39280583.098098755 0 0 0 0 128588084.92762947 -79050323.282588959 0 -79050323.282588959 146297414.17089081 0 0 0 0 228762016.37636471 -108988648.0250864 0 -108988648.0250864 23061942.841934204 0 0 0 0 19552737.525408983 -29907277.857906342 0 -29907277.857906342 -26109244.056182861 0 0 0 0 261765802.30459452 -192003612.56779861 0 -192003612.56779861 148293950.62883592 0 0 0 0 -3716698.0486771502 -978418.49118677527 0 -978418.49118677527 16074406.442547441 0 0 0 0 -29162595.486922741 55387079.552127838 0 55387079.552127838 5276136.8837890625 0 0 0 0 113630133.37397385 -96617235.602397919 0 -96617235.602397919 86666818.688245118 0 0 0 0 5268993.4534301758 -186729284.19015884 0 -186729284.19015884 86425713.942390442 0 0 0 0 42538777.232593536 -176810064.96898651 0 -176810064.96898651 3798700.4943828583 0 0 0 0 68969876.396347046 -260264659.78108978 0 -260264659.78108978 -26174523.535400391 0 0 0 0 15124140.696933746 -205786398.0447998 0 -205786398.0447998 -45099184.710464478 0 0 0 0 40899586.893868208 -196264107.41954374 0 -196264107.41954374 -68895531.139816284 0 0 0 0 -22258344.825710297 -134115310.47014999 0 -134115310.47014999 11724474.436157227 0 0 0 0 51515882.544006348 -139873092.72727585 0 -139873092.72727585 -24946109.791473389 0 0 0 0 79021438.147327423 -200764077.42889786 0 -200764077.42889786 12431713.085327148 0 0 0 0 47255528.95721817 -102928920.30275345 0 -102928920.30275345 60706598.564439774 0 0 0 0 8756115.9335136414 -172213008.34071732 0 -172213008.34071732 -134875401.50260162 0 0 0 0 -154460728.46977234 -113116748.72994995 0 -113116748.72994995 -38674534.20275116 0 0 0 0 -34164261.660474777 -177618643.19008446 0 -177618643.19008446 -20900016.008094788 0 0 0 0 -189098428.58751678 -152167470.50033188 0 -152167470.50033188 -10382772.421592712 0 0 0 0 -182018869.61505318 -215733304.19435406 0 -215733304.19435406 -52081769.122009277 0 0 0 0 -184176729.92092133 -182833623.34763336 0 -182833623.34763336 46948889.477779865 0 0 0 0 -100452894.63480568 -181575254.85560894 0 -181575254.85560894 -3194855.3887329102 0 0 0 0 -78137472.819618225 -114751714.44605255 0 -114751714.44605255 4796068.5149517059 0 0 0 0 -33260374.039670944 -162534136.62300873 0 -162534136.62300873 44582967.98626709 0 0 0 0 6325823.7863006592 -95031840.500923157 0 -95031840.500923157 56529930.015556335 0 0 0 0 -199786535.66658783 -174151992.66192627 0 -174151992.66192627 46176107.391845703 0 0 0 0 -52547916.51799202 -209638320.40068054 0 -209638320.40068054 -21026114.489784241 0 0 0 0 172915797.94975471 -106189054.21318817 0 -106189054.21318817 76818691.293121338 0 0 0 0 120795975.97871566 -132603168.91577005 0 -132603168.91577005 38415042.566421509 0 0 0 0 66340607.672210693 -126065694.90551758 0 -126065694.90551758 11153583.268939972 0 0 0 0 60407770.349021912 -69856510.755577087 0 -69856510.755577087 79222842.606960297 0 0 0 0 119634055.07532883 -39103955.60609436 0 -39103955.60609436 125384177.72960663 0 0 0 0 273816163.07818222 -16095997.750745773 0 -16095997.750745773 79747326.233642578 0 0 0 0 115756087.47590637 -83724060.516853333 0 -83724060.516853333 78704979.880775452 0 0 0 0 99556815.90398407 -59445310.690803528 0 -59445310.690803528 106641489.65553665 0 0 0 0 99671273.508733749 -93135874.089996338 0 -93135874.089996338 40544576.613494873 0 0 0 0 33677420.244743347 -61955066.40839386 0 -61955066.40839386 108767608.97116089 0 0 0 0 -5226419.3218235858 466812.90306552686 0 466812.90306552686 5090127.3948329985 0 0 0 0 63957953.010168076 -111470083.59279823 0 -111470083.59279823 -25604490.960617065 0 0 0 0 -182190440.27679443 -175059219.60905075 0 -175059219.60905075 337672558.18811035 0 0 0 0 -9050908.6469460353 748084.10352421552 0 748084.10352421552 8901845.8049825057 0 0 0 0 149631612.45946264 -348685302.70024014 0 -348685302.70024014 385057629.46867371 0 0 0 0 -176564250.2446785 -167478297.87789154 0 -167478297.87789154 347967703.86641693 0 0 0 0 108675284.49620056 -119672462.98061371 0 -119672462.98061371 237585294.42501831 0 0 0 0 -175615001.50267792 -25601341.64654541 0 -25601341.64654541 261769796.78926086 0 0 0 0 -32676606.973747253 -303091557.98387146 0 -303091557.98387146 527262500.57325745 0 0 0 0 175849948.54639816 -244210363.01724243 0 -244210363.01724243 352704416.97369766 0 0 0 0 241051699.34088135 -450183263.702034 0 -450183263.702034 134364434.27360535 0 0 0 0 -8655163.4985927846 881923.66890288889 0 881923.66890288889 8860063.163037695 0 0 0 0 254964479.43927383 -123161955.09020805 0 -123161955.09020805 89608667.341201782 0 0 0 0 -453603476.95915604 -79735681.484737396 0 -79735681.484737396 150207402.19329834 0 0 0 0 -539483244.02957153 113442149.95487976 0 113442149.95487976 67888070.734630585 0 0 0 0 3151097.0790220499 -8154910.0215805862 0 -8154910.0215805862 10285089.185081258 0 0 0 0 116852632.75500488 -101983713.3591156 0 -101983713.3591156 105679511.23223877 0 0 0 0 -7695065.8316612244 -16344032.996765137 0 -16344032.996765137 26989618.66217041 0 0 0 0 13283129.965490524 -39312478.210441947 0 -39312478.210441947 40599632.125788644 0 0 0 0 -17100098.457092285 -13789844.984893799 0 -13789844.984893799 8868999.9190673828 0 0 0 0 -28275335.917028099 -21923038.823264986 0 -21923038.823264986 34282196.747421265 0 0 0 0 52399842.634887695 -154181224.35844421 0 -154181224.35844421 184974763.95178223 0 0 0 0 8579775.7282473296 -44403740.85049779 0 -44403740.85049779 34124628.799341507 0 0 0 0 -5237007.335117396 2170607.9361177608 0 2170607.9361177608 4157039.2238783389 0 0 0 0 -64147511.191612244 -135323903.67082977 0 -135323903.67082977 44964072.257537842 0 0 0 0 -33519564.482368469 -27585498.924407959 0 -27585498.924407959 2453899.1905975342 0 0 0 0 191626109.95604706 -119099158.53025055 0 -119099158.53025055 -18737497.386795044 0 0 0 0 -35581262.250328064 -38006712.63829422 0 -38006712.63829422 23364456.065795898 0 0 0 0 -2505144.2800297458 -10114537.764971912 0 -10114537.764971912 19462059.126387924 0 0 0 0 6128114.1341283182 -30232151.546816096 0 -30232151.546816096 18094082.37719278 0 0 0 0 -306405452.55769348 17675229.585952759 0 17675229.585952759 30616956.358261108 0 0 0 0 -334119558.13508606 59338415.801811218 0 59338415.801811218 206488693.46886063 0 0 0 0 -281539122.06597137 -38031826.531616211 0 -38031826.531616211 241748485.0514679 0 0 0 0 -303578245.45962524 -83564522.48551178 0 -83564522.48551178 148196936.06729507 0 0 0 0 -334993069.2470932 -30912072.267021179 0 -30912072.267021179 91043369.658828735 0 0 0 0 -342786581.60757446 -113502371.01482391 0 -113502371.01482391 185899952.31654358 0 0 0 0 -240998466.9215498 -146597692.96337318 0 -146597692.96337318 103252401.03962708 0 0 0 0 -193510872.22602844 -252448788.49310684 0 -252448788.49310684 209689133.25422192 0 0 0 0 -244328425.33022308 -165596783.31373978 0 -165596783.31373978 73284657.236434937 0 0 0 0 -232490253.23345184 -133790382.39237213 0 -133790382.39237213 67847375.213859558 0 0 0 0 -229360593.90220642 -71147393.542228699 0 -71147393.542228699 45822003.494163513 0 0 0 0 -332107634.72478485 -6196737.1602554321 0 -6196737.1602554321 63701667.136225462 0 0 0 0 -275124827.03608704 -52471603.366199493 0 -52471603.366199493 91575168.713821411 0 0 0 0 -17395564.459327698 -11387444.05544281 0 -11387444.05544281 29846271.578475952 0 0 0 0 -2996180.9691688586 -21070237.682516202 0 -21070237.682516202 34980683.520710304 0 0 0 0 -15329330.746232033 -26043242.77213335 0 -26043242.77213335 36620455.97869873 0 0 0 0 8400788.9487609863 -19601914.275928497 0 -19601914.275928497 26452413.463960648 0 0 0 0 77446.320469230413 189596.64732385427 0 189596.64732385427 -213720.96478132717 0 0 0 0 -6400975.0823135376 -8164757.0883255005 0 -8164757.0883255005 21070497.120231628 0 0 0 0 -23963401.745927751 -20124197.190649301 0 -20124197.190649301 19302676.129135132 0 0 0 0 -130500192.81962585 -101056561.23482895 0 -101056561.23482895 23359288.567443848 0 0 0 0 9634720.6940714065 -32188081.800959684 0 -32188081.800959684 29390661.794638108 0 0 0 0 -166916231.31956863 -138514669.10871124 0 -138514669.10871124 30655058.288955688 0 0 0 0 -169288807.02688217 -130583930.1786871 0 -130583930.1786871 4795333.5112304688 0 0 0 0 -144295352.96074677 -121150633.0332222 0 -121150633.0332222 4136616.1690001488 0 0 0 0 -1056304408.5624554 29335640.428980954 0 29335640.428980954 -1270226802.5740318 0 0 0 0 2075457.2275211026 -5945707.869357259 0 -5945707.869357259 -252314.97432294767 0 0 0 0 235623917.26995468 300782779.96748638 0 300782779.96748638 -1156480139.6134624 0 0 0 0 -176463578.83035451 -732891605.16488826 0 -732891605.16488826 -552348988.10277939 0 0 0 0 1966195.7739758734 -18747406.666783001 0 -18747406.666783001 36881515.168515436 0 0 0 0 -54353906.67325592 -41178227.132885933 0 -41178227.132885933 -342638109.19076347 0 0 0 0 -203452026.1465683 -173214127.36196136 0 -173214127.36196136 71737654.543688774 0 0 0 0 -209983322.33110809 -156307522.49542618 0 -156307522.49542618 43375558.94682312 0 0 0 0 -205999449.80430603 -139767307.66640472 0 -139767307.66640472 50934291.268486023 0 0 0 0 -198349827.07388306 -165518406.08652496 0 -165518406.08652496 40382946.531906128 0 0 0 0 -189712940.37744904 -166212095.0434227 0 -166212095.0434227 -2173558.9235229492 0 0 0 0 -190237075.97941971 -167511199.20995712 0 -167511199.20995712 8251059.4049377441 0 0 0 0 -222113848.36051941 -198730617.65197754 0 -198730617.65197754 4023268.5837306976 0 0 0 0 -158394068.83404541 -189386406.4182663 0 -189386406.4182663 -93192267.967224121 0 0 0 0 -141241464.50415039 -147121224.25004578 0 -147121224.25004578 -29760681.16652298 0 0 0 0 -240640581.56746292 -249543968.12752628 0 -249543968.12752628 -91006180.454307556 0 0 0 0 27138582.031638071 -29819819.779449642 0 -29819819.779449642 25811925.140571728 0 0 0 0 -1166877737.9326897 -946049829.52240372 0 -946049829.52240372 860394160.96019363 0 0 0 0 -195857206.90235901 -164128164.2665596 0 -164128164.2665596 -129816883.40572357 0 0 0 0 2239508235.3562527 260776628.17441368 0 260776628.17441368 -378684571.07037067 0 0 0 0 -211418520.97366714 -440206138.40592384 0 -440206138.40592384 -536754587.27478981 0 0 0 0 -571812389.40576553 302790098.49439812 0 302790098.49439812 -714210211.4323616 0 0 0 0 656952260.07577372 108970921.4441247 0 108970921.4441247 -777848987.90655136 0 0 0 0 -821227100.3433671 -427058735.60893297 0 -427058735.60893297 -412680256.55799484 0 0 0 0 35827850.250668682 -39985001.351968981 0 -39985001.351968981 30005298.874586433 0 0 0 0 1580120882.7114944 -1406351078.043642 0 -1406351078.043642 -1205144530.6810818 0 0 0 0 375172621.80095863 -1599101977.7151203 0 -1599101977.7151203 -1038886228.0525742 0 0 0 0 -1040552589.1336718 724622773.57257116 0 724622773.57257116 2525635298.6075954 0 0 0 0 -126300258.79017544 405715452.63168669 0 405715452.63168669 1942923110.5006723 0 0 0 0 -29603224.104840279 -30401751.353703976 0 -30401751.353703976 272139733.28347397 0 0 0 0 -300214894.89630318 137490974.34616947 0 137490974.34616947 388857938.56974411 0 0 0 0 413485160.7699008 737870993.243577 0 737870993.243577 -401326977.38672447 0 0 0 0 6725618.8592777252 113174123.56474876 0 113174123.56474876 23805380.208043098 0 0 0 0 -18563734.435697556 229035388.54945278 0 229035388.54945278 -367497253.10321045 0 0 0 0 22751901.794291496 101641497.38101101 0 101641497.38101101 -103032297.09078979 0 0 0 0 22648142.560247421 53065332.900873184 0 53065332.900873184 42333582.026615143 0 0 0 0 -162974356.76916504 48991478.145298958 0 48991478.145298958 323376391.63809586 0 0 0 0 -13519554.389270782 102145321.73531723 0 102145321.73531723 110923501.51469612 0 0 0 0 -46277521.923793793 19471843.14964962 0 19471843.14964962 -28361732.057245255 0 0 0 0 -40152848.459720612 40831129.782777786 0 40831129.782777786 23043954.144939423 0 0 0 0 -60870943.131917953 -4964560.1252102852 0 -4964560.1252102852 46550486.943368912 0 0 0 0 -26292169.575336456 1691282.7844200134 0 1691282.7844200134 -33955084.15603447 0 0 0 0 -25347479.571340561 -27229052.216310978 0 -27229052.216310978 30580633.148584366 0 0 0 0 -322112.02652379498 -2173588.6474272506 0 -2173588.6474272506 3353300.0286961719 0 0 0 0 -1708623.9662361145 62102241.14570713 0 62102241.14570713 -55420657.299780846 0 0 0 0 -17457628.360275269 73881904.409385681 0 73881904.409385681 -39321451.104404926 0 0 0 0 -923068.65159988403 104150860.73871136 0 104150860.73871136 15361007.937977433 0 0 0 0 75358885.637123108 85606303.522587299 0 85606303.522587299 61608442.070234299 0 0 0 0 5662567.8472175598 30119852.354182005 0 30119852.354182005 -67466853.433288574 0 0 0 0 56825122.014854431 -108729235.8060081 0 -108729235.8060081 -57313107.899098635 0 0 0 0 -1247523.8765759706 -4426629.7714383937 0 -4426629.7714383937 20851346.606514897 0 0 0 0 -25674036.026464462 10134499.932940483 0 10134499.932940483 61895315.254563332 0 0 0 0 -2232846.3872771915 1063347.108199399 0 1063347.108199399 3660043.8221913017 0 0 0 0 10533264.240249634 -15775353.481887102 0 -15775353.481887102 14790982.471295714 0 0 0 0 68982476.554389954 -2316425.0845918655 0 -2316425.0845918655 -6718818.9839220047 0 0 0 0 -36108544.199445724 -49935268.00346005 0 -49935268.00346005 21958733.879694462 0 0 0 0 9187542.1763682365 -27272128.460368164 0 -27272128.460368164 18780852.927866697 0 0 0 0 32216254.514716148 -4839592.9778213501 0 -4839592.9778213501 -8727630.2315597534 0 0 0 0 11335941.133958023 -10254235.568470877 0 -10254235.568470877 -9574127.3236539699 0 0 0 0 -27263500.183953047 -16884041.864498019 0 -16884041.864498019 24679387.15060544 0 0 0 0 102723070.48692131 -34323002.351502419 0 -34323002.351502419 -39892605.689891815 0 0 0 0 1061369.2724084584 -7325417.3894080287 0 -7325417.3894080287 9835276.7104088496 0 0 0 0 17545432.603485107 -32410944.324735641 0 -32410944.324735641 -7252526.1948242188 0 0 0 0 -12779638.710269928 -1677129.1881937981 0 -1677129.1881937981 -5009687.7421827316 0 0 0 0 -5450819.2132735252 -21617044.543497205 0 -21617044.543497205 29186990.397094727 0 0 0 0 12685513.867534835 -20627155.420748729 0 -20627155.420748729 25793713.344540305 0 0 0 0 37749534.797330856 -84593674.337678432 0 -84593674.337678432 -34479619.091312647 0 0 0 0 87163683.428630829 -71980997.411280632 0 -71980997.411280632 -37821029.500280857 0 0 0 0 53160661.956471443 272166673.69611454 0 272166673.69611454 -345712988.7253561 0 0 0 0 3271535.6735148635 -2830417.366886457 0 -2830417.366886457 -2859886.8499493701 0 0 0 0 -42069013.785003185 -105484736.99303484 0 -105484736.99303484 -18023800.624116898 0 0 0 0 170970381.09072113 255708791.84974194 0 255708791.84974194 -552421685.31694126 0 0 0 0 -8768268.6785545349 -95922100.165390015 0 -95922100.165390015 -165993043.75763035 0 0 0 0 9114935.2858276367 -37645737.532139778 0 -37645737.532139778 -72606773.976234436 0 0 0 0 29420312.426328659 18359985.412482262 0 18359985.412482262 -165894057.33114624 0 0 0 0 -21945965.709529877 -31005467.755724907 0 -31005467.755724907 -4052465.9040460587 0 0 0 0 6396227.7061662674 -30397696.194990993 0 -30397696.194990993 -15753628.701324463 0 0 0 0 144721874.10977936 15310221.00569725 0 15310221.00569725 31895494.151934624 0 0 0 0 264471801.9208293 321895064.95375729 0 321895064.95375729 250593759.5378685 0 0 0 0 625631239.51826859 277984812.40607452 0 277984812.40607452 63213183.220329285 0 0 0 0 433829946.05612564 387757702.00928116 0 387757702.00928116 107899345.92335892 0 0 0 0 447079000.45356369 201670758.82257652 0 201670758.82257652 -27775229.715503693 0 0 0 0 57983344.09519577 -27944596.242919922 0 -27944596.242919922 -162403506.28891945 0 0 0 0 54445816.870872021 65455634.72827518 0 65455634.72827518 -31816179.791175842 0 0 0 0 -51912.392643591389 -305992.61022636387 0 -305992.61022636387 1622971.7401990034 0 0 0 0 362986018.81885719 357330579.31731033 0 357330579.31731033 312044814.0729599 0 0 0 0 460267376.33913517 668122471.47783184 0 668122471.47783184 577966723.31153107 0 0 0 0 -17239316.345817566 22136066.397315979 0 22136066.397315979 -55260184.649105072 0 0 0 0 -65189373.648813248 51340256.308372498 0 51340256.308372498 4461018.2413787842 0 0 0 0 127081.45596488751 -672374.90766949486 0 -672374.90766949486 4751165.7327897362 0 0 0 0 1150993.4980188729 -2315211.5132058971 0 -2315211.5132058971 13407257.215132885 0 0 0 0 -19823058.789459229 87553008.453443527 0 87553008.453443527 23698628.857505798 0 0 0 0 -70809200.805130005 -3312252.5497016907 0 -3312252.5497016907 15607925.651707649 0 0 0 0 -172955792.0139544 13096886.792336583 0 13096886.792336583 115134048.91605377 0 0 0 0 -86758058.330799103 12268072.773397446 0 12268072.773397446 19455948.335948944 0 0 0 0 -9762680.2650556564 76938751.529210091 0 76938751.529210091 258268498.85900879 0 0 0 0 -69675792.551698685 -37586388.207885742 0 -37586388.207885742 139207638.94364929 0 0 0 0 3681415.2631111145 105121559.709198 0 105121559.709198 116033255.70121002 0 0 0 0 38927365.287002563 58314839.631205559 0 58314839.631205559 146093369.1528244 0 0 0 0 207697755.75286102 121865476.79727364 0 121865476.79727364 127315473.00925064 0 0 0 0 169606826.92974758 253015650.81877422 0 253015650.81877422 378003681.50216675 0 0 0 0 520362070.95139313 416864356.70489883 0 416864356.70489883 115073994.38045502 0 0 0 0 41187463.006248474 -102925010.62346268 0 -102925010.62346268 110710077.62810326 0 0 0 0 411945338.39864731 508406067.2701416 0 508406067.2701416 633496950.47227097 0 0 0 0 30158743.848487854 -42514792.063907623 0 -42514792.063907623 420557091.57533646 0 0 0 0 987529100.1853981 250432746.6469841 0 250432746.6469841 178263656.87413025 0 0 0 0 469643591.04977798 222881764.24096298 0 222881764.24096298 78487852.843634605 0 0 0 0 520579020.94060898 -37160095.273330688 0 -37160095.273330688 737387919.9367485 0 0 0 0 421775703.9378643 229058986.08452415 0 229058986.08452415 179424097.50876617 0 0 0 0 6740526.8653640747 9933059.3322486877 0 9933059.3322486877 -15979653.731370926 0 0 0 0 -1220899.4450992825 498709.37980171619 0 498709.37980171619 3072810.0593589246 0 0 0 0 59803717.242485046 -41840951.197454453 0 -41840951.197454453 86843264.830543518 0 0 0 0 76407838.523593903 38933478.719753265 0 38933478.719753265 -3997032.9236698151 0 0 0 0 80983942.331700861 -61580037.25014025 0 -61580037.25014025 -1369084.2885818481 0 0 0 0 103464254.97507095 33208450.419282913 0 33208450.419282913 80067966.476226807 0 0 0 0 33027818.399396896 -17269877.311756134 0 -17269877.311756134 -52076005.460380554 0 0 0 0 -21794351.965572357 -19119723.758436203 0 -19119723.758436203 -15986858.52355957 0 0 0 0 -27440313.849551439 -46070780.184095979 0 -46070780.184095979 1294636.6093769073 0 0 0 0 -63980659.595376968 -145106636.19260788 0 -145106636.19260788 -60950536.629871368 0 0 0 0 -3727707.3326076828 -4808914.4428615235 0 -4808914.4428615235 20660564.648830559 0 0 0 0 -47832236.362499237 -6171763.1313095093 0 -6171763.1313095093 6325432.1098861694 0 0 0 0 -5454856.2592245378 -3373965.9546251101 0 -3373965.9546251101 23885494.420088112 0 0 0 0 -151046288.60729218 -133144220.85979843 0 -133144220.85979843 39683486.689651012 0 0 0 0 -12972467.922550201 -28089118.971027851 0 -28089118.971027851 -6344680.1391544342 0 0 0 0 -6200645.5577831268 -1594713.7618026733 0 -1594713.7618026733 5433405.4397468567 0 0 0 0 -32178297.943294525 -22483878.510625839 0 -22483878.510625839 15708774.310077667 0 0 0 0 8699087.2185935974 -13543766.021528244 0 -13543766.021528244 7441444.6071929932 0 0 0 0 10368960.294479847 -21494405.041052461 0 -21494405.041052461 9909331.2694091797 0 0 0 0 5192098.4426498413 -6088627.5833203793 0 -6088627.5833203793 35485105.621608734 0 0 0 0 -200754.74879077636 -1343646.0299810129 0 -1343646.0299810129 3097736.8590316768 0 0 0 0 3320871.6973018646 -3244377.3752651215 0 -3244377.3752651215 44528082.302181244 0 0 0 0 -6805872.9337563096 2763660.804509433 0 2763660.804509433 14515644.257900853 0 0 0 0 -5142409.0846853256 9869596.6621870995 0 9869596.6621870995 32381261.713762283 0 0 0 0 -30100786.442090988 19563711.101329803 0 19563711.101329803 49270582.358095169 0 0 0 0 -21453815.759738922 -6175377.2472615242 0 -6175377.2472615242 20944004.617177963 0 0 0 0 -16909077.608939171 -11568936.158578396 0 -11568936.158578396 1412826.1513500214 0 0 0 0 -17931667.3699646 -20415814.862609863 0 -20415814.862609863 47301392.839398861 0 0 0 0 -3650648.0112564266 -5223339.7571029775 0 -5223339.7571029775 19556021.244102009 0 0 0 0 -44429060.286011696 -68856888.921035767 0 -68856888.921035767 -51365677.172641754 0 0 0 0 -39892591.898717403 -22838527.960072994 0 -22838527.960072994 22371900.78151989 0 0 0 0 -8833237.6088218689 -13938244.941718578 0 -13938244.941718578 15229631.909164429 0 0 0 0 -26868993.00797081 -10949755.437572479 0 -10949755.437572479 21597624.611166954 0 0 0 0 -3123457.6834812164 -18252004.934803009 0 -18252004.934803009 -21054108.570877075 0 0 0 0 -18026829.980700493 -40686526.852226257 0 -40686526.852226257 -18462164.785690308 0 0 0 0 2529430.2458077557 -3587296.3294206653 0 -3587296.3294206653 -1978361.452472344 0 0 0 0 19220163.596299171 16078083.933967113 0 16078083.933967113 35000341.607452393 0 0 0 0 16551411.829982758 4203754.2058296204 0 4203754.2058296204 27267949.608089447 0 0 0 0 -10024055.010215759 8133488.4666996002 0 8133488.4666996002 46233128.139011383 0 0 0 0 -2487820.4459285736 -19754218.232478142 0 -19754218.232478142 44540240.521602631 0 0 0 0 -14044785.605979919 -6424106.9666023254 0 -6424106.9666023254 33736726.077768326 0 0 0 0 6814647.3723005988 -15417848.561774975 0 -15417848.561774975 31183735.320622753 0 0 0 0 7160201.6475078128 -18820108.02811268 0 -18820108.02811268 26089736.551980149 0 0 0 0 2878090.8051185608 -6299591.5065689087 0 -6299591.5065689087 31874072.759269714 0 0 0 0 11946702.943667412 -31895577.255830288 0 -31895577.255830288 26621322.145561218 0 0 0 0 8264598.8253936768 -17344678.868995667 0 -17344678.868995667 16493891.955993652 0 0 0 0 10601470.272418175 -25424843.011337597 0 -25424843.011337597 15804177.550092258 0 0 0 0 2227302.7740592007 -13697813.040947948 0 -13697813.040947948 9664707.8380369581 0 0 0 0 519257.6752448976 -2698237.0271738954 0 -2698237.0271738954 12392727.586421942 0 0 0 0 3687230.8364276886 -11739470.739839077 0 -11739470.739839077 8007361.2185668945 0 0 0 0 -10629453.816940308 -10056433.783985138 0 -10056433.783985138 2747859.2404403687 0 0 0 0 4178410.1432647705 -12888924.432777643 0 -12888924.432777643 24082362.875086337 0 0 0 0 -3962134.7681350708 -21227616.903670073 0 -21227616.903670073 16527109.571362019 0 0 0 0 -978956.72978591919 -24533129.023115158 0 -24533129.023115158 19188752.881874681 0 0 0 0 526731.87709897896 -11217080.21847795 0 -11217080.21847795 5273671.4174038935 0 0 0 0 -4260596.8967266083 -16611139.384841919 0 -16611139.384841919 13105656.427326202 0 0 0 0 587123.00276565552 -13220916.40314889 0 -13220916.40314889 15416803.490334094 0 0 0 0 -3982719.225643158 -11102404.44661808 0 -11102404.44661808 8524511.5751771927 0 0 0 0 -12587288.726913452 -14954873.515679359 0 -14954873.515679359 6837997.6788907051 0 0 0 0 -4212511.2116851807 -17934170.008020401 0 -17934170.008020401 16099295.964628458 0 0 0 0 3466401.0516829304 -9351386.7084335666 0 -9351386.7084335666 16072265.389895134 0 0 0 0 99399435.354103088 -55429507.536308289 0 -55429507.536308289 -25707763.635730743 0 0 0 0 -69934420.527230263 7230484.8137955666 0 7230484.8137955666 15526585.563789368 0 0 0 0 -314703717.77787781 -251751581.1996994 0 -251751581.1996994 313715729.87921143 0 0 0 0 -21082127.782291412 -8740608.8874435425 0 -8740608.8874435425 25973093.687358856 0 0 0 0 719206.01864597574 -6176445.7377366722 0 -6176445.7377366722 13380502.160771031 0 0 0 0 -12090897.346978188 -12783065.065079451 0 -12783065.065079451 1839667.28565979 0 0 0 0 280756.18806680065 -10838077.995675856 0 -10838077.995675856 11144380.767046699 0 0 0 0 -6777802.2583509535 -4592754.4370385231 0 -4592754.4370385231 35243712.368008628 0 0 0 0 -1413825.042388916 -11113571.061279297 0 -11113571.061279297 23156849.656082153 0 0 0 0 -22335259.529398799 7131929.7652017288 0 7131929.7652017288 52375019.422222257 0 0 0 0 -1412619.8261849005 486357.10201635119 0 486357.10201635119 24787952.626346372 0 0 0 0 -21930276.34828949 -6507991.1848297119 0 -6507991.1848297119 24733816.664422035 0 0 0 0 -22817590.524269104 -6882314.9004955292 0 -6882314.9004955292 25771992.933380127 0 0 0 0 -19005584.508905411 -9019626.2192363739 0 -9019626.2192363739 25388656.431856155 0 0 0 0 -3570772.4117757273 -12443563.605218895 0 -12443563.605218895 28269714.566216018 0 0 0 0 -20650765.344696522 -10175953.572172642 0 -10175953.572172642 26404908.062828064 0 0 0 0 18874120.528301239 -8169177.8025588989 0 -8169177.8025588989 28215602.736442566 0 0 0 0 -4370060.2183837891 -5492315.8427734375 0 -5492315.8427734375 46576838.044410706 0 0 0 0 5128238.2399618328 -13239171.012904007 0 -13239171.012904007 19650012.985305432 0 0 0 0 2318562.7016143799 17834139.647851944 0 17834139.647851944 51752092.230587006 0 0 0 0 351599056.12431335 -100552430.53902435 0 -100552430.53902435 82215222.315414429 0 0 0 0 -22713111.809638977 -12074412.564170837 0 -12074412.564170837 45222450.504760742 0 0 0 0 -928288.21945236623 -14968203.960068647 0 -14968203.960068647 20473216.172161158 0 0 0 0 1212291.0708589554 -20522431.829948425 0 -20522431.829948425 30654514.980255127 0 0 0 0 -32197545.918861389 -12190698.362289429 0 -12190698.362289429 34712391.234275818 0 0 0 0 -69343251.367370605 -42951926.854984283 0 -42951926.854984283 33043565.279678345 0 0 0 0 3147685.1651440915 -12620142.333541576 0 -12620142.333541576 16134576.865800783 0 0 0 0 -11568706.527992249 -24753243.113872528 0 -24753243.113872528 8461588.5425643921 0 0 0 0 -31044070.543651581 -24735767.447078705 0 -24735767.447078705 13562690.597167969 0 0 0 0 -14010593.037788391 -16822943.275901794 0 -16822943.275901794 15025278.597610474 0 0 0 0 -67899299.96538353 11809696.50084877 0 11809696.50084877 180733754.97120667 0 0 0 0 -21575949.661216736 -70212375.230041504 0 -70212375.230041504 1426941.0253295898 0 0 0 0 -29297874.580490112 -44500479.55821228 0 -44500479.55821228 -14090704.028614044 0 0 0 0 -16234784.228796959 -7793538.8966007233 0 -7793538.8966007233 43904700.233718872 0 0 0 0 -24134413.124275208 -8245457.555065155 0 -8245457.555065155 24516305.611831665 0 0 0 0 -3450446.4107809709 -9437533.9142499007 0 -9437533.9142499007 30434185.513548698 0 0 0 0 52785817.219112396 3700547.8943443298 0 3700547.8943443298 30482729.258293152 0 0 0 0 -26309334.573020935 -8553175.9048366547 0 -8553175.9048366547 27916434.827217102 0 0 0 0 -24054378.112717628 -4769262.6214380264 0 -4769262.6214380264 22361750.420600891 0 0 0 0 -2350935.3273485112 -781597.28943740763 0 -781597.28943740763 28901863.483766071 0 0 0 0 -45097811.235553741 -5225173.8207073212 0 -5225173.8207073212 33386555.371452332 0 0 0 0 -74525825.391541958 36811227.874821782 0 36811227.874821782 76187981.328689575 0 0 0 0 -34270109.183639526 -215923.23894119263 0 -215923.23894119263 24535592.44395256 0 0 0 0 -31139429.677171707 -10496496.253087521 0 -10496496.253087521 32199265.482887268 0 0 0 0 -355520955.44235229 -616354572.60284424 0 -616354572.60284424 358231244.18683624 0 0 0 0 -41782468.296585083 -107039960.24415207 0 -107039960.24415207 -383356678.95776367 0 0 0 0 -5088542.1126262033 -8429641.3228165749 0 -8429641.3228165749 33585443.445236817 0 0 0 0 -41514939.888648987 37669443.972927094 0 37669443.972927094 9282552.6490478516 0 0 0 0 -24538456.164398193 -5013624.7135791779 0 -5013624.7135791779 27689444.608940125 0 0 0 0 -32118530.703697205 -2326832.4352798462 0 -2326832.4352798462 33759841.928813934 0 0 0 0 -34420781.01060009 -8453313.3542461395 0 -8453313.3542461395 24413516.824028015 0 0 0 0 -36000837.061519623 1735612.470375061 0 1735612.470375061 26223011.159583092 0 0 0 0 -48097263.762723923 -29273931.381921768 0 -29273931.381921768 58297178.445732117 0 0 0 0 -5016370.2252896121 -3798532.1564504737 0 -3798532.1564504737 32912455.286634278 0 0 0 0 -39504541.514356613 2971101.5964756012 0 2971101.5964756012 35389905.495292664 0 0 0 0 -42073354.864191055 7231767.1000571251 0 7231767.1000571251 28393311.112632751 0 0 0 0 -59197440.65512085 65216234.32270813 0 65216234.32270813 25797846.939575195 0 0 0 0 -91902536.612838745 73870153.408752441 0 73870153.408752441 58334042.806640625 0 0 0 0 -33987741.065972328 -5433383.9377245903 0 -5433383.9377245903 41730175.817932129 0 0 0 0 -47416958.164108276 -4266998.8069801331 0 -4266998.8069801331 41274027.49533844 0 0 0 0 -33947799.514549255 3371943.7449798584 0 3371943.7449798584 41856025.31492126 0 0 0 0 -28925687.312316895 34312369.091812134 0 34312369.091812134 69102720.134670258 0 0 0 0 -11960170.7006073 16230618.757003784 0 16230618.757003784 -3963168.6462402344 0 0 0 0 -8395876.1664581299 33349796.778533936 0 33349796.778533936 -14343889.827312469 0 0 0 0 -80920009.947862625 36865282.817562103 0 36865282.817562103 70684557.483581543 0 0 0 0 -19141805.935317993 -36125175.178924561 0 -36125175.178924561 58774357.36138916 0 0 0 0 -122520345.26255798 -74930630.924957275 0 -74930630.924957275 67966361.733764648 0 0 0 0 -125415828.94765091 19293113.402698517 0 19293113.402698517 41177052.4715271 0 0 0 0 -3411079.5361262932 2648433.6479444839 0 2648433.6479444839 3910380.6095274687 0 0 0 0 1344584.4613876343 -21191284.388275146 0 -21191284.388275146 21338684.434669495 0 0 0 0 -7558674.343781475 -3214683.8977590054 0 -3214683.8977590054 29613247.323259309 0 0 0 0 -11243900.98838973 -17044974.021197557 0 -17044974.021197557 25482774.616622925 0 0 0 0 -11708162.04101944 -12371611.975532532 0 -12371611.975532532 22448825.303573608 0 0 0 0 -10984242.221039772 -10904588.246809959 0 -10904588.246809959 24240448.888336182 0 0 0 0 3741846.6096853092 -13650876.104324687 0 -13650876.104324687 15954771.648181304 0 0 0 0 -52186098.009206772 14931740.683111191 0 14931740.683111191 14697845.428359985 0 0 0 0 -13185025.871757507 -70900662.669113159 0 -70900662.669113159 -222036042.84674072 0 0 0 0 -2366618.8362532519 -1321531.0916643087 0 -1321531.0916643087 5118356.2024196237 0 0 0 0 -80340892.285469055 14458618.625406265 0 14458618.625406265 16720567.812316895 0 0 0 0 -144242.29485211242 -894067.91219063476 0 -894067.91219063476 9763376.4669247363 0 0 0 0 1780952.2634220123 -9691985.1155796051 0 -9691985.1155796051 27293135.868450165 0 0 0 0 -1080031.6869021086 -2378742.6284367274 0 -2378742.6284367274 8807751.4241733439 0 0 0 0 -24508579.347631454 16298785.137624741 0 16298785.137624741 49576353.007202625 0 0 0 0 -3165377.600353241 -16645850.260861874 0 -16645850.260861874 42010631.645738602 0 0 0 0 -3778125.0915158931 -5309541.5524006356 0 -5309541.5524006356 18819145.415635496 0 0 0 0 -21380978.299402237 -1361451.0858726501 0 -1361451.0858726501 29330004.687864304 0 0 0 0 -45823823.730503082 13205924.633924484 0 13205924.633924484 23155100.446806908 0 0 0 0 -47474921.371236801 -25550864.76499939 0 -25550864.76499939 62792696.656446457 0 0 0 0 1186986.2953166962 -27827072.64779377 0 -27827072.64779377 31679711.983949661 0 0 0 0 2092722.0522899628 -55320612.685676575 0 -55320612.685676575 68441485.815543175 0 0 0 0 101962587.70204926 59533276.722421646 0 59533276.722421646 -52910810.738833427 0 0 0 0 1124084.9341767877 -1709947.6813054206 0 -1709947.6813054206 3502140.0294140372 0 0 0 0 -12306348.11462307 -8789466.2720432281 0 -8789466.2720432281 -32825872.949310303 0 0 0 0 -47965406.784435272 26536944.423519135 0 26536944.423519135 89322854.779380798 0 0 0 0 -519367.48707389832 97613971.132002831 0 97613971.132002831 70283512.146326065 0 0 0 0 1239388.536233902 -5841943.5691537857 0 -5841943.5691537857 20765375.030373096 0 0 0 0 -1479410.8605651576 805436.60588783887 0 805436.60588783887 3713473.6282122391 0 0 0 0 22667381.060228348 18550324.935198784 0 18550324.935198784 24062458.079538345 0 0 0 0 -63060426.78037262 -2076678.8709487915 0 -2076678.8709487915 30244985.33005476 0 0 0 0 -66447467.474428177 18298802.368050575 0 18298802.368050575 -4398342.4552021027 0 0 0 0 -34029240.19502449 29994144.270385742 0 29994144.270385742 -64449919.623609543 0 0 0 0 -25665328.336936951 -42688116.788534164 0 -42688116.788534164 166461176.31199074 0 0 0 0 14113878.405128479 -13391812.607325554 0 -13391812.607325554 40339321.741100311 0 0 0 0 688942.14123614505 -904897.99272136576 0 -904897.99272136576 689591.62009173166 0 0 0 0 25459836.143014908 5893737.2638530731 0 5893737.2638530731 -47417336.799789429 0 0 0 0 -8360353.6961326599 6733682.6968975067 0 6733682.6968975067 128319683.64254951 0 0 0 0 -11617310.93409729 -12855755.854794502 0 -12855755.854794502 40377938.35615921 0 0 0 0 -16497920.611399651 -7394895.0392756462 0 -7394895.0392756462 37399866.744470596 0 0 0 0 -16085381.152126312 -2943217.9246883392 0 -2943217.9246883392 94919793.418395996 0 0 0 0 -2668676.3023014069 -6924186.3455524445 0 -6924186.3455524445 41992072.600265503 0 0 0 0 -5866011.0153064728 4215.1445698738098 0 4215.1445698738098 77714272.406524658 0 0 0 0 -2352617.9069252014 -10070881.947402954 0 -10070881.947402954 52938521.492225647 0 0 0 0 -7521999.1762595177 43976046.600141317 0 43976046.600141317 27996239.77673912 0 0 0 0 -207940.82184410095 -47880572.568579674 0 -47880572.568579674 106661094.41286087 0 0 0 0 832822.4988346044 -1102191.0227345349 0 -1102191.0227345349 1310661.2725412659 0 0 0 0 -4887713.3499450684 -28011665.633262634 0 -28011665.633262634 104859548.42684937 0 0 0 0 12923101.938793182 -48181782.172718048 0 -48181782.172718048 92721027.444328308 0 0 0 0 8251232.9034776688 -16005641.097010612 0 -16005641.097010612 61301865.488624573 0 0 0 0 3884518.1769866943 -15493600.882991791 0 -15493600.882991791 76590779.984069824 0 0 0 0 -10494195.833320618 -1938092.4797277451 0 -1938092.4797277451 69056533.4454422 0 0 0 0 708254.40662527084 -4994117.350394249 0 -4994117.350394249 66658490.92276001 0 0 0 0 -3553992.1508789062 -10234772.120544434 0 -10234772.120544434 69568688.347466469 0 0 0 0 -3066090.2124443054 -9471457.9100646973 0 -9471457.9100646973 63640226.960014343 0 0 0 0 -3189220.1530561447 -8609198.7853870392 0 -8609198.7853870392 63789552.187604904 0 0 0 0 -7367542.9643688202 -7488813.760055542 0 -7488813.760055542 65848612.676267624 0 0 0 0 -8098041.0180597305 -4122579.8676328659 0 -4122579.8676328659 58761678.56961441 0 0 0 0 156987.92420578003 -13066172.786130905 0 -13066172.786130905 60261373.160243034 0 0 0 0 24034332.687309265 -29273113.876683712 0 -29273113.876683712 31203654.169033051 0 0 0 0 1418334.4278278351 -14272599.727243423 0 -14272599.727243423 42775168.859909058 0 0 0 0 -191907.14770174026 -7333448.5512890816 0 -7333448.5512890816 35417483.446838379 0 0 0 0 -152475394.59888649 -140629114.05205536 0 -140629114.05205536 137248343.91077232 0 0 0 0 -234248564.18908787 74896772.5159235 0 74896772.5159235 74501354.694976807 0 0 0 0 -2178105.6722016335 -24871537.482503653 0 -24871537.482503653 61635270.875988007 0 0 0 0 3177136.4544391632 -8059506.4719619751 0 -8059506.4719619751 43636350.329677582 0 0 0 0 -9220943.3811077811 -1157297.3520937879 0 -1157297.3520937879 17492864.499015346 0 0 0 0 -6589948.685712385 -2589931.9211099483 0 -2589931.9211099483 13662071.30990674 0 0 0 0 -576192.61134719849 -6539418.9601974487 0 -6539418.9601974487 62755261.819701195 0 0 0 0 -13283193.681282043 -11252415.414569855 0 -11252415.414569855 65464361.748867035 0 0 0 0 -58711638.984952927 69979120.520210266 0 69979120.520210266 -66176790.101449013 0 0 0 0 -8854484.8902304824 -166361.46787695074 0 -166361.46787695074 20646583.216234289 0 0 0 0 -32578346.486104965 26349334.448406219 0 26349334.448406219 6646949.1624679565 0 0 0 0 -4462304.1874496937 -2520859.2778162956 0 -2520859.2778162956 20380171.654340506 0 0 0 0 -4781872.4320835425 -12039269.975834413 0 -12039269.975834413 17107687.48020599 0 0 0 0 -2829697.2123947144 -21472714.069566727 0 -21472714.069566727 32679427.221534729 0 0 0 0 -2719264.8402209282 -5451273.4045101553 0 -5451273.4045101553 21018426.880582333 0 0 0 0 -13566330.418203598 2735040.0378403743 0 2735040.0378403743 18716444.176482167 0 0 0 0 -16109929.403751373 -23543296.388076782 0 -23543296.388076782 50809908.083543777 0 0 0 0 -10978213.051025391 -17123509.47079277 0 -17123509.47079277 46200180.042305946 0 0 0 0 -2720446.0806941162 -5479016.1840626635 0 -5479016.1840626635 21706087.03950182 0 0 0 0 -1374089.2499237061 -6762657.6402759552 0 -6762657.6402759552 17415364.837636471 0 0 0 0 -11658762.496978521 -5114583.405577898 0 -5114583.405577898 24005264.929047585 0 0 0 0 -5838208.4690086218 -4478857.2977237226 0 -4478857.2977237226 29072064.102663245 0 0 0 0 -3796197.2925116196 -12092503.253604975 0 -12092503.253604975 18853633.104199003 0 0 0 0 -10979372.387818694 -16494103.4956007 0 -16494103.4956007 27076317.675018311 0 0 0 0 -4927124.4768211842 -1016975.7145965099 0 -1016975.7145965099 17815815.068102837 0 0 0 0 -10908408.6918329 -3248152.2619929314 0 -3248152.2619929314 12751612.693990707 0 0 0 0 -11964783.74567008 2272833.2039961815 0 2272833.2039961815 16674433.781834602 0 0 0 0 -7351989.8199764621 -3331268.9913481907 0 -3331268.9913481907 23693550.330918323 0 0 0 0 -68794390.318611145 21200818.650085449 0 21200818.650085449 40717999.781621933 0 0 0 0 -67851779.372749805 17678819.292700768 0 17678819.292700768 53193719.645492554 0 0 0 0 -59230869.276861191 33125618.795064926 0 33125618.795064926 7044122.4546051025 0 0 0 0 -56149197.515943527 21521817.300345421 0 21521817.300345421 39159480.249599457 0 0 0 0 -77540400.07673955 10948274.402306557 0 10948274.402306557 60592932.816932678 0 0 0 0 -73767986.276353836 45963478.710699081 0 45963478.710699081 44549287.357967377 0 0 0 0 -65625290.066884041 24567418.946525574 0 24567418.946525574 67240372.878417969 0 0 0 0 -26215469.288450241 -15969449.316305161 0 -15969449.316305161 29972019.334411621 0 0 0 0 -12048122.691952705 10879166.321107864 0 10879166.321107864 50223457.584060669 0 0 0 0 -62820715.462266922 4311682.3112716675 0 4311682.3112716675 62941077.480306625 0 0 0 0 -102109385.55839729 -63540956.742671967 0 -63540956.742671967 52818221.581752777 0 0 0 0 -11372928.361039903 -3857323.0247601755 0 -3857323.0247601755 44412988.992096424 0 0 0 0 -11941091.286817731 -18430.233921431005 0 -18430.233921431005 28640364.166452158 0 0 0 0 -12816713.011161804 -4452634.8730926514 0 -4452634.8730926514 19916865.790449142 0 0 0 0 -27072995.71352005 -3113393.8967590332 0 -3113393.8967590332 40587119.213317871 0 0 0 0 16922264.773923874 -24585133.746304989 0 -24585133.746304989 46026402.054275513 0 0 0 0 -5080325.4272848964 -17861775.124524724 0 -17861775.124524724 36395114.740148261 0 0 0 0 30068741.708740234 -20103039.783309937 0 -20103039.783309937 34336281.064682007 0 0 0 0 -40317.149896159768 -163212.08733608201 0 -163212.08733608201 2563812.5696892664 0 0 0 0 -16307387.657751322 81534915.047971249 0 81534915.047971249 39108260.393081665 0 0 0 0 -2531749.740332121 968417.2991139926 0 968417.2991139926 3408580.4908208549 0 0 0 0 -19148600.297953248 -37717939.932121515 0 -37717939.932121515 104509753.89935303 0 0 0 0 -4258219.9296112061 12608762.363327026 0 12608762.363327026 153932585.17608643 0 0 0 0 -26524431.77104187 13997911.42388916 0 13997911.42388916 -23800518.845748901 0 0 0 0 -47173611.875724792 -2492292.9117202759 0 -2492292.9117202759 150555943.85142517 0 0 0 0 -13815153.3209095 -36967409.522192955 0 -36967409.522192955 151292188.51187134 0 0 0 0 -1030278.9962951094 1656873.0422528498 0 1656873.0422528498 -2112920.3773791268 0 0 0 0 -14298838.981231689 -15751662.506322861 0 -15751662.506322861 19863665.686588287 0 0 0 0 -21334287.998603821 -24882436.788135529 0 -24882436.788135529 123357970.31387329 0 0 0 0 -9146018.9451046493 -4807707.4226094112 0 -4807707.4226094112 37604261.27759885 0 0 0 0 -6051679.089761734 -4266733.3300266266 0 -4266733.3300266266 21284510.208011627 0 0 0 0 -7236731.7226350326 -11856056.104983034 0 -11856056.104983034 45573046.55135566 0 0 0 0 -32468173.446914673 -18313929.314506531 0 -18313929.314506531 42089241.270889282 0 0 0 0 12404411.921592712 -19191369.242103577 0 -19191369.242103577 14913332.560901642 0 0 0 0 -1369816.9387453031 -2775310.1077318676 0 -2775310.1077318676 4008909.4699773351 0 0 0 0 -3594992.3526486997 -19979782.459994286 0 -19979782.459994286 15825842.743321894 0 0 0 0 -7321062.4721592274 -2119304.6206191136 0 -2119304.6206191136 20285339.700684555 0 0 0 0 -22163194.560614109 -8379597.3410015106 0 -8379597.3410015106 25995446.808547974 0 0 0 0 -18044778.72229135 -669208.48056840897 0 -669208.48056840897 22166397.000225067 0 0 0 0 -15239979.818795204 -3454169.8408660889 0 -3454169.8408660889 26964340.844456673 0 0 0 0 -7008035.248465538 -6974186.6203727722 0 -6974186.6203727722 19917089.695457458 0 0 0 0 -4087282.5873351404 -3412882.4168065046 0 -3412882.4168065046 18226789.401473217 0 0 0 0 -11986203.173402786 -9896478.0482730865 0 -9896478.0482730865 20533573.50012207 0 0 0 0 -24541244.975053549 -256956.58061361313 0 -256956.58061361313 19175533.775614738 0 0 0 0 -5365996.9470160808 -643347.90509799065 0 -643347.90509799065 14747481.304812685 0 0 0 0 -32847198.437518239 1353386.7939548492 0 1353386.7939548492 27404434.945098877 0 0 0 0 -5569870.835571358 -2131126.3802734585 0 -2131126.3802734585 29093992.879735183 0 0 0 0 -19070866.856523514 8919746.8627319336 0 8919746.8627319336 23857551.529155254 0 0 0 0 -34886863.984395713 1953240.3132385015 0 1953240.3132385015 24847112.222091675 0 0 0 0 -10978464.267550323 6701050.3169049155 0 6701050.3169049155 27258205.641006704 0 0 0 0 -23336052.936650872 -3182215.9851769209 0 -3182215.9851769209 41516278.449447632 0 0 0 0 -26755471.670219421 -7385223.2958450317 0 -7385223.2958450317 40579930.137878418 0 0 0 0 -22734079.57374382 -6992292.4229049683 0 -6992292.4229049683 38988850.088645935 0 0 0 0 -20364638.51628685 -2031707.8868255615 0 -2031707.8868255615 40079476.627029419 0 0 0 0 -21955819.799549103 -2782501.0436401367 0 -2782501.0436401367 51725309.224349976 0 0 0 0 -13945757.290994644 3503081.3271865845 0 3503081.3271865845 40443981.83272171 0 0 0 0 -65970659.511821747 24568283.79598999 0 24568283.79598999 17472219.886659622 0 0 0 0 -12041704.342254639 5530006.299823761 0 5530006.299823761 42251026.296302795 0 0 0 0 -11544782.876787186 10947308.007974764 0 10947308.007974764 28775135.442344405 0 0 0 0 -60917148.854316711 12182346.455207825 0 12182346.455207825 9236333.7783203125 0 0 0 0 -8942186.9529020749 -3617792.2487390558 0 -3617792.2487390558 29202082.626538143 0 0 0 0 1352837.4638844132 -9242357.170289211 0 -9242357.170289211 18819275.187726766 0 0 0 0 -31958909.149520874 -22174330.370635986 0 -22174330.370635986 55940509.285125732 0 0 0 0 13106968.408821106 -68334366.123901367 0 -68334366.123901367 71469743.27532196 0 0 0 0 -10147617.13168335 -61933739.370895386 0 -61933739.370895386 104129447.19720459 0 0 0 0 20385516.780288696 -26122350.653900146 0 -26122350.653900146 55558432.397094727 0 0 0 0 65129960.745399475 -38082389.20791626 0 -38082389.20791626 56846633.142791748 0 0 0 0 -2520041.8389387745 10629384.255473945 0 10629384.255473945 -2564116.8244271576 0 0 0 0 -11283751.191033836 -5473708.3843199518 0 -5473708.3843199518 47059391.008136094 0 0 0 0 -156023632.50881195 15971081.547622681 0 15971081.547622681 54531108.991638184 0 0 0 0 -37542109.976661682 -37542646.368812561 0 -37542646.368812561 50230496.320144653 0 0 0 0 97057044.173194885 -74505521.01285553 0 -74505521.01285553 79562466.526641846 0 0 0 0 -8234801.3906666208 -24313606.391476549 0 -24313606.391476549 76004760.483857259 0 0 0 0 -2423259.6944880188 -17630323.350231983 0 -17630323.350231983 43905033.88768705 0 0 0 0 -88181823.762481689 117923429.6496582 0 117923429.6496582 -915607341.61572266 0 0 0 0 -91612475.465667725 5286090.4636383057 0 5286090.4636383057 72055281.386219025 0 0 0 0 19358683.460847139 -52991287.066948891 0 -52991287.066948891 48376062.42666626 0 0 0 0 -53836264.254554749 -202522659.37011719 0 -202522659.37011719 1476208275.6888428 0 0 0 0 -25417786.38482666 -31145483.543991089 0 -31145483.543991089 106993086.10992432 0 0 0 0 24179743.997138977 -79366557.349945068 0 -79366557.349945068 153752597.44708252 0 0 0 0 -34094901.607917786 83216965.841064453 0 83216965.841064453 173939604.8448658 0 0 0 0 -1322827.0813696384 21963582.187051296 0 21963582.187051296 41598397.844711304 0 0 0 0 -4741416.6744283289 -2858543.6814878359 0 -2858543.6814878359 13411695.169360429 0 0 0 0 -12238336.395376205 -58646828.424026489 0 -58646828.424026489 92193906.715270996 0 0 0 0 -11322540.447309107 -6941121.6721857693 0 -6941121.6721857693 49416485.016167112 0 0 0 0 -37646210.236499786 -70840658.251319885 0 -70840658.251319885 -44464001.066253662 0 0 0 0 -1537096.8603162766 25959163.998653412 0 25959163.998653412 67878283.611709595 0 0 0 0 -18102740.140304565 17854357.842636108 0 17854357.842636108 65294537.925735474 0 0 0 0 -64377563.063621521 -61818737.336029053 0 -61818737.336029053 106209767.01171875 0 0 0 0 -113485883.43166733 -39795986.973127365 0 -39795986.973127365 110416904.05526733 0 0 0 0 -112083355.47380209 -50335232.918299675 0 -50335232.918299675 96764263.91784668 0 0 0 0 -170085506.82223892 -62209829.192108154 0 -62209829.192108154 110208275.54977417 0 0 0 0 -53628316.049507141 -52075318.019454956 0 -52075318.019454956 91223247.928863525 0 0 0 0 -106019362.75352478 -36546199.090560913 0 -36546199.090560913 87297800.994277954 0 0 0 0 -59045310.316574097 -44388790.196838379 0 -44388790.196838379 100356821.8911438 0 0 0 0 -37255433.743431091 -39150881.34588623 0 -39150881.34588623 60186702.83782959 0 0 0 0 -87004437.569236755 15168804.165130615 0 15168804.165130615 970515.74039077759 0 0 0 0 -108166391.60092354 -35175916.630004883 0 -35175916.630004883 107644521.4367981 0 0 0 0 -106279227.35596466 -3448339.1862945557 0 -3448339.1862945557 96711994.731231689 0 0 0 0 -129274110.83776093 -12904091.291229248 0 -12904091.291229248 94908625.976165771 0 0 0 0 -137557491.18960094 10877067.948905945 0 10877067.948905945 134918771.76712036 0 0 0 0 -142836948.55478668 10751932.779815674 0 10751932.779815674 138522200.80380249 0 0 0 0 -156834567.21392059 74121121.703338623 0 74121121.703338623 171135780.98080444 0 0 0 0 -55493654.869377136 84130906.321517944 0 84130906.321517944 136232889.76878357 0 0 0 0 -57634455.257259488 137141385.22956181 0 137141385.22956181 99421573.004241943 0 0 0 0 -374376960.88085938 166904804.47253418 0 166904804.47253418 202188151.04471588 0 0 0 0 -231641058.51864433 53190617.691505432 0 53190617.691505432 169712873.96868896 0 0 0 0 -169758571.51097965 198585832.01589966 0 198585832.01589966 201264958.91503906 0 0 0 0 -194529456.17769623 24126097.142913818 0 24126097.142913818 186605125.38232327 0 0 0 0 -214142463.53261948 -1726386.1640777588 0 -1726386.1640777588 152528479.8404541 0 0 0 0 21556847.222213745 171936269.21812439 0 171936269.21812439 30644925.049995422 0 0 0 0 70573987.01125145 122097513.22761536 0 122097513.22761536 57712132.901824951 0 0 0 0 21201541.13117981 177142644.4732666 0 177142644.4732666 119681078.52987671 0 0 0 0 615704040.61322021 238579074.26220703 0 238579074.26220703 -57598382.32258606 0 0 0 0 -2009711.9430095125 118653.23424934968 0 118653.23424934968 55844.372869417071 0 0 0 0 377701289.63602448 596031346.57705688 0 596031346.57705688 -515673514.74360657 0 0 0 0 -70289707.445644379 479677903.52050018 0 479677903.52050018 -42927037.510971069 0 0 0 0 -409245387.23427582 657344901.34451294 0 657344901.34451294 -8059670.9399528503 0 0 0 0 -343733649.37906265 176278599.41970825 0 176278599.41970825 -373338724.66830444 0 0 0 0 -398763221.31227112 517017951.50852966 0 517017951.50852966 467858435.10061646 0 0 0 0 -204468479.4430542 -109361944.34966278 0 -109361944.34966278 73833952.703735352 0 0 0 0 -392958973.86210632 -11553334.143753052 0 -11553334.143753052 185892405.49575496 0 0 0 0 -292776625.62614822 102275249.50763702 0 102275249.50763702 252920580.92672729 0 0 0 0 -951465174.95334625 -342361.45440673828 0 -342361.45440673828 239603890.8894577 0 0 0 0 -1078793311.7049255 -432987555.79130554 0 -432987555.79130554 40680577.594100952 0 0 0 0 -1579702893.7569199 275741946.32676697 0 275741946.32676697 439047904.15430641 0 0 0 0 -283850031.57640839 -174373754.78135681 0 -174373754.78135681 124230713.72857666 0 0 0 0 -207547024.09105682 -94743378.109375 0 -94743378.109375 74602544.12147522 0 0 0 0 -583585404.81994629 1186990391.3333588 0 1186990391.3333588 -1390547528.9503403 0 0 0 0 -190106896.21601009 -306597044.6841011 0 -306597044.6841011 -207868006.93927002 0 0 0 0 -6074135.0164196081 1797709.3349926621 0 1797709.3349926621 2953751.5593428127 0 0 0 0 -1503616115.9443831 1865417326.8690472 0 1865417326.8690472 1578960920.9968262 0 0 0 0 -750358614.35853577 190817447.41333771 0 190817447.41333771 -147941851.92259979 0 0 0 0 -5474667.0254886746 -5273319.7200141195 0 -5273319.7200141195 4925648.218705222 0 0 0 0 -1463100602.6655064 184995486.75237274 0 184995486.75237274 631503736.67672729 0 0 0 0 -797102617.37253761 250983056.9228096 0 250983056.9228096 16018090.135360718 0 0 0 0 -280206228.56154633 252168636.31977081 0 252168636.31977081 -271255660.46192932 0 0 0 0 580232468.95508099 857843464.10286331 0 857843464.10286331 -74949686.703460693 0 0 0 0 -263352052.74245834 297427941.35809326 0 297427941.35809326 373935730.61214447 0 0 0 0 -2711042.7757933196 -2522440.4794027712 0 -2522440.4794027712 2058766.6986669898 0 0 0 0 -1041803172.5749493 919950667.80242157 0 919950667.80242157 143599525.04574585 0 0 0 0 -1100486775.4707947 -440279249.80575562 0 -440279249.80575562 -2834915860.6086426 0 0 0 0 -133183346.12254333 665647367.04316711 0 665647367.04316711 -510018687.80644226 0 0 0 0 -256885876.20145035 20418675.732452393 0 20418675.732452393 231183755.69659424 0 0 0 0 -1081568696.8172607 -314526216.77528381 0 -314526216.77528381 301927014.70297241 0 0 0 0 1090416444.2216835 1002888804.4322281 0 1002888804.4322281 721962528.93139648 0 0 0 0 -252940004.11074448 -259552801.03767395 0 -259552801.03767395 1943916139.2863846 0 0 0 0 1024034636.020874 -1417616297.2028923 0 -1417616297.2028923 1029013576.7098694 0 0 0 0 -22610072.698913574 -638736716.36795044 0 -638736716.36795044 450352235.50605774 0 0 0 0 35814848.348257065 -570971959.05760002 0 -570971959.05760002 225226785.89051819 0 0 0 0 -1016178645.352108 283040621.7821579 0 283040621.7821579 460448312.31861877 0 0 0 0 540633877.85131717 -662553575.23064375 0 -662553575.23064375 246604308.56289673 0 0 0 0 -666224713.35733223 380154539.24873734 0 380154539.24873734 -29172809.88961792 0 0 0 0 -3407096.0306259878 -3433645.5087437332 0 -3433645.5087437332 3463927.2494873703 0 0 0 0 -230800631.26485825 -471693125.4752655 0 -471693125.4752655 494530480.9276886 0 0 0 0 -319961935.29184723 -10449422.672821045 0 -10449422.672821045 323793212.17189026 0 0 0 0 -511054061.79191589 168280743.97711945 0 168280743.97711945 210960581.94075775 0 0 0 0 -311500937.14480972 254023925.85248184 0 254023925.85248184 -49752287.948425293 0 0 0 0 -371171714.9337635 139934644.18755531 0 139934644.18755531 107298571.55633545 0 0 0 0 -198942608.64387512 127938311.45337677 0 127938311.45337677 81985215.429779053 0 0 0 0 -215129814.56691647 22331756.323685169 0 22331756.323685169 79703899.924575806 0 0 0 0 -296663091.00331497 39220555.104946136 0 39220555.104946136 76676456.539581299 0 0 0 0 -27850495.845466614 -14791811.294555664 0 -14791811.294555664 18734557.113067627 0 0 0 0 -2769896.688874796 -23283295.096044898 0 -23283295.096044898 24209252.26402773 0 0 0 0 -22923372.349098206 -18498834.695598602 0 -18498834.695598602 17698126.944000244 0 0 0 0 -66550674.98677063 7914464.9637756348 0 7914464.9637756348 7695315.935798645 0 0 0 0 -21280780.972374894 -5839020.3049312085 0 -5839020.3049312085 15554907.210539836 0 0 0 0 -122066866.70035553 8001901.259437561 0 8001901.259437561 30336824.002334595 0 0 0 0 -27932511.540420532 1641756.3679351807 0 1641756.3679351807 25678192.760253906 0 0 0 0 -25790528.676490784 -12116296.589103699 0 -12116296.589103699 24199106.230499268 0 0 0 0 -29917345.688941956 -21733505.896034241 0 -21733505.896034241 32810152.508056641 0 0 0 0 154819.58633631468 -485658.04235320166 0 -485658.04235320166 1347315.0050548613 0 0 0 0 -11590942.510488467 1132217.0271588564 0 1132217.0271588564 30293433.583463132 0 0 0 0 -11113235.918955099 -5652682.6685934737 0 -5652682.6685934737 38000052.106352106 0 0 0 0 -22199885.81791687 -2514201.1011505127 0 -2514201.1011505127 28254167.492393494 0 0 0 0 -7010880.9040870667 4091722.8416137695 0 4091722.8416137695 62741851.861099243 0 0 0 0 -16242399.135917664 -5736712.3999481201 0 -5736712.3999481201 52750221.176929474 0 0 0 0 1200801.9277877808 -10225822.621795654 0 -10225822.621795654 77367793.289489746 0 0 0 0 -56672778.955070496 -8737911.484375 0 -8737911.484375 179106655.7171402 0 0 0 0 -15481585.139776047 944993.88668826967 0 944993.88668826967 8334746.734953057 0 0 0 0 46267995.807134628 81950892.415222168 0 81950892.415222168 53588199.343719482 0 0 0 0 -313630380.73601913 192468403.79471779 0 192468403.79471779 -107914025.69061279 0 0 0 0 -68028282.782142639 100583596.85163879 0 100583596.85163879 -107047984.98092651 0 0 0 0 
</DataArray>
<DataArray type="Float64" Name="cross_section_updated" format="ascii">
1 1 0.051314858752904965 1 1 1 1 0.051312019398428221 1 1 1 1 1 1 1 1 1 1 1 1 0.05501293225360282 1 1 1 1 0.055022418257865344 1 1 1 1 1 1 1 0.05501051103771587 1 1 1 1 1 1 1 1 0.060579031720484303 1 1 1 1 1 1 1 1 1 1 1 0.061503152894244448 0.048325097878893067 1 1 1 1 1 1 1 1 0.072586086197344843 1 1 1 1 1 1 1 1 1 1 1 1 1 1 1 1 1 1 1 1 1 1 0.066350094751153429 1 1 1 1 1 1 1 1 1 1 1 0.054631526160230509 1 1 1 0.05190727212590418 1 1 1 1 1 1 1 1 1 1 1 1 1 1 1 1 1 1 1 1 1 1 1 1 1 1 1 1 1 1 1 1 1 1 1 1 1 1 1 1 1 1 1 1 1 0.049700307153031129 1 0.055335563156903599 1 1 1 1 1 1 1 1 1 1 1 1 1 1 1 1 1 1 1 1 1 1 1 1 1 1 0.052922771714690141 1 1 0.050428888787616755 1 0.051583145167003353 1 1 1 1 1 1 1 1 1 1 1 1 1 1 0.048964010814968373 1 0.063476553539733485 1 1 1 1 1 1 1 0.060169761013625339 1 0.063786449755039137 1 1 1 1 1 1 0.048060547403824962 1 1 0.070872320562531024 1 1 1 1 1 1 0.070515991026343261 0.086926983383950968 1 1 0.049954121459698797 1 0.071517428643513029 1 0.050363056303435835 0.061426540235590098 1 1 1 0.076384045034926851 1 1 1 1 1 1 1 1 1 1 1 1 1 0.099920828537001488 1 1 1 1 1 1 1 0.11277715648680676 1 1 1 1 1 1 1 0.12447843258926777 1 1 1 1 0.052333639400742774 1 1 1 1 1 1 0.050278484716255498 1 1 1 0.056646049174541094 1 1 1 1 1 1 1 0.06026852221689051 1 1 1 1 1 1 0.050147939647875381 1 1 1 1 1 1 0.051620847378192752 1 1 1 1 1 1 1 0.04963454984022006 1 1 1 1 1 1 1 1 1 1 1 1 1 1 1 1 1 1 1 1 1 0.048464178118391044 0.050162468577007777 1 1 1 1 1 0.044715300818318357 1 1 1 1 1 1 1 0.068886233461897761 1 0.029742260052487618 1 1 1 0.06982912551373946 1 1 1 0.050708217539695261 1 0.05004782511079256 1 1 1 1 1 1 1 0.092969920951038287 1 1 1 1 1 1 1 0.13329658812282597 1 1 1 0.049924003786285517 1 1 1 1 1 1 1 1 1 1 1 1 1 1 1 1 1 1 1 1 1 1 1 1 1 1 1 1 1 1 1 1 0.10233624273186552 1 1 1 1 1 1 1 1 1 1 1 1 1 1 1 1 1 1 1 1 1 1 1 1 1 1 1 1 1 1 1 1 0.049911539310294038 1 1 1 1 1 1 1 1 1 1 1 1 1 1 1 1 1 1 1 1 0.049904957950097924 1 1 1 1 1 1 1 0.050167730847092293 1 1 1 1 1 0.050406010682474897 1 1 0.050011451607298085 1 0.051604588913290679 1 1 1 1 0.053351608196673554 1 1 0.05519000718100471 1 1 1 1 1 1 0.056092063320688446 1 1 1 1 1 1 1 1 1 1 1 1 1 1 1 1 1 1 1 0.054345597425936691 1 1 1 1 1 1 1 1 1 1 1 0.051172942399352925 0.053544772524900731 1 1 1 1 1 1 1 1 1 1 1 1 1 1 1 1 1 1 1 1 1 0.049848420074426317 1 0.049893970923310757 0.049161161565873954 1 1 0.05104120816211101 1 1 1 1 1 1 1 1 1 1 1 1 1 0.047827781664224148 1 1 1 1 1 1 1 0.048468154150075229 0.048513556110293697 1 1 1 1 1 1 1 1 0.0511584799569135 0.050660589193552402 1 1 1 0.049650981847928169 1 1 1 1 1 1 1 1 1 1 1 1 1 1 1 1 1 1 1 1 1 1 1 1 1 1 1 1 1 1 1 1 1 1 1 0.049967240793092976 1 1 0.050202470453152528 1 1 1 1 0.050512045712925127 1 1 1 0.049907497656300676 1 1 1 0.049947069480090867 1 1 0.049960394297387904 1 1 1 1 1 1 1 1 1 1 1 1 1 1 1 1 1 1 1 1 1 0.050247132713239717 1 1 1 0.050192165808705197 1 1 1 1 1 0.050295123434457779 1 1 1 1 1 1 0.050051961994960932 1 1 1 1 1 1 1 1 1 1 1 1 1 1 1 1 1 1 0.050106930924453258 1 1 1 1 1 1 1 1 1 1 1 1 1 1 1 1 1 1 1 1 1 0.050309575259772601 1 1 1 1 1 1 1 1 1 1 1 1 1 1 1 0.050265494078640879 1 1 1 1 1 1 1 1 1 1 1 1 1 1 1 1 1 1 0.064027802485998056 1 1 1 1 1 1 1 0.050224940001201326 1 1 1 1 1 1 1 1 1 1 1 1 1 1 1 1 1 1 1 1 1 0.053073817093582859 1 1 1 1 1 1 1 1 1 0.058831259504472655 1 1 1 1 1 1 1 1 0.11124178930291559 1 1 1 1 1 1 1 1 1 1 1 1 1 1 1 1 1 1 1 0.10589347381988323 1 1 1 1 1 0.11966381876888513 1 1 1 0.049806271640591045 1 1 1 1 1 1 0.044081518736085894 1 1 1 1 1 1 1 1 1 1 0.052786743646187101 1 1 1 1 1 1 1 1 1 1 1 1 0.048970316989426832 1 0.058879753244295036 1 1 1 1 1 1 1 0.10572136472303201 1 0.058119260185623647 1 1 1 1 1 1 1 1 1 1 1 1 1 1 1 1 1 1 1 1 1 1 1 1 1 1 1 1 1 1 1 1 1 1 1 1 1 1 1 1 1 1 1 1 1 0.054543777302803638 0.056185955862924852 1 1 0.049747352013958551 1 1 1 1 1 1 1 1 1 1 1 1 1 1 1 1 0.047322991271438547 1 1 1 1 0.10927283640164231 1 1 0.050727955083466961 1 1 1 1 1 1 0.10121357165878467 1 0.095802055428896721 1 1 0.049838341989611179 1 1 1 1 1 1 1 1 1 1 0.049144308502656518 1 1 1 1 1 0.056531830871152752 0.050068521105456482 1 1 1 1 0.071362622537975651 1 1 0.073379015694261099 1 0.068898457439234409 1 1 1 1 1 0.05488016611380804 1 1 0.050018808440726717 1 1 1 1 1 1 1 1 1 1 1 1 0.052520312451558235 1 1 1 1 1 1 1 1 1 1 1 1 1 1 1 0.052162216982797813 1 0.050003989009006052 1 0.054971195595731659 0.054888183284905245 1 0.054072435244156662 1 1 0.050051353152192404 1 1 1 1 1 1 0.039919720254507525 1 0.049739863570421303 1 1 0.038292569746313024 1 1 1 0.074231217759327256 1 1 0.050061960522933963 1 1 1 1 1 0.062145958771982916 1 1 0.055362982405599559 1 1 1 1 1 0.050770306417492056 1 0.069723269363695467 1 1 0.072275385773468037 1 1 0.059033757182536312 1 1 1 1 1 1 1 1 0.056389585450259336 1 1 1 1 1 1 1 1 1 1 0.053874477547991871 1 1 1 1 0.047925008309989053 1 1 0.042541278373348763 1 1 1 1 1 0.067922749229183815 1 1 1 1 1 0.049992400121507546 1 0.049671578217619368 1 1 1 1 1 1 0.050890767910479126 1 1 1 1 1 1 1 1 0.065019932131365213 0.060562493986020829 0.051519310089712729 1 1 1 1 0.063613717575812481 1 0.050296924494371405 1 1 1 0.075300124590604506 0.050043493490349859 1 1 1 0.053340894142643751 1 1 1 0.060401433870129945 1 0.04997799192903081 1 0.052875821605107898 0.069242347438549345 1 0.05000018397631624 1 1 1 1 0.061440718352081293 1 1 1 0.050709570727905245 1 0.05372249131654025 1 0.069628580022173231 1 1 1 1 1 1 1 0.050350302247139003 1 1 1 1 0.070394128407841025 1 1 1 1 1 1 1 1 0.049983341825264545 1 0.051148053055224227 0.051825679248285794 1 1 1 0.052048133388023124 1 1 1 1 0.051705394191408655 0.054695450758160472 1 1 0.07026345704171294 0.050178733230749131 1 1 1 1 1 0.050069469899531122 1 1 1 1 1 1 1 1 0.05006909847861616 1 0.050131323675596674 1 1 1 1 1 1 1 1 1 1 1 1 1 1 1 1 1 0.050059387293731397 1 1 1 1 1 1 1 1 1 1 1 1 1 1 1 1 1 1 1 1 1 1 1 1 1 0.049944521908103862 1 0.050190316048155978 1 1 1 1 1 0.049995978320619944 0.05001434864262129 1 1 1 1 0.052427399974489156 0.049364503359519391 1 0.047874029503518288 1 1 0.052334617217107485 1 1 0.050454588330221262 1 1 1 1 0.051453848663249549 0.049929689814606486 1 1 1 1 1 1 1 1 0.049995082427865295 1 1 0.049979666396811548 1 1 1 0.050064303583646511 1 1 0.050012315940026711 1 1 1 1 1 1 0.049887303098587799 1 1 1 1 1 1 0.050802183770705285 1 1 1 1 1 0.049590638495513435 1 1 0.051054906110299683 0.051152234277747802 1 1 0.05203287847714036 1 1 0.050008851259406857 1 1 1 1 1 1 1 1 1 1 1 1 0.0497002293034371 1 0.054619831800122143 1 1 0.052244724962188988 1 1 1 1 1 1 0.049989437890105334 1 1 1 0.05050811684561253 0.050695877636693892 0.050004805211296646 1 1 1 0.064132751881916389 0.04831181465033358 1 0.053624778081816177 0.055854777205600878 1 1 0.050868346714357034 1 1 0.050668804002450746 1 0.050835511559117079 1 0.048446287024067156 1 1 1 0.053219904974519727 0.050540328321351177 1 1 0.054188651951101743 0.04801882853440962 0.049379691822338007 0.04980305196748927 1 1 1 0.048916297416332924 0.052589572001824264 1 1 0.050427704111561292 0.050611946715262368 0.052276150008865291 1 0.046166965291644463 0.052820617284986056 1 1 0.05917033203188507 1 0.051375288367332655 0.054475578986414308 1 0.057460087920992962 1 1 0.04934432356026814 1 0.054087019398301989 0.050083087398649015 1 1 1 1 0.050656760990618159 0.051630855161267336 1 1 0.049955075731243526 1 1 1 0.050473086084196601 1 1 1 1 1 1 1 1 1 1 1 1 1 1 1 1 1 1 1 1 1 1 1 1 1 1 1 1 1 1 1 1 1 1 1 1 1 1 1 1 1 1 1 1 1 1 1 1 1 1 1 1 1 1 1 1 1 1 0.058717456029586758 1 0.052250990438393131 1 1 1 1 1 1 1 1 1 1 1 1 1 1 0.05693361941857826 1 1 1 1 1 1 1 1 1 1 0.05321359907684664 1 1 1 1 1 1 1 1 1 1 1 1 1 1 1 1 1 1 1 1 1 1 1 1 1 1 1 1 1 1 1 1 1 1 1 1 1 1 1 1 1 1 1 1 1 1 0.049767596538983064 1 1 1 0.04904379447524651 1 0.051295336701961 1 1 1 1 1 0.053367404299885624 1 0.054258878447793452 1 1 1 1 1 1 1 1 1 1 1 1 1 1 1 1 1 1 1 1 1 1 1 1 1 0.05166632789342869 1 1 1 1 1 1 0.064487816166492878 1 0.055057200949626357 1 1 1 0.077145041308028239 1 1 0.072503626590715589 1 1 1 1 1 1 1 1 1 1 1 1 1 1 1 1 1 1 1 1 1 1 1 1 1 1 1 1 1 1 1 1 1 1 1 1 1 0.045608552765336534 1 0.059002912143226213 1 1 1 1 1 1 1 1 1 1 0.049871051311634579 1 1 1 1 1 1 1 1 1 1 1 1 1 1 1 1 1 0.061520523212254853 1 1 1 0.049983179699954861 0.057301802063579786 1 0.0491852902647405 1 1 1 1 1 1 1 1 0.053407835735693313 1 1 1 1 0.052404600002178954 1 1 1 1 1 1 1 0.050054684434023305 1 1 0.08000274985585494 1 0.070529431793648567 1 1 0.050240964166898841 1 1 0.035797539890956812 0.049958055659425647 1 1 1 1 1 1 1 1 1 1 1 1 1 1 1 0.079567216341485919 1 0.043534580748274862 1 1 1 0.059832130989522149 1 0.046477015755493054 1 1 1 1 1 1 1 1 1 1 1 1 0.049619232634150523 1 0.052993213964147683 1 1 1 1 1 1 1 1 0.049578386037591876 1 1 0.049767430701906708 1 1 1 0.059799570272717352 0.056701738529028031 1 1 1 1 1 1 1 1 1 1 1 1 1 1 1 1 1 1 1 1 1 0.050335653660659362 1 1 1 1 1 0.049994746355391972 1 0.049401553770915506 1 1 1 1 0.050760065804827934 1 1 0.057114152415061105 1 1 1 1 1 0.061006587830548145 1 1 1 1 0.068491404218424451 1 1 1 1 1 1 1 0.051750344333228171 1 1 1 0.054595953513706996 1 1 1 1 1 1 1 1 1 1 1 0.052951419316355976 1 1 1 1 1 1 1 1 0.049855498097665658 1 1 1 1 1 1 0.049719931573765364 1 1 1 1 1 1 0.049915481567251778 1 1 1 1 1 1 1 1 1 1 1 0.048192770558605297 1 1 1 0.049833046511010753 1 1 1 0.056946024245213327 1 0.056443748038415814 1 1 1 1 1 1 0.050051048091152059 1 1 1 1 1 1 1 1 1 1 1 1 1 1 1 0.055855142750965453 1 1 1 1 1 0.059230465987407541 1 1 1 1 1 1 1 1 0.053789773669445443 1 1 1 1 1 1 1 1 1 1 1 1 1 1 1 1 0.049120846408279614 1 1 1 1 0.051899972216127535 1 1 1 1 1 1 1 1 1 1 1 1 1 1 1 1 1 1 1 1 1 1 1 1 1 1 0.058266630900024451 1 1 1 0.049958895741029283 1 0.051116216741808426 1 1 1 1 0.054040206491681994 1 0.051610526129908581 1 1 1 1 1 0.050723262182499881 1 1 1 1 1 1 1 1 1 0.060559556158996261 1 1 1 1 1 1 1 1 1 1 1 1 1 1 1 1 1 1 1 1 1 1 1 1 0.047759279167649382 0.051808812257886132 1 1 1 1 1 0.049986289537622956 1 1 1 0.049065735550629666 1 1 1 0.04719533073665403 1 1 0.055101126755161989 1 0.049436175494076362 1 1 1 1 0.049512944990461473 1 1 1 1 0.049240282035317544 0.049983838025963762 1 1 1 1 1 1 1 1 1 1 1 1 0.049931250225601971 1 1 1 1 0.050001386151328792 1 1 1 1 1 0.051659734417006054 1 1 0.050572641510114175 1 1 1 1 1 1 1 1 1 1 1 1 1 1 1 1 0.049990156593697738 1 1 0.050457656889246472 1 1 1 0.050868461057616415 1 1 1 1 1 1 1 1 1 1 1 0.050410804168369946 1 1 1 1 1 1 1 1 1 1 1 1 1 1 1 1 0.05020272834571235 1 1 0.061682583142705805 1 0.056878853716013894 1 1 0.056792626985310832 1 0.050632266330057248 1 0.055656639279249367 1 1 1 1 1 1 1 1 1 1 1 1 1 0.053611624320044501 1 0.05347507927013153 0.049919846788165877 1 1 0.052885129293167438 0.050354351131406405 1 1 0.049998011939016637 0.05045779897531083 1 1 1 0.052790453458621996 1 0.051608290879744834 1 1 0.053679485549069136 1 1 1 1 0.053853938087941297 0.05008242269421119 1 0.059892247306819579 1 1 0.049775292930947519 0.050031135900281964 1 1 0.05063922388194006 1 1 1 0.05100335504953684 1 1 1 0.05348194972180035 0.057699457044181536 0.050541681910645342 1 1 0.049321014356469614 1 0.067499146284212219 0.050012894229009071 1 1 1 1 1 1 1 1 1 1 1 0.051070176759648186 0.052126592302204719 1 0.052349059942985332 1 0.051736683519750207 1 0.050046641575627472 1 1 1 0.050038524967677314 1 1 1 1 1 0.050824707594958676 1 1 1 1 1 1 1 1 1 1 1 1 1 1 1 1 1 1 1 1 1 1 1 1 0.053112919383057115 1 1 1 1 1 1 1 1 1 1 1 1 1 1 1 1 1 1 0.055561031677964681 1 1 1 1 1 1 1 1 1 1 1 0.055064995764372474 1 1 1 1 1 0.05273754856039272 1 1 1 1 1 1 1 1 1 1 1 1 1 1 0.052345502035983378 1 1 1 1 1 1 1 1 1 1 1 1 1 1 0.048321269695725803 1 0.060250821808630249 1 1 1 1 0.056604763701922439 1 1 1 1 1 1 1 1 1 1 1 1 0.048015505624107203 1 0.049946627969293646 1 1 1 1 0.048967118673831023 1 1 1 1 1 1 1 0.059800359758660444 1 1 1 1 1 1 1 0.050006869329871265 1 1 1 0.046757615797439402 1 0.049999553870092445 1 1 1 1 1 1 1 1 1 0.048693235982397047 1 1 1 1 1 1 1 1 1 1 1 1 1 1 1 1 1 1 1 1 1 1 1 1 1 1 1 1 1 1 1 1 1 1 1 1 1 1 1 1 1 1 1 0.04989283986469592 1 1 0.048232104506172019 1 1 1 1 1 1 1 1 1 1 0.049966394920276519 1 1 1 1 1 0.050515030874895207 1 1 0.049400782128558918 1 1 1 1 1 1 0.047362460487137555 1 1 1 1 0.050013675310789873 1 1 0.048300115364018438 1 0.049087657057477106 1 1 1 1 1 1 1 1 1 1 1 0.049634989797307884 1 0.04819115131503246 1 1 1 1 0.049915737652230077 1 1 1 1 1 1 1 1 1 1 1 1 1 1 1 1 1 1 1 1 1 0.054291024437404883 1 1 1 1 0.051637050278482984 1 1 1 1 1 1 1 0.049322517138107334 1 1 1 1 1 0.056189457574997492 1 1 1 0.053420004266303181 1 1 1 0.05388669301071889 1 1 0.051609076608971551 1 1 1 0.05023904508000409 1 1 0.05005421460428662 1 1 1 1 1 1 1 1 1 1 1 1 1 1 1 1 1 1 1 1 1 1 1 1 1 1 1 1 1 1 1 0.051717924778606907 1 1 1 1 1 1 1 1 1 1 1 0.052927904404402482 1 1 1 1 1 1 1 1 1 1 1 1 1 1 1 0.05855477046663235 0.052215924681306258 1 1 1 0.053240610222142312 1 1 1 1 0.054908997709491418 1 1 0.053472379812602396 1 1 1 1 1 1 1 1 1 1 1 1 1 0.057441099199293882 0.05284620197770025 1 1 1 1 1 1 1 1 1 1 1 0.069020935773129288 1 1 0.058262568097983775 1 1 1 1 1 1 1 1 1 1 1 1 1 1 1 1 1 1 1 0.06309107453741454 1 1 1 0.050184900367343931 1 1 1 1 1 0.046774659177195144 1 1 1 1 1 1 1 1 1 1 1 1 1 1 1 1 1 1 1 1 0.054993971521612714 1 1 0.052594415249012504 1 1 1 1 1 1 1 1 1 1 1 1 1 1 1 1 1 1 1 0.056230495994397299 1 1 1 1 1 1 1 1 1 1 1 1 1 1 1 1 1 1 1 1 1 1 1 1 1 1 1 1 1 1 1 1 0.050438291262928196 1 1 1 1 1 1 0.067493080264783789 1 1 1 1 1 0.067170653373454084 1 1 1 1 0.065923316999049256 1 1 1 1 1 1 1 1 1 1 1 1 1 1 1 1 1 1 1 1 1 1 0.062969243856685231 1 1 1 1 1 1 1 0.055502363492766112 1 1 0.055586035460753441 1 1 0.049419997785238146 1 1 1 1 1 1 0.052724024007743439 1 1 1 1 1 1 1 1 1 1 0.037123105610188986 1 0.066301974111681206 1 1 1 1 1 1 1 1 0.04985926859622121 1 1 0.035474397073987751 1 1 1 0.064406948127189764 1 1 1 0.0612625507457581 1 1 1 0.050201643954492621 0.051387707374703821 1 1 0.044999751123162464 1 1 0.045036640899386526 1 1 0.05027782675373775 1 1 1 1 1 1 1 1 1 0.050277755773297649 1 1 1 0.045401563403333754 1 1 1 0.045171068257967462 1 1 1 0.050024178482849901 1 0.050058594750278559 1 1 0.048415324815545391 1 1 1 1 1 1 1 1 0.046709645796299604 1 1 0.047655672117313329 1 1 1 1 1 1 1 1 1 1 1 1 1 0.046536161410896809 1 0.049972453385664944 1 1 1 0.047324207115059316 0.053610793603173612 1 0.048497372550942004 1 1 1 1 0.050037632862836176 1 0.053299643792184957 1 1 1 1 1 1 1 1 1 0.050986520643126962 1 1 1 1 1 1 1 1 1 1 1 1 1 1 1 1 1 1 1 1 1 1 1 1 1 1 1 1 0.04914722056228657 1 1 1 1 1 1 0.05118839359976423 1 1 1 1 1 1 0.050901388797586759 1 1 1 1 1 1 0.05032073850166302 1 1 1 0.050028158336990085 1 1 1 0.049941965828756457 1 1 0.044452788222489659 1 1 1 1 1 1 0.050748706765947935 1 1 1 0.040150468908831262 0.05606501445631857 1 1 1 1 1 1 1 1 1 1 1 1 1 1 1 1 1 0.053878065488924452 1 1 1 1 1 1 1 0.050120200445758392 1 1 1 1 1 0.046635671174793218 1 1 1 1 1 0.04979947846242945 1 1 0.064899595203547114 1 1 1 1 0.050064350842269276 1 1 1 1 1 1 0.086741785884784539 1 0.045813112564925165 1 0.087085044963299316 0.044255756173357808 1 0.048490382450036 1 1 1 0.054177239926045458 1 1 1 1 1 0.060072110647541983 1 1 1 0.05217952324429085 1 1 1 1 0.055913874509189436 0.048780756205141364 0.059589792157893104 1 1 1 1 0.050246195484102765 0.051796057019279071 1 0.053645174747932303 1 1 1 1 1 1 0.050015153930603476 1 0.042421991115941429 1 1 0.049850195439380511 1 1 1 0.044881514842219 1 1 0.055126211231221509 1 1 1 1 1 1 1 1 1 1 1 1 0.05055615073717612 1 1 1 1 0.042831107063412609 1 1 1 1 0.042158301420687772 1 1 1 1 1 1 1 1 1 0.051662628921724012 0.048128341305626078 0.062908475085167642 1 1 1 0.050001199901159574 0.050037538151623061 1 1 0.050507619504251276 1 0.047660489725616123 1 1 1 1 1 1 1 0.074975130895905795 1 1 1 1 1 1 1 1 1 1 1 1 1 1 1 1 0.050225759778503402 1 1 1 1 1 1 1 1 1 0.050665329090442524 1 1 0.040806977895838488 1 0.054016296924924337 1 0.050196468415392798 1 1 0.073233852675686217 1 1 1 0.050004713254219776 0.052974639120487943 1 1 0.04906182448609403 1 1 1 0.07431757497123892 1 1 1 1 0.049670454206463856 1 1 1 1 1 1 1 1 1 1 1 0.053411161963093763 0.050060584269993616 1 1 1 1 1 1 1 1 1 1 1 1 1 1 1 1 1 1 1 1 1 1 1 1 1 1 1 1 1 1 1 1 0.050148592864927066 1 1 1 1 1 1 1 1 1 1 1 1 1 1 1 1 1 1 1 0.064178789996279295 1 1 1 1 1 1 0.050052514824810775 0.055419544282045936 1 1 0.053778613110529526 0.053716868067824601 1 1 1 0.054504064988094937 1 1 1 1 1 1 1 1 1 1 1 1 1 1 1 1 1 1 1 1 1 1 1 0.059010776833035135 1 0.054892642897277286 1 0.053019553044942408 1 1 1 1 1 1 0.04312976318473305 1 0.052535326009377749 0.054360982971088198 1 1 0.084095666274565994 1 1 1 1 1 1 0.049962183172825053 0.08835360255993871 1 1 0.05288091394970823 0.048162192570633033 1 1 0.043934301047414512 0.049986541971487906 1 1 1 1 1 1 1 1 0.04364266604692095 1 1 1 1 1 0.047322824006586384 1 1 0.088437324483804994 1 1 1 0.049896142072938104 1 1 1 1 1 1 1 1 1 1 1 1 1 1 1 1 1 1 1 1 1 1 1 1 1 1 1 1 1 1 1 1 1 1 0.05087411896783639 1 1 0.035256089118330988 1 0.073157756021841658 0.043287379433106496 1 1 1 1 1 1 1 1 1 0.070203926385398199 1 1 1 1 1 0.067176216117991003 1 1 1 1 1 1 1 0.05047206545117594 1 1 1 1 1 1 1 1 0.051434459756339722 1 1 1 1 1 0.052335405181167791 1 1 1 1 1 1 1 1 1 1 1 1 1 1 1 1 1 1 1 1 1 1 1 1 1 1 1 1 1 1 0.050075583434157946 0.050260644732467254 1 1 1 1 1 1 1 0.051159677087168544 1 1 1 0.050107035012780937 1 0.050743791965518745 1 1 1 1 1 1 1 1 1 1 1 1 1 1 1 1 1 1 1 1 1 0.050233929606383669 1 1 1 1 1 1 0.050262009242470311 1 1 1 1 1 1 1 0.05001372748093779 1 1 0.0500633965719205 1 1 1 1 1 1 0.049123716990858803 1 1 1 0.054092997951978049 1 1 0.057047537073102748 0.048768443605450365 1 1 1 1 1 1 1 1 1 1 1 1 1 1 1 1 1 1 1 1 1 1 1 1 1 1 1 1 0.050607743303840491 1 1 1 1 1 1 1 1 1 1 1 1 1 1 1 1 1 1 1 0.039150755019471351 1 1 1 0.045521558602283782 0.050091795893275171 1 1 1 1 1 0.050042230946851868 1 1 1 0.050303697856904889 1 1 1 1 1 0.050470618747333523 1 1 1 1 1 1 1 1 1 1 1 1 1 1 1 1 1 1 1 1 1 0.050113266913373533 1 1 1 1 1 1 0.049725524788764963 1 1 1 1 1 1 1 1 1 1 1 1 0.050101424645364094 1 1 1 1 0.054130666397208621 1 0.050101580425794226 1 1 1 1 1 1 1 1 1 1 1 1 1 0.048782532906627388 1 1 1 1 1 0.046105006410124882 1 1 1 1 1 1 0.054119338154637472 1 1 1 1 1 1 1 1 1 1 1 1 0.054297702650944912 1 1 0.061351182095950502 1 1 0.048190392640449498 1 1 0.049516696215255479 1 1 1 1 1 1 1 1 1 1 0.067999142687631103 1 1 1 1 1 1 1 1 0.050065771946968166 1 1 1 0.049973687466756705 1 1 1 0.051446812243090181 1 1 0.073936939957417958 1 1 1 0.056049733390704307 1 1 1 1 1 0.073699414859557291 1 0.049996915864727896 1 1 1 1 0.04995818822582114 0.067602586806513751 1 1 1 0.049149739177837506 1 1 1 1 0.049810592724038955 1 1 1 1 1 1 1 1 1 1 1 1 1 1 1 0.050467753772310539 1 1 0.071905151268554887 0.067559625191330824 1 1 1 1 0.065157373141363245 1 1 1 1 1 1 0.053073599268489521 1 1 1 1 1 1 0.051006593629298699 1 1 1 1 1 1 1 1 0.049312974837999513 1 1 1 1 1 1 1 1 1 1 0.050692221454728265 1 1 0.049578022123032611 1 1 0.053643472489666402 1 1 1 1 1 0.059692615246894919 0.049935681554409944 1 1 0.049999621377921744 0.051938751535390168 1 0.053619016954548598 1 0.048271551195341295 1 0.050406536112240261 0.048464021693169476 1 1 0.050460685995295455 1 0.055947365871185442 1 0.048019162042293284 1 0.051433307160597422 1 0.054218733627070081 1 1 0.050036063162147454 1 0.060650754115149849 1 0.060166935138722899 1 1 1 1 1 1 0.06895482052028104 1 1 1 0.050043121535478352 1 1 1 1 1 1 1 1 1 0.052745837958330141 1 1 0.066755538262515679 1 0.050858278194205395 1 0.047222160673370539 1 1 1 0.044039544862970154 0.051632810102865467 1 1 1 1 1 1 1 1 1 1 1 0.050205065871763675 1 1 1 1 1 0.049934953199113445 1 1 1 1 1 1 1 1 1 1 1 1 1 1 1 1 1 0.049936034436278851 1 1 1 1 1 1 0.056298827973589129 1 1 1 0.056103991665706496 1 1 0.051174562637950699 1 1 1 0.045572827282514189 1 0.054849911284492091 0.051393987840323951 1 1 1 1 1 1 1 1 1 0.046650309398977796 1 1 1 1 1 1 1 0.050136666230999535 1 0.05008094876611914 1 0.050039729356093451 1 1 1 1 1 1 1 1 1 1 1 1 1 1 1 1 1 1 1 1 1 1 1 1 1 1 1 1 1 1 1 1 1 1 1 1 1 0.0607399661199476 1 1 0.060897428698217695 0.044953831001934494 1 1 1 1 0.043942385229795752 1 1 1 1 1 0.060756830143035706 1 1 0.049978563101848797 0.079789290383584441 1 1 1 1 1 1 0.062428157321760436 1 0.050014021193257409 1 1 0.044647544132031487 0.049919572209557311 1 0.059207313955235347 1 1 1 0.051269953789713135 1 1 1 1 0.051589884950963179 1 1 1 0.047113622561003855 1 1 0.061552947343869395 0.049874447632780788 1 1 1 0.053006245052792098 1 1 1 1 0.050392948348820882 1 1 0.050962001462034591 1 1 1 0.055700578593629757 1 1 0.05418042584129127 1 1 1 0.064803926597192724 1 0.064811221459154314 1 1 0.04874340302971307 1 1 0.057317746188248447 0.049967420885750652 1 1 0.059918862921997079 1 0.049932139388116775 0.05684383576283597 1 1 1 1 0.076212940504602533 1 1 1 1 0.080603361815265478 1 1 1 1 1 1 1 1 1 1 1 1 0.048938781468862123 1 1 1 1 0.049998165946920123 1 0.061290191153488216 1 1 1 1 1 0.063071267466413644 0.049997093593877086 0.050036452151473287 1 1 1 1 1 1 1 1 0.058820856957344417 1 1 1 1 1 1 0.04742965756136517 1 1 1 1 0.044253541079758069 1 1 1 1 1 1 1 1 1 1 1 1 1 1 1 1 1 1 0.052086595237676919 1 0.084768896698137683 1 1 0.04671199223640185 0.074266575993908096 1 0.06462801607537054 1 1 0.051307722729182159 1 0.049586959012465154 1 0.048736688362481059 1 0.050573904341958451 1 1 1 1 0.050170923948482896 1 1 1 0.051481929856130954 1 1 1 1 1 1 1 1 1 1 1 1 1 1 1 1 1 1 1 1 1 1 1 1 1 0.050242516066029447 1 1 1 1 1 0.061407635713195664 1 1 1 1 1 1 1 1 1 1 1 0.05054302594825856 1 1 1 1 1 0.050084972409439557 1 1 0.045844110426819781 0.065709937854446079 1 1 1 0.054895014289132807 1 1 0.050120915752478332 0.055265924218864615 1 0.063317075348707716 1 1 1 1 1 1 1 1 1 1 1 1 1 1 1 1 0.05058202822112319 1 1 1 1 0.050043097312709443 1 1 1 1 1 1 1 1 0.050303202241841607 0.05026969879131471 1 1 0.050015912088403336 1 1 1 1 1 1 1 1 1 0.050204569763044118 0.050180301448402936 1 1 0.049999721365605251 1 1 1 0.049986218531881219 1 1 1 1 1 1 1 1 1 1 1 1 1 1 1 1 1 1 1 1 1 1 1 1 1 1 0.050167092863487361 1 1 1 1 1 1 1 1 1 1 1 1 1 1 1 1 1 1 1 1 0.04628067948706064 1 1 1 0.057661510511318625 0.050000974321913465 1 1 1 0.040971461592816991 1 1 0.049619337635690638 1 1 1 1 1 0.051142179237247995 1 0.055894569776796105 1 1 1 1 1 1 1 1 0.048510140861245034 1 1 1 0.047465531534441108 1 1 0.049205257547024372 1 0.050001162578821062 1 1 1 0.054683749268283552 1 1 1 0.063126926335486444 1 1 1 1 1 1 1 1 1 1 1 1 1 1 1 1 1 0.068085970454083891 1 1 1 1 1 1 1 1 1 0.0528477170998288 1 1 1 1 1 1 1 1 0.069525029726044171 1 1 1 1 1 1 1 1 1 1 1 1 1 0.04997935240520035 1 1 1 0.048675905339327433 1 1 1 1 1 1 1 1 1 1 1 1 1 1 1 1 1 1 1 0.057678757284741269 1 1 1 0.052386600096216041 1 0.050037993325461078 1 1 1 0.047227517003795086 1 1 1 0.049974255275929622 0.061536250629173617 1 1 1 1 1 1 1 1 1 1 1 1 1 1 1 1 1 1 1 1 1 1 0.05117753734545713 1 1 1 1 0.052534482951869355 1 1 1 1 0.051356945606412213 1 1 1 1 1 1 1 0.054492017392352612 1 1 1 1 0.052957735718001303 1 1 1 1 1 1 0.051054790436870542 1 1 1 1 1 1 0.050540289296006777 1 1 1 0.050239466049877612 1 1 1 1 1 1 1 1 1 0.050901245143693062 1 1 1 1 1 1 0.05224266428288675 1 1 1 1 1 1 1 1 1 1 1 0.049994705905901424 1 1 0.044239452537626442 1 1 1 1 1 0.050383731526693329 1 1 0.053684287446671773 1 1 1 1 1 1 1 0.045518862389050882 0.065476106859332722 1 1 1 1 0.069410664464974889 1 1 1 1 1 1 0.049996053246205985 1 1 1 1 1 1 1 1 1 1 0.046958898004114125 1 1 1 1 1 1 1 1 1 1 1 1 0.047554310102260175 1 0.050116436484740311 1 1 1 0.02993454280652369 1 1 0.084941414664242584 1 1 1 1 0.031394170970100395 1 1 1 1 1 0.086026569015329721 1 1 1 1 1 1 1 1 0.083488226009560032 1 1 1 1 0.048357463018522034 1 1 1 1 1 1 1 0.049435191991482136 1 1 1 1 1 1 1 1 1 1 0.048612406447156226 1 1 1 0.050993218547475447 1 0.050960149157191811 1 1 1 1 1 1 0.048746301647476037 1 0.053193914453896735 1 0.050119528277163372 1 1 1 1 0.048352264759119565 1 1 1 1 1 1 1 1 1 1 1 1 1 1 0.051218041921185925 1 0.02787681289792783 1 1 1 1 1 1 1 0.04963253491491873 1 1 1 1 1 1 1 1 1 1 1 1 1 0.033535925758985979 1 1 1 1 0.039589656319490213 1 1 1 1 1 1 1 1 1 1 1 1 1 1 1 1 1 1 1 1 1 1 1 1 0.049532534485259398 1 1 1 1 0.076174179413391482 1 1 1 0.05001655938346692 1 1 0.050014318403724209 1 1 0.049989112804188759 1 1 1 1 1 1 1 1 1 1 1 1 1 1 1 0.049999687792377026 1 1 0.049969209218329709 1 1 1 1 1 1 1 0.047760910201327396 1 1 1 1 1 0.047286874391804026 1 1 1 0.057051575978831238 1 1 1 0.059286231355938634 1 1 1 1 1 1 1 0.058679640613112441 1 1 1 0.04935062787644607 1 0.052084061491679587 0.050210244511972424 1 1 1 1 1 0.050250579185078269 1 1 1 1 1 1 1 1 1 1 0.058389650930560658 1 1 1 1 1 1 1 1 1 1 1 1 1 1 1 1 1 1 1 1 1 1 1 1 1 1 1 1 1 1 1 1 1 1 1 1 1 0.050000717519533597 1 1 1 1 1 1 1 1 1 1 1 1 1 1 1 1 0.049985074523721432 1 1 1 1 1 1 1 1 1 0.050000707316648213 1 1 1 1 1 1 1 0.049995961719532689 1 1 1 1 1 1 1 1 1 1 1 1 1 1 1 1 1 1 1 1 1 0.054447718643363202 1 1 1 1 1 1 1 1 1 1 1 1 1 1 1 1 1 0.055016859194558496 1 1 1 1 1 1 1 1 1 1 1 1 1 1 1 1 1 1 1 1 1 1 1 1 1 1 1 1 1 1 1 1 1 1 1 1 1 1 1 1 1 1 1 1 1 1 0.053845098902837341 1 1 1 1 1 1 1 1 1 1 1 1 1 0.05496085347232528 1 0.049951134259308666 1 1 1 1 1 0.04984075939953448 1 1 1 1 1 0.050824696708486161 0.05116453599905816 1 1 1 1 1 1 1 1 1 1 1 1 1 1 1 1 1 0.049461726562719306 0.054865343620903152 1 1 1 1 1 1 0.050310691408156791 1 0.054644280263770204 1 1 1 1 1 1 1 1 1 0.05327058287676982 1 1 1 1 1 1 1 1 1 1 1 1 1 1 1 1 1 1 1 0.051652373036053523 1 1 1 1 1 0.049474207644517369 1 0.048822418274574154 1 1 1 1 1 1 1 0.048621982650002019 1 1 1 0.049348210630056795 1 1 1 0.045439531198898896 1 1 0.045609065379923527 1 1 1 0.074361825569558226 1 1 0.067549931431064095 1 0.079877821338436128 1 0.080539323750814046 1 1 0.064518756502339375 1 1 1 1 1 1 1 1 1 1 1 1 1 1 1 1 1 1 1 1 1 0.050123553247062365 1 0.08063064065267439 1 1 1 1 1 1 1 0.080479260417179954 1 1 1 1 1 1 1 1 1 1 1 1 1 1 1 1 1 1 1 0.050363019296939981 1 1 1 0.050623464579004643 1 1 1 1 1 1 1 1 1 1 0.0531752089275071 1 1 1 1 0.056770143796498335 1 1 0.05116906532376124 1 1 1 1 1 0.058127521473679604 1 1 1 1 0.048327623076797138 1 0.052538810353174481 1 1 0.076618977707633915 1 1 1 1 1 1 1 0.073868931242270369 1 1 0.052489020133293658 1 0.069067064611245566 1 1 1 1 1 1 1 1 1 1 1 1 1 1 1 1 1 1 0.052756460627214466 1 1 1 1 1 1 1 0.050058001716541123 1 1 1 1 0.053065071260113589 1 1 1 1 1 1 1 1 1 0.0505456007447566 1 1 1 1 0.056351395496205679 1 1 1 1 1 1 1 1 1 1 1 1 0.049110922569702842 1 1 1 1 1 1 1 1 1 0.064604261745468905 1 1 1 1 1 1 1 1 1 1 1 1 0.057154663468669681 1 1 0.051734812979124974 1 1 1 1 1 1 1 1 1 0.050590905994207257 0.081625520029988796 0.066213541416839355 1 1 1 0.050004494717327999 1 1 1 1 1 1 0.067928866125336412 1 1 1 0.049738784678945547 0.049749372127719148 1 1 1 1 1 1 1 1 1 1 1 1 0.071602310041851663 1 1 1 0.050229597911001345 0.044192227463449203 1 1 1 1 1 0.046408151545485068 1 1 1 1 0.0579591600378122 1 1 1 1 0.05011444220677988 1 1 1 1 1 0.077777717093145182 0.055386115241716855 0.052217501903604892 1 1 1 0.04810984215778507 0.044270891778184961 1 1 1 1 1 1 1 1 1 0.075349659674566527 0.050104031918309908 1 1 1 0.050327384978591135 0.050260448094825827 1 1 1 1 1 1 1 1 1 1 1 1 1 1 1 1 1 0.076039275704631898 1 0.076668519643465965 1 1 1 1 0.068016434524579436 1 1 1 1 1 1 1 0.067704994858482206 1 1 1 1 1 1 1 0.077425362478343585 1 1 0.052061920894108694 1 0.066202576626915866 0.054134939165976025 1 1 1 0.05317384729854633 0.050015875125146624 1 1 1 0.049839584615250884 0.054124530839481891 1 1 1 1 1 1 1 1 1 1 0.052221513587248816 1 1 1 1 1 1 1 0.057958608738727345 1 1 1 1 0.05632532926957734 1 1 1 1 1 1 0.069873489369235847 1 1 1 1 0.051636649625992431 1 0.064242682361005526 1 1 1 1 1 1 1 1 1 1 1 1 1 1 0.066637942907399342 1 1 1 1 1 1 1 0.072572931713212982 1 1 1 1 0.050086962547649175 1 1 1 0.044564436078782729 1 1 1 1 1 1 1 1 1 1 1 1 1 1 1 1 1 1 1 1 1 1 0.047008802935743194 1 0.049126315927494474 1 1 0.04963246027245137 1 1 1 0.048775699395742229 1 1 0.048521527990859174 1 1 1 1 1 1 1 1 1 1 1 1 1 1 1 1 1 1 1 1 0.049759657325536409 0.04774101299708311 0.048303324165749548 1 1 1 1 1 1 1 1 1 1 1 1 1 0.054759640474896093 1 1 1 0.053001557967318716 1 1 0.0519280174772037 1 1 1 1 0.051759632669358291 1 1 0.059258619409826629 0.047903918576998078 1 1 1 1 0.04994003296109379 1 1 0.050321008748254147 1 0.050113283447982014 1 1 1 1 1 1 1 1 1 1 1 1 0.054891212368435513 1 1 1 1 1 1 1 0.050816625332827631 1 0.049355045094073749 1 1 1 1 0.053401417078207648 1 1 1 1 1 1 1 1 1 1 1 1 1 1 1 1 1 1 1 1 1 1 1 0.051939084758273975 1 1 1 0.049235801162689309 1 0.055488018617460957 1 1 1 0.046529215326603826 1 1 1 1 1 0.049938126151010093 1 1 0.058029066564390622 1 1 1 1 1 1 1 1 0.051379050382876053 1 1 1 1 1 0.050834992469950081 1 1 1 1 1 1 1 1 1 1 1 1 1 1 0.053404168861689243 1 1 1 1 0.053354349475586996 1 1 1 1 1 1 1 1 1 1 1 1 0.050187689450417447 1 1 1 1 0.050492081030439777 1 1 1 1 1 1 1 1 1 1 1 1 1 0.050430318326762896 1 1 0.05050027137901747 1 1 1 0.051428869768978307 1 1 1 1 1 1 1 1 1 1 1 1 1 0.051485643697705502 0.054322747162056859 1 0.046267318340217294 0.052558259707695509 1 1 1 0.047751937342422404 0.059090570044735086 1 0.043873285422714688 1 0.051711182014968896 1 0.055372026886501821 1 1 1 0.04584859447297681 1 0.0503280868029434 1 1 1 1 0.054232184633839955 1 1 1 1 1 1 0.050195679003362192 1 1 1 1 1 0.059845022332578129 1 1 0.049998250148218668 1 1 0.054598522725137849 1 1 0.050010950272839555 1 1 1 1 1 0.059546263835841537 1 0.060831043233797254 1 1 1 1 1 1 1 1 1 1 1 1 1 0.050638748359014177 1 1 0.050186020912012227 1 1 1 1 1 1 1 1 1 0.052389264028230284 1 1 1 1 1 1 1 1 1 0.051497957697913266 1 1 0.050689690821465197 1 0.048926741384444396 1 1 1 1 1 1 1 0.061928039672291574 1 1 1 1 1 1 1 0.054036752066833262 1 0.063057914764949041 1 1 0.062778575115601393 1 1 1 0.050286430324850716 1 1 1 1 0.050755302054601596 1 1 1 1 1 0.049986766984873379 1 1 1 1 1 1 1 1 1 1 1 1 1 1 1 1 1 1 1 1 1 0.051607478987990341 1 1 0.051680596349628689 1 1 1 0.05091993063834762 1 1 1 1 0.050565198392078105 1 1 1 1 1 1 1 1 1 1 1 1 1 1 1 1 1 1 1 1 1 1 1 0.053114271454369158 1 1 1 1 1 1 0.058526347968804349 1 1 1 1 1 1 1 1 1 1 1 1 1 0.049949540718905658 1 0.070219909038358494 1 1 0.046665334232817726 1 1 1 1 0.048828661980511771 0.05301431077149539 1 0.051521632896676176 1 0.050933667964564944 1 1 1 1 1 0.044806358747917906 1 1 0.092969865063273066 0.095108646867048452 1 1 1 1 1 0.032212836202600015 1 1 0.050001911414314287 1 1 1 1 1 1 1 1 0.068818967352076182 0.031582777371781966 1 1 1 0.055248960041720419 1 0.049969220952939368 1 1 1 1 1 0.047414237512359084 1 0.033491493874149937 1 1 1 1 1 0.048402154754407137 0.047952071539508714 1 1 1 1 0.050065392428596561 1 1 1 1 0.049427145060865318 1 1 1 1 1 1 1 1 1 1 1 1 1 1 1 1 1 0.051027324620722292 1 1 0.050382823941660132 1 1 1 0.050142992528723909 1 1 1 1 1 1 1 1 1 1 1 1 1 1 1 1 1 1 1 0.050745849696953393 1 1 1 1 1 1 1 1 1 1 1 1 1 1 0.049920592066872091 0.049757689867014343 1 1 1 0.050119099646191358 1 1 1 1 1 0.051048462188593408 1 1 1 1 1 1 1 1 1 1 1 0.05023273828433359 1 1 0.050089745755609663 1 1 1 1 1 1 1 1 1 1 0.068971777925360092 1 1 1 0.056281780261766771 1 0.055002086086195105 1 0.053460022778284988 1 1 1 0.050009074284813541 0.057660634614121839 1 0.070629222286294452 1 1 0.05105377849787765 1 1 0.052455971415405686 0.070590979892363098 1 1 1 0.057874997990624233 1 1 0.054349988915062028 1 0.058792814491908832 1 1 1 0.057019112151202908 1 1 0.057130285508112492 0.055279390890976568 1 0.055674494428011603 1 1 0.06376758228210784 1 0.052581879743833035 1 1 1 1 1 1 1 1 1 0.050718164264525072 1 1 1 1 1 0.048879023888873246 1 1 1 1 1 1 1 1 1 1 0.060559685792972356 1 1 1 1 0.054909358590362708 0.057311101463846249 1 1 0.049557318967229431 1 0.051685390175494846 1 1 1 1 1 0.04451018188447433 1 1 0.063204785432361993 1 0.050039359996777659 1 1 1 1 1 1 1 0.063477382429475274 1 1 1 1 1 1 1 1 1 0.048599487298338635 1 0.050018715649875721 1 0.049978751967632545 1 0.061529231157668646 1 1 1 1 0.050088660894534759 1 1 1 1 1 0.050237471345765297 0.054849619983780178 1 1 1 1 1 1 0.049706108517341557 1 1 1 1 1 0.062313562276109055 1 1 1 1 0.047474113269327801 1 1 0.056411465411308884 1 0.076459239502577978 1 1 1 0.05684794306694399 1 0.047778422271838053 1 1 0.050588208359034145 0.050003099477535035 0.047433971467849174 1 1 1 1 1 1 0.050005825981293828 0.053765486960012626 0.049026327545867242 1 1 1 1 0.051130898545388104 1 0.050009122190519777 1 0.051902037354929993 1 1 1 1 1 1 0.050009849144255915 1 1 1 1 1 1 1 1 1 1 1 1 1 1 1 1 1 1 1 1 1 1 1 1 1 1 1 1 1 1 1 1 1 1 1 1 1 1 1 1 1 1 1 1 1 1 1 1 1 0.052554203988963738 1 1 1 0.057809863935843281 0.049946790443858982 1 1 1 1 1 1 1 1 1 1 1 1 1 1 1 1 1 1 1 0.048933460274046305 1 1 1 1 1 1 1 0.049957270343239053 1 1 0.052679917014136886 1 1 0.054177990202154025 1 1 0.049589065078701845 1 0.056336163849356545 1 1 0.058445333434093992 1 1 1 0.05003287886895727 1 0.058071023942358926 1 0.050716850008122809 0.060526886842552738 1 1 1 0.060861071646592137 0.049901766464739185 1 1 0.060060324951148547 1 1 0.060866200927648377 1 1 1 1 1 1 1 1 1 1 1 1 0.062304338896151848 1 1 1 1 0.062116479043814815 1 1 1 1 0.060168013008574286 1 1 1 1 1 1 1 1 1 0.050165562676945955 1 0.050002839444930773 1 1 1 1 0.048365543152825291 1 1 1 0.048398003380167288 1 1 1 1 1 1 0.04632417305782955 1 1 0.050308289450197649 1 1 1 0.060073059802538187 1 1 1 1 1 1 1 0.046268599815436073 1 1 1 1 1 0.048157989174700905 1 1 1 1 1 1 1 1 1 1 1 1 1 1 1 0.043590827552340873 1 1 1 1 1 0.048825251117603649 1 1 0.052128736916142067 1 0.048444872788967745 1 1 1 1 0.049084805013592622 0.050256121532077043 1 1 0.057008949821040017 1 1 1 1 1 1 1 1 1 1 1 0.050178485424643829 1 0.05177522687738069 1 1 1 1 1 0.050538033175176134 1 1 1 0.050937415980481709 1 1 1 0.051293489266288635 1 1 1 1 1 1 1 1 1 1 1 1 1 0.071817956439356234 1 1 1 1 1 1 1 0.054401125800848049 1 0.05422970485580797 1 1 1 1 1 1 1 0.049713643092261013 0.056668567434972221 1 1 1 1 1 1 1 1 1 0.050827741286271461 1 1 1 1 1 1 0.060715574595371427 0.054266906585550855 0.04997416854978716 1 0.056521799895990973 1 1 1 1 1 1 0.062704705143783207 1 0.050264514109103889 1 0.051375284736778826 1 0.053474348262541785 1 1 1 1 1 1 0.052964404522788985 1 1 0.050075400818763917 1 1 1 1 0.050385637998608221 1 1 1 1 1 1 1 1 1 1 1 1 1 1 1 1 1 1 1 1 1 0.096706393046817649 1 0.049302452893698265 1 1 1 1 1 1 1 1 1 1 1 1 1 1 1 1 1 1 1 1 1 1 1 1 1 1 1 1 1 1 1 1 1 1 1 1 1 1 1 1 1 1 1 1 1 1 1 1 1 1 1 1 1 1 1 1 1 1 0.049675581901142261 1 1 1 1 1 1 1 1 1 1 1 1 1 1 1 1 1 1 1 1 1 1 1 0.050151519679520543 1 1 1 0.047748897833005594 1 0.050465479487238618 1 1 1 1 1 1 1 1 1 1 1 1 1 1 1 1 1 1 1 1 1 1 1 1 1 1 1 1 1 1 1 1 1 1 1 1 1 1 1 0.0488966230872592 1 0.04988534186986001 1 1 1 1 1 1 1 1 1 1 1 1 1 1 1 1 1 1 1 1 1 1 1 1 1 0.056432816299976887 1 1 1 1 1 1 1 1 1 1 1 1 1 1 1 1 1 1 1 1 1 1 1 1 1 1 1 1 1 1 1 1 1 1 1 1 1 1 1 1 1 1 1 1 1 1 1 1 1 1 1 1 1 1 1 1 1 1 1 1 1 1 1 1 1 1 1 1 1 0.062680426704590397 1 1 1 1 1 1 1 0.059856483618965367 1 1 0.049900428126303228 1 1 1 1 1 1 1 1 1 1 1 1 1 1 1 1 1 1 1 1 0.066718576660382986 1 1 1 1 1 1 1 1 1 1 1 1 1 1 1 1 1 1 1 1 1 1 1 1 1 1 1 1 1 1 1 1 0.050009225141502973 1 1 1 1 0.051772655108326432 1 0.049675229775058782 1 1 1 1 1 1 0.050164680116416199 1 1 0.050538500084849058 1 1 0.049666366120515407 0.050000803360048786 1 0.050002325072361901 1 1 1 0.050020619138565925 1 1 1 1 1 1 1 1 1 1 1 1 1 1 1 0.049515564726168526 1 1 1 1 1 1 1 1 0.049423203129683943 1 1 1 1 1 1 1 1 1 1 1 1 1 1 1 1 1 1 1 1 1 1 1 1 1 1 1 1 1 1 1 1 1 1 1 1 0.063503579034381474 1 1 1 1 1 1 1 0.041595288565241743 1 1 0.048146292101540866 1 0.064508990788420206 1 1 1 1 1 1 1 1 1 1 1 0.049999627276205508 0.049979732573006488 1 1 0.049187750128283497 1 1 0.049813943010811421 0.050063438788586601 1 1 1 1 0.051129868619166172 1 0.048303786591005517 1 1 0.05156791289183249 1 0.050218162122661579 0.048841177197589479 1 0.054780129538574474 1 0.062867606007244212 1 1 1 1 1 1 1 0.049892646495898259 1 0.050004996737272996 1 1 1 1 1 0.049937305644116872 1 1 1 0.063167445416090803 1 1 0.049366867911491183 1 0.04539544376286378 1 0.04741000448256566 0.054131642819196829 1 1 0.049767206815960016 1 1 1 1 1 1 0.052384811458784403 1 1 1 1 1 1 1 1 0.040220513959982773 0.049870183954895404 1 1 1 0.047709481194275073 1 1 1 1 0.061631313808255067 0.037912019051551137 1 0.04296122196995629 1 1 1 0.047710747310669752 1 1 1 1 1 1 1 1 1 1 1 1 1 1 1 1 0.03744680934468779 1 1 1 1 1 1 0.052697592353288331 1 0.057841437652103228 1 1 1 0.052311644680193073 0.061697776459846879 1 1 0.049957067406222827 1 0.050264497062532047 1 1 1 1 1 1 1 1 1 1 1 1 0.050084972746497536 0.049988641997763213 1 1 1 1 1 0.04558431246402906 1 1 1 1 1 1 1 0.048791136554002669 1 1 1 0.050002827807684516 1 0.0565112145848558 1 1 0.049980641272609039 1 1 1 1 1 1 1 1 1 0.041687484788599766 1 1 0.046952956811208688 1 1 1 1 1 1 1 1 1 1 1 0.051515211411839124 1 1 1 1 1 1 1 1 1 1 1 1 1 1 1 1 1 1 1 1 1 1 0.056103910835340345 1 1 1 1 1 1 1 1 1 1 1 0.067622373818319453 1 1 1 1 0.078313606056416352 1 1 1 1 1 1 1 1 1 1 1 0.050832411024300993 1 1 1 1 1 0.052668360030804023 1 0.049800956393836249 1 1 1 1 1 1 1 1 1 0.088518678012457219 1 1 0.097859917881633382 1 1 0.029158984576598771 1 1 1 1 0.05578560159222451 1 1 1 1 1 1 1 1 1 1 1 1 1 1 1 1 1 1 1 1 1 0.032415128968291906 1 1 0.066908943601166074 1 0.043794180074479314 1 1 1 1 1 1 1 1 1 0.063093425710518403 1 1 0.043649902434810949 0.058329347812543841 0.053116266735818513 1 1 1 0.053440450653312668 1 1 1 1 1 1 0.051457710458734526 0.05044471377126121 1 0.040044130142880052 1 1 0.040783448367505859 1 1 0.062988564948372197 1 1 1 1 0.062551047383871114 1 1 1 1 0.056737222509914885 1 1 1 1 1 1 1 1 1 1 1 0.05377867122732162 1 1 0.049487556583303519 1 0.057809894154206315 0.049739128262793919 1 1 0.049987161230655462 0.054507189215995663 0.046644169349356404 1 1 1 1 1 1 1 1 1 1 0.052048001457493151 1 1 1 1 1 1 1 1 1 0.065445856030972041 1 1 1 1 1 0.055574362273393615 1 1 1 1 1 1 1 1 1 1 0.050983751139082323 1 1 1 1 1 1 1 1 1 1 1 1 1 1 1 1 1 1 1 1 1 1 1 1 0.063319958493582629 0.048990002938154802 1 1 1 1 1 1 1 1 0.055429523167019309 1 1 1 1 1 1 1 1 1 1 1 1 1 1 1 1 0.050958714846703286 1 1 1 1 0.050544855094104224 1 1 1 0.05242319759008815 0.051132161352000841 1 1 1 1 1 1 0.051144493935606924 1 0.051808303987021714 1 1 1 0.053942592417546426 1 1 1 1 1 1 1 1 0.049018553145730177 1 0.049721155515510207 0.055355579650594205 1 1 1 1 1 1 1 1 1 1 1 1 0.051294742498343995 1 1 0.052161433758372455 1 0.050547737240544899 1 1 1 1 1 1 1 1 1 1 1 1 1 1 1 1 1 1 1 1 1 1 1 0.050747531070129484 1 1 1 1 1 0.091577817319253824 1 1 1 1 1 1 1 1 1 1 0.051820620422655776 1 1 1 0.05048972653369984 1 1 1 1 1 1 1 1 1 1 1 0.049672089194763416 0.08178141604824829 1 1 1 1 1 0.072412887701987269 1 1 1 0.048283760984205157 1 1 1 1 1 1 1 1 1 1 0.052974461947604017 1 1 1 1 1 1 1 0.050450126936757808 0.039747751329341413 1 0.084291717212952727 1 1 1 1 0.052520043744124306 1 1 1 1 1 0.056404552099162814 1 1 1 1 1 1 1 1 1 1 0.049971442847722446 1 1 1 1 1 1 1 1 1 1 0.063171274872088096 1 1 1 1 1 1 1 0.054192285833543997 1 1 1 1 1 1 1 1 1 1 1 1 1 1 1 1 1 1 1 1 0.050543754201573574 1 1 1 0.051145338403882516 1 1 1 1 1 1 1 1 1 1 1 1 1 0.04937877108402422 1 0.050373946685155949 0.057983958473123015 1 0.047782148088794857 0.067343575517297499 1 1 1 1 1 0.049995029967136062 1 1 1 1 1 1 1 0.054922078178854424 1 1 0.066695356896518218 1 1 0.047954170889813512 1 1 0.061132723888592561 1 1 0.050255374031465315 0.057671941365025431 0.047979258740776638 0.049380335209611333 1 1 0.053545904658569357 0.05657008724840306 1 1 0.068528129038246496 1 1 0.047719426051763929 1 1 1 1 0.057705080035675559 0.068945997404794318 0.049854242654514443 0.077101306848157178 1 1 1 0.049958354364521125 1 0.053444743170176591 1 0.065063471184292121 1 0.049659988674481133 0.068853345714290012 1 1 1 1 1 1 1 0.053825463208776569 1 1 0.10056184717745001 1 0.049627894842249845 1 1 0.071159520538392335 0.030870208156033078 1 1 1 1 1 1 1 1 1 1 1 1 1 1 1 1 1 0.04900775397633815 1 1 1 1 1 1 1 1 1 1 1 1 1 1 1 1 1 0.047183940049199194 1 1 1 1 1 1 1 1 1 1 1 1 1 1 0.050930676745423023 0.047256546638289564 1 1 1 1 0.049989890932884452 1 0.047883115267605039 1 1 1 0.051771413155934407 0.053006732488729037 1 0.050858964087606429 1 1 1 1 1 1 1 1 1 1 1 1 1 1 1 1 1 1 1 0.048526793160726514 1 0.049731982199050721 1 1 1 1 0.050288465997626222 1 1 1 1 1 1 1 1 1 1 1 1 1 1 1 1 1 1 1 1 0.049710392887750761 1 1 1 1 1 1 1 1 1 1 1 1 1 1 0.05044689522532729 1 1 1 1 1 1 1 1 1 1 1 1 1 1 1 1 1 1 1 1 1 1 1 1 1 1 1 1 1 1 1 1 1 1 1 1 1 1 1 1 1 1 1 1 1 1 1 1 1 1 1 1 1 1 1 1 1 1 1 1 1 1 0.056685007128334283 1 1 1 0.054676014518481912 1 1 0.052711071247547286 1 1 1 1 1 1 1 1 1 1 1 0.051964943270934628 1 1 1 1 0.046917423275220568 1 1 1 1 1 1 1 1 1 1 1 1 1 1 1 1 1 1 1 1 1 1 1 1 1 1 1 1 1 0.053560096765330849 1 1 1 1 0.053569440577470602 1 1 1 1 1 1 1 1 1 1 0.058916116728889099 1 1 0.071693489901586027 1 1 1 1 1 1 1 1 1 1 1 1 0.049899233589187894 1 1 1 1 1 1 1 1 0.077308230001745748 1 1 1 1 1 1 1 1 1 1 0.056976651504249187 1 0.052265540100251265 1 1 1 0.063107263169215541 1 1 1 0.049286803574303879 1 0.067025706132024701 1 0.057802741572833702 0.049875867840332329 1 1 1 1 1 0.057239529258888019 1 1 1 1 1 1 1 1 1 1 1 1 1 1 1 1 1 1 1 1 1 1 1 0.051612243435502754 1 1 0.081912875705018054 1 1 1 0.050829493424795272 1 0.07999545007508041 1 1 1 1 1 1 1 1 1 1 1 1 0.050246358218089537 1 1 1 1 1 1 1 1 1 1 1 1 1 1 1 1 1 1 1 0.059844312906274927 1 1 1 1 1 1 1 1 1 1 1 1 1 1 1 1 1 1 1 1 1 1 1 1 1 1 1 0.054248896500166219 1 1 1 1 1 1 1 1 1 1 1 1 1 1 1 1 1 1 0.061125801421917633 1 1 1 0.059789191773693781 1 1 1 0.052473663957504225 0.051980937621470817 1 1 1 1 1 0.053658349309901446 1 1 1 1 1 1 1 0.057653120704099177 0.057480155910941827 1 1 1 0.053395087816439576 1 0.052379525410959325 1 1 1 1 1 1 0.058596797389947011 0.052594296232073352 1 1 0.065091916624775398 0.061661695051739407 1 1 1 1 1 1 1 1 1 1 0.04996300393717075 1 1 1 1 1 1 0.0506540235019666 1 1 1 1 1 1 1 1 1 1 1 1 1 1 1 1 1 0.050080977391452002 1 1 1 1 0.055468136742908479 1 1 0.050247890901001367 1 1 1 1 1 1 1 1 1 1 1 0.064018253227459437 1 0.062436258286640539 1 0.061795193888522608 1 1 1 1 1 1 1 1 1 1 1 1 1 1 1 1 1 1 1 0.050573622598867093 1 1 0.051528927880677609 1 1 1 0.050008879586433505 1 1 0.051790424407055641 1 1 1 1 0.052011119515096009 1 1 1 1 1 1 1 0.053893830824387118 1 1 1 1 1 1 1 1 1 1 1 1 1 1 1 1 1 1 1 1 1 1 1 1 1 1 1 1 1 0.058931844806280831 1 1 1 1 1 1 1 1 1 1 1 1 1 1 1 1 1 1 1 1 1 1 1 1 1 1 1 1 1 1 1 1 1 1 1 1 1 0.064212660216609138 0.043792307511718115 0.056626608279641687 1 1 0.081478987806610698 1 1 1 0.050705202550028895 1 0.050109656571443763 1 1 1 1 1 0.049679655883566057 1 1 1 1 1 1 1 0.084958791228151864 1 1 1 1 1 1 1 1 1 1 1 1 1 1 0.041897865124606019 1 1 1 0.049808220749023142 1 0.088803340346633175 1 1 1 1 1 1 1 1 0.039471835773757992 1 1 1 1 1 1 1 0.049996303035964529 1 0.050049311008081653 1 0.077724934662024903 1 1 1 1 1 1 1 1 0.051260256191657139 1 1 0.059817301583491397 0.042667800654805015 0.048820585425056073 1 0.061408357552082453 1 0.074612716119219755 1 1 1 1 1 1 1 1 1 1 1 1 1 1 1 1 1 1 1 1 1 0.061077802688151911 1 1 0.049017836202863582 0.067983875576072134 1 1 1 0.049912118814141287 1 1 1 1 1 1 1 0.047308906576407662 1 0.049243454927539024 1 1 1 1 0.050400873567638706 1 1 0.042677184386959305 1 1 1 1 1 1 1 0.040564499626839418 1 1 0.035983314011130231 1 1 1 0.032076523646668395 1 1 1 1 1 1 1 1 1 0.05004977895178922 1 1 1 1 1 1 0.071246328618602139 1 1 0.076610569044724991 1 1 1 1 0.076964223866883605 1 1 1 1 1 1 0.040513505068110259 0.043338776127753526 0.072835077185466335 1 1 1 0.050105922774802789 1 0.049999482183265692 1 0.042183978955953258 1 1 1 1 1 1 0.073328579130238158 1 1 1 0.028797219387114395 1 1 1 0.044862139037600592 1 1 1 1 1 1 1 1 1 1 1 1 0.049876080480178692 1 1 1 0.050167302816492253 1 1 1 1 1 0.049654582477488336 0.072861283604761712 1 1 0.048961278171074978 1 0.05872665479276646 0.062998487943226184 0.04907865619104252 1 1 1 0.049835514354642584 1 1 1 1 1 0.067714373030815678 1 1 1 1 1 1 1 1 1 1 1 1 0.049924349228737862 1 1 1 1 1 1 0.057110426722481504 1 1 0.056783113798813789 1 1 0.050027380145330008 1 1 1 1 1 0.050052562580744864 1 1 0.041892052044509805 1 0.050033801676283379 1 0.049957853240659149 1 1 1 1 1 1 0.049882202469397022 1 1 1 1 0.049316516063874535 1 1 1 1 1 1 1 1 1 1 0.047777795716222191 1 1 1 1 1 0.045749189284522984 1 1 1 1 1 1 1 1 1 1 1 1 1 1 1 0.050419991341495982 1 1 1 1 1 0.051230738560970171 1 0.0484590942345254 1 1 1 1 1 0.048062435272600658 1 1 1 1 1 0.051349550462343144 1 1 1 1 1 0.049475983498711781 1 1 1 1 1 1 1 1 1 1 0.063092621765395859 1 0.050008191694595437 1 0.064037762336283624 1 1 0.057429872545739516 1 1 1 1 1 1 1 1 0.066831169779630661 1 0.043993329364475989 1 1 1 1 1 1 1 1 1 1 0.063457461386493691 1 1 1 1 1 1 1 1 1 1 0.055608384853269771 1 1 1 0.057500051622329365 1 0.058030994369467861 0.081297278899931158 1 1 1 0.049888526361564316 1 1 1 0.065203817571168943 0.049586022184216157 1 1 1 1 1 1 1 1 1 1 0.055352962714193335 0.049798320812122279 1 1 1 1 1 0.052329772296542135 1 1 1 1 1 1 1 1 1 1 0.053702231753701507 1 0.058121317796923255 0.046203384046308811 0.06660871594137574 1 1 1 1 1 1 1 1 0.056249675693318707 1 1 1 1 1 1 1 1 1 1 1 1 1 1 1 1 1 1 1 1 1 1 1 1 1 1 1 1 1 0.049339874149154729 1 1 1 1 0.049872645335526364 1 1 1 1 1 1 1 1 0.049613576209249666 1 1 1 1 1 1 1 1 0.049467115573286737 1 1 1 1 1 1 1 1 1 1 1 1 1 1 1 1 1 1 1 1 1 1 1 1 1 1 0.047335535529681477 1 1 1 1 1 1 0.041541891685630043 1 0.080013898380843537 1 1 0.046814377575663139 1 1 1 0.083932869477457678 1 0.044249194820327381 1 1 1 0.050109426861391436 1 1 1 0.053265201154379563 1 1 1 1 1 1 0.050685842299942621 1 1 1 1 1 1 1 1 1 1 1 1 1 1 1 1 1 1 1 1 1 1 1 1 1 1 1 0.051438932358754186 1 0.05368073988446647 1 1 1 1 0.052241807525712253 1 1 1 1 1 1 1 1 1 1 1 1 1 0.05207732966692008 1 1 0.051690905876169826 1 1 0.058146512421928837 1 1 1 1 1 0.07137439942181599 1 1 1 1 1 1 1 1 0.045717285179235859 1 0.04059057331865866 1 1 1 1 1 0.048986805802093608 0.049989807244092452 1 1 0.053116441463757949 1 1 1 0.042086588780117486 1 1 1 1 1 1 1 0.050196144769584644 1 1 1 1 1 1 1 1 1 1 1 1 1 1 1 1 0.047713168794206479 1 1 1 1 1 0.053876180176007885 1 0.051779245482001315 1 1 1 1 1 1 1 1 1 1 1 1 0.053015109430868762 1 0.053990562258161526 1 1 1 1 1 1 0.058941326466535549 0.050918174736862193 1 1 1 1 1 1 1 1 1 1 1 1 1 1 1 1 1 1 1 1 1 0.051276413436262686 1 1 0.053707263624507728 1 1 1 1 1 0.049008171790397105 1 1 1 1 1 1 0.049965526695895948 1 1 1 1 1 1 1 1 1 1 1 1 1 1 1 1 0.050045568195844409 1 1 0.051095014205521913 1 1 1 1 0.050542049373307259 1 1 1 1 1 1 1 1 1 1 1 0.050559707443006419 1 1 1 1 1 1 1 1 1 1 1 1 1 1 1 1 1 1 1 0.054950764208373984 1 1 1 1 1 1 1 1 1 1 1 1 0.051662959448931983 1 1 1 1 1 1 1 1 1 1 1 1 1 0.049900256924553424 0.055705772293488956 1 1 1 1 1 1 0.058949631396498961 1 1 1 1 1 1 1 1 1 1 1 1 1 1 1 1 1 1 1 1 1 1 1 1 1 1 1 1 1 1 1 1 1 1 1 0.05017104563712467 1 1 1 1 1 1 1 1 0.049692000272998131 1 1 1 1 1 1 1 1 1 1 1 1 0.049737568468842523 1 1 1 1 0.053136147587229329 1 0.054770017945484681 1 1 1 1 1 1 1 1 0.049594590728308734 1 1 1 1 1 1 1 1 1 1 0.049576932658609629 1 1 1 0.044907078518310023 1 1 0.0493688101917166 1 1 1 1 0.041430286548986027 1 1 0.038314148661863709 1 1 1 1 1 1 1 1 0.048090999522740679 1 1 1 0.046786358497075436 1 1 1 1 1 1 1 0.047553532564768339 1 0.050024461910244039 1 0.058169119953047771 1 0.059982726382265011 0.050830588194941455 1 1 1 0.050237351978497269 0.049881580939562103 0.053967192357014596 1 1 0.075183392739315819 1 1 1 0.035308191537107569 1 1 1 1 0.049850525135672341 1 1 1 1 1 1 1 1 1 1 1 1 1 1 1 1 1 1 1 1 1 1 1 1 1 1 1 1 1 1 1 1 1 1 1 1 1 1 0.050136663326725658 1 1 1 1 1 1 1 1 0.047054424131302695 1 1 1 1 0.048612090335644065 1 1 0.049603686166285292 1 1 0.047339190643296433 1 1 1 1 0.049056551227251374 1 1 1 1 1 0.048750910429452787 1 1 1 1 1 1 1 1 1 1 1 1 1 0.064586489586977242 0.050026369512466612 1 1 1 0.055094599606611602 1 1 1 1 1 1 1 1 1 1 1 1 1 1 0.050355619793824365 1 1 1 1 1 1 0.051491070744032585 1 1 0.05315403019296458 1 1 1 1 1 1 1 1 1 1 0.050977094159142727 1 1 1 1 1 0.051027567802832442 1 1 1 1 1 1 1 1 1 1 0.048531828352771159 1 1 1 1 1 1 1 1 1 1 1 1 1 1 1 0.050005105840528294 1 1 1 1 1 1 1 1 1 1 1 1 1 1 1 1 1 1 1 1 1 1 1 0.049983284054332347 1 0.048379685436743945 1 1 1 0.050119947381058003 1 1 1 1 1 1 1 1 1 0.049035676941446553 1 1 1 0.047923811093012539 1 1 1 1 1 1 1 1 1 1 1 1 1 1 1 1 0.059280224290424136 1 1 1 1 1 0.048284419118133512 1 1 1 0.059085974380084394 1 0.050151927911640568 1 1 1 1 1 1 0.058363388860896342 1 1 1 1 1 1 1 1 1 1 1 1 1 1 1 1 1 1 1 1 1 1 1 1 1 1 1 0.049285093092658758 1 1 0.049890816860581444 1 1 1 1 1 1 1 0.050352934398733104 1 1 1 1 0.04993828916115256 1 1 0.049938686808134902 1 1 1 1 1 1 0.050054930665288766 1 1 1 0.050029153670841112 1 1 1 0.050029228820484134 1 1 1 1 1 0.051459810336009298 1 1 1 1 1 0.053103012555624392 1 1 1 1 1 1 1 1 0.054759597589844181 1 1 0.050059776288874945 1 1 1 1 0.050213923785927511 1 1 1 1 0.050352895690632261 1 1 1 1 0.059426417551178501 1 1 1 0.05827255594976051 1 0.049860637231381108 1 1 1 1 1 1 1 1 1 1 0.051353553033687618 1 1 1 1 1 1 1 0.053668807270131055 0.051682590295855813 1 1 1 1 1 0.058830104844891679 1 1 1 1 1 0.055658781228539567 1 1 1 0.050356704149464637 1 1 0.050050115422409377 1 1 0.062803627008043955 1 1 1 0.056154372866444119 1 1 1 1 1 1 0.050271221917569733 1 1 1 1 1 0.050092686860391533 1 1 1 1 1 0.050030461663410991 1 1 1 1 1 1 0.050166986144798476 1 1 1 1 0.082037875485273318 1 1 1 1 1 0.050313583428546603 1 1 1 1 1 1 1 1 1 1 0.073289903410186208 1 1 1 1 1 1 1 0.047253862673731856 1 1 1 1 0.049132678202915565 0.047542025724039046 1 1 0.058036080780802038 1 1 1 1 1 1 1 0.052970300558930386 1 1 1 1 1 1 1 0.091166773135919352 1 0.043804448648675644 1 1 0.064721764635297691 1 1 1 1 0.049288078049945824 1 0.066784530929283131 1 1 1 1 1 1 1 1 1 1 0.049830642676696221 1 1 1 1 1 0.050570381901489714 1 1 1 0.090910723672030125 1 1 1 1 0.049803373047524677 1 1 0.052742907745921691 1 1 1 1 1 0.063062562830145608 1 0.073420246273622564 1 0.049990005008563237 0.050642206521591668 1 1 1 1 0.068638212573875992 0.04954618408578905 1 1 1 1 1 1 1 1 1 1 1 1 1 0.049854633909467802 1 1 1 1 1 1 0.048419470424937452 0.053342977943053191 1 1 1 1 1 1 1 1 1 1 1 1 1 0.060367225060688194 1 1 1 1 1 1 1 1 1 1 1 1 1 1 1 1 1 1 1 1 1 1 1 1 1 1 1 1 1 1 1 1 1 0.049757095218564099 1 1 0.049561737132146379 1 1 1 1 1 1 1 0.049831011426048837 1 1 1 0.049748453905262238 1 1 0.043779742047114517 1 1 1 0.076699548607959925 0.050023639596924352 1 1 1 1 0.068106669458614794 0.064099411854525876 1 1 1 1 1 1 1 1 1 1 1 1 1 1 0.077579869849383365 1 1 0.050000224964860958 1 1 1 0.073047902699486009 1 1 1 1 0.049748534926922092 1 1 0.079806849285077822 1 1 1 1 1 1 1 1 1 1 1 0.094682684462242081 1 1 1 1 1 1 1 0.10791929497155334 1 1 1 1 1 1 1 1 1 1 1 1 1 1 1 1 1 1 0.049886819388518931 1 1 1 1 1 1 0.066282268045149653 1 0.050222316350781851 1 1 1 1 1 0.048846731160507473 1 1 0.049538177349929532 1 1 1 0.081450713191948965 1 1 1 0.049537121402096748 1 1 1 1 1 1 1 1 1 1 1 1 1 1 0.050436042367220414 1 1 1 1 0.051306943452963834 0.060500662941836245 1 1 1 1 1 1 1 1 1 1 1 1 1 1 1 1 1 1 1 0.051536106162920599 1 1 1 1 1 1 1 1 0.062448031873026416 1 0.062332844565923508 1 1 1 1 1 1 1 0.050015895195588758 1 0.050574907870339053 1 1 1 1 1 0.062265547574835337 1 1 1 1 1 1 0.050467476248802358 1 1 1 1 1 0.055578624272962326 0.050548241285607545 1 1 1 0.041417495277028218 0.063543915402843903 0.057101120824011288 1 1 1 1 1 0.053559884480384221 1 1 1 1 1 0.064997832652894105 1 1 1 1 0.060320466861890201 1 0.058234247039141984 0.046688561529532269 1 0.055238904821539307 0.069674578273920276 1 1 1 0.071803231944239931 1 1 1 0.058630833122532269 1 1 1 0.054056700504639038 1 1 1 0.068889690004152737 1 1 1 1 1 1 1 1 0.073666640943361006 1 1 1 0.072864509210773115 1 1 1 1 1 1 0.076213349758726484 1 1 1 1 1 1 0.075874047314735682 1 1 1 1 1 1 1 1 1 1 1 1 1 1 0.049900569483124359 1 0.053821455502955778 1 1 1 0.069595641306930814 1 1 0.049571293221374206 1 0.050338824223768522 1 0.049834906330412584 1 1 0.061939673750050661 1 1 1 1 1 1 0.050242885266433404 1 1 1 1 0.050176451786582928 1 1 1 1 1 1 0.050088112738624214 1 1 1 1 1 1 1 1 1 1 0.049969095296689685 1 1 1 1 1 1 1 1 1 1 1 1 1 1 1 1 1 1 1 0.042987048381095121 0.046273923405926808 1 1 1 0.061234786968738776 1 1 0.043504901262959986 1 1 0.061120650290920529 1 1 0.05040633380050228 1 1 0.044976365706911124 0.051602896399267545 1 1 1 1 0.061323846879388827 1 1 1 1 1 1 1 1 1 1 1 0.040933662678632465 0.059993321437604386 1 1 1 0.047225610374370897 1 0.050020051885150969 1 0.050086915079119596 1 1 1 1 1 0.050092490382878364 1 1 0.079574050127168394 1 0.042314958971387678 1 1 0.049978228545651066 0.061435334497228863 0.065955466937194146 1 1 1 1 0.064281823300384178 1 1 0.061649293095891039 1 0.072959991837183921 1 1 0.054417053704128193 1 1 1 1 1 1 1 1 0.072930862907774827 1 0.071725423351229833 0.05024079943828591 1 1 1 1 1 0.05037543479508351 0.087300156888030875 1 1 1 0.055495230045627536 0.051320121762756868 1 1 1 1 1 1 1 1 0.050023873922587184 1 0.089158156850457082 1 1 1 1 1 1 1 1 1 1 1 1 1 1 1 1 1 1 1 1 1 1 1 1 1 1 1 1 1 0.049986051996998779 1 1 1 1 1 1 1 1 1 1 1 1 1 1 1 0.04628918758107111 1 1 0.050170473004972196 1 1 1 1 1 0.049865323891097102 1 1 1 1 1 1 1 1 1 1 1 1 1 0.050305149113875083 1 1 1 1 1 1 1 1 1 0.069012289368475171 1 1 0.032665765970514397 1 1 1 1 0.049996491856729081 0.074051189627062988 0.05305486796064314 1 1 1 1 1 0.039207476970893121 1 1 1 
</DataArray>
</CellData>
</Piece>
</UnstructuredGrid>
</VTKFile>
