<?xml version="1.0"?>
<VTKFile type="UnstructuredGrid" version="0.1" byte_order="LittleEndian">
<UnstructuredGrid>
<Piece NumberOfPoints="30618" NumberOfCells="10744">
<Points>
<DataArray type="Float64" NumberOfComponents="3" format="ascii">
-0.49427958746526202 -0.49999999999999512 0 -0.4943900888896422 -0.47349089190363358 0 -0.49427958746526202 -0.49999999999999512 0 -0.5 -0.5 0 -0.4943900888896422 -0.47349089190363358 0 -0.5 -0.5 0 -0.4943900888896422 -0.47349089190363358 0 -0.5 -0.44150235328842258 0 -0.49427958746526202 -0.49999999999999512 0 -0.4943900888896422 -0.47349089190363358 0 -0.48436842240857858 -0.48714093788813112 0 -0.49427958746526202 -0.49999999999999512 0 -0.47650045540741742 -0.5 0 -0.48436842240857858 -0.48714093788813112 0 -0.4943900888896422 -0.47349089190363358 0 -0.47066899942757451 -0.47576530412887819 0 -0.48436842240857858 -0.48714093788813112 0 -0.47066899942757451 -0.47576530412887819 0 -0.47650045540741742 -0.5 0 -0.48436842240857858 -0.48714093788813112 0 -0.47066899942757451 -0.47576530412887819 0 -0.45872132334957288 -0.49999999999999928 0 -0.45242967983978871 -0.4846708604340636 0 -0.47066899942757451 -0.47576530412887819 0 -0.47650045540741742 -0.5 0 -0.45872132334957288 -0.49999999999999928 0 -0.47066899942757451 -0.47576530412887819 0 -0.45872132334957288 -0.49999999999999928 0 -0.47066899942757451 -0.47576530412887819 0 -0.45242967983978871 -0.4846708604340636 0 -0.45249717469141032 -0.46588444847215849 0 -0.43763952177061649 -0.47770500498713542 0 -0.45242967983978871 -0.4846708604340636 0 -0.45249717469141032 -0.46588444847215849 0 -0.43763952177061649 -0.47770500498713542 0 -0.44291044788006362 -0.49999999999999939 0 -0.45242967983978871 -0.4846708604340636 0 -0.43763952177061649 -0.47770500498713542 0 -0.44291044788006362 -0.49999999999999939 0 -0.45872132334957288 -0.49999999999999928 0 -0.44291044788006362 -0.49999999999999939 0 -0.45242967983978871 -0.4846708604340636 0 -0.44838221886832419 -0.4464230337388379 0 -0.4323685956611692 -0.45541000997427139 0 -0.435988539966085 -0.44148905847597392 0 -0.44838221886832419 -0.4464230337388379 0 -0.44213238819953832 -0.43491600865963681 0 -0.435988539966085 -0.44148905847597392 0 -0.44838221886832419 -0.4464230337388379 0 -0.45249717469141032 -0.46588444847215849 0 -0.45755175660874181 -0.45423607616472811 0 -0.44838221886832419 -0.4464230337388379 0 -0.45249717469141032 -0.46588444847215849 0 -0.4323685956611692 -0.45541000997427139 0 -0.43763952177061649 -0.47770500498713542 0 -0.45249717469141032 -0.46588444847215849 0 -0.4323685956611692 -0.45541000997427139 0 -0.47066899942757451 -0.47576530412887819 0 -0.45249717469141032 -0.46588444847215849 0 -0.4675747862741928 -0.45726336772241771 0 -0.45249717469141032 -0.46588444847215849 0 -0.45755175660874181 -0.45423607616472811 0 -0.4675747862741928 -0.45726336772241771 0 -0.44838221886832419 -0.4464230337388379 0 -0.46897642374787268 -0.44262015471777721 0 -0.45660235518767722 -0.42786105997071933 0 -0.44838221886832419 -0.4464230337388379 0 -0.45755175660874181 -0.45423607616472811 0 -0.46897642374787268 -0.44262015471777721 0 -0.45755175660874181 -0.45423607616472811 0 -0.4675747862741928 -0.45726336772241771 0 -0.46897642374787268 -0.44262015471777721 0 -0.4943900888896422 -0.47349089190363358 0 -0.5 -0.44150235328842258 0 -0.49450059031402238 -0.44698178380727199 0 -0.46897642374787268 -0.44262015471777721 0 -0.48473746643246862 -0.43972512984246093 0 -0.48043585850414389 -0.43127077967876992 0 -0.46897642374787268 -0.44262015471777721 0 -0.4826166755055763 -0.45153060825775743 0 -0.48473746643246862 -0.43972512984246093 0 -0.4675747862741928 -0.45726336772241771 0 -0.46897642374787268 -0.44262015471777721 0 -0.4826166755055763 -0.45153060825775743 0 -0.47066899942757451 -0.47576530412887819 0 -0.4826166755055763 -0.45153060825775743 0 -0.4943900888896422 -0.47349089190363358 0 -0.47066899942757451 -0.47576530412887819 0 -0.4826166755055763 -0.45153060825775743 0 -0.47066899942757451 -0.47576530412887819 0 -0.4675747862741928 -0.45726336772241771 0 -0.4826166755055763 -0.45153060825775743 0 -0.4943900888896422 -0.47349089190363358 0 -0.49450059031402238 -0.44698178380727199 0 -0.4943900888896422 -0.47349089190363358 0 -0.4826166755055763 -0.45153060825775743 0 -0.49450059031402238 -0.44698178380727199 0 -0.4826166755055763 -0.45153060825775743 0 -0.48473746643246862 -0.43972512984246093 0 -0.49450059031402238 -0.44698178380727199 0 -0.5 -0.44150235328842258 0 -0.49461109173840262 -0.42047267571091063 0 -0.5 -0.39656953661894012 0 -0.49450059031402238 -0.44698178380727199 0 -0.49461109173840262 -0.42047267571091063 0 -0.48473746643246862 -0.43972512984246093 0 -0.49461109173840262 -0.42047267571091063 0 -0.48043585850414389 -0.43127077967876992 0 -0.5 -0.44150235328842258 0 -0.49450059031402238 -0.44698178380727199 0 -0.49461109173840262 -0.42047267571091063 0 -0.48473746643246862 -0.43972512984246093 0 -0.49450059031402238 -0.44698178380727199 0 -0.49461109173840262 -0.42047267571091063 0 -0.49461109173840262 -0.42047267571091063 0 -0.4947215931627828 -0.39396356761454909 0 -0.49461109173840262 -0.42047267571091063 0 -0.48393842445605872 -0.40713040098299402 0 -0.4947215931627828 -0.39396356761454909 0 -0.49461109173840262 -0.42047267571091063 0 -0.48393842445605872 -0.40713040098299402 0 -0.47214510592166908 -0.41939033492402211 0 -0.48393842445605872 -0.40713040098299402 0 -0.47214510592166908 -0.41939033492402211 0 -0.47427590700138023 -0.39469502568249409 0 -0.46897642374787268 -0.44262015471777721 0 -0.47214510592166908 -0.41939033492402211 0 -0.48043585850414389 -0.43127077967876992 0 -0.49461109173840262 -0.42047267571091063 0 -0.47214510592166908 -0.41939033492402211 0 -0.48043585850414389 -0.43127077967876992 0 -0.5 -0.39656953661894012 0 -0.4947215931627828 -0.39396356761454909 0 -0.48030453056746109 -0.36861144308094029 0 -0.49461109173840262 -0.42047267571091063 0 -0.5 -0.39656953661894012 0 -0.4947215931627828 -0.39396356761454909 0 -0.48393842445605872 -0.40713040098299402 0 -0.4947215931627828 -0.39396356761454909 0 -0.47427590700138023 -0.39469502568249409 0 -0.47427590700138023 -0.39469502568249409 0 -0.48030453056746109 -0.36861144308094029 0 -0.4947215931627828 -0.39396356761454909 0 -0.47427590700138023 -0.39469502568249409 0 -0.48030453056746109 -0.36861144308094029 0 -0.47427590700138023 -0.39469502568249409 0 -0.46334377193483078 -0.37842983215876019 0 -0.48030453056746109 -0.36861144308094029 0 -0.46334377193483078 -0.37842983215876019 0 -0.45726543839001688 -0.40541672899881109 0 -0.44416021803808919 -0.38243724496113263 0 -0.47427590700138023 -0.39469502568249409 0 -0.46334377193483078 -0.37842983215876019 0 -0.45726543839001688 -0.40541672899881109 0 -0.45726543839001688 -0.40541672899881109 0 -0.43814282409564848 -0.40387353522152758 0 -0.44416021803808919 -0.38243724496113263 0 -0.43814282409564848 -0.40387353522152758 0 -0.44416021803808919 -0.38243724496113263 0 -0.4329908326547659 -0.40007252460533121 0 -0.43814282409564848 -0.40387353522152758 0 -0.44416021803808919 -0.38243724496113263 0 -0.46897642374787268 -0.44262015471777721 0 -0.47214510592166908 -0.41939033492402211 0 -0.45660235518767722 -0.42786105997071933 0 -0.47214510592166908 -0.41939033492402211 0 -0.47427590700138023 -0.39469502568249409 0 -0.45726543839001688 -0.40541672899881109 0 -0.47214510592166908 -0.41939033492402211 0 -0.45726543839001688 -0.40541672899881109 0 -0.45660235518767722 -0.42786105997071933 0 -0.45726543839001688 -0.40541672899881109 0 -0.45660235518767722 -0.42786105997071933 0 -0.44309263043645408 -0.41812298423377797 0 -0.45726543839001688 -0.40541672899881109 0 -0.43814282409564848 -0.40387353522152758 0 -0.44309263043645408 -0.41812298423377797 0 -0.43814282409564848 -0.40387353522152758 0 -0.44309263043645408 -0.41812298423377797 0 -0.43209373842114163 -0.42530092927673752 0 -0.44838221886832419 -0.4464230337388379 0 -0.45660235518767722 -0.42786105997071933 0 -0.44213238819953832 -0.43491600865963681 0 -0.45660235518767722 -0.42786105997071933 0 -0.44213238819953832 -0.43491600865963681 0 -0.43132710435572019 -0.42815377149591122 0 -0.45660235518767722 -0.42786105997071933 0 -0.44309263043645408 -0.41812298423377797 0 -0.43132710435572019 -0.42815377149591122 0 -0.45660235518767722 -0.42786105997071933 0 -0.43132710435572019 -0.42815377149591122 0 -0.44213238819953832 -0.43491600865963681 0 -0.42986244815509678 -0.43337144475258638 0 -0.435988539966085 -0.44148905847597392 0 -0.44213238819953832 -0.43491600865963681 0 -0.42986244815509678 -0.43337144475258638 0 -0.43132710435572019 -0.42815377149591122 0 -0.42986244815509678 -0.43337144475258638 0 -0.43132710435572019 -0.42815377149591122 0 -0.42986244815509678 -0.43337144475258638 0 -0.42494843276815808 -0.42822764260015772 0 -0.42026026496879931 -0.43681168621285732 0 -0.42986244815509678 -0.43337144475258638 0 -0.42494843276815808 -0.42822764260015772 0 -0.43132710435572019 -0.42815377149591122 0 -0.42494843276815808 -0.42822764260015772 0 -0.43209373842114163 -0.42530092927673752 0 -0.42214799869492048 -0.41876725226122891 0 -0.42494843276815808 -0.42822764260015772 0 -0.43209373842114163 -0.42530092927673752 0 -0.42494843276815808 -0.42822764260015772 0 -0.43209373842114163 -0.42530092927673752 0 -0.43132710435572019 -0.42815377149591122 0 -0.42494843276815808 -0.42822764260015772 0 -0.43132710435572019 -0.42815377149591122 0 -0.44309263043645408 -0.41812298423377797 0 -0.43209373842114163 -0.42530092927673752 0 -0.43132710435572019 -0.42815377149591122 0 -0.43209373842114163 -0.42530092927673752 0 -0.43132710435572019 -0.42815377149591122 0 -0.43814282409564848 -0.40387353522152758 0 -0.43209373842114163 -0.42530092927673752 0 -0.43814282409564848 -0.40387353522152758 0 -0.43209373842114163 -0.42530092927673752 0 -0.42736227186559528 -0.41250939947999687 0 -0.43814282409564848 -0.40387353522152758 0 -0.42736227186559528 -0.41250939947999687 0 -0.42798743510346321 -0.40461924019690898 0 -0.42736227186559528 -0.41250939947999687 0 -0.42214799869492048 -0.41876725226122891 0 -0.41643936301280282 -0.409986040443582 0 -0.42736227186559528 -0.41250939947999687 0 -0.41643936301280282 -0.409986040443582 0 -0.42798743510346321 -0.40461924019690898 0 -0.43209373842114163 -0.42530092927673752 0 -0.42736227186559528 -0.41250939947999687 0 -0.42214799869492048 -0.41876725226122891 0 -0.41643936301280282 -0.409986040443582 0 -0.41319678457753078 -0.41966526467231158 0 -0.40068754056194861 -0.4128492080837643 0 -0.41643936301280282 -0.409986040443582 0 -0.40443020735863072 -0.40194112054031811 0 -0.40068754056194861 -0.4128492080837643 0 -0.42214799869492048 -0.41876725226122891 0 -0.41643936301280282 -0.409986040443582 0 -0.41319678457753078 -0.41966526467231158 0 -0.42494843276815808 -0.42822764260015772 0 -0.42026026496879931 -0.43681168621285732 0 -0.40375973713816599 -0.43690652084804732 0 -0.42494843276815808 -0.42822764260015772 0 -0.40375973713816599 -0.43690652084804732 0 -0.42494843276815808 -0.42822764260015772 0 -0.40375973713816599 -0.43690652084804732 0 -0.40176058784982421 -0.42849617997282502 0 -0.42494843276815808 -0.42822764260015772 0 -0.40176058784982421 -0.42849617997282502 0 -0.42494843276815808 -0.42822764260015772 0 -0.41319678457753078 -0.41966526467231158 0 -0.40176058784982421 -0.42849617997282502 0 -0.42494843276815808 -0.42822764260015772 0 -0.42214799869492048 -0.41876725226122891 0 -0.41319678457753078 -0.41966526467231158 0 -0.4329908326547659 -0.40007252460533121 0 -0.41903857325144328 -0.37691094697715488 0 -0.4329908326547659 -0.40007252460533121 0 -0.4179168883199279 -0.39116430956604842 0 -0.41903857325144328 -0.37691094697715488 0 -0.4326994291400702 -0.38209416684564063 0 -0.4329908326547659 -0.40007252460533121 0 -0.41903857325144328 -0.37691094697715488 0 -0.44416021803808919 -0.38243724496113263 0 -0.4326994291400702 -0.38209416684564063 0 -0.4329908326547659 -0.40007252460533121 0 -0.4326994291400702 -0.38209416684564063 0 -0.41903857325144328 -0.37691094697715488 0 -0.43460809261598232 -0.36895595083894339 0 -0.44416021803808919 -0.38243724496113263 0 -0.4326994291400702 -0.38209416684564063 0 -0.43460809261598232 -0.36895595083894339 0 -0.4329908326547659 -0.40007252460533121 0 -0.42169055226689678 -0.40123550737599678 0 -0.4179168883199279 -0.39116430956604842 0 -0.43814282409564848 -0.40387353522152758 0 -0.4329908326547659 -0.40007252460533121 0 -0.42798743510346321 -0.40461924019690898 0 -0.4329908326547659 -0.40007252460533121 0 -0.42798743510346321 -0.40461924019690898 0 -0.42169055226689678 -0.40123550737599678 0 -0.41643936301280282 -0.409986040443582 0 -0.42798743510346321 -0.40461924019690898 0 -0.42169055226689678 -0.40123550737599678 0 -0.40637138740796802 -0.39517449182144659 0 -0.4179168883199279 -0.39116430956604842 0 -0.40139199175968793 -0.38592718468705428 0 -0.41643936301280282 -0.409986040443582 0 -0.42169055226689678 -0.40123550737599678 0 -0.41336967967324528 -0.3999002939494784 0 -0.41643936301280282 -0.409986040443582 0 -0.41336967967324528 -0.3999002939494784 0 -0.40443020735863072 -0.40194112054031811 0 -0.41336967967324528 -0.3999002939494784 0 -0.40637138740796802 -0.39517449182144659 0 -0.40443020735863072 -0.40194112054031811 0 -0.41336967967324528 -0.3999002939494784 0 -0.40637138740796802 -0.39517449182144659 0 -0.4179168883199279 -0.39116430956604842 0 -0.42169055226689678 -0.40123550737599678 0 -0.41336967967324528 -0.3999002939494784 0 -0.4179168883199279 -0.39116430956604842 0 -0.4179168883199279 -0.39116430956604842 0 -0.40139199175968793 -0.38592718468705428 0 -0.4179168883199279 -0.39116430956604842 0 -0.41012997258942652 -0.38146265356513281 0 -0.40139199175968793 -0.38592718468705428 0 -0.4179168883199279 -0.39116430956604842 0 -0.41596140559408717 -0.38148427669336471 0 -0.41903857325144328 -0.37691094697715488 0 -0.4179168883199279 -0.39116430956604842 0 -0.41264357953851821 -0.38144664688815172 0 -0.41596140559408717 -0.38148427669336471 0 -0.4179168883199279 -0.39116430956604842 0 -0.41264357953851821 -0.38144664688815172 0 -0.41012997258942652 -0.38146265356513281 0 -0.41404820471788178 -0.37946069571912022 0 -0.41012997258942652 -0.38146265356513281 0 -0.41264357953851821 -0.38144664688815172 0 -0.41404820471788178 -0.37946069571912022 0 -0.41012997258942652 -0.38146265356513281 0 -0.41404820471788178 -0.37946069571912022 0 -0.41012997258942652 -0.38146265356513281 0 -0.40173768300816198 -0.36643993149899518 0 -0.41264357953851821 -0.38144664688815172 0 -0.41012997258942652 -0.38146265356513281 0 -0.41404820471788178 -0.37946069571912022 0 -0.41903857325144328 -0.37691094697715488 0 -0.41404820471788178 -0.37946069571912022 0 -0.41596140559408717 -0.38148427669336471 0 -0.41903857325144328 -0.37691094697715488 0 -0.41264357953851821 -0.38144664688815172 0 -0.41404820471788178 -0.37946069571912022 0 -0.41596140559408717 -0.38148427669336471 0 -0.41404820471788178 -0.37946069571912022 0 -0.41596140559408717 -0.38148427669336471 0 -0.41012997258942652 -0.38146265356513281 0 -0.39138945824891558 -0.38158199336868193 0 -0.40139199175968793 -0.38592718468705428 0 -0.39138945824891558 -0.38158199336868193 0 -0.40139199175968793 -0.38592718468705428 0 -0.38146018706309692 -0.39611102053173108 0 -0.41012997258942652 -0.38146265356513281 0 -0.39138945824891558 -0.38158199336868193 0 -0.40173768300816198 -0.36643993149899518 0 -0.41012997258942652 -0.38146265356513281 0 -0.39138945824891558 -0.38158199336868193 0 -0.41012997258942652 -0.38146265356513281 0 -0.40139199175968793 -0.38592718468705428 0 -0.39138945824891558 -0.38158199336868193 0 -0.40139199175968793 -0.38592718468705428 0 -0.40139199175968793 -0.38592718468705428 0 -0.39499960735806972 -0.39650442224569948 0 -0.38146018706309692 -0.39611102053173108 0 -0.40139199175968793 -0.38592718468705428 0 -0.38146018706309692 -0.39611102053173108 0 -0.40637138740796802 -0.39517449182144659 0 -0.39499960735806972 -0.39650442224569948 0 -0.40443020735863072 -0.40194112054031811 0 -0.40637138740796802 -0.39517449182144659 0 -0.40139199175968793 -0.38592718468705428 0 -0.39499960735806972 -0.39650442224569948 0 -0.39499960735806972 -0.39650442224569948 0 -0.40443020735863072 -0.40194112054031811 0 -0.39652584119055362 -0.40342912424259242 0 -0.40443020735863072 -0.40194112054031811 0 -0.39652584119055362 -0.40342912424259242 0 -0.40068754056194861 -0.4128492080837643 0 -0.39652584119055362 -0.40342912424259242 0 -0.38735877636819388 -0.40059869056111858 0 -0.38983809416569087 -0.40758335385593009 0 -0.39499960735806972 -0.39650442224569948 0 -0.39652584119055362 -0.40342912424259242 0 -0.38735877636819388 -0.40059869056111858 0 -0.38156916822041892 -0.40603200008561519 0 -0.38178229459812563 -0.40298695858946171 0 -0.38983809416569087 -0.40758335385593009 0 -0.38178229459812563 -0.40298695858946171 0 -0.38012172885428602 -0.39806952235009457 0 -0.38983809416569087 -0.40758335385593009 0 -0.38735877636819388 -0.40059869056111858 0 -0.38012172885428602 -0.39806952235009457 0 -0.38983809416569087 -0.40758335385593009 0 -0.38012172885428602 -0.39806952235009457 0 -0.38983809416569087 -0.40758335385593009 0 -0.38012172885428602 -0.39806952235009457 0 -0.37209094330423159 -0.40089808531996213 0 -0.37629487057870992 -0.40149067916431569 0 -0.38012172885428602 -0.39806952235009457 0 -0.37209094330423159 -0.40089808531996213 0 -0.38156916822041892 -0.40603200008561519 0 -0.38178229459812563 -0.40298695858946171 0 -0.37856432677971441 -0.40327293704996398 0 -0.38156916822041892 -0.40603200008561519 0 -0.37602613074463359 -0.40570926791912437 0 -0.37856432677971441 -0.40327293704996398 0 -0.37602613074463359 -0.40570926791912437 0 -0.37856432677971441 -0.40327293704996398 0 -0.37629487057870992 -0.40149067916431569 0 -0.37856432677971441 -0.40327293704996398 0 -0.37629487057870992 -0.40149067916431569 0 -0.37881815497051818 -0.39997697960570461 0 -0.37629487057870992 -0.40149067916431569 0 -0.37881815497051818 -0.39997697960570461 0 -0.38012172885428602 -0.39806952235009457 0 -0.37881815497051818 -0.39997697960570461 0 -0.38012172885428602 -0.39806952235009457 0 -0.38178229459812563 -0.40298695858946171 0 -0.37881815497051818 -0.39997697960570461 0 -0.38012172885428602 -0.39806952235009457 0 -0.38178229459812563 -0.40298695858946171 0 -0.37856432677971441 -0.40327293704996398 0 -0.37881815497051818 -0.39997697960570461 0 -0.38012172885428602 -0.39806952235009457 0 -0.37610551335983561 -0.39413702328477918 0 -0.37209094330423159 -0.40089808531996213 0 -0.38146018706309692 -0.39611102053173108 0 -0.37610551335983561 -0.39413702328477918 0 -0.38353069879127127 -0.38163203803623119 0 -0.38146018706309692 -0.39611102053173108 0 -0.38012172885428602 -0.39806952235009457 0 -0.37610551335983561 -0.39413702328477918 0 -0.38146018706309692 -0.39611102053173108 0 -0.38012172885428602 -0.39806952235009457 0 -0.38012172885428602 -0.39806952235009457 0 -0.37610551335983561 -0.39413702328477918 0 -0.39499960735806972 -0.39650442224569948 0 -0.38735877636819388 -0.40059869056111858 0 -0.38146018706309692 -0.39611102053173108 0 -0.38735877636819388 -0.40059869056111858 0 -0.38146018706309692 -0.39611102053173108 0 -0.38012172885428602 -0.39806952235009457 0 -0.39138945824891558 -0.38158199336868193 0 -0.38146018706309692 -0.39611102053173108 0 -0.38146018706309692 -0.39611102053173108 0 -0.38353069879127127 -0.38163203803623119 0 -0.38775448495095949 -0.38160514091903242 0 -0.39138945824891558 -0.38158199336868193 0 -0.38146018706309692 -0.39611102053173108 0 -0.38775448495095949 -0.38160514091903242 0 -0.37610551335983561 -0.39413702328477918 0 -0.38353069879127127 -0.38163203803623119 0 -0.38353069879127127 -0.38163203803623119 0 -0.36791003929668897 -0.37531597356073781 0 -0.38353069879127127 -0.38163203803623119 0 -0.37576852049830373 -0.37424143402576782 0 -0.36791003929668897 -0.37531597356073781 0 -0.38353069879127127 -0.38163203803623119 0 -0.38775448495095949 -0.38160514091903242 0 -0.39138945824891558 -0.38158199336868193 0 -0.38775448495095949 -0.38160514091903242 0 -0.39082733033514372 -0.43553780059387093 0 -0.40375973713816599 -0.43690652084804732 0 -0.40176058784982421 -0.42849617997282502 0 -0.41319678457753078 -0.41966526467231158 0 -0.40176058784982421 -0.42849617997282502 0 -0.40068754056194861 -0.4128492080837643 0 -0.40176058784982421 -0.42849617997282502 0 -0.40068754056194861 -0.4128492080837643 0 -0.38796072571873202 -0.41787067674187572 0 -0.40068754056194861 -0.4128492080837643 0 -0.38796072571873202 -0.41787067674187572 0 -0.38983809416569087 -0.40758335385593009 0 -0.39652584119055362 -0.40342912424259242 0 -0.40068754056194861 -0.4128492080837643 0 -0.38983809416569087 -0.40758335385593009 0 -0.38156916822041892 -0.40603200008561519 0 -0.38983809416569087 -0.40758335385593009 0 -0.38249496913699632 -0.41100015469591239 0 -0.38796072571873202 -0.41787067674187572 0 -0.38983809416569087 -0.40758335385593009 0 -0.38249496913699632 -0.41100015469591239 0 -0.38156916822041892 -0.40603200008561519 0 -0.37602613074463359 -0.40570926791912437 0 -0.38249496913699632 -0.41100015469591239 0 -0.38796072571873202 -0.41787067674187572 0 -0.38249496913699632 -0.41100015469591239 0 -0.37441041966644201 -0.41853044649732968 0 -0.38796072571873202 -0.41787067674187572 0 -0.37857274293149029 -0.42876471734549271 0 -0.37441041966644201 -0.41853044649732968 0 -0.39082733033514372 -0.43553780059387093 0 -0.37857274293149029 -0.42876471734549271 0 -0.38257104150817378 -0.44558539909593659 0 -0.40176058784982421 -0.42849617997282502 0 -0.38796072571873202 -0.41787067674187572 0 -0.37857274293149029 -0.42876471734549271 0 -0.40176058784982421 -0.42849617997282502 0 -0.37857274293149029 -0.42876471734549271 0 -0.39082733033514372 -0.43553780059387093 0 -0.40176058784982421 -0.42849617997282502 0 -0.37857274293149029 -0.42876471734549271 0 -0.37857274293149029 -0.42876471734549271 0 -0.38257104150817378 -0.44558539909593659 0 -0.36466736862266619 -0.43929361107495862 0 -0.40375973713816599 -0.43690652084804732 0 -0.38257104150817378 -0.44558539909593659 0 -0.40375973713816599 -0.43690652084804732 0 -0.38257104150817378 -0.44558539909593659 0 -0.39873322217020901 -0.44879301705899238 0 -0.38257104150817378 -0.44558539909593659 0 -0.39873322217020901 -0.44879301705899238 0 -0.39185116602312342 -0.46040899195533008 0 -0.39082733033514372 -0.43553780059387093 0 -0.40375973713816599 -0.43690652084804732 0 -0.38257104150817378 -0.44558539909593659 0 -0.39873322217020901 -0.44879301705899238 0 -0.40884565752670138 -0.44739205870809717 0 -0.40642776429331862 -0.45699343118294727 0 -0.40375973713816599 -0.43690652084804732 0 -0.39873322217020901 -0.44879301705899238 0 -0.40884565752670138 -0.44739205870809717 0 -0.39185116602312342 -0.46040899195533008 0 -0.40182839360969391 -0.46973105278735439 0 -0.40642776429331862 -0.45699343118294727 0 -0.39873322217020901 -0.44879301705899238 0 -0.39185116602312342 -0.46040899195533008 0 -0.40642776429331862 -0.45699343118294727 0 -0.38257104150817378 -0.44558539909593659 0 -0.39185116602312342 -0.46040899195533008 0 -0.3749125057523493 -0.4641870694620962 0 -0.39185116602312342 -0.46040899195533008 0 -0.38739682711329992 -0.47637139398093842 0 -0.3749125057523493 -0.4641870694620962 0 -0.38739682711329992 -0.47637139398093842 0 -0.36650464836053492 -0.47758333459014829 0 -0.3749125057523493 -0.4641870694620962 0 -0.38739682711329992 -0.47637139398093842 0 -0.38649563617076049 -0.5 0 -0.36650464836053492 -0.47758333459014829 0 -0.38649563617076049 -0.5 0 -0.40221786754911548 -0.48468690862955621 0 -0.41470304202541208 -0.5 0 -0.38739682711329992 -0.47637139398093842 0 -0.38649563617076049 -0.5 0 -0.40221786754911548 -0.48468690862955621 0 -0.39185116602312342 -0.46040899195533008 0 -0.38739682711329992 -0.47637139398093842 0 -0.40182839360969391 -0.46973105278735439 0 -0.38739682711329992 -0.47637139398093842 0 -0.40221786754911548 -0.48468690862955621 0 -0.40182839360969391 -0.46973105278735439 0 -0.40221786754911548 -0.48468690862955621 0 -0.40182839360969391 -0.46973105278735439 0 -0.41640034518153801 -0.4710884416934209 0 -0.40221786754911548 -0.48468690862955621 0 -0.41640034518153801 -0.4710884416934209 0 -0.41470304202541208 -0.5 0 -0.43763952177061649 -0.47770500498713542 0 -0.44291044788006362 -0.49999999999999939 0 -0.41470304202541208 -0.5 0 -0.43763952177061649 -0.47770500498713542 0 -0.41640034518153801 -0.4710884416934209 0 -0.41470304202541208 -0.5 0 -0.43763952177061649 -0.47770500498713542 0 -0.41640034518153801 -0.4710884416934209 0 -0.4323685956611692 -0.45541000997427139 0 -0.43763952177061649 -0.47770500498713542 0 -0.4323685956611692 -0.45541000997427139 0 -0.41640034518153801 -0.4710884416934209 0 -0.4323685956611692 -0.45541000997427139 0 -0.41872867018542492 -0.45179192289975101 0 -0.4323685956611692 -0.45541000997427139 0 -0.435988539966085 -0.44148905847597392 0 -0.42615181293618792 -0.44307742131274741 0 -0.42986244815509678 -0.43337144475258638 0 -0.435988539966085 -0.44148905847597392 0 -0.42615181293618792 -0.44307742131274741 0 -0.42986244815509678 -0.43337144475258638 0 -0.42026026496879931 -0.43681168621285732 0 -0.42615181293618792 -0.44307742131274741 0 -0.4323685956611692 -0.45541000997427139 0 -0.42615181293618792 -0.44307742131274741 0 -0.41872867018542492 -0.45179192289975101 0 -0.41872867018542492 -0.45179192289975101 0 -0.41657889384638791 -0.4424754015507481 0 -0.40884565752670138 -0.44739205870809717 0 -0.42026026496879931 -0.43681168621285732 0 -0.40375973713816599 -0.43690652084804732 0 -0.41657889384638791 -0.4424754015507481 0 -0.42615181293618792 -0.44307742131274741 0 -0.41872867018542492 -0.45179192289975101 0 -0.41657889384638791 -0.4424754015507481 0 -0.42026026496879931 -0.43681168621285732 0 -0.42615181293618792 -0.44307742131274741 0 -0.41657889384638791 -0.4424754015507481 0 -0.40375973713816599 -0.43690652084804732 0 -0.41657889384638791 -0.4424754015507481 0 -0.40884565752670138 -0.44739205870809717 0 -0.41872867018542492 -0.45179192289975101 0 -0.40884565752670138 -0.44739205870809717 0 -0.40642776429331862 -0.45699343118294727 0 -0.41640034518153801 -0.4710884416934209 0 -0.41872867018542492 -0.45179192289975101 0 -0.40642776429331862 -0.45699343118294727 0 -0.40182839360969391 -0.46973105278735439 0 -0.41640034518153801 -0.4710884416934209 0 -0.40642776429331862 -0.45699343118294727 0 -0.45211818340539273 -0.26309076008929921 0 -0.44165736388207272 -0.25360003737878889 0 -0.46465652818918263 -0.24483730068029039 0 -0.45211818340539273 -0.26309076008929921 0 -0.44165736388207272 -0.25360003737878889 0 -0.43680511815892142 -0.2660007677910407 0 -0.45211818340539273 -0.26309076008929921 0 -0.43957983862160288 -0.2813442194983079 0 -0.45211818340539273 -0.26309076008929921 0 -0.45386615352933152 -0.26317791563468229 0 -0.44300193479902689 -0.28147468360283379 0 -0.45211818340539273 -0.26309076008929921 0 -0.43957983862160288 -0.2813442194983079 0 -0.44300193479902689 -0.28147468360283379 0 -0.45386615352933152 -0.26317791563468229 0 -0.44300193479902689 -0.28147468360283379 0 -0.45211818340539273 -0.26309076008929921 0 -0.43957983862160288 -0.2813442194983079 0 -0.43680511815892142 -0.2660007677910407 0 -0.46540099386590911 -0.27613459344745273 0 -0.45386615352933152 -0.26317791563468229 0 -0.47789920225856231 -0.2654141115859287 0 -0.46540099386590911 -0.27613459344745273 0 -0.45386615352933152 -0.26317791563468229 0 -0.44300193479902689 -0.28147468360283379 0 -0.45211818340539273 -0.26309076008929921 0 -0.45386615352933152 -0.26317791563468229 0 -0.46465652818918263 -0.24483730068029039 0 -0.45211818340539273 -0.26309076008929921 0 -0.46465652818918263 -0.24483730068029039 0 -0.45386615352933152 -0.26317791563468229 0 -0.46465652818918263 -0.24483730068029039 0 -0.45386615352933152 -0.26317791563468229 0 -0.47789920225856231 -0.2654141115859287 0 -0.46465652818918263 -0.24483730068029039 0 -0.47789920225856231 -0.2654141115859287 0 -0.48570939693172899 -0.24902992718248729 0 -0.46465652818918263 -0.24483730068029039 0 -0.47789920225856231 -0.2654141115859287 0 -0.4909021497975728 -0.26136593096020788 0 -0.48570939693172899 -0.24902992718248729 0 -0.4909021497975728 -0.26136593096020788 0 -0.5 -0.25150281007534703 0 -0.5 -0.27951687499706851 0 -0.4909021497975728 -0.26136593096020788 0 -0.5 -0.25150281007534703 0 -0.48570939693172899 -0.24902992718248729 0 -0.47789920225856231 -0.2654141115859287 0 -0.5 -0.27951687499706851 0 -0.48508449486424082 -0.28732415172015657 0 -0.47789920225856231 -0.2654141115859287 0 -0.4909021497975728 -0.26136593096020788 0 -0.5 -0.27951687499706851 0 -0.46540099386590911 -0.27613459344745273 0 -0.47789920225856231 -0.2654141115859287 0 -0.48508449486424082 -0.28732415172015657 0 -0.46540099386590911 -0.27613459344745273 0 -0.4692524708352519 -0.29304891184013099 0 -0.48508449486424082 -0.28732415172015657 0 -0.4692524708352519 -0.29304891184013099 0 -0.48508449486424082 -0.28732415172015657 0 -0.48342094646859679 -0.29729694551662461 0 -0.5 -0.27951687499706851 0 -0.5 -0.30753093991878988 0 -0.49616219239740023 -0.30000131546641939 0 -0.5 -0.27951687499706851 0 -0.48508449486424082 -0.28732415172015657 0 -0.49616219239740023 -0.30000131546641939 0 -0.48508449486424082 -0.28732415172015657 0 -0.49616219239740023 -0.30000131546641939 0 -0.48342094646859679 -0.29729694551662461 0 -0.49616219239740023 -0.30000131546641939 0 -0.47988752038114357 -0.30743937284698208 0 -0.49124767326547109 -0.32126458797290303 0 -0.49616219239740023 -0.30000131546641939 0 -0.47988752038114357 -0.30743937284698208 0 -0.48342094646859679 -0.29729694551662461 0 -0.49616219239740023 -0.30000131546641939 0 -0.49124767326547109 -0.32126458797290303 0 -0.5 -0.30753093991878988 0 -0.49616219239740023 -0.30000131546641939 0 -0.49124767326547109 -0.32126458797290303 0 -0.4692524708352519 -0.29304891184013099 0 -0.47988752038114357 -0.30743937284698208 0 -0.46289418455034459 -0.31569959279366661 0 -0.4692524708352519 -0.29304891184013099 0 -0.47988752038114357 -0.30743937284698208 0 -0.48342094646859679 -0.29729694551662461 0 -0.4692524708352519 -0.29304891184013099 0 -0.46289418455034459 -0.31569959279366661 0 -0.4692524708352519 -0.29304891184013099 0 -0.45610231338702439 -0.30058860430122147 0 -0.46289418455034459 -0.31569959279366661 0 -0.45610231338702439 -0.30058860430122147 0 -0.44586848524951039 -0.31314063422893113 0 -0.46289418455034459 -0.31569959279366661 0 -0.46540099386590911 -0.27613459344745273 0 -0.45701344915610581 -0.28694014007387803 0 -0.44300193479902689 -0.28147468360283379 0 -0.46540099386590911 -0.27613459344745273 0 -0.4692524708352519 -0.29304891184013099 0 -0.45701344915610581 -0.28694014007387803 0 -0.4692524708352519 -0.29304891184013099 0 -0.45610231338702439 -0.30058860430122147 0 -0.45701344915610581 -0.28694014007387803 0 -0.45610231338702439 -0.30058860430122147 0 -0.44300193479902689 -0.28147468360283379 0 -0.43213771606872631 -0.29977145157098772 0 -0.43957983862160288 -0.2813442194983079 0 -0.44300193479902689 -0.28147468360283379 0 -0.43213771606872631 -0.29977145157098772 0 -0.45610231338702439 -0.30058860430122147 0 -0.45701344915610581 -0.28694014007387803 0 -0.44300193479902689 -0.28147468360283379 0 -0.44300193479902689 -0.28147468360283379 0 -0.43213771606872631 -0.29977145157098772 0 -0.45610231338702439 -0.30058860430122147 0 -0.43213771606872631 -0.29977145157098772 0 -0.45610231338702439 -0.30058860430122147 0 -0.44586848524951039 -0.31314063422893113 0 -0.43213771606872631 -0.29977145157098772 0 -0.44586848524951039 -0.31314063422893113 0 -0.44476508916493912 -0.32800798766852468 0 -0.46289418455034459 -0.31569959279366661 0 -0.44586848524951039 -0.31314063422893113 0 -0.44476508916493912 -0.32800798766852468 0 -0.43268999707831379 -0.32114889215997511 0 -0.44476508916493912 -0.32800798766852468 0 -0.45653589826543722 -0.33835027374720222 0 -0.43854709093312078 -0.34551838447463762 0 -0.44476508916493912 -0.32800798766852468 0 -0.43854709093312078 -0.34551838447463762 0 -0.43403437847741988 -0.33354869747312299 0 -0.45653589826543722 -0.33835027374720222 0 -0.47228809685679413 -0.34052311598912072 0 -0.46825538305703029 -0.35176440759005828 0 -0.45653589826543722 -0.33835027374720222 0 -0.47506093156469842 -0.3287229684348516 0 -0.47228809685679413 -0.34052311598912072 0 -0.44476508916493912 -0.32800798766852468 0 -0.45653589826543722 -0.33835027374720222 0 -0.46289418455034459 -0.31569959279366661 0 -0.45653589826543722 -0.33835027374720222 0 -0.46289418455034459 -0.31569959279366661 0 -0.47506093156469842 -0.3287229684348516 0 -0.45653589826543722 -0.33835027374720222 0 -0.46289418455034459 -0.31569959279366661 0 -0.4772725774404144 -0.31828163051210079 0 -0.49124767326547109 -0.32126458797290303 0 -0.47506093156469842 -0.3287229684348516 0 -0.47988752038114357 -0.30743937284698208 0 -0.46289418455034459 -0.31569959279366661 0 -0.4772725774404144 -0.31828163051210079 0 -0.46289418455034459 -0.31569959279366661 0 -0.4772725774404144 -0.31828163051210079 0 -0.47506093156469842 -0.3287229684348516 0 -0.47988752038114357 -0.30743937284698208 0 -0.4772725774404144 -0.31828163051210079 0 -0.49124767326547109 -0.32126458797290303 0 -0.5 -0.30753093991878988 0 -0.49124767326547109 -0.32126458797290303 0 -0.49999999999999961 -0.33554500484051131 0 -0.49124767326547109 -0.32126458797290303 0 -0.48633315413354011 -0.3425278604793861 0 -0.49124767326547109 -0.32126458797290303 0 -0.49999999999999961 -0.33554500484051131 0 -0.48633315413354011 -0.3425278604793861 0 -0.49999999999999961 -0.33554500484051131 0 -0.48633315413354011 -0.3425278604793861 0 -0.48633315413354011 -0.3425278604793861 0 -0.47506093156469842 -0.3287229684348516 0 -0.47228809685679413 -0.34052311598912072 0 -0.49124767326547109 -0.32126458797290303 0 -0.48633315413354011 -0.3425278604793861 0 -0.47506093156469842 -0.3287229684348516 0 -0.48633315413354011 -0.3425278604793861 0 -0.47228809685679413 -0.34052311598912072 0 -0.46825538305703029 -0.35176440759005828 0 -0.49999999999999961 -0.33554500484051131 0 -0.48633315413354011 -0.3425278604793861 0 -0.48030453056746109 -0.36861144308094029 0 -0.48633315413354011 -0.3425278604793861 0 -0.48030453056746109 -0.36861144308094029 0 -0.46825538305703029 -0.35176440759005828 0 -0.48633315413354011 -0.3425278604793861 0 -0.46825538305703029 -0.35176440759005828 0 -0.48633315413354011 -0.3425278604793861 0 -0.48030453056746109 -0.36861144308094029 0 -0.5 -0.39656953661894012 0 -0.49999999999999961 -0.33554500484051131 0 -0.48030453056746109 -0.36861144308094029 0 -0.46334377193483078 -0.37842983215876019 0 -0.48030453056746109 -0.36861144308094029 0 -0.46825538305703029 -0.35176440759005828 0 -0.46334377193483078 -0.37842983215876019 0 -0.46825538305703029 -0.35176440759005828 0 -0.45017761198052331 -0.36100095470073579 0 -0.45653589826543722 -0.33835027374720222 0 -0.45017761198052331 -0.36100095470073579 0 -0.45653589826543722 -0.33835027374720222 0 -0.46825538305703029 -0.35176440759005828 0 -0.45017761198052331 -0.36100095470073579 0 -0.46825538305703029 -0.35176440759005828 0 -0.45017761198052331 -0.36100095470073579 0 -0.45653589826543722 -0.33835027374720222 0 -0.43854709093312078 -0.34551838447463762 0 -0.45017761198052331 -0.36100095470073579 0 -0.43854709093312078 -0.34551838447463762 0 -0.45017761198052331 -0.36100095470073579 0 -0.43688840964749209 -0.35781554759345557 0 -0.45017761198052331 -0.36100095470073579 0 -0.43460809261598232 -0.36895595083894339 0 -0.43688840964749209 -0.35781554759345557 0 -0.45017761198052331 -0.36100095470073579 0 -0.43460809261598232 -0.36895595083894339 0 -0.44416021803808919 -0.38243724496113263 0 -0.45017761198052331 -0.36100095470073579 0 -0.43460809261598232 -0.36895595083894339 0 -0.44416021803808919 -0.38243724496113263 0 -0.45017761198052331 -0.36100095470073579 0 -0.46334377193483078 -0.37842983215876019 0 -0.44416021803808919 -0.38243724496113263 0 -0.45017761198052331 -0.36100095470073579 0 -0.41903857325144328 -0.37691094697715488 0 -0.43460809261598232 -0.36895595083894339 0 -0.42422084306034402 -0.35578690035950972 0 -0.41903857325144328 -0.37691094697715488 0 -0.43460809261598232 -0.36895595083894339 0 -0.43460809261598232 -0.36895595083894339 0 -0.43688840964749209 -0.35781554759345557 0 -0.42422084306034402 -0.35578690035950972 0 -0.43854709093312078 -0.34551838447463762 0 -0.42422084306034402 -0.35578690035950972 0 -0.42013533673330578 -0.33951952558935461 0 -0.43854709093312078 -0.34551838447463762 0 -0.43688840964749209 -0.35781554759345557 0 -0.42422084306034402 -0.35578690035950972 0 -0.40758067638829881 -0.35789015901873489 0 -0.42013533673330578 -0.33951952558935461 0 -0.42422084306034402 -0.35578690035950972 0 -0.40758067638829881 -0.35789015901873489 0 -0.42013533673330578 -0.33951952558935461 0 -0.40758067638829881 -0.35789015901873489 0 -0.4025685708709531 -0.34956976676792401 0 -0.42013533673330578 -0.33951952558935461 0 -0.41903857325144328 -0.37691094697715488 0 -0.40758067638829881 -0.35789015901873489 0 -0.40173768300816198 -0.36643993149899518 0 -0.41404820471788178 -0.37946069571912022 0 -0.41903857325144328 -0.37691094697715488 0 -0.40173768300816198 -0.36643993149899518 0 -0.41903857325144328 -0.37691094697715488 0 -0.42422084306034402 -0.35578690035950972 0 -0.40758067638829881 -0.35789015901873489 0 -0.41903857325144328 -0.37691094697715488 0 -0.40758067638829881 -0.35789015901873489 0 -0.41404820471788178 -0.37946069571912022 0 -0.40173768300816198 -0.36643993149899518 0 -0.39138945824891558 -0.38158199336868193 0 -0.38775448495095949 -0.38160514091903242 0 -0.39609514899832238 -0.36047185746617882 0 -0.39138945824891558 -0.38158199336868193 0 -0.40173768300816198 -0.36643993149899518 0 -0.39609514899832238 -0.36047185746617882 0 -0.40758067638829881 -0.35789015901873489 0 -0.40173768300816198 -0.36643993149899518 0 -0.40758067638829881 -0.35789015901873489 0 -0.40173768300816198 -0.36643993149899518 0 -0.39609514899832238 -0.36047185746617882 0 -0.40173768300816198 -0.36643993149899518 0 -0.39609514899832238 -0.36047185746617882 0 -0.39138945824891558 -0.38158199336868193 0 -0.40173768300816198 -0.36643993149899518 0 -0.38353069879127127 -0.38163203803623119 0 -0.38775448495095949 -0.38160514091903242 0 -0.39609514899832238 -0.36047185746617882 0 -0.38353069879127127 -0.38163203803623119 0 -0.39609514899832238 -0.36047185746617882 0 -0.37576852049830373 -0.37424143402576782 0 -0.37576852049830373 -0.37424143402576782 0 -0.38980029292032681 -0.3538138263344407 0 -0.39609514899832238 -0.36047185746617882 0 -0.37576852049830373 -0.37424143402576782 0 -0.38980029292032681 -0.3538138263344407 0 -0.38353069879127127 -0.38163203803623119 0 -0.39609514899832238 -0.36047185746617882 0 -0.37576852049830373 -0.37424143402576782 0 -0.38980029292032681 -0.3538138263344407 0 -0.37245563567842283 -0.36342144099550278 0 -0.37501505732771462 -0.35270295609204683 0 -0.38980029292032681 -0.3538138263344407 0 -0.37245563567842283 -0.36342144099550278 0 -0.37501505732771462 -0.35270295609204683 0 -0.38980029292032681 -0.3538138263344407 0 -0.37630104444955431 -0.33953575302191552 0 -0.38980029292032681 -0.3538138263344407 0 -0.3874425906513701 -0.34245666632481359 0 -0.37630104444955431 -0.33953575302191552 0 -0.38980029292032681 -0.3538138263344407 0 -0.37630104444955431 -0.33953575302191552 0 -0.38980029292032681 -0.3538138263344407 0 -0.39796499687501963 -0.34192756105832428 0 -0.3874425906513701 -0.34245666632481359 0 -0.38980029292032681 -0.3538138263344407 0 -0.39796499687501963 -0.34192756105832428 0 -0.38980029292032681 -0.3538138263344407 0 -0.4025685708709531 -0.34956976676792401 0 -0.39796499687501963 -0.34192756105832428 0 -0.39609514899832238 -0.36047185746617882 0 -0.38980029292032681 -0.3538138263344407 0 -0.4025685708709531 -0.34956976676792401 0 -0.39609514899832238 -0.36047185746617882 0 -0.38980029292032681 -0.3538138263344407 0 -0.40758067638829881 -0.35789015901873489 0 -0.4025685708709531 -0.34956976676792401 0 -0.39609514899832238 -0.36047185746617882 0 -0.4025685708709531 -0.34956976676792401 0 -0.40758067638829881 -0.35789015901873489 0 -0.39609514899832238 -0.36047185746617882 0 -0.4025685708709531 -0.34956976676792401 0 -0.4025685708709531 -0.34956976676792401 0 -0.39796499687501963 -0.34192756105832428 0 -0.39796499687501963 -0.34192756105832428 0 -0.38707883306085727 -0.32310268074594539 0 -0.39302444192435521 -0.32665020523696531 0 -0.39796499687501963 -0.34192756105832428 0 -0.41250324535641603 -0.32076261998282041 0 -0.39796499687501963 -0.34192756105832428 0 -0.38707883306085727 -0.32310268074594539 0 -0.39796499687501963 -0.34192756105832428 0 -0.39861901303234393 -0.32526976222302811 0 -0.41250324535641603 -0.32076261998282041 0 -0.4025685708709531 -0.34956976676792401 0 -0.39796499687501963 -0.34192756105832428 0 -0.4173531434698371 -0.32467060916945428 0 -0.39796499687501963 -0.34192756105832428 0 -0.39302444192435521 -0.32665020523696531 0 -0.39861901303234393 -0.32526976222302811 0 -0.39796499687501963 -0.34192756105832428 0 -0.3874425906513701 -0.34245666632481359 0 -0.38570402836057949 -0.33454952488457412 0 -0.39796499687501963 -0.34192756105832428 0 -0.38570402836057949 -0.33454952488457412 0 -0.38707883306085727 -0.32310268074594539 0 -0.3874425906513701 -0.34245666632481359 0 -0.38570402836057949 -0.33454952488457412 0 -0.37630104444955431 -0.33953575302191552 0 -0.38570402836057949 -0.33454952488457412 0 -0.38257566477560778 -0.32750665689071978 0 -0.38707883306085727 -0.32310268074594539 0 -0.38570402836057949 -0.33454952488457412 0 -0.37746168828861648 -0.32880316406910598 0 -0.37630104444955431 -0.33953575302191552 0 -0.38570402836057949 -0.33454952488457412 0 -0.37746168828861648 -0.32880316406910598 0 -0.38257566477560778 -0.32750665689071978 0 -0.38707883306085727 -0.32310268074594539 0 -0.37576395745092178 -0.3050725196501074 0 -0.38707883306085727 -0.32310268074594539 0 -0.37576395745092178 -0.3050725196501074 0 -0.37719713711566749 -0.31197748083789167 0 -0.37972485618422192 -0.31952152903519548 0 -0.38707883306085727 -0.32310268074594539 0 -0.37719713711566749 -0.31197748083789167 0 -0.37972485618422192 -0.31952152903519548 0 -0.37719713711566749 -0.31197748083789167 0 -0.37456534516798468 -0.31943469669369101 0 -0.37972485618422192 -0.31952152903519548 0 -0.38027246529026432 -0.32317389825498388 0 -0.37456534516798468 -0.31943469669369101 0 -0.37746168828861648 -0.32880316406910598 0 -0.38027246529026432 -0.32317389825498388 0 -0.37456534516798468 -0.31943469669369101 0 -0.37746168828861648 -0.32880316406910598 0 -0.38257566477560778 -0.32750665689071978 0 -0.38027246529026432 -0.32317389825498388 0 -0.37972485618422192 -0.31952152903519548 0 -0.38027246529026432 -0.32317389825498388 0 -0.38707883306085727 -0.32310268074594539 0 -0.38257566477560778 -0.32750665689071978 0 -0.38027246529026432 -0.32317389825498388 0 -0.38707883306085727 -0.32310268074594539 0 -0.3895493280880703 -0.32181092315052368 0 -0.38707883306085727 -0.32310268074594539 0 -0.39302444192435521 -0.32665020523696531 0 -0.3895493280880703 -0.32181092315052368 0 -0.38817922209955419 -0.31487003622919818 0 -0.39292420471281692 -0.32089260507692741 0 -0.3895493280880703 -0.32181092315052368 0 -0.3854068594836183 -0.31441721296606712 0 -0.38817922209955419 -0.31487003622919818 0 -0.3895493280880703 -0.32181092315052368 0 -0.38707883306085727 -0.32310268074594539 0 -0.3854068594836183 -0.31441721296606712 0 -0.38817922209955419 -0.31487003622919818 0 -0.39233623022453079 -0.31589900304218349 0 -0.38828454910218052 -0.30906118598004451 0 -0.39233623022453079 -0.31589900304218349 0 -0.39756756003884308 -0.31679974746756201 0 -0.39292420471281692 -0.32089260507692741 0 -0.38817922209955419 -0.31487003622919818 0 -0.39233623022453079 -0.31589900304218349 0 -0.39292420471281692 -0.32089260507692741 0 -0.39233623022453079 -0.31589900304218349 0 -0.39756756003884308 -0.31679974746756201 0 -0.39384318992161488 -0.31092517799495939 0 -0.39756756003884308 -0.31679974746756201 0 -0.39292420471281692 -0.32089260507692741 0 -0.39861901303234393 -0.32526976222302811 0 -0.3895493280880703 -0.32181092315052368 0 -0.39302444192435521 -0.32665020523696531 0 -0.39292420471281692 -0.32089260507692741 0 -0.39302444192435521 -0.32665020523696531 0 -0.39292420471281692 -0.32089260507692741 0 -0.39861901303234393 -0.32526976222302811 0 -0.39756756003884308 -0.31679974746756201 0 -0.39861901303234393 -0.32526976222302811 0 -0.41250324535641603 -0.32076261998282041 0 -0.39756756003884308 -0.31679974746756201 0 -0.41250324535641603 -0.32076261998282041 0 -0.39943253357619768 -0.3092473730742562 0 -0.4173531434698371 -0.32467060916945428 0 -0.41250324535641603 -0.32076261998282041 0 -0.42704149383781292 -0.2995976789073167 0 -0.39796499687501963 -0.34192756105832428 0 -0.4173531434698371 -0.32467060916945428 0 -0.41250324535641603 -0.32076261998282041 0 -0.4025685708709531 -0.34956976676792401 0 -0.4173531434698371 -0.32467060916945428 0 -0.42013533673330578 -0.33951952558935461 0 -0.4025685708709531 -0.34956976676792401 0 -0.4173531434698371 -0.32467060916945428 0 -0.4173531434698371 -0.32467060916945428 0 -0.42013533673330578 -0.33951952558935461 0 -0.43268999707831379 -0.32114889215997511 0 -0.42013533673330578 -0.33951952558935461 0 -0.43268999707831379 -0.32114889215997511 0 -0.42013533673330578 -0.33951952558935461 0 -0.43403437847741988 -0.33354869747312299 0 -0.43268999707831379 -0.32114889215997511 0 -0.43854709093312078 -0.34551838447463762 0 -0.42013533673330578 -0.33951952558935461 0 -0.43403437847741988 -0.33354869747312299 0 -0.44476508916493912 -0.32800798766852468 0 -0.43403437847741988 -0.33354869747312299 0 -0.43268999707831379 -0.32114889215997511 0 -0.4173531434698371 -0.32467060916945428 0 -0.43268999707831379 -0.32114889215997511 0 -0.43213771606872631 -0.29977145157098772 0 -0.44586848524951039 -0.31314063422893113 0 -0.43268999707831379 -0.32114889215997511 0 -0.43213771606872631 -0.29977145157098772 0 -0.4173531434698371 -0.32467060916945428 0 -0.43213771606872631 -0.29977145157098772 0 -0.4173531434698371 -0.32467060916945428 0 -0.42704149383781292 -0.2995976789073167 0 -0.43213771606872631 -0.29977145157098772 0 -0.42704149383781292 -0.2995976789073167 0 -0.43213771606872631 -0.29977145157098772 0 -0.43957983862160288 -0.2813442194983079 0 -0.42704149383781292 -0.2995976789073167 0 -0.41620122749958632 -0.28481054703811581 0 -0.43957983862160288 -0.2813442194983079 0 -0.42704149383781292 -0.2995976789073167 0 -0.43213771606872631 -0.29977145157098772 0 -0.43957983862160288 -0.2813442194983079 0 -0.42704149383781292 -0.2995976789073167 0 -0.42704149383781292 -0.2995976789073167 0 -0.40925521843592683 -0.29219363385722402 0 -0.40193077426190232 -0.29874144532295899 0 -0.42704149383781292 -0.2995976789073167 0 -0.41620122749958632 -0.28481054703811581 0 -0.40925521843592683 -0.29219363385722402 0 -0.41620122749958632 -0.28481054703811581 0 -0.4064106314034665 -0.28786033749410611 0 -0.40925521843592683 -0.29219363385722402 0 -0.41620122749958632 -0.28481054703811581 0 -0.4064106314034665 -0.28786033749410611 0 -0.40459857025975621 -0.28097081354976228 0 -0.42704149383781292 -0.2995976789073167 0 -0.40193077426190232 -0.29874144532295899 0 -0.41250324535641603 -0.32076261998282041 0 -0.42704149383781292 -0.2995976789073167 0 -0.40193077426190232 -0.29874144532295899 0 -0.41250324535641603 -0.32076261998282041 0 -0.42704149383781292 -0.2995976789073167 0 -0.41250324535641603 -0.32076261998282041 0 -0.39943253357619768 -0.3092473730742562 0 -0.40193077426190232 -0.29874144532295899 0 -0.40193077426190232 -0.29874144532295899 0 -0.39397115466413868 -0.30315074537586811 0 -0.37682005468599161 -0.29788521173860111 0 -0.39943253357619768 -0.3092473730742562 0 -0.40193077426190232 -0.29874144532295899 0 -0.39397115466413868 -0.30315074537586811 0 -0.39756756003884308 -0.31679974746756201 0 -0.39943253357619768 -0.3092473730742562 0 -0.39384318992161488 -0.31092517799495939 0 -0.39943253357619768 -0.3092473730742562 0 -0.39515669063330172 -0.30691697672544133 0 -0.39384318992161488 -0.31092517799495939 0 -0.39943253357619768 -0.3092473730742562 0 -0.39397115466413868 -0.30315074537586811 0 -0.39515669063330172 -0.30691697672544133 0 -0.39515669063330172 -0.30691697672544133 0 -0.39384318992161488 -0.31092517799495939 0 -0.39024404857921102 -0.30572650089527997 0 -0.39397115466413868 -0.30315074537586811 0 -0.39515669063330172 -0.30691697672544133 0 -0.39024404857921102 -0.30572650089527997 0 -0.39384318992161488 -0.31092517799495939 0 -0.38828454910218052 -0.30906118598004451 0 -0.39024404857921102 -0.30572650089527997 0 -0.39233623022453079 -0.31589900304218349 0 -0.39384318992161488 -0.31092517799495939 0 -0.38828454910218052 -0.30906118598004451 0 -0.38817922209955419 -0.31487003622919818 0 -0.38828454910218052 -0.30906118598004451 0 -0.37682005468599161 -0.29788521173860111 0 -0.3854068594836183 -0.31441721296606712 0 -0.38817922209955419 -0.31487003622919818 0 -0.37682005468599161 -0.29788521173860111 0 -0.39397115466413868 -0.30315074537586811 0 -0.39024404857921102 -0.30572650089527997 0 -0.37682005468599161 -0.29788521173860111 0 -0.40193077426190232 -0.29874144532295899 0 -0.37682005468599161 -0.29788521173860111 0 -0.38707883306085727 -0.32310268074594539 0 -0.3854068594836183 -0.31441721296606712 0 -0.37682005468599161 -0.29788521173860111 0 -0.38707883306085727 -0.32310268074594539 0 -0.37682005468599161 -0.29788521173860111 0 -0.37576395745092178 -0.3050725196501074 0 -0.38707883306085727 -0.32310268074594539 0 -0.37682005468599161 -0.29788521173860111 0 -0.38828454910218052 -0.30906118598004451 0 -0.39024404857921102 -0.30572650089527997 0 -0.37682005468599161 -0.29788521173860111 0 -0.40193077426190232 -0.29874144532295899 0 -0.37682005468599161 -0.29788521173860111 0 -0.38727793942999461 -0.29143138054805301 0 -0.37682005468599161 -0.29788521173860111 0 -0.37992505739110077 -0.285327891268156 0 -0.37089355010314762 -0.28331705945197572 0 -0.37682005468599161 -0.29788521173860111 0 -0.37992505739110077 -0.285327891268156 0 -0.38727793942999461 -0.29143138054805301 0 -0.38727793942999461 -0.29143138054805301 0 -0.3924898948206727 -0.28599182426682918 0 -0.38684870024465262 -0.28019709009285709 0 -0.37992505739110077 -0.285327891268156 0 -0.38727793942999461 -0.29143138054805301 0 -0.38684870024465262 -0.28019709009285709 0 -0.3924898948206727 -0.28599182426682918 0 -0.39318539860325191 -0.27833553320660309 0 -0.38684870024465262 -0.28019709009285709 0 -0.3924898948206727 -0.28599182426682918 0 -0.39946484360203771 -0.29301209464503369 0 -0.39318539860325191 -0.27833553320660309 0 -0.38727793942999461 -0.29143138054805301 0 -0.3924898948206727 -0.28599182426682918 0 -0.39529086302865168 -0.29229418619571867 0 -0.40193077426190232 -0.29874144532295899 0 -0.38727793942999461 -0.29143138054805301 0 -0.39529086302865168 -0.29229418619571867 0 -0.3924898948206727 -0.28599182426682918 0 -0.39529086302865168 -0.29229418619571867 0 -0.39946484360203771 -0.29301209464503369 0 -0.4064106314034665 -0.28786033749410611 0 -0.40925521843592683 -0.29219363385722402 0 -0.39946484360203771 -0.29301209464503369 0 -0.40925521843592683 -0.29219363385722402 0 -0.40193077426190232 -0.29874144532295899 0 -0.39946484360203771 -0.29301209464503369 0 -0.40193077426190232 -0.29874144532295899 0 -0.39529086302865168 -0.29229418619571867 0 -0.39946484360203771 -0.29301209464503369 0 -0.4064106314034665 -0.28786033749410611 0 -0.39946484360203771 -0.29301209464503369 0 -0.40459857025975621 -0.28097081354976228 0 -0.40459857025975621 -0.28097081354976228 0 -0.39871653422275 -0.26477063034798642 0 -0.40644367116261759 -0.26933550009943341 0 -0.39946484360203771 -0.29301209464503369 0 -0.40459857025975621 -0.28097081354976228 0 -0.39871653422275 -0.26477063034798642 0 -0.39946484360203771 -0.29301209464503369 0 -0.39871653422275 -0.26477063034798642 0 -0.39946484360203771 -0.29301209464503369 0 -0.39318539860325191 -0.27833553320660309 0 -0.39871653422275 -0.26477063034798642 0 -0.39318539860325191 -0.27833553320660309 0 -0.38840702012614647 -0.26770602668030929 0 -0.39871653422275 -0.26477063034798642 0 -0.39318539860325191 -0.27833553320660309 0 -0.38684870024465262 -0.28019709009285709 0 -0.38840702012614647 -0.26770602668030929 0 -0.38684870024465262 -0.28019709009285709 0 -0.38840702012614647 -0.26770602668030929 0 -0.37812768531643998 -0.2740521224023964 0 -0.38840702012614647 -0.26770602668030929 0 -0.37812768531643998 -0.2740521224023964 0 -0.37969836118369482 -0.26041778922000308 0 -0.37992505739110077 -0.285327891268156 0 -0.37812768531643998 -0.2740521224023964 0 -0.37089355010314762 -0.28331705945197572 0 -0.37992505739110077 -0.285327891268156 0 -0.38684870024465262 -0.28019709009285709 0 -0.37812768531643998 -0.2740521224023964 0 -0.37969836118369482 -0.26041778922000308 0 -0.39442967684708991 -0.25208667127465478 0 -0.37872015884544641 -0.2435614714605657 0 -0.37969836118369482 -0.26041778922000308 0 -0.36999160380854529 -0.25160890498862648 0 -0.37872015884544641 -0.2435614714605657 0 -0.38840702012614647 -0.26770602668030929 0 -0.37969836118369482 -0.26041778922000308 0 -0.39442967684708991 -0.25208667127465478 0 -0.37969836118369482 -0.26041778922000308 0 -0.39442967684708991 -0.25208667127465478 0 -0.39442967684708991 -0.25208667127465478 0 -0.39871653422275 -0.26477063034798642 0 -0.39796822484346261 -0.23652916605093899 0 -0.40220594800304021 -0.25293233307518609 0 -0.39871653422275 -0.26477063034798642 0 -0.40644367116261759 -0.26933550009943341 0 -0.40220594800304021 -0.25293233307518609 0 -0.39871653422275 -0.26477063034798642 0 -0.39796822484346261 -0.23652916605093899 0 -0.40220594800304021 -0.25293233307518609 0 -0.40644367116261759 -0.26933550009943341 0 -0.39871653422275 -0.26477063034798642 0 -0.39796822484346261 -0.23652916605093899 0 -0.38840702012614647 -0.26770602668030929 0 -0.39442967684708991 -0.25208667127465478 0 -0.39871653422275 -0.26477063034798642 0 -0.40220594800304021 -0.25293233307518609 0 -0.41459928595597673 -0.25790967448939001 0 -0.40644367116261759 -0.26933550009943341 0 -0.40220594800304021 -0.25293233307518609 0 -0.41459928595597673 -0.25790967448939001 0 -0.41466813127082142 -0.24184035413310251 0 -0.41459928595597673 -0.25790967448939001 0 -0.42775875008346192 -0.25507980811954323 0 -0.41466813127082142 -0.24184035413310251 0 -0.41459928595597673 -0.25790967448939001 0 -0.42191992925994232 -0.27036037701968468 0 -0.42775875008346192 -0.25507980811954323 0 -0.40644367116261759 -0.26933550009943341 0 -0.41206191028808969 -0.27659566112432887 0 -0.42191992925994232 -0.27036037701968468 0 -0.40459857025975621 -0.28097081354976228 0 -0.40644367116261759 -0.26933550009943341 0 -0.41206191028808969 -0.27659566112432887 0 -0.41620122749958632 -0.28481054703811581 0 -0.40459857025975621 -0.28097081354976228 0 -0.41206191028808969 -0.27659566112432887 0 -0.41620122749958632 -0.28481054703811581 0 -0.41206191028808969 -0.27659566112432887 0 -0.42191992925994232 -0.27036037701968468 0 -0.41459928595597673 -0.25790967448939001 0 -0.40644367116261759 -0.26933550009943341 0 -0.42191992925994232 -0.27036037701968468 0 -0.43957983862160288 -0.2813442194983079 0 -0.42191992925994232 -0.27036037701968468 0 -0.43680511815892142 -0.2660007677910407 0 -0.43957983862160288 -0.2813442194983079 0 -0.41620122749958632 -0.28481054703811581 0 -0.42191992925994232 -0.27036037701968468 0 -0.44165736388207272 -0.25360003737878889 0 -0.43680511815892142 -0.2660007677910407 0 -0.42775875008346192 -0.25507980811954323 0 -0.42191992925994232 -0.27036037701968468 0 -0.43680511815892142 -0.2660007677910407 0 -0.42775875008346192 -0.25507980811954323 0 -0.32577683519746242 -0.25897579210934468 0 -0.30798481169360081 -0.26465381523239789 0 -0.31421725341188372 -0.24977587129631751 0 -0.32577683519746242 -0.25897579210934468 0 -0.31511343508082401 -0.27781322935613839 0 -0.33065211668571071 -0.27437360408278932 0 -0.32577683519746242 -0.25897579210934468 0 -0.31511343508082401 -0.27781322935613839 0 -0.30798481169360081 -0.26465381523239789 0 -0.31511343508082401 -0.27781322935613839 0 -0.33065211668571071 -0.27437360408278932 0 -0.32673865940135971 -0.29036850998253821 0 -0.33065211668571071 -0.27437360408278932 0 -0.3425640544848888 -0.26114950363554529 0 -0.3458528524608297 -0.27955870857394483 0 -0.32577683519746242 -0.25897579210934468 0 -0.33065211668571071 -0.27437360408278932 0 -0.3425640544848888 -0.26114950363554529 0 -0.32577683519746242 -0.25897579210934468 0 -0.3425640544848888 -0.26114950363554529 0 -0.34161545739809862 -0.2441761224370865 0 -0.3425640544848888 -0.26114950363554529 0 -0.35707845064694121 -0.24935767075674509 0 -0.34161545739809862 -0.2441761224370865 0 -0.3425640544848888 -0.26114950363554529 0 -0.3649670455202999 -0.26874890716535171 0 -0.35707845064694121 -0.24935767075674509 0 -0.3649670455202999 -0.26874890716535171 0 -0.35707845064694121 -0.24935767075674509 0 -0.37969836118369482 -0.26041778922000308 0 -0.36999160380854529 -0.25160890498862648 0 -0.3649670455202999 -0.26874890716535171 0 -0.36999160380854529 -0.25160890498862648 0 -0.3649670455202999 -0.26874890716535171 0 -0.35707845064694121 -0.24935767075674509 0 -0.37969836118369482 -0.26041778922000308 0 -0.3649670455202999 -0.26874890716535171 0 -0.3649670455202999 -0.26874890716535171 0 -0.3458528524608297 -0.27955870857394483 0 -0.37089355010314762 -0.28331705945197572 0 -0.37812768531643998 -0.2740521224023964 0 -0.3649670455202999 -0.26874890716535171 0 -0.37089355010314762 -0.28331705945197572 0 -0.3649670455202999 -0.26874890716535171 0 -0.37089355010314762 -0.28331705945197572 0 -0.37812768531643998 -0.2740521224023964 0 -0.37969836118369482 -0.26041778922000308 0 -0.3649670455202999 -0.26874890716535171 0 -0.3649670455202999 -0.26874890716535171 0 -0.3458528524608297 -0.27955870857394483 0 -0.3425640544848888 -0.26114950363554529 0 -0.3649670455202999 -0.26874890716535171 0 -0.3458528524608297 -0.27955870857394483 0 -0.3458528524608297 -0.27955870857394483 0 -0.35490209917173382 -0.29713784607450577 0 -0.33298414365747597 -0.29639048041041038 0 -0.3458528524608297 -0.27955870857394483 0 -0.37089355010314762 -0.28331705945197572 0 -0.35490209917173382 -0.29713784607450577 0 -0.35490209917173382 -0.29713784607450577 0 -0.33298414365747597 -0.29639048041041038 0 -0.37682005468599161 -0.29788521173860111 0 -0.37089355010314762 -0.28331705945197572 0 -0.35490209917173382 -0.29713784607450577 0 -0.37682005468599161 -0.29788521173860111 0 -0.37089355010314762 -0.28331705945197572 0 -0.37682005468599161 -0.29788521173860111 0 -0.35490209917173382 -0.29713784607450577 0 -0.37682005468599161 -0.29788521173860111 0 -0.36188894867209143 -0.31041699320339777 0 -0.35490209917173382 -0.29713784607450577 0 -0.37576395745092178 -0.3050725196501074 0 -0.36188894867209143 -0.31041699320339777 0 -0.37031507652163809 -0.31287943285871039 0 -0.37576395745092178 -0.3050725196501074 0 -0.37719713711566749 -0.31197748083789167 0 -0.37031507652163809 -0.31287943285871039 0 -0.37682005468599161 -0.29788521173860111 0 -0.37576395745092178 -0.3050725196501074 0 -0.36188894867209143 -0.31041699320339777 0 -0.36188894867209143 -0.31041699320339777 0 -0.35490209917173382 -0.29713784607450577 0 -0.34709214139205768 -0.31270838654372951 0 -0.35490209917173382 -0.29713784607450577 0 -0.34179204247812539 -0.30372858581904438 0 -0.34709214139205768 -0.31270838654372951 0 -0.35490209917173382 -0.29713784607450577 0 -0.34179204247812539 -0.30372858581904438 0 -0.33298414365747597 -0.29639048041041038 0 -0.33218978569123447 -0.30867763024753198 0 -0.34179204247812539 -0.30372858581904438 0 -0.34709214139205768 -0.31270838654372951 0 -0.33218978569123447 -0.30867763024753198 0 -0.34179204247812539 -0.30372858581904438 0 -0.33298414365747597 -0.29639048041041038 0 -0.33218978569123447 -0.30867763024753198 0 -0.33298414365747597 -0.29639048041041038 0 -0.32551389594434832 -0.29891105756718273 0 -0.3458528524608297 -0.27955870857394483 0 -0.32673865940135971 -0.29036850998253821 0 -0.3458528524608297 -0.27955870857394483 0 -0.33298414365747597 -0.29639048041041038 0 -0.32673865940135971 -0.29036850998253821 0 -0.33065211668571071 -0.27437360408278932 0 -0.3458528524608297 -0.27955870857394483 0 -0.32673865940135971 -0.29036850998253821 0 -0.33298414365747597 -0.29639048041041038 0 -0.32673865940135971 -0.29036850998253821 0 -0.32551389594434832 -0.29891105756718273 0 -0.32673865940135971 -0.29036850998253821 0 -0.31615320843671613 -0.29356321322440693 0 -0.32551389594434832 -0.29891105756718273 0 -0.31511343508082401 -0.27781322935613839 0 -0.32673865940135971 -0.29036850998253821 0 -0.31615320843671613 -0.29356321322440693 0 -0.31615320843671613 -0.29356321322440693 0 -0.31950368253495531 -0.30555545397102613 0 -0.30878428388507118 -0.30170417431472779 0 -0.31950368253495531 -0.30555545397102613 0 -0.3116392313269683 -0.31227800665128408 0 -0.30878428388507118 -0.30170417431472779 0 -0.31950368253495531 -0.30555545397102613 0 -0.32244955285570731 -0.31946983399639112 0 -0.3116392313269683 -0.31227800665128408 0 -0.33218978569123447 -0.30867763024753198 0 -0.31950368253495531 -0.30555545397102613 0 -0.32244955285570731 -0.31946983399639112 0 -0.33218978569123447 -0.30867763024753198 0 -0.31950368253495531 -0.30555545397102613 0 -0.32551389594434832 -0.29891105756718273 0 -0.31615320843671613 -0.29356321322440693 0 -0.31950368253495531 -0.30555545397102613 0 -0.32551389594434832 -0.29891105756718273 0 -0.32244955285570731 -0.31946983399639112 0 -0.30629799224095122 -0.32640742927921629 0 -0.3116392313269683 -0.31227800665128408 0 -0.32244955285570731 -0.31946983399639112 0 -0.32074380139974629 -0.33343701228721029 0 -0.30629799224095122 -0.32640742927921629 0 -0.32244955285570731 -0.31946983399639112 0 -0.32074380139974629 -0.33343701228721029 0 -0.33561670872011118 -0.32538867032004731 0 -0.32074380139974629 -0.33343701228721029 0 -0.33040605641151349 -0.34939015350577979 0 -0.304947043925899 -0.34335287533409059 0 -0.32074380139974629 -0.33343701228721029 0 -0.33267344648675012 -0.33694306544023261 0 -0.33040605641151349 -0.34939015350577979 0 -0.32074380139974629 -0.33343701228721029 0 -0.33267344648675012 -0.33694306544023261 0 -0.33561670872011118 -0.32538867032004731 0 -0.33267344648675012 -0.33694306544023261 0 -0.34392721941562959 -0.33955642564789279 0 -0.33040605641151349 -0.34939015350577979 0 -0.33561670872011118 -0.32538867032004731 0 -0.349287455364583 -0.32600753078393868 0 -0.34392721941562959 -0.33955642564789279 0 -0.33267344648675012 -0.33694306544023261 0 -0.33561670872011118 -0.32538867032004731 0 -0.34392721941562959 -0.33955642564789279 0 -0.33218978569123447 -0.30867763024753198 0 -0.33561670872011118 -0.32538867032004731 0 -0.34709214139205768 -0.31270838654372951 0 -0.33218978569123447 -0.30867763024753198 0 -0.32244955285570731 -0.31946983399639112 0 -0.33561670872011118 -0.32538867032004731 0 -0.33561670872011118 -0.32538867032004731 0 -0.34709214139205768 -0.31270838654372951 0 -0.349287455364583 -0.32600753078393868 0 -0.36188894867209143 -0.31041699320339777 0 -0.349287455364583 -0.32600753078393868 0 -0.36280179597878331 -0.32525767970938912 0 -0.36188894867209143 -0.31041699320339777 0 -0.34709214139205768 -0.31270838654372951 0 -0.349287455364583 -0.32600753078393868 0 -0.36188894867209143 -0.31041699320339777 0 -0.36280179597878331 -0.32525767970938912 0 -0.37031507652163809 -0.31287943285871039 0 -0.37746168828861648 -0.32880316406910598 0 -0.36280179597878331 -0.32525767970938912 0 -0.37456534516798468 -0.31943469669369101 0 -0.36280179597878331 -0.32525767970938912 0 -0.37456534516798468 -0.31943469669369101 0 -0.37031507652163809 -0.31287943285871039 0 -0.37719713711566749 -0.31197748083789167 0 -0.37456534516798468 -0.31943469669369101 0 -0.37031507652163809 -0.31287943285871039 0 -0.37630104444955431 -0.33953575302191552 0 -0.36280179597878331 -0.32525767970938912 0 -0.35900277781907919 -0.33873387737807908 0 -0.37630104444955431 -0.33953575302191552 0 -0.35900277781907919 -0.33873387737807908 0 -0.3662355090989915 -0.348226851570058 0 -0.37746168828861648 -0.32880316406910598 0 -0.37630104444955431 -0.33953575302191552 0 -0.36280179597878331 -0.32525767970938912 0 -0.37630104444955431 -0.33953575302191552 0 -0.36280179597878331 -0.32525767970938912 0 -0.349287455364583 -0.32600753078393868 0 -0.36280179597878331 -0.32525767970938912 0 -0.35900277781907919 -0.33873387737807908 0 -0.349287455364583 -0.32600753078393868 0 -0.35900277781907919 -0.33873387737807908 0 -0.34392721941562959 -0.33955642564789279 0 -0.34392721941562959 -0.33955642564789279 0 -0.34378478126742867 -0.35168705731137051 0 -0.35474622765707731 -0.3530842238088211 0 -0.34378478126742867 -0.35168705731137051 0 -0.35474622765707731 -0.3530842238088211 0 -0.34605962158549469 -0.3647174262829882 0 -0.35474622765707731 -0.3530842238088211 0 -0.34605962158549469 -0.3647174262829882 0 -0.35474622765707731 -0.3530842238088211 0 -0.3645004591251928 -0.35797240650737622 0 -0.3557305472228397 -0.36248105220686111 0 -0.35900277781907919 -0.33873387737807908 0 -0.34392721941562959 -0.33955642564789279 0 -0.35474622765707731 -0.3530842238088211 0 -0.35900277781907919 -0.33873387737807908 0 -0.35474622765707731 -0.3530842238088211 0 -0.3662355090989915 -0.348226851570058 0 -0.35474622765707731 -0.3530842238088211 0 -0.3662355090989915 -0.348226851570058 0 -0.3645004591251928 -0.35797240650737622 0 -0.37501505732771462 -0.35270295609204683 0 -0.3662355090989915 -0.348226851570058 0 -0.3645004591251928 -0.35797240650737622 0 -0.37501505732771462 -0.35270295609204683 0 -0.3645004591251928 -0.35797240650737622 0 -0.37245563567842283 -0.36342144099550278 0 -0.37501505732771462 -0.35270295609204683 0 -0.37630104444955431 -0.33953575302191552 0 -0.3662355090989915 -0.348226851570058 0 -0.35160698284412462 -0.37014915498247181 0 -0.36791003929668897 -0.37531597356073781 0 -0.3617394449023093 -0.36648204945264778 0 -0.35160698284412462 -0.37014915498247181 0 -0.36791003929668897 -0.37531597356073781 0 -0.37245563567842283 -0.36342144099550278 0 -0.3617394449023093 -0.36648204945264778 0 -0.36791003929668897 -0.37531597356073781 0 -0.37576852049830373 -0.37424143402576782 0 -0.37245563567842283 -0.36342144099550278 0 -0.36791003929668897 -0.37531597356073781 0 -0.3645004591251928 -0.35797240650737622 0 -0.3617394449023093 -0.36648204945264778 0 -0.3557305472228397 -0.36248105220686111 0 -0.3645004591251928 -0.35797240650737622 0 -0.37245563567842283 -0.36342144099550278 0 -0.3617394449023093 -0.36648204945264778 0 -0.35474622765707731 -0.3530842238088211 0 -0.3557305472228397 -0.36248105220686111 0 -0.34605962158549469 -0.3647174262829882 0 -0.3617394449023093 -0.36648204945264778 0 -0.35160698284412462 -0.37014915498247181 0 -0.3557305472228397 -0.36248105220686111 0 -0.35160698284412462 -0.37014915498247181 0 -0.3557305472228397 -0.36248105220686111 0 -0.34605962158549469 -0.3647174262829882 0 -0.34605962158549469 -0.3647174262829882 0 -0.34384142010082153 -0.36768806715090302 0 -0.34148886242004811 -0.36564807466747679 0 -0.34605962158549469 -0.3647174262829882 0 -0.34384142010082153 -0.36768806715090302 0 -0.35160698284412462 -0.37014915498247181 0 -0.34384142010082153 -0.36768806715090302 0 -0.3473193197300139 -0.3757558619871843 0 -0.35160698284412462 -0.37014915498247181 0 -0.34384142010082153 -0.36768806715090302 0 -0.35160698284412462 -0.37014915498247181 0 -0.34605962158549469 -0.3647174262829882 0 -0.35160698284412462 -0.37014915498247181 0 -0.34605962158549469 -0.3647174262829882 0 -0.34384142010082153 -0.36768806715090302 0 -0.34384142010082153 -0.36768806715090302 0 -0.3394050004453173 -0.36792428240374231 0 -0.33667947897576161 -0.37727942084292682 0 -0.34384142010082153 -0.36768806715090302 0 -0.33667947897576161 -0.37727942084292682 0 -0.34384142010082153 -0.36768806715090302 0 -0.3473193197300139 -0.3757558619871843 0 -0.33667947897576161 -0.37727942084292682 0 -0.32081326145083022 -0.36031614808850881 0 -0.33667947897576161 -0.37727942084292682 0 -0.3394050004453173 -0.36792428240374231 0 -0.33336643958396978 -0.36601612799497002 0 -0.33667947897576161 -0.37727942084292682 0 -0.33336643958396978 -0.36601612799497002 0 -0.32081326145083022 -0.36031614808850881 0 -0.33667947897576161 -0.37727942084292682 0 -0.33132451367914112 -0.3606866026678322 0 -0.33336643958396978 -0.36601612799497002 0 -0.32081326145083022 -0.36031614808850881 0 -0.33132451367914112 -0.3606866026678322 0 -0.33336643958396978 -0.36601612799497002 0 -0.33697234037925838 -0.36236486777317728 0 -0.34605962158549469 -0.3647174262829882 0 -0.33697234037925838 -0.36236486777317728 0 -0.34148886242004811 -0.36564807466747679 0 -0.3394050004453173 -0.36792428240374231 0 -0.33697234037925838 -0.36236486777317728 0 -0.34148886242004811 -0.36564807466747679 0 -0.3394050004453173 -0.36792428240374231 0 -0.33336643958396978 -0.36601612799497002 0 -0.33697234037925838 -0.36236486777317728 0 -0.34384142010082153 -0.36768806715090302 0 -0.3394050004453173 -0.36792428240374231 0 -0.34148886242004811 -0.36564807466747679 0 -0.34605962158549469 -0.3647174262829882 0 -0.33040605641151349 -0.34939015350577979 0 -0.34378478126742867 -0.35168705731137051 0 -0.34605962158549469 -0.3647174262829882 0 -0.33040605641151349 -0.34939015350577979 0 -0.34605962158549469 -0.3647174262829882 0 -0.33697234037925838 -0.36236486777317728 0 -0.33040605641151349 -0.34939015350577979 0 -0.34392721941562959 -0.33955642564789279 0 -0.34378478126742867 -0.35168705731137051 0 -0.33040605641151349 -0.34939015350577979 0 -0.33132451367914112 -0.3606866026678322 0 -0.33697234037925838 -0.36236486777317728 0 -0.33040605641151349 -0.34939015350577979 0 -0.33040605641151349 -0.34939015350577979 0 -0.32081326145083022 -0.36031614808850881 0 -0.304947043925899 -0.34335287533409059 0 -0.32081326145083022 -0.36031614808850881 0 -0.304947043925899 -0.34335287533409059 0 -0.33132451367914112 -0.3606866026678322 0 -0.33040605641151349 -0.34939015350577979 0 -0.32081326145083022 -0.36031614808850881 0 -0.32440986188565729 -0.37270080156259489 0 -0.32081326145083022 -0.36031614808850881 0 -0.31106328263090982 -0.36800475596674848 0 -0.32440986188565729 -0.37270080156259489 0 -0.32081326145083022 -0.36031614808850881 0 -0.33667947897576161 -0.37727942084292682 0 -0.32440986188565729 -0.37270080156259489 0 -0.31106328263090982 -0.36800475596674848 0 -0.31317375432424149 -0.38208007184035081 0 -0.31106328263090982 -0.36800475596674848 0 -0.30477466129399572 -0.35837215094430408 0 -0.2945929359319488 -0.36760614731534108 0 -0.32081326145083022 -0.36031614808850881 0 -0.31106328263090982 -0.36800475596674848 0 -0.30477466129399572 -0.35837215094430408 0 -0.2945929359319488 -0.36760614731534108 0 -0.31317375432424149 -0.38208007184035081 0 -0.31106328263090982 -0.36800475596674848 0 -0.2945929359319488 -0.36760614731534108 0 -0.31317375432424149 -0.38208007184035081 0 -0.30477466129399572 -0.35837215094430408 0 -0.29245678253039098 -0.35258082801683138 0 -0.2945929359319488 -0.36760614731534108 0 -0.32081326145083022 -0.36031614808850881 0 -0.30477466129399572 -0.35837215094430408 0 -0.304947043925899 -0.34335287533409059 0 -0.30477466129399572 -0.35837215094430408 0 -0.29245678253039098 -0.35258082801683138 0 -0.304947043925899 -0.34335287533409059 0 -0.29245678253039098 -0.35258082801683138 0 -0.27601211753965582 -0.35313222279033191 0 -0.28440521569258082 -0.34149228361744682 0 -0.29245678253039098 -0.35258082801683138 0 -0.2945929359319488 -0.36760614731534108 0 -0.27601211753965582 -0.35313222279033191 0 -0.29245678253039098 -0.35258082801683138 0 -0.28440521569258082 -0.34149228361744682 0 -0.304947043925899 -0.34335287533409059 0 -0.2945929359319488 -0.36760614731534108 0 -0.27987861861344199 -0.36674592141788198 0 -0.27601211753965582 -0.35313222279033191 0 -0.2945929359319488 -0.36760614731534108 0 -0.27601211753965582 -0.35313222279033191 0 -0.2945929359319488 -0.36760614731534108 0 -0.27987861861344199 -0.36674592141788198 0 -0.2808665902171914 -0.38228580422035652 0 -0.26678221966742222 -0.3646399338773868 0 -0.2808665902171914 -0.38228580422035652 0 -0.27987861861344199 -0.36674592141788198 0 -0.26678221966742222 -0.3646399338773868 0 -0.2808665902171914 -0.38228580422035652 0 -0.27987861861344199 -0.36674592141788198 0 -0.26678221966742222 -0.3646399338773868 0 -0.27601211753965582 -0.35313222279033191 0 -0.26678221966742222 -0.3646399338773868 0 -0.25938421221386299 -0.38242260424217978 0 -0.2452998416640946 -0.36477673389921211 0 -0.25269784911765092 -0.34699406353441858 0 -0.27601211753965582 -0.35313222279033191 0 -0.25743129914736268 -0.33865829826532268 0 -0.26678221966742222 -0.3646399338773868 0 -0.25269784911765092 -0.34699406353441858 0 -0.27601211753965582 -0.35313222279033191 0 -0.26678221966742222 -0.3646399338773868 0 -0.25269784911765092 -0.34699406353441858 0 -0.26678221966742222 -0.3646399338773868 0 -0.25269784911765092 -0.34699406353441858 0 -0.2452998416640946 -0.36477673389921211 0 -0.27601211753965582 -0.35313222279033191 0 -0.25743129914736268 -0.33865829826532268 0 -0.27601211753965582 -0.35313222279033191 0 -0.27044436538280059 -0.34111632069956299 0 -0.25743129914736268 -0.33865829826532268 0 -0.27601211753965582 -0.35313222279033191 0 -0.27044436538280059 -0.34111632069956299 0 -0.28440521569258082 -0.34149228361744682 0 -0.27621603835147168 -0.33027839755104138 0 -0.27044436538280059 -0.34111632069956299 0 -0.28440521569258082 -0.34149228361744682 0 -0.27621603835147168 -0.33027839755104138 0 -0.26858322842119509 -0.33433735121453573 0 -0.26421331744216298 -0.32943061110636401 0 -0.27621603835147168 -0.33027839755104138 0 -0.26858322842119509 -0.33433735121453573 0 -0.27044436538280059 -0.34111632069956299 0 -0.26858322842119509 -0.33433735121453573 0 -0.27044436538280059 -0.34111632069956299 0 -0.26348614366539269 -0.33464536090729041 0 -0.25269784911765092 -0.34699406353441858 0 -0.2601150759189611 -0.3291651954159735 0 -0.25269784911765092 -0.34699406353441858 0 -0.2601150759189611 -0.3291651954159735 0 -0.25743129914736268 -0.33865829826532268 0 -0.27044436538280059 -0.34111632069956299 0 -0.26348614366539269 -0.33464536090729041 0 -0.25743129914736268 -0.33865829826532268 0 -0.26348614366539269 -0.33464536090729041 0 -0.2601150759189611 -0.3291651954159735 0 -0.25743129914736268 -0.33865829826532268 0 -0.26858322842119509 -0.33433735121453573 0 -0.26348614366539269 -0.33464536090729041 0 -0.26421331744216298 -0.32943061110636401 0 -0.26348614366539269 -0.33464536090729041 0 -0.26421331744216298 -0.32943061110636401 0 -0.2601150759189611 -0.3291651954159735 0 -0.25993101682886932 -0.31889206187407287 0 -0.25469452373499762 -0.30722313484128749 0 -0.2494260049788683 -0.31746489113439402 0 -0.2601150759189611 -0.3291651954159735 0 -0.25993101682886932 -0.31889206187407287 0 -0.2494260049788683 -0.31746489113439402 0 -0.26421331744216298 -0.32943061110636401 0 -0.2601150759189611 -0.3291651954159735 0 -0.25993101682886932 -0.31889206187407287 0 -0.26421331744216298 -0.32943061110636401 0 -0.25993101682886932 -0.31889206187407287 0 -0.27321460887603632 -0.30942632982525498 0 -0.27621603835147168 -0.33027839755104138 0 -0.28908082640096788 -0.32638960257967248 0 -0.27321460887603632 -0.30942632982525498 0 -0.26421331744216298 -0.32943061110636401 0 -0.27321460887603632 -0.30942632982525498 0 -0.28908082640096788 -0.32638960257967248 0 -0.27321460887603632 -0.30942632982525498 0 -0.27621603835147168 -0.33027839755104138 0 -0.26421331744216298 -0.32943061110636401 0 -0.27321460887603632 -0.30942632982525498 0 -0.28908082640096788 -0.32638960257967248 0 -0.29608772242085762 -0.30837888524759871 0 -0.27321460887603632 -0.30942632982525498 0 -0.28908082640096788 -0.32638960257967248 0 -0.28440521569258082 -0.34149228361744682 0 -0.304947043925899 -0.34335287533409059 0 -0.27621603835147168 -0.33027839755104138 0 -0.28908082640096788 -0.32638960257967248 0 -0.28440521569258082 -0.34149228361744682 0 -0.28908082640096788 -0.32638960257967248 0 -0.304947043925899 -0.34335287533409059 0 -0.32074380139974629 -0.33343701228721029 0 -0.304947043925899 -0.34335287533409059 0 -0.30629799224095122 -0.32640742927921629 0 -0.28908082640096788 -0.32638960257967248 0 -0.304947043925899 -0.34335287533409059 0 -0.30629799224095122 -0.32640742927921629 0 -0.30629799224095122 -0.32640742927921629 0 -0.3116392313269683 -0.31227800665128408 0 -0.29608772242085762 -0.30837888524759871 0 -0.28908082640096788 -0.32638960257967248 0 -0.30629799224095122 -0.32640742927921629 0 -0.29608772242085762 -0.30837888524759871 0 -0.30878428388507118 -0.30170417431472779 0 -0.30257535950331932 -0.29121923704559499 0 -0.29608772242085762 -0.30837888524759871 0 -0.3116392313269683 -0.31227800665128408 0 -0.30878428388507118 -0.30170417431472779 0 -0.29608772242085762 -0.30837888524759871 0 -0.31511343508082401 -0.27781322935613839 0 -0.31615320843671613 -0.29356321322440693 0 -0.30257535950331932 -0.29121923704559499 0 -0.31615320843671613 -0.29356321322440693 0 -0.30878428388507118 -0.30170417431472779 0 -0.30257535950331932 -0.29121923704559499 0 -0.31511343508082401 -0.27781322935613839 0 -0.30257535950331932 -0.29121923704559499 0 -0.30186967514470631 -0.27796386812733742 0 -0.30257535950331932 -0.29121923704559499 0 -0.28167541002104313 -0.29062322282537112 0 -0.29608772242085762 -0.30837888524759871 0 -0.30257535950331932 -0.29121923704559499 0 -0.28167541002104313 -0.29062322282537112 0 -0.30186967514470631 -0.27796386812733742 0 -0.28167541002104313 -0.29062322282537112 0 -0.29608772242085762 -0.30837888524759871 0 -0.27321460887603632 -0.30942632982525498 0 -0.28167541002104313 -0.29062322282537112 0 -0.27321460887603632 -0.30942632982525498 0 -0.28167541002104313 -0.29062322282537112 0 -0.27321460887603632 -0.30942632982525498 0 -0.25754389589834492 -0.29267207960278718 0 -0.27321460887603632 -0.30942632982525498 0 -0.25469452373499762 -0.30722313484128749 0 -0.25754389589834492 -0.29267207960278718 0 -0.27321460887603632 -0.30942632982525498 0 -0.25754389589834492 -0.29267207960278718 0 -0.25469452373499762 -0.30722313484128749 0 -0.25754389589834492 -0.29267207960278718 0 -0.24072416822125611 -0.30184362229434508 0 -0.25993101682886932 -0.31889206187407287 0 -0.27321460887603632 -0.30942632982525498 0 -0.25469452373499762 -0.30722313484128749 0 -0.28167541002104313 -0.29062322282537112 0 -0.25754389589834492 -0.29267207960278718 0 -0.26609549321717318 -0.27038600033383992 0 -0.28167541002104313 -0.29062322282537112 0 -0.26609549321717318 -0.27038600033383992 0 -0.29013621116605032 -0.27182011582548737 0 -0.25754389589834492 -0.29267207960278718 0 -0.26609549321717318 -0.27038600033383992 0 -0.24718685023563691 -0.27875123027958087 0 -0.26609549321717318 -0.27038600033383992 0 -0.2483490975252734 -0.26098873334868322 0 -0.24718685023563691 -0.27875123027958087 0 -0.26609549321717318 -0.27038600033383992 0 -0.2483490975252734 -0.26098873334868322 0 -0.2582168116042447 -0.2439014490639565 0 -0.26609549321717318 -0.27038600033383992 0 -0.28073519909821221 -0.25162370631188929 0 -0.2582168116042447 -0.2439014490639565 0 -0.26609549321717318 -0.27038600033383992 0 -0.28073519909821221 -0.25162370631188929 0 -0.29013621116605032 -0.27182011582548737 0 -0.28073519909821221 -0.25162370631188929 0 -0.29013621116605032 -0.27182011582548737 0 -0.29859701231105729 -0.25301700882560368 0 -0.29013621116605032 -0.27182011582548737 0 -0.29859701231105729 -0.25301700882560368 0 -0.28167541002104313 -0.29062322282537112 0 -0.29013621116605032 -0.27182011582548737 0 -0.28167541002104313 -0.29062322282537112 0 -0.29013621116605032 -0.27182011582548737 0 -0.30186967514470631 -0.27796386812733742 0 -0.29013621116605032 -0.27182011582548737 0 -0.30186967514470631 -0.27796386812733742 0 -0.30798481169360081 -0.26465381523239789 0 -0.31511343508082401 -0.27781322935613839 0 -0.30186967514470631 -0.27796386812733742 0 -0.30798481169360081 -0.26465381523239789 0 -0.29013621116605032 -0.27182011582548737 0 -0.30798481169360081 -0.26465381523239789 0 -0.29859701231105729 -0.25301700882560368 0 -0.30798481169360081 -0.26465381523239789 0 -0.29859701231105729 -0.25301700882560368 0 -0.31421725341188372 -0.24977587129631751 0 -0.33796228302189513 -0.4595255727132167 0 -0.33234589271538922 -0.44480996408757179 0 -0.32640026466812011 -0.46081896178250181 0 -0.33796228302189513 -0.4595255727132167 0 -0.33234589271538922 -0.44480996408757179 0 -0.35319602351827412 -0.45776170704885039 0 -0.33796228302189513 -0.4595255727132167 0 -0.32640026466812011 -0.46081896178250181 0 -0.33318196746883988 -0.47121638454265508 0 -0.33796228302189513 -0.4595255727132167 0 -0.33318196746883988 -0.47121638454265508 0 -0.34642386304625039 -0.46572223054776302 0 -0.33234589271538922 -0.44480996408757179 0 -0.35319602351827412 -0.45776170704885039 0 -0.34417399017822298 -0.44321594322297297 0 -0.33234589271538922 -0.44480996408757179 0 -0.35319602351827412 -0.45776170704885039 0 -0.33234589271538922 -0.44480996408757179 0 -0.34417399017822298 -0.44321594322297297 0 -0.3357600199570368 -0.42926052953436999 0 -0.33234589271538922 -0.44480996408757179 0 -0.3114957619125025 -0.43185822112629579 0 -0.33234589271538922 -0.44480996408757179 0 -0.31256905993156642 -0.45599936109409522 0 -0.3094409967240645 -0.4445248742670016 0 -0.33234589271538922 -0.44480996408757179 0 -0.3114957619125025 -0.43185822112629579 0 -0.3094409967240645 -0.4445248742670016 0 -0.31256905993156642 -0.45599936109409522 0 -0.32640026466812011 -0.46081896178250181 0 -0.31594212020290968 -0.47254352647497072 0 -0.32640026466812011 -0.46081896178250181 0 -0.31594212020290968 -0.47254352647497072 0 -0.33318196746883988 -0.47121638454265508 0 -0.33234589271538922 -0.44480996408757179 0 -0.31256905993156642 -0.45599936109409522 0 -0.32640026466812011 -0.46081896178250181 0 -0.31594212020290968 -0.47254352647497072 0 -0.32571643119753041 -0.48341426386358383 0 -0.33318196746883988 -0.47121638454265508 0 -0.31594212020290968 -0.47254352647497072 0 -0.32571643119753041 -0.48341426386358383 0 -0.3142379471820072 -0.49087834217350051 0 -0.32571643119753041 -0.48341426386358383 0 -0.3142379471820072 -0.49087834217350051 0 -0.33008082446145748 -0.5 0 -0.3142379471820072 -0.49087834217350051 0 -0.33008082446145748 -0.5 0 -0.30187341860680589 -0.5 0 -0.33008082446145748 -0.5 0 -0.33835912005968188 -0.48593346247900621 0 -0.35828823031610901 -0.5 0 -0.32571643119753041 -0.48341426386358383 0 -0.33008082446145748 -0.5 0 -0.33835912005968188 -0.48593346247900621 0 -0.33835912005968188 -0.48593346247900621 0 -0.33318196746883988 -0.47121638454265508 0 -0.35033712925844102 -0.47766396546025452 0 -0.33318196746883988 -0.47121638454265508 0 -0.35033712925844102 -0.47766396546025452 0 -0.34642386304625039 -0.46572223054776302 0 -0.32571643119753041 -0.48341426386358383 0 -0.33835912005968188 -0.48593346247900621 0 -0.33318196746883988 -0.47121638454265508 0 -0.35033712925844102 -0.47766396546025452 0 -0.36650464836053492 -0.47758333459014829 0 -0.36063794808603339 -0.46630538924086617 0 -0.35033712925844102 -0.47766396546025452 0 -0.36063794808603339 -0.46630538924086617 0 -0.34642386304625039 -0.46572223054776302 0 -0.33835912005968188 -0.48593346247900621 0 -0.35033712925844102 -0.47766396546025452 0 -0.35828823031610901 -0.5 0 -0.35033712925844102 -0.47766396546025452 0 -0.35828823031610901 -0.5 0 -0.36650464836053492 -0.47758333459014829 0 -0.38649563617076049 -0.5 0 -0.35828823031610901 -0.5 0 -0.36650464836053492 -0.47758333459014829 0 -0.36650464836053492 -0.47758333459014829 0 -0.3749125057523493 -0.4641870694620962 0 -0.36063794808603339 -0.46630538924086617 0 -0.38257104150817378 -0.44558539909593659 0 -0.3749125057523493 -0.4641870694620962 0 -0.36138234587818158 -0.45426427734382602 0 -0.3749125057523493 -0.4641870694620962 0 -0.36138234587818158 -0.45426427734382602 0 -0.36063794808603339 -0.46630538924086617 0 -0.36063794808603339 -0.46630538924086617 0 -0.35319602351827412 -0.45776170704885039 0 -0.34642386304625039 -0.46572223054776302 0 -0.36138234587818158 -0.45426427734382602 0 -0.35319602351827412 -0.45776170704885039 0 -0.35413130606104948 -0.44909707738868448 0 -0.36138234587818158 -0.45426427734382602 0 -0.36063794808603339 -0.46630538924086617 0 -0.35319602351827412 -0.45776170704885039 0 -0.33796228302189513 -0.4595255727132167 0 -0.35319602351827412 -0.45776170704885039 0 -0.34642386304625039 -0.46572223054776302 0 -0.34917789899954887 -0.43960621791601218 0 -0.34417399017822298 -0.44321594322297297 0 -0.3478317041277888 -0.43428891422125909 0 -0.34417399017822298 -0.44321594322297297 0 -0.35413130606104948 -0.44909707738868448 0 -0.35160182111049931 -0.44318126090920129 0 -0.34917789899954887 -0.43960621791601218 0 -0.34417399017822298 -0.44321594322297297 0 -0.35160182111049931 -0.44318126090920129 0 -0.34917789899954887 -0.43960621791601218 0 -0.35160182111049931 -0.44318126090920129 0 -0.35310408058168441 -0.43773875331061518 0 -0.35319602351827412 -0.45776170704885039 0 -0.34417399017822298 -0.44321594322297297 0 -0.35413130606104948 -0.44909707738868448 0 -0.36138234587818158 -0.45426427734382602 0 -0.35413130606104948 -0.44909707738868448 0 -0.3593008871480341 -0.44528990622411457 0 -0.35413130606104948 -0.44909707738868448 0 -0.35597289875446148 -0.442541016596669 0 -0.3593008871480341 -0.44528990622411457 0 -0.35597289875446148 -0.442541016596669 0 -0.3593008871480341 -0.44528990622411457 0 -0.35811375488379049 -0.43887755417772267 0 -0.35413130606104948 -0.44909707738868448 0 -0.35597289875446148 -0.442541016596669 0 -0.35160182111049931 -0.44318126090920129 0 -0.35597289875446148 -0.442541016596669 0 -0.35160182111049931 -0.44318126090920129 0 -0.35310408058168441 -0.43773875331061518 0 -0.35597289875446148 -0.442541016596669 0 -0.35310408058168441 -0.43773875331061518 0 -0.35811375488379049 -0.43887755417772267 0 -0.3593008871480341 -0.44528990622411457 0 -0.35811375488379049 -0.43887755417772267 0 -0.36466736862266619 -0.43929361107495862 0 -0.38257104150817378 -0.44558539909593659 0 -0.36138234587818158 -0.45426427734382602 0 -0.36466736862266619 -0.43929361107495862 0 -0.38257104150817378 -0.44558539909593659 0 -0.36138234587818158 -0.45426427734382602 0 -0.36138234587818158 -0.45426427734382602 0 -0.3593008871480341 -0.44528990622411457 0 -0.36466736862266619 -0.43929361107495862 0 -0.37857274293149029 -0.42876471734549271 0 -0.37441041966644201 -0.41853044649732968 0 -0.35538489801315631 -0.42903325471815951 0 -0.37857274293149029 -0.42876471734549271 0 -0.36466736862266619 -0.43929361107495862 0 -0.35538489801315631 -0.42903325471815951 0 -0.37857274293149029 -0.42876471734549271 0 -0.35538489801315631 -0.42903325471815951 0 -0.35811375488379049 -0.43887755417772267 0 -0.36466736862266619 -0.43929361107495862 0 -0.35620302754573391 -0.43383251126704991 0 -0.34839752669874718 -0.41300385642212029 0 -0.37209094330423159 -0.40089808531996213 0 -0.37441041966644201 -0.41853044649732968 0 -0.36549953895739912 -0.41199887396496521 0 -0.35538489801315631 -0.42903325471815951 0 -0.38249496913699632 -0.41100015469591239 0 -0.36549953895739912 -0.41199887396496521 0 -0.37602613074463359 -0.40570926791912437 0 -0.38249496913699632 -0.41100015469591239 0 -0.36549953895739912 -0.41199887396496521 0 -0.38249496913699632 -0.41100015469591239 0 -0.37441041966644201 -0.41853044649732968 0 -0.36549953895739912 -0.41199887396496521 0 -0.36549953895739912 -0.41199887396496521 0 -0.35538489801315631 -0.42903325471815951 0 -0.36549953895739912 -0.41199887396496521 0 -0.34839752669874718 -0.41300385642212029 0 -0.37209094330423159 -0.40089808531996213 0 -0.36549953895739912 -0.41199887396496521 0 -0.37209094330423159 -0.40089808531996213 0 -0.36549953895739912 -0.41199887396496521 0 -0.34839752669874718 -0.41300385642212029 0 -0.35538489801315631 -0.42903325471815951 0 -0.36549953895739912 -0.41199887396496521 0 -0.34839752669874718 -0.41300385642212029 0 -0.34839752669874718 -0.41300385642212029 0 -0.35538489801315631 -0.42903325471815951 0 -0.3357600199570368 -0.42926052953436999 0 -0.3478317041277888 -0.43428891422125909 0 -0.35538489801315631 -0.42903325471815951 0 -0.3357600199570368 -0.42926052953436999 0 -0.35538489801315631 -0.42903325471815951 0 -0.3357600199570368 -0.42926052953436999 0 -0.34917789899954887 -0.43960621791601218 0 -0.35310408058168441 -0.43773875331061518 0 -0.3478317041277888 -0.43428891422125909 0 -0.35310408058168441 -0.43773875331061518 0 -0.3478317041277888 -0.43428891422125909 0 -0.35306161513742162 -0.43384008959340059 0 -0.3478317041277888 -0.43428891422125909 0 -0.35306161513742162 -0.43384008959340059 0 -0.35538489801315631 -0.42903325471815951 0 -0.36466736862266619 -0.43929361107495862 0 -0.35620302754573391 -0.43383251126704991 0 -0.35538489801315631 -0.42903325471815951 0 -0.35306161513742162 -0.43384008959340059 0 -0.35620302754573391 -0.43383251126704991 0 -0.35538489801315631 -0.42903325471815951 0 -0.35310408058168441 -0.43773875331061518 0 -0.35306161513742162 -0.43384008959340059 0 -0.35620302754573391 -0.43383251126704991 0 -0.35310408058168441 -0.43773875331061518 0 -0.35811375488379049 -0.43887755417772267 0 -0.35620302754573391 -0.43383251126704991 0 -0.38353069879127127 -0.38163203803623119 0 -0.36346481754360999 -0.38175981779097429 0 -0.36791003929668897 -0.37531597356073781 0 -0.38353069879127127 -0.38163203803623119 0 -0.36346481754360999 -0.38175981779097429 0 -0.35160698284412462 -0.37014915498247181 0 -0.36346481754360999 -0.38175981779097429 0 -0.36791003929668897 -0.37531597356073781 0 -0.37610551335983561 -0.39413702328477918 0 -0.38353069879127127 -0.38163203803623119 0 -0.36346481754360999 -0.38175981779097429 0 -0.37610551335983561 -0.39413702328477918 0 -0.36346481754360999 -0.38175981779097429 0 -0.37610551335983561 -0.39413702328477918 0 -0.36346481754360999 -0.38175981779097429 0 -0.36560529781313122 -0.39247463880062672 0 -0.36346481754360999 -0.38175981779097429 0 -0.36560529781313122 -0.39247463880062672 0 -0.35703052239811178 -0.39769881565512172 0 -0.36560529781313122 -0.39247463880062672 0 -0.37209094330423159 -0.40089808531996213 0 -0.35703052239811178 -0.39769881565512172 0 -0.37610551335983561 -0.39413702328477918 0 -0.36560529781313122 -0.39247463880062672 0 -0.37209094330423159 -0.40089808531996213 0 -0.37610551335983561 -0.39413702328477918 0 -0.37209094330423159 -0.40089808531996213 0 -0.37602613074463359 -0.40570926791912437 0 -0.36549953895739912 -0.41199887396496521 0 -0.37209094330423159 -0.40089808531996213 0 -0.37602613074463359 -0.40570926791912437 0 -0.37629487057870992 -0.40149067916431569 0 -0.37209094330423159 -0.40089808531996213 0 -0.34839752669874718 -0.41300385642212029 0 -0.37209094330423159 -0.40089808531996213 0 -0.35703052239811178 -0.39769881565512172 0 -0.34839752669874718 -0.41300385642212029 0 -0.3475034212371978 -0.3977809036938752 0 -0.34022546423947331 -0.40183860272453797 0 -0.34839752669874718 -0.41300385642212029 0 -0.3475034212371978 -0.3977809036938752 0 -0.35703052239811178 -0.39769881565512172 0 -0.3475034212371978 -0.3977809036938752 0 -0.35703052239811178 -0.39769881565512172 0 -0.34623045780510991 -0.38749079344634257 0 -0.3475034212371978 -0.3977809036938752 0 -0.34623045780510991 -0.38749079344634257 0 -0.34159335278245839 -0.39476168625962771 0 -0.36346481754360999 -0.38175981779097429 0 -0.35703052239811178 -0.39769881565512172 0 -0.34623045780510991 -0.38749079344634257 0 -0.36346481754360999 -0.38175981779097429 0 -0.3473193197300139 -0.3757558619871843 0 -0.34100389918575219 -0.38190284916864559 0 -0.35160698284412462 -0.37014915498247181 0 -0.36346481754360999 -0.38175981779097429 0 -0.3473193197300139 -0.3757558619871843 0 -0.36346481754360999 -0.38175981779097429 0 -0.34100389918575219 -0.38190284916864559 0 -0.36346481754360999 -0.38175981779097429 0 -0.34623045780510991 -0.38749079344634257 0 -0.34100389918575219 -0.38190284916864559 0 -0.35160698284412462 -0.37014915498247181 0 -0.36346481754360999 -0.38175981779097429 0 -0.32440986188565729 -0.37270080156259489 0 -0.33318997219566882 -0.38195260834254191 0 -0.33667947897576161 -0.37727942084292682 0 -0.33318997219566882 -0.38195260834254191 0 -0.33667947897576161 -0.37727942084292682 0 -0.33318997219566882 -0.38195260834254191 0 -0.33667947897576161 -0.37727942084292682 0 -0.34100389918575219 -0.38190284916864559 0 -0.33318997219566882 -0.38195260834254191 0 -0.34100389918575219 -0.38190284916864559 0 -0.3473193197300139 -0.3757558619871843 0 -0.33667947897576161 -0.37727942084292682 0 -0.34100389918575219 -0.38190284916864559 0 -0.33667947897576161 -0.37727942084292682 0 -0.34100389918575219 -0.38190284916864559 0 -0.34623045780510991 -0.38749079344634257 0 -0.34100389918575219 -0.38190284916864559 0 -0.33841102596855821 -0.38947760426078792 0 -0.34623045780510991 -0.38749079344634257 0 -0.33841102596855821 -0.38947760426078792 0 -0.34159335278245839 -0.39476168625962771 0 -0.33318997219566882 -0.38195260834254191 0 -0.34100389918575219 -0.38190284916864559 0 -0.33841102596855821 -0.38947760426078792 0 -0.34623045780510991 -0.38749079344634257 0 -0.34100389918575219 -0.38190284916864559 0 -0.33318997219566882 -0.38195260834254191 0 -0.33841102596855821 -0.38947760426078792 0 -0.33274337939295218 -0.39158473010557698 0 -0.33318997219566882 -0.38195260834254191 0 -0.32576874152179608 -0.39189120557203078 0 -0.33318997219566882 -0.38195260834254191 0 -0.33274337939295218 -0.39158473010557698 0 -0.32576874152179608 -0.39189120557203078 0 -0.32912841244855839 -0.39450829284968242 0 -0.33559639466195301 -0.39722052717259471 0 -0.32788006366677641 -0.40250098545199881 0 -0.32912841244855839 -0.39450829284968242 0 -0.33274337939295218 -0.39158473010557698 0 -0.32576874152179608 -0.39189120557203078 0 -0.32912841244855839 -0.39450829284968242 0 -0.33559639466195301 -0.39722052717259471 0 -0.33274337939295218 -0.39158473010557698 0 -0.33841102596855821 -0.38947760426078792 0 -0.33559639466195301 -0.39722052717259471 0 -0.33274337939295218 -0.39158473010557698 0 -0.33841102596855821 -0.38947760426078792 0 -0.33559639466195301 -0.39722052717259471 0 -0.34159335278245839 -0.39476168625962771 0 -0.3475034212371978 -0.3977809036938752 0 -0.34159335278245839 -0.39476168625962771 0 -0.34022546423947331 -0.40183860272453797 0 -0.33559639466195301 -0.39722052717259471 0 -0.34159335278245839 -0.39476168625962771 0 -0.34022546423947331 -0.40183860272453797 0 -0.33559639466195301 -0.39722052717259471 0 -0.34022546423947331 -0.40183860272453797 0 -0.32788006366677641 -0.40250098545199881 0 -0.34022546423947331 -0.40183860272453797 0 -0.32788006366677641 -0.40250098545199881 0 -0.32831963194254171 -0.41418371360508938 0 -0.32788006366677641 -0.40250098545199881 0 -0.32576874152179608 -0.39189120557203078 0 -0.3082417371863363 -0.41536357078805991 0 -0.32576874152179608 -0.39189120557203078 0 -0.3082417371863363 -0.41536357078805991 0 -0.31067345205079122 -0.40297304657430971 0 -0.32576874152179608 -0.39189120557203078 0 -0.3082417371863363 -0.41536357078805991 0 -0.32576874152179608 -0.39189120557203078 0 -0.31035600328023122 -0.39454309529492188 0 -0.31067345205079122 -0.40297304657430971 0 -0.32912841244855839 -0.39450829284968242 0 -0.32788006366677641 -0.40250098545199881 0 -0.32576874152179608 -0.39189120557203078 0 -0.32912841244855839 -0.39450829284968242 0 -0.32576874152179608 -0.39189120557203078 0 -0.33318997219566882 -0.38195260834254191 0 -0.31317375432424149 -0.38208007184035081 0 -0.32440986188565729 -0.37270080156259489 0 -0.33318997219566882 -0.38195260834254191 0 -0.31317375432424149 -0.38208007184035081 0 -0.33318997219566882 -0.38195260834254191 0 -0.32576874152179608 -0.39189120557203078 0 -0.31317375432424149 -0.38208007184035081 0 -0.32576874152179608 -0.39189120557203078 0 -0.31317375432424149 -0.38208007184035081 0 -0.31035600328023122 -0.39454309529492188 0 -0.32576874152179608 -0.39189120557203078 0 -0.31317375432424149 -0.38208007184035081 0 -0.34417399017822298 -0.44321594322297297 0 -0.3478317041277888 -0.43428891422125909 0 -0.3357600199570368 -0.42926052953436999 0 -0.34839752669874718 -0.41300385642212029 0 -0.34022546423947331 -0.40183860272453797 0 -0.32831963194254171 -0.41418371360508938 0 -0.34839752669874718 -0.41300385642212029 0 -0.33226633429983238 -0.42124583038635088 0 -0.34839752669874718 -0.41300385642212029 0 -0.3357600199570368 -0.42926052953436999 0 -0.33226633429983238 -0.42124583038635088 0 -0.34839752669874718 -0.41300385642212029 0 -0.32831963194254171 -0.41418371360508938 0 -0.33226633429983238 -0.42124583038635088 0 -0.34839752669874718 -0.41300385642212029 0 -0.32831963194254171 -0.41418371360508938 0 -0.32831963194254171 -0.41418371360508938 0 -0.33226633429983238 -0.42124583038635088 0 -0.32271744639311822 -0.42156188657798022 0 -0.32788006366677641 -0.40250098545199881 0 -0.32831963194254171 -0.41418371360508938 0 -0.3082417371863363 -0.41536357078805991 0 -0.32831963194254171 -0.41418371360508938 0 -0.3142906732686378 -0.42168422233663161 0 -0.3082417371863363 -0.41536357078805991 0 -0.32831963194254171 -0.41418371360508938 0 -0.3082417371863363 -0.41536357078805991 0 -0.32831963194254171 -0.41418371360508938 0 -0.32271744639311822 -0.42156188657798022 0 -0.3142906732686378 -0.42168422233663161 0 -0.33234589271538922 -0.44480996408757179 0 -0.31613514190091718 -0.42948780435058093 0 -0.3114957619125025 -0.43185822112629579 0 -0.33234589271538922 -0.44480996408757179 0 -0.3357600199570368 -0.42926052953436999 0 -0.31613514190091718 -0.42948780435058093 0 -0.3142906732686378 -0.42168422233663161 0 -0.31613514190091718 -0.42948780435058093 0 -0.30783454039896002 -0.42958393323736038 0 -0.32271744639311822 -0.42156188657798022 0 -0.3142906732686378 -0.42168422233663161 0 -0.31613514190091718 -0.42948780435058093 0 -0.3357600199570368 -0.42926052953436999 0 -0.31613514190091718 -0.42948780435058093 0 -0.33226633429983238 -0.42124583038635088 0 -0.32271744639311822 -0.42156188657798022 0 -0.31613514190091718 -0.42948780435058093 0 -0.3357600199570368 -0.42926052953436999 0 -0.33226633429983238 -0.42124583038635088 0 -0.31613514190091718 -0.42948780435058093 0 -0.33226633429983238 -0.42124583038635088 0 -0.31613514190091718 -0.42948780435058093 0 -0.31613514190091718 -0.42948780435058093 0 -0.3114957619125025 -0.43185822112629579 0 -0.3114957619125025 -0.43185822112629579 0 -0.30783454039896002 -0.42958393323736038 0 -0.29634270858520939 -0.43960043062412468 0 -0.31613514190091718 -0.42948780435058093 0 -0.3114957619125025 -0.43185822112629579 0 -0.30783454039896002 -0.42958393323736038 0 -0.30331343782522491 -0.42196360581309772 0 -0.30783454039896002 -0.42958393323736038 0 -0.29157272882734891 -0.41634310820889481 0 -0.3114957619125025 -0.43185822112629579 0 -0.30783454039896002 -0.42958393323736038 0 -0.3114957619125025 -0.43185822112629579 0 -0.29634270858520939 -0.43960043062412468 0 -0.31613514190091718 -0.42948780435058093 0 -0.30783454039896002 -0.42958393323736038 0 -0.3142906732686378 -0.42168422233663161 0 -0.30331343782522491 -0.42196360581309772 0 -0.30783454039896002 -0.42958393323736038 0 -0.3142906732686378 -0.42168422233663161 0 -0.30331343782522491 -0.42196360581309772 0 -0.3082417371863363 -0.41536357078805991 0 -0.3082417371863363 -0.41536357078805991 0 -0.29157272882734891 -0.41634310820889481 0 -0.30331343782522491 -0.42196360581309772 0 -0.3082417371863363 -0.41536357078805991 0 -0.29157272882734891 -0.41634310820889481 0 -0.3082417371863363 -0.41536357078805991 0 -0.30512179815010648 -0.41267440077236472 0 -0.29157272882734891 -0.41634310820889481 0 -0.30331343782522491 -0.42196360581309772 0 -0.3082417371863363 -0.41536357078805991 0 -0.3082417371863363 -0.41536357078805991 0 -0.30512179815010648 -0.41267440077236472 0 -0.31067345205079122 -0.40297304657430971 0 -0.30512179815010648 -0.41267440077236472 0 -0.29157272882734891 -0.41634310820889481 0 -0.29482814950023328 -0.40830219942147938 0 -0.30783454039896002 -0.42958393323736038 0 -0.29157272882734891 -0.41634310820889481 0 -0.28412874470879912 -0.41485830032050902 0 -0.28962387683982849 -0.40671118620829788 0 -0.28412874470879912 -0.41485830032050902 0 -0.27887794756246431 -0.39894882893499961 0 -0.29157272882734891 -0.41634310820889481 0 -0.28962387683982849 -0.40671118620829788 0 -0.29482814950023328 -0.40830219942147938 0 -0.29157272882734891 -0.41634310820889481 0 -0.28962387683982849 -0.40671118620829788 0 -0.28412874470879912 -0.41485830032050902 0 -0.30783454039896002 -0.42958393323736038 0 -0.28525385456372598 -0.42984543912842699 0 -0.30783454039896002 -0.42958393323736038 0 -0.28412874470879912 -0.41485830032050902 0 -0.28525385456372598 -0.42984543912842699 0 -0.30783454039896002 -0.42958393323736038 0 -0.28525385456372598 -0.42984543912842699 0 -0.29634270858520939 -0.43960043062412468 0 -0.30783454039896002 -0.42958393323736038 0 -0.28412874470879912 -0.41485830032050902 0 -0.2945929359319488 -0.36760614731534108 0 -0.31317375432424149 -0.38208007184035081 0 -0.29702017227071648 -0.3821829380303548 0 -0.31317375432424149 -0.38208007184035081 0 -0.29702017227071648 -0.3821829380303548 0 -0.30212301116225498 -0.3917042965809297 0 -0.31317375432424149 -0.38208007184035081 0 -0.29702017227071648 -0.3821829380303548 0 -0.31317375432424149 -0.38208007184035081 0 -0.30212301116225498 -0.3917042965809297 0 -0.31035600328023122 -0.39454309529492188 0 -0.29702017227071648 -0.3821829380303548 0 -0.30212301116225498 -0.3917042965809297 0 -0.29299419418364941 -0.39748010249636018 0 -0.30212301116225498 -0.3917042965809297 0 -0.3038789801154857 -0.40039296044417289 0 -0.29299419418364941 -0.39748010249636018 0 -0.30212301116225498 -0.3917042965809297 0 -0.31035600328023122 -0.39454309529492188 0 -0.3038789801154857 -0.40039296044417289 0 -0.31035600328023122 -0.39454309529492188 0 -0.31067345205079122 -0.40297304657430971 0 -0.3038789801154857 -0.40039296044417289 0 -0.30512179815010648 -0.41267440077236472 0 -0.31067345205079122 -0.40297304657430971 0 -0.3038789801154857 -0.40039296044417289 0 -0.30512179815010648 -0.41267440077236472 0 -0.29482814950023328 -0.40830219942147938 0 -0.29299419418364941 -0.39748010249636018 0 -0.30512179815010648 -0.41267440077236472 0 -0.3038789801154857 -0.40039296044417289 0 -0.29299419418364941 -0.39748010249636018 0 -0.30512179815010648 -0.41267440077236472 0 -0.29299419418364941 -0.39748010249636018 0 -0.29299419418364941 -0.39748010249636018 0 -0.2808665902171914 -0.38228580422035652 0 -0.27887794756246431 -0.39894882893499961 0 -0.28962387683982849 -0.40671118620829788 0 -0.29482814950023328 -0.40830219942147938 0 -0.29299419418364941 -0.39748010249636018 0 -0.28962387683982849 -0.40671118620829788 0 -0.29299419418364941 -0.39748010249636018 0 -0.27887794756246431 -0.39894882893499961 0 -0.2945929359319488 -0.36760614731534108 0 -0.29702017227071648 -0.3821829380303548 0 -0.2808665902171914 -0.38228580422035652 0 -0.29702017227071648 -0.3821829380303548 0 -0.29299419418364941 -0.39748010249636018 0 -0.2808665902171914 -0.38228580422035652 0 -0.29702017227071648 -0.3821829380303548 0 -0.2808665902171914 -0.38228580422035652 0 -0.29299419418364941 -0.39748010249636018 0 -0.2808665902171914 -0.38228580422035652 0 -0.2808665902171914 -0.38228580422035652 0 -0.25938421221386299 -0.38242260424217978 0 -0.2808665902171914 -0.38228580422035652 0 -0.26988792475303891 -0.39094747620029929 0 -0.25938421221386299 -0.38242260424217978 0 -0.26678221966742222 -0.3646399338773868 0 -0.2808665902171914 -0.38228580422035652 0 -0.25938421221386299 -0.38242260424217978 0 -0.2808665902171914 -0.38228580422035652 0 -0.26988792475303891 -0.39094747620029929 0 -0.27887794756246431 -0.39894882893499961 0 -0.26988792475303891 -0.39094747620029929 0 -0.27887794756246431 -0.39894882893499961 0 -0.26042294901863672 -0.40013266740365983 0 -0.28412874470879912 -0.41485830032050902 0 -0.27887794756246431 -0.39894882893499961 0 -0.26042294901863672 -0.40013266740365983 0 -0.26988792475303891 -0.39094747620029929 0 -0.26042294901863672 -0.40013266740365983 0 -0.25938421221386299 -0.38242260424217978 0 -0.26042294901863672 -0.40013266740365983 0 -0.25613810139819221 -0.41434132836670989 0 -0.2431093376423632 -0.40266188506415568 0 -0.26042294901863672 -0.40013266740365983 0 -0.25938421221386299 -0.38242260424217978 0 -0.23671715332847421 -0.38540703448681102 0 -0.28525385456372598 -0.42984543912842699 0 -0.26866387832805422 -0.43084198424433162 0 -0.28118965525791628 -0.44734264012195318 0 -0.28525385456372598 -0.42984543912842699 0 -0.26866387832805422 -0.43084198424433162 0 -0.27009367185483962 -0.41675208124042978 0 -0.28412874470879912 -0.41485830032050902 0 -0.28525385456372598 -0.42984543912842699 0 -0.27009367185483962 -0.41675208124042978 0 -0.28412874470879912 -0.41485830032050902 0 -0.26042294901863672 -0.40013266740365983 0 -0.28412874470879912 -0.41485830032050902 0 -0.26042294901863672 -0.40013266740365983 0 -0.27009367185483962 -0.41675208124042978 0 -0.26866387832805422 -0.43084198424433162 0 -0.27009367185483962 -0.41675208124042978 0 -0.25613810139819221 -0.41434132836670989 0 -0.25613810139819221 -0.41434132836670989 0 -0.25359928648481211 -0.43037401697981981 0 -0.24230037244337599 -0.4175018590364884 0 -0.26042294901863672 -0.40013266740365983 0 -0.27009367185483962 -0.41675208124042978 0 -0.25613810139819221 -0.41434132836670989 0 -0.26866387832805422 -0.43084198424433162 0 -0.25613810139819221 -0.41434132836670989 0 -0.26866387832805422 -0.43084198424433162 0 -0.25613810139819221 -0.41434132836670989 0 -0.25359928648481211 -0.43037401697981981 0 -0.26866387832805422 -0.43084198424433162 0 -0.25359928648481211 -0.43037401697981981 0 -0.2656706707878026 -0.4425776952979022 0 -0.25359928648481211 -0.43037401697981981 0 -0.25354060653463212 -0.44613406553729051 0 -0.2656706707878026 -0.4425776952979022 0 -0.25359928648481211 -0.43037401697981981 0 -0.25354060653463212 -0.44613406553729051 0 -0.2438451496940687 -0.43907002470141299 0 -0.25354060653463212 -0.44613406553729051 0 -0.26694214283005818 -0.45462217802476412 0 -0.2656706707878026 -0.4425776952979022 0 -0.25354060653463212 -0.44613406553729051 0 -0.25269463040220203 -0.46190171592757828 0 -0.26694214283005818 -0.45462217802476412 0 -0.25269463040220203 -0.46190171592757828 0 -0.26694214283005818 -0.45462217802476412 0 -0.27127733714919139 -0.47586075624730118 0 -0.25269463040220203 -0.46190171592757828 0 -0.26694214283005818 -0.45462217802476412 0 -0.26694214283005818 -0.45462217802476412 0 -0.28051910777735523 -0.46464962051151848 0 -0.27127733714919139 -0.47586075624730118 0 -0.26694214283005818 -0.45462217802476412 0 -0.28051910777735523 -0.46464962051151848 0 -0.28118965525791628 -0.44734264012195318 0 -0.26866387832805422 -0.43084198424433162 0 -0.2656706707878026 -0.4425776952979022 0 -0.28118965525791628 -0.44734264012195318 0 -0.26866387832805422 -0.43084198424433162 0 -0.28118965525791628 -0.44734264012195318 0 -0.26694214283005818 -0.45462217802476412 0 -0.2656706707878026 -0.4425776952979022 0 -0.28118965525791628 -0.44734264012195318 0 -0.26694214283005818 -0.45462217802476412 0 -0.28118965525791628 -0.44734264012195318 0 -0.28525385456372598 -0.42984543912842699 0 -0.28118965525791628 -0.44734264012195318 0 -0.29634270858520939 -0.43960043062412468 0 -0.28118965525791628 -0.44734264012195318 0 -0.29634270858520939 -0.43960043062412468 0 -0.28118965525791628 -0.44734264012195318 0 -0.29634270858520939 -0.43960043062412468 0 -0.29945124434374348 -0.45131555945098001 0 -0.28118965525791628 -0.44734264012195318 0 -0.2977138012199616 -0.4691104911477269 0 -0.28118965525791628 -0.44734264012195318 0 -0.29945124434374348 -0.45131555945098001 0 -0.2977138012199616 -0.4691104911477269 0 -0.28051910777735523 -0.46464962051151848 0 -0.28118965525791628 -0.44734264012195318 0 -0.2977138012199616 -0.4691104911477269 0 -0.31256905993156642 -0.45599936109409522 0 -0.29945124434374348 -0.45131555945098001 0 -0.2977138012199616 -0.4691104911477269 0 -0.31256905993156642 -0.45599936109409522 0 -0.31594212020290968 -0.47254352647497072 0 -0.2977138012199616 -0.4691104911477269 0 -0.31256905993156642 -0.45599936109409522 0 -0.3094409967240645 -0.4445248742670016 0 -0.29945124434374348 -0.45131555945098001 0 -0.3114957619125025 -0.43185822112629579 0 -0.29634270858520939 -0.43960043062412468 0 -0.3094409967240645 -0.4445248742670016 0 -0.29634270858520939 -0.43960043062412468 0 -0.3094409967240645 -0.4445248742670016 0 -0.29945124434374348 -0.45131555945098001 0 -0.3142379471820072 -0.49087834217350051 0 -0.29783156266692112 -0.48522413338081982 0 -0.30187341860680589 -0.5 0 -0.3142379471820072 -0.49087834217350051 0 -0.29783156266692112 -0.48522413338081982 0 -0.2977138012199616 -0.4691104911477269 0 -0.31594212020290968 -0.47254352647497072 0 -0.3142379471820072 -0.49087834217350051 0 -0.2977138012199616 -0.4691104911477269 0 -0.3142379471820072 -0.49087834217350051 0 -0.2977138012199616 -0.4691104911477269 0 -0.28051910777735523 -0.46464962051151848 0 -0.2977138012199616 -0.4691104911477269 0 -0.28547260242964922 -0.47631203701584812 0 -0.29783156266692112 -0.48522413338081982 0 -0.2977138012199616 -0.4691104911477269 0 -0.28547260242964922 -0.47631203701584812 0 -0.28547260242964922 -0.47631203701584812 0 -0.28986004389618147 -0.48981979656702318 0 -0.27127733714919139 -0.47586075624730118 0 -0.29783156266692112 -0.48522413338081982 0 -0.28547260242964922 -0.47631203701584812 0 -0.28986004389618147 -0.48981979656702318 0 -0.30187341860680589 -0.5 0 -0.28986004389618147 -0.48981979656702318 0 -0.2736660127521543 -0.5 0 -0.29783156266692112 -0.48522413338081982 0 -0.30187341860680589 -0.5 0 -0.28986004389618147 -0.48981979656702318 0 -0.28986004389618147 -0.48981979656702318 0 -0.2736660127521543 -0.5 0 -0.27127733714919139 -0.47586075624730118 0 -0.2736660127521543 -0.5 0 -0.27127733714919139 -0.47586075624730118 0 -0.25894985238314572 -0.48237709588318323 0 -0.28986004389618147 -0.48981979656702318 0 -0.27127733714919139 -0.47586075624730118 0 -0.28051910777735523 -0.46464962051151848 0 -0.28547260242964922 -0.47631203701584812 0 -0.27127733714919139 -0.47586075624730118 0 -0.25269463040220203 -0.46190171592757828 0 -0.25894985238314572 -0.48237709588318323 0 -0.2452663440960669 -0.48013845744446582 0 -0.25269463040220203 -0.46190171592757828 0 -0.27127733714919139 -0.47586075624730118 0 -0.25269463040220203 -0.46190171592757828 0 -0.27127733714919139 -0.47586075624730118 0 -0.25894985238314572 -0.48237709588318323 0 -0.2736660127521543 -0.5 0 -0.25894985238314572 -0.48237709588318323 0 -0.2518449375161152 -0.49398454979657291 0 -0.2736660127521543 -0.5 0 -0.2518449375161152 -0.49398454979657291 0 -0.24545860689750271 -0.5 0 -0.25894985238314572 -0.48237709588318323 0 -0.2518449375161152 -0.49398454979657291 0 -0.2452663440960669 -0.48013845744446582 0 -0.2518449375161152 -0.49398454979657291 0 -0.2307928657777267 -0.48891641965364391 0 -0.2518449375161152 -0.49398454979657291 0 -0.2452663440960669 -0.48013845744446582 0 -0.2307928657777267 -0.48891641965364391 0 -0.2518449375161152 -0.49398454979657291 0 -0.24545860689750271 -0.5 0 -0.2307928657777267 -0.48891641965364391 0 -0.2452663440960669 -0.48013845744446582 0 -0.23121771222076951 -0.4728750027191454 0 -0.2307928657777267 -0.48891641965364391 0 -0.25269463040220203 -0.46190171592757828 0 -0.2452663440960669 -0.48013845744446582 0 -0.23121771222076951 -0.4728750027191454 0 -0.23121771222076951 -0.4728750027191454 0 -0.2307928657777267 -0.48891641965364391 0 -0.20974079403933829 -0.48384828951071468 0 -0.23121771222076951 -0.4728750027191454 0 -0.2159840481136181 -0.46956363033528908 0 -0.20974079403933829 -0.48384828951071468 0 -0.23121771222076951 -0.4728750027191454 0 -0.20974079403933829 -0.48384828951071468 0 -0.24545860689750271 -0.5 0 -0.2307928657777267 -0.48891641965364391 0 -0.21725120104285109 -0.5 0 -0.2307928657777267 -0.48891641965364391 0 -0.20974079403933829 -0.48384828951071468 0 -0.2307928657777267 -0.48891641965364391 0 -0.21725120104285109 -0.5 0 -0.20974079403933829 -0.48384828951071468 0 -0.25354060653463212 -0.44613406553729051 0 -0.25269463040220203 -0.46190171592757828 0 -0.23721599773282709 -0.450274407782012 0 -0.25354060653463212 -0.44613406553729051 0 -0.2438451496940687 -0.43907002470141299 0 -0.23721599773282709 -0.450274407782012 0 -0.2438451496940687 -0.43907002470141299 0 -0.23721599773282709 -0.450274407782012 0 -0.2347235744381061 -0.43699032632131868 0 -0.25269463040220203 -0.46190171592757828 0 -0.23721599773282709 -0.450274407782012 0 -0.23097902662785419 -0.46071537305467791 0 -0.25269463040220203 -0.46190171592757828 0 -0.23121771222076951 -0.4728750027191454 0 -0.23097902662785419 -0.46071537305467791 0 -0.25269463040220203 -0.46190171592757828 0 -0.23121771222076951 -0.4728750027191454 0 -0.25269463040220203 -0.46190171592757828 0 -0.23721599773282709 -0.450274407782012 0 -0.23097902662785419 -0.46071537305467791 0 -0.22320557245757189 -0.45136192584780271 0 -0.2159840481136181 -0.46956363033528908 0 -0.23121771222076951 -0.4728750027191454 0 -0.23097902662785419 -0.46071537305467791 0 -0.2159840481136181 -0.46956363033528908 0 -0.23721599773282709 -0.450274407782012 0 -0.23097902662785419 -0.46071537305467791 0 -0.22320557245757189 -0.45136192584780271 0 -0.22320557245757189 -0.45136192584780271 0 -0.22173736506345271 -0.43864709963644488 0 -0.21698213822720461 -0.43284430329106749 0 -0.22320557245757189 -0.45136192584780271 0 -0.21698213822720461 -0.43284430329106749 0 -0.23721599773282709 -0.450274407782012 0 -0.22320557245757189 -0.45136192584780271 0 -0.22173736506345271 -0.43864709963644488 0 -0.23721599773282709 -0.450274407782012 0 -0.22173736506345271 -0.43864709963644488 0 -0.23721599773282709 -0.450274407782012 0 -0.22173736506345271 -0.43864709963644488 0 -0.2347235744381061 -0.43699032632131868 0 -0.22320557245757189 -0.45136192584780271 0 -0.20700894554624619 -0.45681697418164519 0 -0.21698213822720461 -0.43284430329106749 0 -0.20700894554624619 -0.45681697418164519 0 -0.19303707249135671 -0.43059430015364047 0 -0.21698213822720461 -0.43284430329106749 0 -0.20700894554624619 -0.45681697418164519 0 -0.21698213822720461 -0.43284430329106749 0 -0.22320557245757189 -0.45136192584780271 0 -0.20700894554624619 -0.45681697418164519 0 -0.2159840481136181 -0.46956363033528908 0 -0.20700894554624619 -0.45681697418164519 0 -0.19703575286528649 -0.48078964507222238 0 -0.18502875603026461 -0.46494473610867582 0 -0.20700894554624619 -0.45681697418164519 0 -0.18502875603026461 -0.46494473610867582 0 -0.18271469687031749 -0.44845454828740711 0 -0.20700894554624619 -0.45681697418164519 0 -0.18271469687031749 -0.44845454828740711 0 -0.19303707249135671 -0.43059430015364047 0 -0.21725120104285109 -0.5 0 -0.20974079403933829 -0.48384828951071468 0 -0.19199021277984149 -0.49291766423347888 0 -0.20700894554624619 -0.45681697418164519 0 -0.2159840481136181 -0.46956363033528908 0 -0.19703575286528649 -0.48078964507222238 0 -0.2159840481136181 -0.46956363033528908 0 -0.20974079403933829 -0.48384828951071468 0 -0.19703575286528649 -0.48078964507222238 0 -0.20974079403933829 -0.48384828951071468 0 -0.19703575286528649 -0.48078964507222238 0 -0.20700894554624619 -0.45681697418164519 0 -0.19703575286528649 -0.48078964507222238 0 -0.21725120104285109 -0.5 0 -0.19199021277984149 -0.49291766423347888 0 -0.18904379518819939 -0.49999999999999578 0 -0.20974079403933829 -0.48384828951071468 0 -0.19703575286528649 -0.48078964507222238 0 -0.19199021277984149 -0.49291766423347888 0 -0.20974079403933829 -0.48384828951071468 0 -0.19199021277984149 -0.49291766423347888 0 -0.19703575286528649 -0.48078964507222238 0 -0.19199021277984149 -0.49291766423347888 0 -0.1806501400470899 -0.48733198327772198 0 -0.19703575286528649 -0.48078964507222238 0 -0.19199021277984149 -0.49291766423347888 0 -0.19199021277984149 -0.49291766423347888 0 -0.18904379518819939 -0.49999999999999578 0 -0.19199021277984149 -0.49291766423347888 0 -0.17812866439603481 -0.49999999999999267 0 -0.19199021277984149 -0.49291766423347888 0 -0.18904379518819939 -0.49999999999999578 0 -0.17812866439603481 -0.49999999999999267 0 -0.19199021277984149 -0.49291766423347888 0 -0.1806501400470899 -0.48733198327772198 0 -0.17812866439603481 -0.49999999999999267 0 -0.1806501400470899 -0.48733198327772198 0 -0.17812866439603481 -0.49999999999999267 0 -0.16526627315450881 -0.48681942287300078 0 -0.17812866439603481 -0.49999999999999267 0 -0.16526627315450881 -0.48681942287300078 0 -0.15384562597277671 -0.5 0 -0.16526627315450881 -0.48681942287300078 0 -0.15867829181438209 -0.47351517086903511 0 -0.14808882950896779 -0.48760950596642599 0 -0.16526627315450881 -0.48681942287300078 0 -0.15867829181438209 -0.47351517086903511 0 -0.17205258504960549 -0.47477513270279981 0 -0.15867829181438209 -0.47351517086903511 0 -0.17205258504960549 -0.47477513270279981 0 -0.1689107827671488 -0.46150338438528649 0 -0.19703575286528649 -0.48078964507222238 0 -0.17205258504960549 -0.47477513270279981 0 -0.19703575286528649 -0.48078964507222238 0 -0.17205258504960549 -0.47477513270279981 0 -0.18502875603026461 -0.46494473610867582 0 -0.19703575286528649 -0.48078964507222238 0 -0.1806501400470899 -0.48733198327772198 0 -0.17205258504960549 -0.47477513270279981 0 -0.1806501400470899 -0.48733198327772198 0 -0.16526627315450881 -0.48681942287300078 0 -0.17205258504960549 -0.47477513270279981 0 -0.17205258504960549 -0.47477513270279981 0 -0.18502875603026461 -0.46494473610867582 0 -0.1689107827671488 -0.46150338438528649 0 -0.18502875603026461 -0.46494473610867582 0 -0.18271469687031749 -0.44845454828740711 0 -0.1689107827671488 -0.46150338438528649 0 -0.18271469687031749 -0.44845454828740711 0 -0.16138963394859521 -0.44868252298987232 0 -0.1689107827671488 -0.46150338438528649 0 -0.18271469687031749 -0.44845454828740711 0 -0.16138963394859521 -0.44868252298987232 0 -0.16224644553901921 -0.42839564420087312 0 -0.16138963394859521 -0.44868252298987232 0 -0.1689107827671488 -0.46150338438528649 0 -0.15360073288972831 -0.45864819535392959 0 -0.15867829181438209 -0.47351517086903511 0 -0.1689107827671488 -0.46150338438528649 0 -0.15360073288972831 -0.45864819535392959 0 -0.15867829181438209 -0.47351517086903511 0 -0.14088984691242101 -0.46372891927135518 0 -0.15360073288972831 -0.45864819535392959 0 -0.14088984691242101 -0.46372891927135518 0 -0.15360073288972831 -0.45864819535392959 0 -0.14071409195337639 -0.4434269833400809 0 -0.16138963394859521 -0.44868252298987232 0 -0.15360073288972831 -0.45864819535392959 0 -0.14071409195337639 -0.4434269833400809 0 -0.16138963394859521 -0.44868252298987232 0 -0.14071409195337639 -0.4434269833400809 0 -0.16224644553901921 -0.42839564420087312 0 -0.14071409195337639 -0.4434269833400809 0 -0.11918173836773351 -0.45845832247928869 0 -0.14071409195337639 -0.4434269833400809 0 -0.11918173836773351 -0.45845832247928869 0 -0.1184149235461696 -0.43970471758753887 0 -0.14088984691242101 -0.46372891927135518 0 -0.14071409195337639 -0.4434269833400809 0 -0.11918173836773351 -0.45845832247928869 0 -0.14088984691242101 -0.46372891927135518 0 -0.1272556728232932 -0.47013049556587211 0 -0.11918173836773351 -0.45845832247928869 0 -0.13278436477725561 -0.4823434472460234 0 -0.1272556728232932 -0.47013049556587211 0 -0.1161667412357628 -0.47599129326682099 0 -0.14088984691242101 -0.46372891927135518 0 -0.13278436477725561 -0.4823434472460234 0 -0.1272556728232932 -0.47013049556587211 0 -0.13278436477725561 -0.4823434472460234 0 -0.12956258754951869 -0.5 0 -0.14808882950896779 -0.48760950596642599 0 -0.12956258754951869 -0.5 0 -0.15384562597277671 -0.5 0 -0.14808882950896779 -0.48760950596642599 0 -0.16526627315450881 -0.48681942287300078 0 -0.15384562597277671 -0.5 0 -0.14808882950896779 -0.48760950596642599 0 -0.15867829181438209 -0.47351517086903511 0 -0.14088984691242101 -0.46372891927135518 0 -0.13278436477725561 -0.4823434472460234 0 -0.15867829181438209 -0.47351517086903511 0 -0.13278436477725561 -0.4823434472460234 0 -0.14808882950896779 -0.48760950596642599 0 -0.15867829181438209 -0.47351517086903511 0 -0.13278436477725561 -0.4823434472460234 0 -0.15300746566076209 -0.38310001254620968 0 -0.12942966304821441 -0.38325015625522552 0 -0.14208280055258729 -0.40634727148710198 0 -0.15300746566076209 -0.38310001254620968 0 -0.14208280055258729 -0.40634727148710198 0 -0.1624749046322673 -0.40200193298372783 0 -0.15300746566076209 -0.38310001254620968 0 -0.12942966304821441 -0.38325015625522552 0 -0.15300746566076209 -0.38310001254620968 0 -0.12942966304821441 -0.38325015625522552 0 -0.13644034466196819 -0.36544341997203661 0 -0.12942966304821441 -0.38325015625522552 0 -0.14208280055258729 -0.40634727148710198 0 -0.1246151037146196 -0.40215144471962733 0 -0.13370262722300191 -0.42485153358840111 0 -0.14208280055258729 -0.40634727148710198 0 -0.1246151037146196 -0.40215144471962733 0 -0.14071409195337639 -0.4434269833400809 0 -0.13370262722300191 -0.42485153358840111 0 -0.1184149235461696 -0.43970471758753887 0 -0.14071409195337639 -0.4434269833400809 0 -0.13370262722300191 -0.42485153358840111 0 -0.16224644553901921 -0.42839564420087312 0 -0.14071409195337639 -0.4434269833400809 0 -0.16224644553901921 -0.42839564420087312 0 -0.14208280055258729 -0.40634727148710198 0 -0.16224644553901921 -0.42839564420087312 0 -0.1624749046322673 -0.40200193298372783 0 -0.13370262722300191 -0.42485153358840111 0 -0.14208280055258729 -0.40634727148710198 0 -0.16224644553901921 -0.42839564420087312 0 -0.16224644553901921 -0.42839564420087312 0 -0.180697604208819 -0.40923231675122879 0 -0.1624749046322673 -0.40200193298372783 0 -0.18271469687031749 -0.44845454828740711 0 -0.16224644553901921 -0.42839564420087312 0 -0.19303707249135671 -0.43059430015364047 0 -0.16224644553901921 -0.42839564420087312 0 -0.180697604208819 -0.40923231675122879 0 -0.19303707249135671 -0.43059430015364047 0 -0.180697604208819 -0.40923231675122879 0 -0.1624749046322673 -0.40200193298372783 0 -0.17658526827330981 -0.3829498688371939 0 -0.180697604208819 -0.40923231675122879 0 -0.17658526827330981 -0.3829498688371939 0 -0.19000778267581911 -0.39514046875386671 0 -0.15300746566076209 -0.38310001254620968 0 -0.1624749046322673 -0.40200193298372783 0 -0.17658526827330981 -0.3829498688371939 0 -0.15300746566076209 -0.38310001254620968 0 -0.17658526827330981 -0.3829498688371939 0 -0.17658526827330981 -0.3829498688371939 0 -0.20016307088585741 -0.38279972512817662 0 -0.19000778267581911 -0.39514046875386671 0 -0.17658526827330981 -0.3829498688371939 0 -0.20016307088585741 -0.38279972512817662 0 -0.20016307088585741 -0.38279972512817662 0 -0.19000778267581911 -0.39514046875386671 0 -0.2085726045565329 -0.4078220142096215 0 -0.180697604208819 -0.40923231675122879 0 -0.19000778267581911 -0.39514046875386671 0 -0.2085726045565329 -0.4078220142096215 0 -0.20016307088585741 -0.38279972512817662 0 -0.2085726045565329 -0.4078220142096215 0 -0.20016307088585741 -0.38279972512817662 0 -0.2161772785324636 -0.38269774647594651 0 -0.2085726045565329 -0.4078220142096215 0 -0.2161772785324636 -0.38269774647594651 0 -0.2085726045565329 -0.4078220142096215 0 -0.22410163367487609 -0.3935296463770066 0 -0.20016307088585741 -0.38279972512817662 0 -0.2161772785324636 -0.38269774647594651 0 -0.20016307088585741 -0.38279972512817662 0 -0.2161772785324636 -0.38269774647594651 0 -0.2146411550785581 -0.37365584976636601 0 -0.2161772785324636 -0.38269774647594651 0 -0.22424182443051541 -0.37765757455433779 0 -0.2146411550785581 -0.37365584976636601 0 -0.180697604208819 -0.40923231675122879 0 -0.19303707249135671 -0.43059430015364047 0 -0.2085726045565329 -0.4078220142096215 0 -0.2085726045565329 -0.4078220142096215 0 -0.21698213822720461 -0.43284430329106749 0 -0.2268496457778397 -0.40912566888893942 0 -0.2085726045565329 -0.4078220142096215 0 -0.21698213822720461 -0.43284430329106749 0 -0.19303707249135671 -0.43059430015364047 0 -0.2085726045565329 -0.4078220142096215 0 -0.21698213822720461 -0.43284430329106749 0 -0.21698213822720461 -0.43284430329106749 0 -0.22992583861702739 -0.42769779631454868 0 -0.2268496457778397 -0.40912566888893942 0 -0.22173736506345271 -0.43864709963644488 0 -0.22992583861702739 -0.42769779631454868 0 -0.2347235744381061 -0.43699032632131868 0 -0.22173736506345271 -0.43864709963644488 0 -0.21698213822720461 -0.43284430329106749 0 -0.22992583861702739 -0.42769779631454868 0 -0.22992583861702739 -0.42769779631454868 0 -0.2268496457778397 -0.40912566888893942 0 -0.24230037244337599 -0.4175018590364884 0 -0.21698213822720461 -0.43284430329106749 0 -0.2268496457778397 -0.40912566888893942 0 -0.2268496457778397 -0.40912566888893942 0 -0.24230037244337599 -0.4175018590364884 0 -0.2431093376423632 -0.40266188506415568 0 -0.25613810139819221 -0.41434132836670989 0 -0.24230037244337599 -0.4175018590364884 0 -0.2431093376423632 -0.40266188506415568 0 -0.22992583861702739 -0.42769779631454868 0 -0.24230037244337599 -0.4175018590364884 0 -0.24089352108315501 -0.42926230317217479 0 -0.25359928648481211 -0.43037401697981981 0 -0.24230037244337599 -0.4175018590364884 0 -0.24089352108315501 -0.42926230317217479 0 -0.25359928648481211 -0.43037401697981981 0 -0.2438451496940687 -0.43907002470141299 0 -0.24089352108315501 -0.42926230317217479 0 -0.22992583861702739 -0.42769779631454868 0 -0.24089352108315501 -0.42926230317217479 0 -0.2347235744381061 -0.43699032632131868 0 -0.2438451496940687 -0.43907002470141299 0 -0.24089352108315501 -0.42926230317217479 0 -0.2347235744381061 -0.43699032632131868 0 -0.2161772785324636 -0.38269774647594651 0 -0.23219148617906979 -0.38259576782371391 0 -0.22424182443051541 -0.37765757455433779 0 -0.2161772785324636 -0.38269774647594651 0 -0.23219148617906979 -0.38259576782371391 0 -0.22410163367487609 -0.3935296463770066 0 -0.2161772785324636 -0.38269774647594651 0 -0.23219148617906979 -0.38259576782371391 0 -0.23219148617906979 -0.38259576782371391 0 -0.22410163367487609 -0.3935296463770066 0 -0.23671715332847421 -0.38540703448681102 0 -0.23219148617906979 -0.38259576782371391 0 -0.22424182443051541 -0.37765757455433779 0 -0.23334431644894679 -0.37067442711117121 0 -0.23219148617906979 -0.38259576782371391 0 -0.22424182443051541 -0.37765757455433779 0 -0.2268496457778397 -0.40912566888893942 0 -0.23671715332847421 -0.38540703448681102 0 -0.2268496457778397 -0.40912566888893942 0 -0.22410163367487609 -0.3935296463770066 0 -0.23671715332847421 -0.38540703448681102 0 -0.2085726045565329 -0.4078220142096215 0 -0.2268496457778397 -0.40912566888893942 0 -0.22410163367487609 -0.3935296463770066 0 -0.2268496457778397 -0.40912566888893942 0 -0.2431093376423632 -0.40266188506415568 0 -0.23671715332847421 -0.38540703448681102 0 -0.26042294901863672 -0.40013266740365983 0 -0.2431093376423632 -0.40266188506415568 0 -0.23671715332847421 -0.38540703448681102 0 -0.26042294901863672 -0.40013266740365983 0 -0.23671715332847421 -0.38540703448681102 0 -0.25938421221386299 -0.38242260424217978 0 -0.23671715332847421 -0.38540703448681102 0 -0.23790183421053479 -0.38255940426400398 0 -0.25938421221386299 -0.38242260424217978 0 -0.23790183421053479 -0.38255940426400398 0 -0.25938421221386299 -0.38242260424217978 0 -0.23790183421053479 -0.38255940426400398 0 -0.2452998416640946 -0.36477673389921211 0 -0.23219148617906979 -0.38259576782371391 0 -0.23671715332847421 -0.38540703448681102 0 -0.23790183421053479 -0.38255940426400398 0 -0.23219148617906979 -0.38259576782371391 0 -0.23671715332847421 -0.38540703448681102 0 -0.23671715332847421 -0.38540703448681102 0 -0.23790183421053479 -0.38255940426400398 0 -0.23219148617906979 -0.38259576782371391 0 -0.23790183421053479 -0.38255940426400398 0 -0.23334431644894679 -0.37067442711117121 0 -0.23219148617906979 -0.38259576782371391 0 -0.23790183421053479 -0.38255940426400398 0 -0.2452998416640946 -0.36477673389921211 0 -0.23334431644894679 -0.37067442711117121 0 -0.236612272716479 -0.35196393625907768 0 -0.23790183421053479 -0.38255940426400398 0 -0.2452998416640946 -0.36477673389921211 0 -0.23790183421053479 -0.38255940426400398 0 -0.2452998416640946 -0.36477673389921211 0 -0.23334431644894679 -0.37067442711117121 0 -0.22424182443051541 -0.37765757455433779 0 -0.23334431644894679 -0.37067442711117121 0 -0.2233560944082246 -0.363712965125564 0 -0.23334431644894679 -0.37067442711117121 0 -0.2233560944082246 -0.363712965125564 0 -0.236612272716479 -0.35196393625907768 0 -0.22424182443051541 -0.37765757455433779 0 -0.2233560944082246 -0.363712965125564 0 -0.2146411550785581 -0.37365584976636601 0 -0.2233560944082246 -0.363712965125564 0 -0.22090871978274521 -0.34750939462453567 0 -0.236612272716479 -0.35196393625907768 0 -0.25269784911765092 -0.34699406353441858 0 -0.2452998416640946 -0.36477673389921211 0 -0.25269784911765092 -0.34699406353441858 0 -0.2452998416640946 -0.36477673389921211 0 -0.236612272716479 -0.35196393625907768 0 -0.25269784911765092 -0.34699406353441858 0 -0.2601150759189611 -0.3291651954159735 0 -0.2357068878863986 -0.32570661601735368 0 -0.25269784911765092 -0.34699406353441858 0 -0.236612272716479 -0.35196393625907768 0 -0.2357068878863986 -0.32570661601735368 0 -0.25269784911765092 -0.34699406353441858 0 -0.2357068878863986 -0.32570661601735368 0 -0.2601150759189611 -0.3291651954159735 0 -0.2357068878863986 -0.32570661601735368 0 -0.2494260049788683 -0.31746489113439402 0 -0.2357068878863986 -0.32570661601735368 0 -0.2494260049788683 -0.31746489113439402 0 -0.24072416822125611 -0.30184362229434508 0 -0.2357068878863986 -0.32570661601735368 0 -0.2119173650848751 -0.32804843985645959 0 -0.21871592665514519 -0.30441916850028972 0 -0.2357068878863986 -0.32570661601735368 0 -0.21871592665514519 -0.30441916850028972 0 -0.22090871978274521 -0.34750939462453567 0 -0.236612272716479 -0.35196393625907768 0 -0.2357068878863986 -0.32570661601735368 0 -0.22090871978274521 -0.34750939462453567 0 -0.2357068878863986 -0.32570661601735368 0 -0.2119173650848751 -0.32804843985645959 0 -0.22090871978274521 -0.34750939462453567 0 -0.2119173650848751 -0.32804843985645959 0 -0.20038300345158319 -0.34252625431289602 0 -0.2119173650848751 -0.32804843985645959 0 -0.19064882261902269 -0.32209845877770238 0 -0.21871592665514519 -0.30441916850028972 0 -0.2119173650848751 -0.32804843985645959 0 -0.19064882261902269 -0.32209845877770238 0 -0.20038300345158319 -0.34252625431289602 0 -0.19064882261902269 -0.32209845877770238 0 -0.20038300345158319 -0.34252625431289602 0 -0.1786038551756757 -0.34069824763179102 0 -0.20038300345158319 -0.34252625431289602 0 -0.19095175091145111 -0.35539174743908392 0 -0.20926750713572939 -0.36141123754780358 0 -0.20038300345158319 -0.34252625431289602 0 -0.19095175091145111 -0.35539174743908392 0 -0.1786038551756757 -0.34069824763179102 0 -0.20016307088585741 -0.38279972512817662 0 -0.19095175091145111 -0.35539174743908392 0 -0.20926750713572939 -0.36141123754780358 0 -0.17658526827330981 -0.3829498688371939 0 -0.20016307088585741 -0.38279972512817662 0 -0.19095175091145111 -0.35539174743908392 0 -0.20016307088585741 -0.38279972512817662 0 -0.19095175091145111 -0.35539174743908392 0 -0.20016307088585741 -0.38279972512817662 0 -0.20926750713572939 -0.36141123754780358 0 -0.2146411550785581 -0.37365584976636601 0 -0.2233560944082246 -0.363712965125564 0 -0.20926750713572939 -0.36141123754780358 0 -0.2146411550785581 -0.37365584976636601 0 -0.2233560944082246 -0.363712965125564 0 -0.22090871978274521 -0.34750939462453567 0 -0.20926750713572939 -0.36141123754780358 0 -0.22090871978274521 -0.34750939462453567 0 -0.20038300345158319 -0.34252625431289602 0 -0.20926750713572939 -0.36141123754780358 0 -0.23269942211958819 -0.26632599736311829 0 -0.2113475615474098 -0.26183595308539898 0 -0.22937054978906041 -0.24331512362502869 0 -0.2483490975252734 -0.26098873334868322 0 -0.23269942211958819 -0.26632599736311829 0 -0.22937054978906041 -0.24331512362502869 0 -0.2483490975252734 -0.26098873334868322 0 -0.24718685023563691 -0.27875123027958087 0 -0.23269942211958819 -0.26632599736311829 0 -0.24718685023563691 -0.27875123027958087 0 -0.23269942211958819 -0.26632599736311829 0 -0.22621925119092889 -0.28512311723799683 0 -0.23269942211958819 -0.26632599736311829 0 -0.22621925119092889 -0.28512311723799683 0 -0.2113475615474098 -0.26183595308539898 0 -0.24718685023563691 -0.27875123027958087 0 -0.22621925119092889 -0.28512311723799683 0 -0.24072416822125611 -0.30184362229434508 0 -0.25754389589834492 -0.29267207960278718 0 -0.24718685023563691 -0.27875123027958087 0 -0.24072416822125611 -0.30184362229434508 0 -0.25469452373499762 -0.30722313484128749 0 -0.2494260049788683 -0.31746489113439402 0 -0.24072416822125611 -0.30184362229434508 0 -0.22621925119092889 -0.28512311723799683 0 -0.24072416822125611 -0.30184362229434508 0 -0.21871592665514519 -0.30441916850028972 0 -0.2357068878863986 -0.32570661601735368 0 -0.24072416822125611 -0.30184362229434508 0 -0.21871592665514519 -0.30441916850028972 0 -0.21871592665514519 -0.30441916850028972 0 -0.20172496542389179 -0.28313172098322592 0 -0.18547182867621881 -0.29890397395307688 0 -0.19064882261902269 -0.32209845877770238 0 -0.21871592665514519 -0.30441916850028972 0 -0.18547182867621881 -0.29890397395307688 0 -0.20172496542389179 -0.28313172098322592 0 -0.17865973542483601 -0.28159672660659713 0 -0.18547182867621881 -0.29890397395307688 0 -0.22621925119092889 -0.28512311723799683 0 -0.21871592665514519 -0.30441916850028972 0 -0.20172496542389179 -0.28313172098322592 0 -0.21871592665514519 -0.30441916850028972 0 -0.20172496542389179 -0.28313172098322592 0 -0.22621925119092889 -0.28512311723799683 0 -0.20172496542389179 -0.28313172098322592 0 -0.2113475615474098 -0.26183595308539898 0 -0.20172496542389179 -0.28313172098322592 0 -0.2113475615474098 -0.26183595308539898 0 -0.18473400419263841 -0.26184427346616201 0 -0.20172496542389179 -0.28313172098322592 0 -0.18473400419263841 -0.26184427346616201 0 -0.20172496542389179 -0.28313172098322592 0 -0.18473400419263841 -0.26184427346616201 0 -0.17865973542483601 -0.28159672660659713 0 -0.2113475615474098 -0.26183595308539898 0 -0.18473400419263841 -0.26184427346616201 0 -0.1994177047143332 -0.2432145052078287 0 -0.18473400419263841 -0.26184427346616201 0 -0.15229660666407671 -0.25401824511238591 0 -0.16774304296138501 -0.24055682594909811 0 -0.18473400419263841 -0.26184427346616201 0 -0.1593348892574955 -0.27433293932196051 0 -0.15229660666407671 -0.25401824511238591 0 -0.18473400419263841 -0.26184427346616201 0 -0.16774304296138501 -0.24055682594909811 0 -0.18473400419263841 -0.26184427346616201 0 -0.1593348892574955 -0.27433293932196051 0 -0.17865973542483601 -0.28159672660659713 0 -0.1593348892574955 -0.27433293932196051 0 -0.17865973542483601 -0.28159672660659713 0 -0.1628273235241636 -0.29929742573166879 0 -0.17865973542483601 -0.28159672660659713 0 -0.18547182867621881 -0.29890397395307688 0 -0.1628273235241636 -0.29929742573166879 0 -0.18547182867621881 -0.29890397395307688 0 -0.1628273235241636 -0.29929742573166879 0 -0.16388410446163609 -0.32460269768425593 0 -0.1628273235241636 -0.29929742573166879 0 -0.13242221189995379 -0.30543756500551722 0 -0.16388410446163609 -0.32460269768425593 0 -0.13242221189995379 -0.30543756500551722 0 -0.14127367617284931 -0.28459822767558379 0 -0.1188334035936548 -0.28113848219864679 0 -0.1628273235241636 -0.29929742573166879 0 -0.13242221189995379 -0.30543756500551722 0 -0.14127367617284931 -0.28459822767558379 0 -0.1593348892574955 -0.27433293932196051 0 -0.1628273235241636 -0.29929742573166879 0 -0.14127367617284931 -0.28459822767558379 0 -0.1593348892574955 -0.27433293932196051 0 -0.14127367617284931 -0.28459822767558379 0 -0.132950552588979 -0.26278472612012599 0 -0.14127367617284931 -0.28459822767558379 0 -0.132950552588979 -0.26278472612012599 0 -0.1188334035936548 -0.28113848219864679 0 -0.132950552588979 -0.26278472612012599 0 -0.1192340303868117 -0.24478318800158869 0 -0.13450504990001219 -0.2438564190910647 0 -0.132950552588979 -0.26278472612012599 0 -0.15229660666407671 -0.25401824511238591 0 -0.13450504990001219 -0.2438564190910647 0 -0.1593348892574955 -0.27433293932196051 0 -0.132950552588979 -0.26278472612012599 0 -0.15229660666407671 -0.25401824511238591 0 -0.15300746566076209 -0.38310001254620968 0 -0.17658526827330981 -0.3829498688371939 0 -0.16187875486605491 -0.35541355732776547 0 -0.17658526827330981 -0.3829498688371939 0 -0.19095175091145111 -0.35539174743908392 0 -0.16187875486605491 -0.35541355732776547 0 -0.19095175091145111 -0.35539174743908392 0 -0.16187875486605491 -0.35541355732776547 0 -0.1786038551756757 -0.34069824763179102 0 -0.19064882261902269 -0.32209845877770238 0 -0.1786038551756757 -0.34069824763179102 0 -0.16388410446163609 -0.32460269768425593 0 -0.19064882261902269 -0.32209845877770238 0 -0.18547182867621881 -0.29890397395307688 0 -0.16388410446163609 -0.32460269768425593 0 -0.16187875486605491 -0.35541355732776547 0 -0.1786038551756757 -0.34069824763179102 0 -0.16388410446163609 -0.32460269768425593 0 -0.13242221189995379 -0.30543756500551722 0 -0.16388410446163609 -0.32460269768425593 0 -0.13821757510299509 -0.3384513750534191 0 -0.13242221189995379 -0.30543756500551722 0 -0.13821757510299509 -0.3384513750534191 0 -0.1101747460075988 -0.32953608121607292 0 -0.16187875486605491 -0.35541355732776547 0 -0.16388410446163609 -0.32460269768425593 0 -0.13821757510299509 -0.3384513750534191 0 -0.13821757510299509 -0.3384513750534191 0 -0.13644034466196819 -0.36544341997203661 0 -0.1196241940514999 -0.3542658853942362 0 -0.16187875486605491 -0.35541355732776547 0 -0.13821757510299509 -0.3384513750534191 0 -0.13644034466196819 -0.36544341997203661 0 -0.15300746566076209 -0.38310001254620968 0 -0.16187875486605491 -0.35541355732776547 0 -0.13644034466196819 -0.36544341997203661 0 -0.12942966304821441 -0.38325015625522552 0 -0.13644034466196819 -0.36544341997203661 0 -0.1177797586078463 -0.37381446098417098 0 -0.13644034466196819 -0.36544341997203661 0 -0.1177797586078463 -0.37381446098417098 0 -0.1196241940514999 -0.3542658853942362 0 -0.1177797586078463 -0.37381446098417098 0 -0.10407214500130089 -0.36661499140206938 0 -0.1196241940514999 -0.3542658853942362 0 -0.1177797586078463 -0.37381446098417098 0 -0.10407214500130089 -0.36661499140206938 0 -0.1034929330021967 -0.38313049756236911 0 -0.10407214500130089 -0.36661499140206938 0 -0.092143069441117886 -0.37288061806212591 0 -0.1034929330021967 -0.38313049756236911 0 -0.10407214500130089 -0.36661499140206938 0 -0.092143069441117886 -0.37288061806212591 0 -0.090292011953311629 -0.3597231114641114 0 -0.10407214500130089 -0.36661499140206938 0 -0.10297576120334009 -0.35054559799579871 0 -0.1196241940514999 -0.3542658853942362 0 -0.10297576120334009 -0.35054559799579871 0 -0.091874738774876785 -0.34065851114568052 0 -0.090292011953311629 -0.3597231114641114 0 -0.10407214500130089 -0.36661499140206938 0 -0.10297576120334009 -0.35054559799579871 0 -0.090292011953311629 -0.3597231114641114 0 -0.10297576120334009 -0.35054559799579871 0 -0.1196241940514999 -0.3542658853942362 0 -0.1101747460075988 -0.32953608121607292 0 -0.13821757510299509 -0.3384513750534191 0 -0.1196241940514999 -0.3542658853942362 0 -0.1101747460075988 -0.32953608121607292 0 -0.1101747460075988 -0.32953608121607292 0 -0.085227450549862166 -0.32028838060126541 0 -0.10233633129899709 -0.29788694174330338 0 -0.1101747460075988 -0.32953608121607292 0 -0.091874738774876785 -0.34065851114568052 0 -0.085227450549862166 -0.32028838060126541 0 -0.10297576120334009 -0.35054559799579871 0 -0.1101747460075988 -0.32953608121607292 0 -0.091874738774876785 -0.34065851114568052 0 -0.091874738774876785 -0.34065851114568052 0 -0.085227450549862166 -0.32028838060126541 0 -0.076063335717399538 -0.33750887212749098 0 -0.085227450549862166 -0.32028838060126541 0 -0.063011241542060503 -0.32804507108198161 0 -0.072947339386401744 -0.29815403057856332 0 -0.063011241542060503 -0.32804507108198161 0 -0.076063335717399538 -0.33750887212749098 0 -0.056103847272524453 -0.34401699257208418 0 -0.085227450549862166 -0.32028838060126541 0 -0.063011241542060503 -0.32804507108198161 0 -0.076063335717399538 -0.33750887212749098 0 -0.076063335717399538 -0.33750887212749098 0 -0.071250752086046532 -0.35335887697158019 0 -0.056103847272524453 -0.34401699257208418 0 -0.071250752086046532 -0.35335887697158019 0 -0.076899216694667677 -0.36865863427987439 0 -0.059008804616476777 -0.3736816009534113 0 -0.071250752086046532 -0.35335887697158019 0 -0.076899216694667677 -0.36865863427987439 0 -0.090292011953311629 -0.3597231114641114 0 -0.076899216694667677 -0.36865863427987439 0 -0.092143069441117886 -0.37288061806212591 0 -0.090292011953311629 -0.3597231114641114 0 -0.091874738774876785 -0.34065851114568052 0 -0.071250752086046532 -0.35335887697158019 0 -0.090292011953311629 -0.3597231114641114 0 -0.091874738774876785 -0.34065851114568052 0 -0.076063335717399538 -0.33750887212749098 0 -0.071250752086046532 -0.35335887697158019 0 -0.10928029933534041 -0.25911330461652088 0 -0.093765691765433312 -0.25258281812082478 0 -0.1064059993424292 -0.23999004584722569 0 -0.10928029933534041 -0.25911330461652088 0 -0.093765691765433312 -0.25258281812082478 0 -0.091378819945462819 -0.27405960529517892 0 -0.132950552588979 -0.26278472612012599 0 -0.10928029933534041 -0.25911330461652088 0 -0.1192340303868117 -0.24478318800158869 0 -0.132950552588979 -0.26278472612012599 0 -0.10928029933534041 -0.25911330461652088 0 -0.1188334035936548 -0.28113848219864679 0 -0.10928029933534041 -0.25911330461652088 0 -0.1188334035936548 -0.28113848219864679 0 -0.091378819945462819 -0.27405960529517892 0 -0.13242221189995379 -0.30543756500551722 0 -0.1101747460075988 -0.32953608121607292 0 -0.10233633129899709 -0.29788694174330338 0 -0.1188334035936548 -0.28113848219864679 0 -0.10233633129899709 -0.29788694174330338 0 -0.091378819945462819 -0.27405960529517892 0 -0.13242221189995379 -0.30543756500551722 0 -0.1188334035936548 -0.28113848219864679 0 -0.10233633129899709 -0.29788694174330338 0 -0.085227450549862166 -0.32028838060126541 0 -0.10233633129899709 -0.29788694174330338 0 -0.072947339386401744 -0.29815403057856332 0 -0.10233633129899709 -0.29788694174330338 0 -0.072947339386401744 -0.29815403057856332 0 -0.072947339386401744 -0.29815403057856332 0 -0.068721828444096633 -0.2698787542887045 0 -0.051386271478722378 -0.27925540101153468 0 -0.10233633129899709 -0.29788694174330338 0 -0.072947339386401744 -0.29815403057856332 0 -0.091378819945462819 -0.27405960529517892 0 -0.091378819945462819 -0.27405960529517892 0 -0.068721828444096633 -0.2698787542887045 0 -0.079465288233698042 -0.25846821731041458 0 -0.072947339386401744 -0.29815403057856332 0 -0.091378819945462819 -0.27405960529517892 0 -0.068721828444096633 -0.2698787542887045 0 -0.068721828444096633 -0.2698787542887045 0 -0.065421878849430556 -0.25167039592025259 0 -0.079465288233698042 -0.25846821731041458 0 -0.093765691765433312 -0.25258281812082478 0 -0.091378819945462819 -0.27405960529517892 0 -0.079465288233698042 -0.25846821731041458 0 -0.093765691765433312 -0.25258281812082478 0 -0.079465288233698042 -0.25846821731041458 0 -0.078278243085297239 -0.23951664672932549 0 -0.036856198389287782 -0.25899730250271491 0 -0.027326811110253871 -0.25121816526868662 0 -0.040785035177160277 -0.24958968680164759 0 -0.036856198389287782 -0.25899730250271491 0 -0.03708476385319625 -0.2699613192856723 0 -0.027769846617742091 -0.26444130564156609 0 -0.036856198389287782 -0.25899730250271491 0 -0.051314535188086402 -0.25977603551600209 0 -0.03708476385319625 -0.2699613192856723 0 -0.036856198389287782 -0.25899730250271491 0 -0.051314535188086402 -0.25977603551600209 0 -0.040785035177160277 -0.24958968680164759 0 -0.051314535188086402 -0.25977603551600209 0 -0.052406799216804557 -0.24459198769464191 0 -0.040785035177160277 -0.24958968680164759 0 -0.068721828444096633 -0.2698787542887045 0 -0.065421878849430556 -0.25167039592025259 0 -0.051314535188086402 -0.25977603551600209 0 -0.065421878849430556 -0.25167039592025259 0 -0.051314535188086402 -0.25977603551600209 0 -0.052406799216804557 -0.24459198769464191 0 -0.068721828444096633 -0.2698787542887045 0 -0.051314535188086402 -0.25977603551600209 0 -0.051386271478722378 -0.27925540101153468 0 -0.051386271478722378 -0.27925540101153468 0 -0.03708476385319625 -0.2699613192856723 0 -0.030508603843899348 -0.2838920637904252 0 -0.051314535188086402 -0.25977603551600209 0 -0.051386271478722378 -0.27925540101153468 0 -0.03708476385319625 -0.2699613192856723 0 -0.051386271478722378 -0.27925540101153468 0 -0.043558347473806387 -0.2984211194138231 0 -0.030508603843899348 -0.2838920637904252 0 -0.072947339386401744 -0.29815403057856332 0 -0.051386271478722378 -0.27925540101153468 0 -0.043558347473806387 -0.2984211194138231 0 -0.072947339386401744 -0.29815403057856332 0 -0.043558347473806387 -0.2984211194138231 0 -0.072947339386401744 -0.29815403057856332 0 -0.043558347473806387 -0.2984211194138231 0 -0.051420852876661483 -0.31380047181538612 0 -0.043558347473806387 -0.2984211194138231 0 -0.051420852876661483 -0.31380047181538612 0 -0.030582351458593698 -0.31403506648659951 0 -0.014169355561211039 -0.29868820824908299 0 -0.030582351458593698 -0.31403506648659951 0 -0.0093546214437348063 -0.3154421594820554 0 -0.043558347473806387 -0.2984211194138231 0 -0.014169355561211039 -0.29868820824908299 0 -0.030582351458593698 -0.31403506648659951 0 -0.043558347473806387 -0.2984211194138231 0 -0.014169355561211039 -0.29868820824908299 0 -0.014169355561211039 -0.29868820824908299 0 -0.0093546214437348063 -0.3154421594820554 0 0.0025702240157044749 -0.30194718224499639 0 -0.014169355561211039 -0.29868820824908299 0 0.0025702240157044749 -0.30194718224499639 0 0.001953977901653102 -0.28749824366549498 0 -0.014169355561211039 -0.29868820824908299 0 -0.01355692824822796 -0.28271954505438091 0 0.001953977901653102 -0.28749824366549498 0 -0.01355692824822796 -0.28271954505438091 0 -0.002131649244152236 -0.27375645946249172 0 0.001953977901653102 -0.28749824366549498 0 -0.014169355561211039 -0.29868820824908299 0 -0.01355692824822796 -0.28271954505438091 0 -0.030508603843899348 -0.2838920637904252 0 -0.043558347473806387 -0.2984211194138231 0 -0.014169355561211039 -0.29868820824908299 0 -0.030508603843899348 -0.2838920637904252 0 -0.01355692824822796 -0.28271954505438091 0 -0.030508603843899348 -0.2838920637904252 0 -0.0232959564482321 -0.27430678972805739 0 -0.03708476385319625 -0.2699613192856723 0 -0.030508603843899348 -0.2838920637904252 0 -0.0232959564482321 -0.27430678972805739 0 -0.03708476385319625 -0.2699613192856723 0 -0.0232959564482321 -0.27430678972805739 0 -0.027769846617742091 -0.26444130564156609 0 -0.0232959564482321 -0.27430678972805739 0 -0.01453475649827142 -0.26699160201657218 0 -0.027769846617742091 -0.26444130564156609 0 -0.0232959564482321 -0.27430678972805739 0 -0.01264771782334753 -0.27382178896806042 0 -0.01453475649827142 -0.26699160201657218 0 -0.01355692824822796 -0.28271954505438091 0 -0.0232959564482321 -0.27430678972805739 0 -0.01264771782334753 -0.27382178896806042 0 -0.01355692824822796 -0.28271954505438091 0 -0.01264771782334753 -0.27382178896806042 0 -0.002131649244152236 -0.27375645946249172 0 -0.002131649244152236 -0.27375645946249172 0 -0.0028944004114581372 -0.26277522582270341 0 0.0049597396345670026 -0.26452376434945218 0 -0.002131649244152236 -0.27375645946249172 0 -0.0081433199175628083 -0.26887389345264789 0 -0.0028944004114581372 -0.26277522582270341 0 -0.01264771782334753 -0.27382178896806042 0 -0.002131649244152236 -0.27375645946249172 0 -0.0081433199175628083 -0.26887389345264789 0 -0.01264771782334753 -0.27382178896806042 0 -0.0081433199175628083 -0.26887389345264789 0 -0.01453475649827142 -0.26699160201657218 0 -0.0081433199175628083 -0.26887389345264789 0 -0.01453475649827142 -0.26699160201657218 0 -0.012379740604400009 -0.25371681360357518 0 -0.0081433199175628083 -0.26887389345264789 0 -0.012379740604400009 -0.25371681360357518 0 -0.0081433199175628083 -0.26887389345264789 0 -0.0050603712554523096 -0.25502580822232418 0 -0.012379740604400009 -0.25371681360357518 0 -0.0081433199175628083 -0.26887389345264789 0 -0.0028944004114581372 -0.26277522582270341 0 -0.0050603712554523096 -0.25502580822232418 0 -0.0028944004114581372 -0.26277522582270341 0 -0.0050603712554523096 -0.25502580822232418 0 0.0049597396345670026 -0.26452376434945218 0 -0.0050603712554523096 -0.25502580822232418 0 -0.012379740604400009 -0.25371681360357518 0 -0.01487672558591642 -0.24478309253466149 0 -0.01453475649827142 -0.26699160201657218 0 -0.027326811110253871 -0.25121816526868662 0 -0.01453475649827142 -0.26699160201657218 0 -0.027769846617742091 -0.26444130564156609 0 -0.027326811110253871 -0.25121816526868662 0 -0.01453475649827142 -0.26699160201657218 0 -0.012379740604400009 -0.25371681360357518 0 -0.027326811110253871 -0.25121816526868662 0 -0.036856198389287782 -0.25899730250271491 0 -0.027769846617742091 -0.26444130564156609 0 -0.027326811110253871 -0.25121816526868662 0 -0.039399855887372083 -0.348894598899534 0 -0.034096369460313788 -0.36339656310703322 0 -0.051971925864546728 -0.35666972650072859 0 -0.039399855887372083 -0.348894598899534 0 -0.034096369460313788 -0.36339656310703322 0 -0.026210886027733249 -0.34369915139989571 0 -0.039399855887372083 -0.348894598899534 0 -0.034096369460313788 -0.36339656310703322 0 -0.034096369460313788 -0.36339656310703322 0 -0.059008804616476777 -0.3736816009534113 0 -0.034096369460313788 -0.36339656310703322 0 -0.059008804616476777 -0.3736816009534113 0 -0.054792379857709787 -0.38521108099946061 0 -0.071250752086046532 -0.35335887697158019 0 -0.059008804616476777 -0.3736816009534113 0 -0.051971925864546728 -0.35666972650072859 0 -0.034096369460313788 -0.36339656310703322 0 -0.059008804616476777 -0.3736816009534113 0 -0.051971925864546728 -0.35666972650072859 0 -0.039399855887372083 -0.348894598899534 0 -0.056103847272524453 -0.34401699257208418 0 -0.051971925864546728 -0.35666972650072859 0 -0.071250752086046532 -0.35335887697158019 0 -0.056103847272524453 -0.34401699257208418 0 -0.051971925864546728 -0.35666972650072859 0 -0.063011241542060503 -0.32804507108198161 0 -0.056103847272524453 -0.34401699257208418 0 -0.04119870814000013 -0.33100814093665459 0 -0.063011241542060503 -0.32804507108198161 0 -0.072947339386401744 -0.29815403057856332 0 -0.051420852876661483 -0.31380047181538612 0 -0.063011241542060503 -0.32804507108198161 0 -0.051420852876661483 -0.31380047181538612 0 -0.04119870814000013 -0.33100814093665459 0 -0.04119870814000013 -0.33100814093665459 0 -0.030582351458593698 -0.31403506648659951 0 -0.022582582343139011 -0.32698802181857289 0 -0.051420852876661483 -0.31380047181538612 0 -0.04119870814000013 -0.33100814093665459 0 -0.030582351458593698 -0.31403506648659951 0 -0.039399855887372083 -0.348894598899534 0 -0.04119870814000013 -0.33100814093665459 0 -0.026210886027733249 -0.34369915139989571 0 -0.039399855887372083 -0.348894598899534 0 -0.056103847272524453 -0.34401699257208418 0 -0.04119870814000013 -0.33100814093665459 0 -0.04119870814000013 -0.33100814093665459 0 -0.026210886027733249 -0.34369915139989571 0 -0.022582582343139011 -0.32698802181857289 0 -0.026210886027733249 -0.34369915139989571 0 -0.022582582343139011 -0.32698802181857289 0 -0.008605873932596356 -0.33624452634938418 0 -0.030582351458593698 -0.31403506648659951 0 -0.022582582343139011 -0.32698802181857289 0 -0.0093546214437348063 -0.3154421594820554 0 -0.022582582343139011 -0.32698802181857289 0 -0.0093546214437348063 -0.3154421594820554 0 -0.008605873932596356 -0.33624452634938418 0 -0.0093546214437348063 -0.3154421594820554 0 -0.008605873932596356 -0.33624452634938418 0 0.0035141492887302548 -0.32519051246028208 0 -0.0019921573348008 -0.35014241775074068 0 -0.018044263397557131 -0.35676949042888739 0 -0.0042332821090469977 -0.36931681778231101 0 -0.0019921573348008 -0.35014241775074068 0 -0.018044263397557131 -0.35676949042888739 0 -0.008605873932596356 -0.33624452634938418 0 -0.0019921573348008 -0.35014241775074068 0 -0.018044263397557131 -0.35676949042888739 0 -0.026210886027733249 -0.34369915139989571 0 -0.008605873932596356 -0.33624452634938418 0 -0.018044263397557131 -0.35676949042888739 0 -0.034096369460313788 -0.36339656310703322 0 -0.026210886027733249 -0.34369915139989571 0 -0.018044263397557131 -0.35676949042888739 0 -0.034096369460313788 -0.36339656310703322 0 -0.018044263397557131 -0.35676949042888739 0 -0.034096369460313788 -0.36339656310703322 0 -0.018686911073243041 -0.37245057318461761 0 -0.025663519942779139 -0.38645552319913151 0 -0.034096369460313788 -0.36339656310703322 0 -0.025663519942779139 -0.38645552319913151 0 -0.034096369460313788 -0.36339656310703322 0 -0.018044263397557131 -0.35676949042888739 0 -0.018686911073243041 -0.37245057318461761 0 -0.018044263397557131 -0.35676949042888739 0 -0.018686911073243041 -0.37245057318461761 0 -0.0042332821090469977 -0.36931681778231101 0 -0.0042332821090469977 -0.36931681778231101 0 -0.0014384839491562609 -0.38294108750953337 0 -0.01293018069981793 -0.38699951650140929 0 -0.018686911073243041 -0.37245057318461761 0 -0.0042332821090469977 -0.36931681778231101 0 -0.01293018069981793 -0.38699951650140929 0 -0.0014384839491562609 -0.38294108750953337 0 -0.01063129593948554 -0.39508981091663592 0 0.011472045166716269 -0.38952867199447438 0 -0.0014384839491562609 -0.38294108750953337 0 -0.01293018069981793 -0.38699951650140929 0 -0.01063129593948554 -0.39508981091663592 0 -0.01063129593948554 -0.39508981091663592 0 -0.0091670491733258502 -0.407137417147723 0 0.011472045166716269 -0.38952867199447438 0 -0.01063129593948554 -0.39508981091663592 0 -0.018873559194732051 -0.4050221338792524 0 -0.0091670491733258502 -0.407137417147723 0 -0.018873559194732051 -0.4050221338792524 0 -0.02836285586948685 -0.40056267234101323 0 -0.025663519942779139 -0.38645552319913151 0 -0.018873559194732051 -0.4050221338792524 0 -0.025663519942779139 -0.38645552319913151 0 -0.01063129593948554 -0.39508981091663592 0 -0.018873559194732051 -0.4050221338792524 0 -0.025663519942779139 -0.38645552319913151 0 -0.018873559194732051 -0.4050221338792524 0 -0.02836285586948685 -0.40056267234101323 0 -0.030977517198131951 -0.41001184184548872 0 -0.018686911073243041 -0.37245057318461761 0 -0.01293018069981793 -0.38699951650140929 0 -0.025663519942779139 -0.38645552319913151 0 -0.01293018069981793 -0.38699951650140929 0 -0.01063129593948554 -0.39508981091663592 0 -0.025663519942779139 -0.38645552319913151 0 -0.01293018069981793 -0.38699951650140929 0 -0.025663519942779139 -0.38645552319913151 0 -0.025663519942779139 -0.38645552319913151 0 -0.054792379857709787 -0.38521108099946061 0 -0.034096369460313788 -0.36339656310703322 0 -0.025663519942779139 -0.38645552319913151 0 -0.054792379857709787 -0.38521108099946061 0 -0.025663519942779139 -0.38645552319913151 0 -0.040378871001035203 -0.4023619242499753 0 -0.054792379857709787 -0.38521108099946061 0 -0.02836285586948685 -0.40056267234101323 0 -0.025663519942779139 -0.38645552319913151 0 -0.040378871001035203 -0.4023619242499753 0 -0.02836285586948685 -0.40056267234101323 0 -0.040378871001035203 -0.4023619242499753 0 -0.030977517198131951 -0.41001184184548872 0 -0.054792379857709787 -0.38521108099946061 0 -0.059825167014939118 -0.40722915412089022 0 -0.072775681732521871 -0.39584784537067902 0 -0.040378871001035203 -0.4023619242499753 0 -0.054792379857709787 -0.38521108099946061 0 -0.059825167014939118 -0.40722915412089022 0 -0.042229656958243142 -0.42347410177567479 0 -0.050515785400197619 -0.44529677996352279 0 -0.072027503688391378 -0.4304363902392051 0 -0.040378871001035203 -0.4023619242499753 0 -0.059825167014939118 -0.40722915412089022 0 -0.042229656958243142 -0.42347410177567479 0 -0.059825167014939118 -0.40722915412089022 0 -0.042229656958243142 -0.42347410177567479 0 -0.072027503688391378 -0.4304363902392051 0 -0.040378871001035203 -0.4023619242499753 0 -0.042229656958243142 -0.42347410177567479 0 -0.030977517198131951 -0.41001184184548872 0 -0.042229656958243142 -0.42347410177567479 0 -0.030977517198131951 -0.41001184184548872 0 -0.025042642967162548 -0.41863837698152778 0 -0.042229656958243142 -0.42347410177567479 0 -0.02466563579619491 -0.43258924065094212 0 -0.036391946892689743 -0.43794750258320281 0 -0.042229656958243142 -0.42347410177567479 0 -0.036391946892689743 -0.43794750258320281 0 -0.050515785400197619 -0.44529677996352279 0 -0.042229656958243142 -0.42347410177567479 0 -0.02466563579619491 -0.43258924065094212 0 -0.025042642967162548 -0.41863837698152778 0 -0.02466563579619491 -0.43258924065094212 0 -0.01208359844668536 -0.42358874455937362 0 -0.01135633175650611 -0.44080857306714882 0 -0.02466563579619491 -0.43258924065094212 0 -0.025042642967162548 -0.41863837698152778 0 -0.01208359844668536 -0.42358874455937362 0 -0.018873559194732051 -0.4050221338792524 0 -0.025042642967162548 -0.41863837698152778 0 -0.01208359844668536 -0.42358874455937362 0 -0.018873559194732051 -0.4050221338792524 0 -0.030977517198131951 -0.41001184184548872 0 -0.025042642967162548 -0.41863837698152778 0 -0.0091670491733258502 -0.407137417147723 0 -0.01208359844668536 -0.42358874455937362 0 0.0037810136158822729 -0.41791708709875131 0 -0.018873559194732051 -0.4050221338792524 0 -0.01208359844668536 -0.42358874455937362 0 -0.018873559194732051 -0.4050221338792524 0 -0.0091670491733258502 -0.407137417147723 0 -0.01208359844668536 -0.42358874455937362 0 -0.0091670491733258502 -0.407137417147723 0 0.005108664055598287 -0.40528738143041459 0 0.0037810136158822729 -0.41791708709875131 0 -0.01208359844668536 -0.42358874455937362 0 -0.01135633175650611 -0.44080857306714882 0 0.00079488181500260609 -0.42987501851034571 0 -0.01208359844668536 -0.42358874455937362 0 0.0037810136158822729 -0.41791708709875131 0 0.00079488181500260609 -0.42987501851034571 0 -0.01135633175650611 -0.44080857306714882 0 -0.0057475739345891896 -0.4549207533069245 0 -0.026821380350943221 -0.45052187300253432 0 -0.01135633175650611 -0.44080857306714882 0 -0.0057475739345891896 -0.4549207533069245 0 0.0068165806591294316 -0.44348526320397952 0 -0.01135633175650611 -0.44080857306714882 0 0.00079488181500260609 -0.42987501851034571 0 0.0068165806591294316 -0.44348526320397952 0 -0.0057475739345891896 -0.4549207533069245 0 -0.01053281578453142 -0.47284051234843588 0 0.013156077559905371 -0.46694754491252372 0 -0.0057475739345891896 -0.4549207533069245 0 -0.026821380350943221 -0.45052187300253432 0 -0.01053281578453142 -0.47284051234843588 0 -0.026821380350943221 -0.45052187300253432 0 -0.01053281578453142 -0.47284051234843588 0 -0.034221709128968207 -0.47873347978434821 0 -0.02466563579619491 -0.43258924065094212 0 -0.026821380350943221 -0.45052187300253432 0 -0.036391946892689743 -0.43794750258320281 0 -0.02466563579619491 -0.43258924065094212 0 -0.01135633175650611 -0.44080857306714882 0 -0.026821380350943221 -0.45052187300253432 0 -0.01053281578453142 -0.47284051234843588 0 -0.021528721160628209 -0.5 0 0.0082051736105589468 -0.5 0 -0.01053281578453142 -0.47284051234843588 0 -0.034221709128968207 -0.47873347978434821 0 -0.01053281578453142 -0.47284051234843588 0 -0.021528721160628209 -0.5 0 -0.034221709128968207 -0.47873347978434821 0 -0.021528721160628209 -0.5 0 -0.034221709128968207 -0.47873347978434821 0 -0.051262615931815303 -0.5 0 -0.059523740010860512 -0.4805696461841214 0 -0.046928985533113317 -0.46386793679958732 0 -0.064864185923778739 -0.46315270411222448 0 -0.034221709128968207 -0.47873347978434821 0 -0.059523740010860512 -0.4805696461841214 0 -0.046928985533113317 -0.46386793679958732 0 -0.034221709128968207 -0.47873347978434821 0 -0.059523740010860512 -0.4805696461841214 0 -0.051262615931815303 -0.5 0 -0.026821380350943221 -0.45052187300253432 0 -0.036391946892689743 -0.43794750258320281 0 -0.050515785400197619 -0.44529677996352279 0 -0.026821380350943221 -0.45052187300253432 0 -0.034221709128968207 -0.47873347978434821 0 -0.046928985533113317 -0.46386793679958732 0 -0.026821380350943221 -0.45052187300253432 0 -0.046928985533113317 -0.46386793679958732 0 -0.050515785400197619 -0.44529677996352279 0 -0.046928985533113317 -0.46386793679958732 0 -0.050515785400197619 -0.44529677996352279 0 -0.064864185923778739 -0.46315270411222448 0 -0.050515785400197619 -0.44529677996352279 0 -0.067207280617084753 -0.44732106669938188 0 -0.064864185923778739 -0.46315270411222448 0 -0.050515785400197619 -0.44529677996352279 0 -0.067207280617084753 -0.44732106669938188 0 -0.072027503688391378 -0.4304363902392051 0 -0.067207280617084753 -0.44732106669938188 0 -0.082815891533118816 -0.45534181676778152 0 -0.072027503688391378 -0.4304363902392051 0 -0.067207280617084753 -0.44732106669938188 0 -0.064864185923778739 -0.46315270411222448 0 -0.082815891533118816 -0.45534181676778152 0 -0.064864185923778739 -0.46315270411222448 0 -0.082815891533118816 -0.45534181676778152 0 -0.078868432844485067 -0.47766375640856817 0 -0.082815891533118816 -0.45534181676778152 0 -0.098405376953540707 -0.43777035074814158 0 -0.072027503688391378 -0.4304363902392051 0 -0.059523740010860512 -0.4805696461841214 0 -0.078868432844485067 -0.47766375640856817 0 -0.080996510703002414 -0.50000000000000011 0 -0.059523740010860512 -0.4805696461841214 0 -0.051262615931815303 -0.5 0 -0.080996510703002414 -0.50000000000000011 0 -0.059523740010860512 -0.4805696461841214 0 -0.064864185923778739 -0.46315270411222448 0 -0.078868432844485067 -0.47766375640856817 0 -0.082815891533118816 -0.45534181676778152 0 -0.078868432844485067 -0.47766375640856817 0 -0.097649384782090676 -0.47348966161849648 0 -0.078868432844485067 -0.47766375640856817 0 -0.091101191517426794 -0.4855812854125191 0 -0.097649384782090676 -0.47348966161849648 0 -0.080996510703002414 -0.50000000000000011 0 -0.091101191517426794 -0.4855812854125191 0 -0.106890437740129 -0.49117172362301192 0 -0.078868432844485067 -0.47766375640856817 0 -0.080996510703002414 -0.50000000000000011 0 -0.091101191517426794 -0.4855812854125191 0 -0.080996510703002414 -0.50000000000000011 0 -0.106890437740129 -0.49117172362301192 0 -0.080996510703002414 -0.50000000000000011 0 -0.1052795491262605 -0.5 0 -0.106890437740129 -0.49117172362301192 0 -0.091101191517426794 -0.4855812854125191 0 -0.106890437740129 -0.49117172362301192 0 -0.097649384782090676 -0.47348966161849648 0 -0.106890437740129 -0.49117172362301192 0 -0.097649384782090676 -0.47348966161849648 0 -0.1161667412357628 -0.47599129326682099 0 -0.097649384782090676 -0.47348966161849648 0 -0.1161667412357628 -0.47599129326682099 0 -0.11918173836773351 -0.45845832247928869 0 -0.13278436477725561 -0.4823434472460234 0 -0.106890437740129 -0.49117172362301192 0 -0.1161667412357628 -0.47599129326682099 0 -0.13278436477725561 -0.4823434472460234 0 -0.12956258754951869 -0.5 0 -0.106890437740129 -0.49117172362301192 0 -0.12956258754951869 -0.5 0 -0.1052795491262605 -0.5 0 -0.106890437740129 -0.49117172362301192 0 -0.13278436477725561 -0.4823434472460234 0 -0.106890437740129 -0.49117172362301192 0 -0.098405376953540707 -0.43777035074814158 0 -0.1032934630365307 -0.45295297384024952 0 -0.1184149235461696 -0.43970471758753887 0 -0.082815891533118816 -0.45534181676778152 0 -0.098405376953540707 -0.43777035074814158 0 -0.1032934630365307 -0.45295297384024952 0 -0.082815891533118816 -0.45534181676778152 0 -0.097649384782090676 -0.47348966161849648 0 -0.1032934630365307 -0.45295297384024952 0 -0.097649384782090676 -0.47348966161849648 0 -0.11918173836773351 -0.45845832247928869 0 -0.097649384782090676 -0.47348966161849648 0 -0.1032934630365307 -0.45295297384024952 0 -0.11918173836773351 -0.45845832247928869 0 -0.1272556728232932 -0.47013049556587211 0 -0.1161667412357628 -0.47599129326682099 0 -0.11918173836773351 -0.45845832247928869 0 -0.1032934630365307 -0.45295297384024952 0 -0.11918173836773351 -0.45845832247928869 0 -0.1184149235461696 -0.43970471758753887 0 -0.13370262722300191 -0.42485153358840111 0 -0.1184149235461696 -0.43970471758753887 0 -0.116306788879599 -0.41668109890019722 0 -0.098405376953540707 -0.43777035074814158 0 -0.1184149235461696 -0.43970471758753887 0 -0.116306788879599 -0.41668109890019722 0 -0.098405376953540707 -0.43777035074814158 0 -0.097023176649951706 -0.41709708103231641 0 -0.116306788879599 -0.41668109890019722 0 -0.097023176649951706 -0.41709708103231641 0 -0.116306788879599 -0.41668109890019722 0 -0.1080069522975812 -0.4033851446609884 0 -0.097023176649951706 -0.41709708103231641 0 -0.1080069522975812 -0.4033851446609884 0 -0.093849536080233595 -0.40171885712620059 0 -0.116306788879599 -0.41668109890019722 0 -0.1246151037146196 -0.40215144471962733 0 -0.1080069522975812 -0.4033851446609884 0 -0.13370262722300191 -0.42485153358840111 0 -0.116306788879599 -0.41668109890019722 0 -0.1246151037146196 -0.40215144471962733 0 -0.12942966304821441 -0.38325015625522552 0 -0.1246151037146196 -0.40215144471962733 0 -0.11435095473318441 -0.38971939249289739 0 -0.1246151037146196 -0.40215144471962733 0 -0.11435095473318441 -0.38971939249289739 0 -0.1080069522975812 -0.4033851446609884 0 -0.12942966304821441 -0.38325015625522552 0 -0.1177797586078463 -0.37381446098417098 0 -0.11435095473318441 -0.38971939249289739 0 -0.1177797586078463 -0.37381446098417098 0 -0.11435095473318441 -0.38971939249289739 0 -0.1034929330021967 -0.38313049756236911 0 -0.1034929330021967 -0.38313049756236911 0 -0.09434009405236482 -0.38826803727453157 0 -0.083921239772640238 -0.38396663879978871 0 -0.11435095473318441 -0.38971939249289739 0 -0.1034929330021967 -0.38313049756236911 0 -0.1028080940331122 -0.39324438582339738 0 -0.1034929330021967 -0.38313049756236911 0 -0.09434009405236482 -0.38826803727453157 0 -0.1028080940331122 -0.39324438582339738 0 -0.11435095473318441 -0.38971939249289739 0 -0.1080069522975812 -0.4033851446609884 0 -0.1028080940331122 -0.39324438582339738 0 -0.09434009405236482 -0.38826803727453157 0 -0.1028080940331122 -0.39324438582339738 0 -0.093849536080233595 -0.40171885712620059 0 -0.1080069522975812 -0.4033851446609884 0 -0.1028080940331122 -0.39324438582339738 0 -0.093849536080233595 -0.40171885712620059 0 -0.093849536080233595 -0.40171885712620059 0 -0.084931705096709012 -0.39557720875243713 0 -0.079771973845784508 -0.40808466519098552 0 -0.09434009405236482 -0.38826803727453157 0 -0.093849536080233595 -0.40171885712620059 0 -0.084931705096709012 -0.39557720875243713 0 -0.084931705096709012 -0.39557720875243713 0 -0.083921239772640238 -0.38396663879978871 0 -0.072775681732521871 -0.39584784537067902 0 -0.084931705096709012 -0.39557720875243713 0 -0.072775681732521871 -0.39584784537067902 0 -0.079771973845784508 -0.40808466519098552 0 -0.1034929330021967 -0.38313049756236911 0 -0.083921239772640238 -0.38396663879978871 0 -0.092143069441117886 -0.37288061806212591 0 -0.1034929330021967 -0.38313049756236911 0 -0.083921239772640238 -0.38396663879978871 0 -0.09434009405236482 -0.38826803727453157 0 -0.083921239772640238 -0.38396663879978871 0 -0.09434009405236482 -0.38826803727453157 0 -0.084931705096709012 -0.39557720875243713 0 -0.083921239772640238 -0.38396663879978871 0 -0.076899216694667677 -0.36865863427987439 0 -0.092143069441117886 -0.37288061806212591 0 -0.083921239772640238 -0.38396663879978871 0 -0.076899216694667677 -0.36865863427987439 0 -0.059008804616476777 -0.3736816009534113 0 -0.083921239772640238 -0.38396663879978871 0 -0.059008804616476777 -0.3736816009534113 0 -0.054792379857709787 -0.38521108099946061 0 -0.083921239772640238 -0.38396663879978871 0 -0.054792379857709787 -0.38521108099946061 0 -0.083921239772640238 -0.38396663879978871 0 -0.054792379857709787 -0.38521108099946061 0 -0.083921239772640238 -0.38396663879978871 0 -0.072775681732521871 -0.39584784537067902 0 -0.059008804616476777 -0.3736816009534113 0 -0.083921239772640238 -0.38396663879978871 0 -0.059825167014939118 -0.40722915412089022 0 -0.072775681732521871 -0.39584784537067902 0 -0.079771973845784508 -0.40808466519098552 0 -0.059825167014939118 -0.40722915412089022 0 -0.072027503688391378 -0.4304363902392051 0 -0.079771973845784508 -0.40808466519098552 0 -0.098405376953540707 -0.43777035074814158 0 -0.097023176649951706 -0.41709708103231641 0 -0.072027503688391378 -0.4304363902392051 0 -0.097023176649951706 -0.41709708103231641 0 -0.072027503688391378 -0.4304363902392051 0 -0.079771973845784508 -0.40808466519098552 0 -0.097023176649951706 -0.41709708103231641 0 -0.093849536080233595 -0.40171885712620059 0 -0.079771973845784508 -0.40808466519098552 0 -0.080332479827855185 -0.089132189148723034 0 -0.087659787804267197 -0.1053579589647711 0 -0.098653139325870498 -0.078072759780639212 0 -0.080332479827855185 -0.089132189148723034 0 -0.08392236851191634 -0.073343044769479643 0 -0.098653139325870498 -0.078072759780639212 0 -0.087659787804267197 -0.1053579589647711 0 -0.098653139325870498 -0.078072759780639212 0 -0.093078549589984544 -0.062615985124124363 0 -0.08392236851191634 -0.073343044769479643 0 -0.074194079442307964 -0.055813170303027348 0 -0.093078549589984544 -0.062615985124124363 0 -0.08392236851191634 -0.073343044769479643 0 -0.098653139325870498 -0.078072759780639212 0 -0.069502852475768331 -0.077808897141633637 0 -0.074194079442307964 -0.055813170303027348 0 -0.056896828677456698 -0.064957726782933892 0 -0.08392236851191634 -0.073343044769479643 0 -0.069502852475768331 -0.077808897141633637 0 -0.074194079442307964 -0.055813170303027348 0 -0.069502852475768331 -0.077808897141633637 0 -0.074194079442307964 -0.055813170303027348 0 -0.080332479827855185 -0.089132189148723034 0 -0.08392236851191634 -0.073343044769479643 0 -0.069502852475768331 -0.077808897141633637 0 -0.080332479827855185 -0.089132189148723034 0 -0.069502852475768331 -0.077808897141633637 0 -0.064978262980951509 -0.095744309556548293 0 -0.069502852475768331 -0.077808897141633637 0 -0.064978262980951509 -0.095744309556548293 0 -0.053466751150831528 -0.085728027791416223 0 -0.064978262980951509 -0.095744309556548293 0 -0.069413139924847295 -0.1120169614824971 0 -0.055973796613101583 -0.11154457769597879 0 -0.064978262980951509 -0.095744309556548293 0 -0.075595917634480286 -0.1005628547881349 0 -0.069413139924847295 -0.1120169614824971 0 -0.075595917634480286 -0.1005628547881349 0 -0.069413139924847295 -0.1120169614824971 0 -0.087659787804267197 -0.1053579589647711 0 -0.080332479827855185 -0.089132189148723034 0 -0.064978262980951509 -0.095744309556548293 0 -0.075595917634480286 -0.1005628547881349 0 -0.069413139924847295 -0.1120169614824971 0 -0.072499038737136423 -0.12336773177227039 0 -0.087659787804267197 -0.1053579589647711 0 -0.063965210873385206 -0.121372291062271 0 -0.069413139924847295 -0.1120169614824971 0 -0.072499038737136423 -0.12336773177227039 0 -0.063965210873385206 -0.121372291062271 0 -0.069413139924847295 -0.1120169614824971 0 -0.055973796613101583 -0.11154457769597879 0 -0.093729858762440374 -0.11631984424608149 0 -0.087659787804267197 -0.1053579589647711 0 -0.076666436282660663 -0.13264315814890179 0 -0.087659787804267197 -0.1053579589647711 0 -0.076666436282660663 -0.13264315814890179 0 -0.072499038737136423 -0.12336773177227039 0 -0.087659787804267197 -0.1053579589647711 0 -0.076666436282660663 -0.13264315814890179 0 -0.093729858762440374 -0.11631984424608149 0 -0.076666436282660663 -0.13264315814890179 0 -0.096101065320712109 -0.1258911452360538 0 -0.080332479827855185 -0.089132189148723034 0 -0.075595917634480286 -0.1005628547881349 0 -0.087659787804267197 -0.1053579589647711 0 -0.087659787804267197 -0.1053579589647711 0 -0.1004265812101162 -0.1089643198262948 0 -0.1006655882856296 -0.09175432640411825 0 -0.1004265812101162 -0.1089643198262948 0 -0.11487650466180439 -0.1160490357388697 0 -0.1006655882856296 -0.09175432640411825 0 -0.11487650466180439 -0.1160490357388697 0 -0.1117238545323833 -0.101270295352793 0 -0.1006655882856296 -0.09175432640411825 0 -0.11487650466180439 -0.1160490357388697 0 -0.1006655882856296 -0.09175432640411825 0 -0.10451846741591179 -0.1170766955469076 0 -0.11649007265168369 -0.1188075605425003 0 -0.096101065320712109 -0.1258911452360538 0 -0.11649007265168369 -0.1188075605425003 0 -0.096101065320712109 -0.1258911452360538 0 -0.093729858762440374 -0.11631984424608149 0 -0.10451846741591179 -0.1170766955469076 0 -0.096101065320712109 -0.1258911452360538 0 -0.093729858762440374 -0.11631984424608149 0 -0.087659787804267197 -0.1053579589647711 0 -0.1004265812101162 -0.1089643198262948 0 -0.093729858762440374 -0.11631984424608149 0 -0.1004265812101162 -0.1089643198262948 0 -0.10451846741591179 -0.1170766955469076 0 -0.1004265812101162 -0.1089643198262948 0 -0.10451846741591179 -0.1170766955469076 0 -0.11487650466180439 -0.1160490357388697 0 -0.10451846741591179 -0.1170766955469076 0 -0.11649007265168369 -0.1188075605425003 0 -0.11487650466180439 -0.1160490357388697 0 -0.11649007265168369 -0.1188075605425003 0 -0.11487650466180439 -0.1160490357388697 0 -0.11649007265168369 -0.1188075605425003 0 -0.11487650466180439 -0.1160490357388697 0 -0.12599987765418549 -0.11550364740632391 0 -0.11487650466180439 -0.1160490357388697 0 -0.12182531397588869 -0.1044134543712442 0 -0.12599987765418549 -0.11550364740632391 0 -0.11649007265168369 -0.1188075605425003 0 -0.12599987765418549 -0.11550364740632391 0 -0.11649007265168369 -0.1188075605425003 0 -0.12599987765418549 -0.11550364740632391 0 -0.1252704192176744 -0.1172440966648565 0 -0.11487650466180439 -0.1160490357388697 0 -0.1117238545323833 -0.101270295352793 0 -0.12182531397588869 -0.1044134543712442 0 -0.11487650466180439 -0.1160490357388697 0 -0.1117238545323833 -0.101270295352793 0 -0.1117238545323833 -0.101270295352793 0 -0.12182531397588869 -0.1044134543712442 0 -0.12067370026095731 -0.092005587950159118 0 -0.1117238545323833 -0.101270295352793 0 -0.12067370026095731 -0.092005587950159118 0 -0.1096737611153919 -0.085603154438093937 0 -0.12067370026095731 -0.092005587950159118 0 -0.1179915177927765 -0.081714148456293267 0 -0.12737817104852411 -0.080741270387750683 0 -0.1179915177927765 -0.081714148456293267 0 -0.1096737611153919 -0.085603154438093937 0 -0.1121838893690176 -0.075324773267663084 0 -0.12067370026095731 -0.092005587950159118 0 -0.1179915177927765 -0.081714148456293267 0 -0.1096737611153919 -0.085603154438093937 0 -0.087659787804267197 -0.1053579589647711 0 -0.1006655882856296 -0.09175432640411825 0 -0.098653139325870498 -0.078072759780639212 0 -0.1117238545323833 -0.101270295352793 0 -0.1096737611153919 -0.085603154438093937 0 -0.1006655882856296 -0.09175432640411825 0 -0.1096737611153919 -0.085603154438093937 0 -0.098653139325870498 -0.078072759780639212 0 -0.1121838893690176 -0.075324773267663084 0 -0.1096737611153919 -0.085603154438093937 0 -0.1006655882856296 -0.09175432640411825 0 -0.098653139325870498 -0.078072759780639212 0 -0.093078549589984544 -0.062615985124124363 0 -0.098653139325870498 -0.078072759780639212 0 -0.10811729135418539 -0.065091756711675844 0 -0.098653139325870498 -0.078072759780639212 0 -0.10811729135418539 -0.065091756711675844 0 -0.1121838893690176 -0.075324773267663084 0 -0.10811729135418539 -0.065091756711675844 0 -0.1121838893690176 -0.075324773267663084 0 -0.1232756904161693 -0.070411489051666373 0 -0.1179915177927765 -0.081714148456293267 0 -0.1121838893690176 -0.075324773267663084 0 -0.1232756904161693 -0.070411489051666373 0 -0.1179915177927765 -0.081714148456293267 0 -0.1232756904161693 -0.070411489051666373 0 -0.12737817104852411 -0.080741270387750683 0 -0.10811729135418539 -0.065091756711675844 0 -0.1232756904161693 -0.070411489051666373 0 -0.12131955324210091 -0.059181462630683621 0 -0.12131955324210091 -0.059181462630683621 0 -0.1197314047957487 -0.044466417495601512 0 -0.1050545945384474 -0.053665832172193451 0 -0.10811729135418539 -0.065091756711675844 0 -0.12131955324210091 -0.059181462630683621 0 -0.1050545945384474 -0.053665832172193451 0 -0.12131955324210091 -0.059181462630683621 0 -0.1197314047957487 -0.044466417495601512 0 -0.1315211872564446 -0.050314657740016588 0 -0.1197314047957487 -0.044466417495601512 0 -0.1068389650378473 -0.041887213400145028 0 -0.1185057960264221 -0.028529017004706999 0 -0.1197314047957487 -0.044466417495601512 0 -0.1185057960264221 -0.028529017004706999 0 -0.13361245343545181 -0.030305793086055629 0 -0.1197314047957487 -0.044466417495601512 0 -0.1068389650378473 -0.041887213400145028 0 -0.1050545945384474 -0.053665832172193451 0 -0.1068389650378473 -0.041887213400145028 0 -0.093783258566811134 -0.025165556691727101 0 -0.092485611966423034 -0.037114626304880938 0 -0.1068389650378473 -0.041887213400145028 0 -0.090434917852185284 -0.047588291663230448 0 -0.092485611966423034 -0.037114626304880938 0 -0.093078549589984544 -0.062615985124124363 0 -0.1050545945384474 -0.053665832172193451 0 -0.090434917852185284 -0.047588291663230448 0 -0.1068389650378473 -0.041887213400145028 0 -0.1050545945384474 -0.053665832172193451 0 -0.090434917852185284 -0.047588291663230448 0 -0.093078549589984544 -0.062615985124124363 0 -0.10811729135418539 -0.065091756711675844 0 -0.1050545945384474 -0.053665832172193451 0 -0.1236122261121546 -0.0078425818954372464 0 -0.10868121072477301 -0.016513669919031759 0 -0.1099986790197032 0.001632030897992919 0 -0.1236122261121546 -0.0078425818954372464 0 -0.10868121072477301 -0.016513669919031759 0 -0.1068389650378473 -0.041887213400145028 0 -0.1185057960264221 -0.028529017004706999 0 -0.10868121072477301 -0.016513669919031759 0 -0.1236122261121546 -0.0078425818954372464 0 -0.1185057960264221 -0.028529017004706999 0 -0.10868121072477301 -0.016513669919031759 0 -0.1068389650378473 -0.041887213400145028 0 -0.104837062895502 -0.02019526763349536 0 -0.10868121072477301 -0.016513669919031759 0 -0.1068389650378473 -0.041887213400145028 0 -0.10868121072477301 -0.016513669919031759 0 -0.1068389650378473 -0.041887213400145028 0 -0.093783258566811134 -0.025165556691727101 0 -0.104837062895502 -0.02019526763349536 0 -0.093783258566811134 -0.025165556691727101 0 -0.10868121072477301 -0.016513669919031759 0 -0.093783258566811134 -0.025165556691727101 0 -0.10868121072477301 -0.016513669919031759 0 -0.095747033840698895 -0.01524308727968717 0 -0.093783258566811134 -0.025165556691727101 0 -0.104837062895502 -0.02019526763349536 0 -0.10868121072477301 -0.016513669919031759 0 -0.104837062895502 -0.02019526763349536 0 -0.10868121072477301 -0.016513669919031759 0 -0.10868121072477301 -0.016513669919031759 0 -0.1099986790197032 0.001632030897992919 0 -0.10868121072477301 -0.016513669919031759 0 -0.097318817554363779 -0.0057286893867275063 0 -0.1099986790197032 0.001632030897992919 0 -0.10868121072477301 -0.016513669919031759 0 -0.095747033840698895 -0.01524308727968717 0 -0.097318817554363779 -0.0057286893867275063 0 -0.097318817554363779 -0.0057286893867275063 0 -0.083204848516847923 -0.01356443312126232 0 -0.087524390624848222 0.006688577221896419 0 -0.083204848516847923 -0.01356443312126232 0 -0.087524390624848222 0.006688577221896419 0 -0.083204848516847923 -0.01356443312126232 0 -0.065966226425225663 -0.0060274066981548767 0 -0.087524390624848222 0.006688577221896419 0 -0.095747033840698895 -0.01524308727968717 0 -0.097318817554363779 -0.0057286893867275063 0 -0.083204848516847923 -0.01356443312126232 0 -0.083204848516847923 -0.01356443312126232 0 -0.07434952191593272 -0.025061702399879319 0 -0.078885306408848499 -0.033817443464421199 0 -0.093783258566811134 -0.025165556691727101 0 -0.083204848516847923 -0.01356443312126232 0 -0.078885306408848499 -0.033817443464421199 0 -0.083204848516847923 -0.01356443312126232 0 -0.078885306408848499 -0.033817443464421199 0 -0.093783258566811134 -0.025165556691727101 0 -0.095747033840698895 -0.01524308727968717 0 -0.083204848516847923 -0.01356443312126232 0 -0.093783258566811134 -0.025165556691727101 0 -0.078885306408848499 -0.033817443464421199 0 -0.07434952191593272 -0.025061702399879319 0 -0.065966226425225663 -0.0060274066981548767 0 -0.069170669720302794 -0.035546986895945307 0 -0.065966226425225663 -0.0060274066981548767 0 -0.069170669720302794 -0.035546986895945307 0 -0.060499849025326763 -0.027113091598361162 0 -0.065966226425225663 -0.0060274066981548767 0 -0.069170669720302794 -0.035546986895945307 0 -0.083204848516847923 -0.01356443312126232 0 -0.07434952191593272 -0.025061702399879319 0 -0.065966226425225663 -0.0060274066981548767 0 -0.093078549589984544 -0.062615985124124363 0 -0.090434917852185284 -0.047588291663230448 0 -0.074194079442307964 -0.055813170303027348 0 -0.090434917852185284 -0.047588291663230448 0 -0.078885306408848499 -0.033817443464421199 0 -0.074194079442307964 -0.055813170303027348 0 -0.090434917852185284 -0.047588291663230448 0 -0.092485611966423034 -0.037114626304880938 0 -0.078885306408848499 -0.033817443464421199 0 -0.093783258566811134 -0.025165556691727101 0 -0.092485611966423034 -0.037114626304880938 0 -0.078885306408848499 -0.033817443464421199 0 -0.078885306408848499 -0.033817443464421199 0 -0.074194079442307964 -0.055813170303027348 0 -0.070330568719734213 -0.04601515277555971 0 -0.074520558508438778 -0.036352241819612927 0 -0.069170669720302794 -0.035546986895945307 0 -0.078885306408848499 -0.033817443464421199 0 -0.070330568719734213 -0.04601515277555971 0 -0.074194079442307964 -0.055813170303027348 0 -0.078885306408848499 -0.033817443464421199 0 -0.070330568719734213 -0.04601515277555971 0 -0.074520558508438778 -0.036352241819612927 0 -0.07434952191593272 -0.025061702399879319 0 -0.074520558508438778 -0.036352241819612927 0 -0.069170669720302794 -0.035546986895945307 0 -0.07434952191593272 -0.025061702399879319 0 -0.078885306408848499 -0.033817443464421199 0 -0.074520558508438778 -0.036352241819612927 0 -0.078885306408848499 -0.033817443464421199 0 -0.074520558508438778 -0.036352241819612927 0 -0.069170669720302794 -0.035546986895945307 0 -0.063362765034716981 -0.039125320738808887 0 -0.060499849025326763 -0.027113091598361162 0 -0.070330568719734213 -0.04601515277555971 0 -0.069170669720302794 -0.035546986895945307 0 -0.063362765034716981 -0.039125320738808887 0 -0.070330568719734213 -0.04601515277555971 0 -0.063362765034716981 -0.039125320738808887 0 -0.059858302453952031 -0.048952151576379901 0 -0.070330568719734213 -0.04601515277555971 0 -0.074194079442307964 -0.055813170303027348 0 -0.059858302453952031 -0.048952151576379901 0 -0.074194079442307964 -0.055813170303027348 0 -0.059858302453952031 -0.048952151576379901 0 -0.056896828677456698 -0.064957726782933892 0 -0.059858302453952031 -0.048952151576379901 0 -0.044923942794737923 -0.054691691027005551 0 -0.056896828677456698 -0.064957726782933892 0 -0.059858302453952031 -0.048952151576379901 0 -0.049734296148808359 -0.042485020192698987 0 -0.044923942794737923 -0.054691691027005551 0 -0.059858302453952031 -0.048952151576379901 0 -0.056954435254269083 -0.037999220847798339 0 -0.049734296148808359 -0.042485020192698987 0 -0.063362765034716981 -0.039125320738808887 0 -0.059858302453952031 -0.048952151576379901 0 -0.056954435254269083 -0.037999220847798339 0 -0.063362765034716981 -0.039125320738808887 0 -0.056954435254269083 -0.037999220847798339 0 -0.060499849025326763 -0.027113091598361162 0 -0.056954435254269083 -0.037999220847798339 0 -0.047200384798774982 -0.033276672805742737 0 -0.049734296148808359 -0.042485020192698987 0 -0.056954435254269083 -0.037999220847798339 0 -0.047200384798774982 -0.033276672805742737 0 -0.052646608023139009 -0.028133593701314161 0 -0.049734296148808359 -0.042485020192698987 0 -0.038309454021287423 -0.037485304465473157 0 -0.044923942794737923 -0.054691691027005551 0 -0.047200384798774982 -0.033276672805742737 0 -0.038309454021287423 -0.037485304465473157 0 -0.041340635405623813 -0.023634308371219701 0 -0.047200384798774982 -0.033276672805742737 0 -0.049734296148808359 -0.042485020192698987 0 -0.038309454021287423 -0.037485304465473157 0 -0.038309454021287423 -0.037485304465473157 0 -0.03208775864781041 -0.029071100487059381 0 -0.02346135141751398 -0.035355058972579741 0 -0.038309454021287423 -0.037485304465473157 0 -0.044923942794737923 -0.054691691027005551 0 -0.02964595896144296 -0.052602220053598318 0 -0.044923942794737923 -0.054691691027005551 0 -0.02964595896144296 -0.052602220053598318 0 -0.02933827121860667 -0.069671405985324328 0 -0.065966226425225663 -0.0060274066981548767 0 -0.052851520708108592 -0.013709279578128279 0 -0.060499849025326763 -0.027113091598361162 0 -0.065966226425225663 -0.0060274066981548767 0 -0.052851520708108592 -0.013709279578128279 0 -0.041285176168578859 0.002941795093874656 0 -0.052851520708108592 -0.013709279578128279 0 -0.052646608023139009 -0.028133593701314161 0 -0.041340635405623813 -0.023634308371219701 0 -0.052851520708108592 -0.013709279578128279 0 -0.060499849025326763 -0.027113091598361162 0 -0.052646608023139009 -0.028133593701314161 0 -0.056954435254269083 -0.037999220847798339 0 -0.060499849025326763 -0.027113091598361162 0 -0.052646608023139009 -0.028133593701314161 0 -0.047200384798774982 -0.033276672805742737 0 -0.052646608023139009 -0.028133593701314161 0 -0.041340635405623813 -0.023634308371219701 0 -0.041340635405623813 -0.023634308371219701 0 -0.03208775864781041 -0.029071100487059381 0 -0.025239593746816429 -0.019809730138964948 0 -0.041340635405623813 -0.023634308371219701 0 -0.035761471768298317 -0.01187809368403442 0 -0.025239593746816429 -0.019809730138964948 0 -0.052851520708108592 -0.013709279578128279 0 -0.041340635405623813 -0.023634308371219701 0 -0.035761471768298317 -0.01187809368403442 0 -0.038309454021287423 -0.037485304465473157 0 -0.041340635405623813 -0.023634308371219701 0 -0.03208775864781041 -0.029071100487059381 0 -0.052851520708108592 -0.013709279578128279 0 -0.035761471768298317 -0.01187809368403442 0 -0.041285176168578859 0.002941795093874656 0 -0.035761471768298317 -0.01187809368403442 0 -0.018090432812363919 -0.0051789454257338127 0 -0.041285176168578859 0.002941795093874656 0 -0.035761471768298317 -0.01187809368403442 0 -0.018090432812363919 -0.0051789454257338127 0 -0.025239593746816429 -0.019809730138964948 0 -0.018090432812363919 -0.0051789454257338127 0 -0.025239593746816429 -0.019809730138964948 0 -0.013061188317162169 -0.01291647294893521 0 -0.025239593746816429 -0.019809730138964948 0 -0.011210459174411659 -0.020702551241823321 0 -0.013061188317162169 -0.01291647294893521 0 -0.03208775864781041 -0.029071100487059381 0 -0.025239593746816429 -0.019809730138964948 0 -0.02346135141751398 -0.035355058972579741 0 -0.025239593746816429 -0.019809730138964948 0 -0.011210459174411659 -0.020702551241823321 0 -0.02346135141751398 -0.035355058972579741 0 -0.011210459174411659 -0.020702551241823321 0 -0.02346135141751398 -0.035355058972579741 0 -0.003476286599935095 -0.036271506326322138 0 -0.011210459174411659 -0.020702551241823321 0 -0.003476286599935095 -0.036271506326322138 0 0.0014199230119024339 -0.021574900853890581 0 -0.011210459174411659 -0.020702551241823321 0 0.0006213327713558641 -0.0089396406014967747 0 0.0014199230119024339 -0.021574900853890581 0 -0.001488115343110989 -0.0087397640735148233 0 -0.01693898921702304 0.0117618500821222 0 0.002394805847480138 -0.0071764921779012506 0 -0.018090432812363919 -0.0051789454257338127 0 -0.001488115343110989 -0.0087397640735148233 0 -0.01693898921702304 0.0117618500821222 0 -0.018090432812363919 -0.0051789454257338127 0 -0.013061188317162169 -0.01291647294893521 0 -0.001488115343110989 -0.0087397640735148233 0 -0.011210459174411659 -0.020702551241823321 0 -0.013061188317162169 -0.01291647294893521 0 -0.001488115343110989 -0.0087397640735148233 0 -0.011210459174411659 -0.020702551241823321 0 -0.001488115343110989 -0.0087397640735148233 0 0.0006213327713558641 -0.0089396406014967747 0 -0.011210459174411659 -0.020702551241823321 0 0.0006213327713558641 -0.0089396406014967747 0 -0.001488115343110989 -0.0087397640735148233 0 0.0006213327713558641 -0.0089396406014967747 0 -0.02964595896144296 -0.052602220053598318 0 -0.01526094355706222 -0.064007872731860899 0 -0.02933827121860667 -0.069671405985324328 0 -0.02964595896144296 -0.052602220053598318 0 -0.01441383554066036 -0.048546622235137428 0 -0.01526094355706222 -0.064007872731860899 0 -0.02964595896144296 -0.052602220053598318 0 -0.02346135141751398 -0.035355058972579741 0 -0.01441383554066036 -0.048546622235137428 0 -0.038309454021287423 -0.037485304465473157 0 -0.02964595896144296 -0.052602220053598318 0 -0.02346135141751398 -0.035355058972579741 0 -0.003476286599935095 -0.036271506326322138 0 -0.00022463716734756899 -0.054496453091326037 0 -0.01441383554066036 -0.048546622235137428 0 -0.02346135141751398 -0.035355058972579741 0 -0.003476286599935095 -0.036271506326322138 0 -0.01441383554066036 -0.048546622235137428 0 -0.00022463716734756899 -0.054496453091326037 0 -0.01441383554066036 -0.048546622235137428 0 -0.01526094355706222 -0.064007872731860899 0 -0.00022463716734756899 -0.054496453091326037 0 -0.01526094355706222 -0.064007872731860899 0 0.003886405537072308 -0.074985287574065307 0 -0.01526094355706222 -0.064007872731860899 0 -0.020242120847587721 -0.083511357097035596 0 0.003886405537072308 -0.074985287574065307 0 -0.0041979068999104599 -0.092692987180200151 0 -0.020242120847587721 -0.083511357097035596 0 0.003886405537072308 -0.074985287574065307 0 -0.020242120847587721 -0.083511357097035596 0 -0.037149979327061843 -0.086545702414286968 0 -0.027814197350204149 -0.1002222595639333 0 -0.020242120847587721 -0.083511357097035596 0 -0.02933827121860667 -0.069671405985324328 0 -0.037149979327061843 -0.086545702414286968 0 -0.0041979068999104599 -0.092692987180200151 0 -0.020242120847587721 -0.083511357097035596 0 -0.027814197350204149 -0.1002222595639333 0 -0.01526094355706222 -0.064007872731860899 0 -0.020242120847587721 -0.083511357097035596 0 -0.02933827121860667 -0.069671405985324328 0 -0.044923942794737923 -0.054691691027005551 0 -0.02933827121860667 -0.069671405985324328 0 -0.043795121567553899 -0.073512069705660321 0 -0.02933827121860667 -0.069671405985324328 0 -0.043795121567553899 -0.073512069705660321 0 -0.037149979327061843 -0.086545702414286968 0 -0.043795121567553899 -0.073512069705660321 0 -0.037149979327061843 -0.086545702414286968 0 -0.053466751150831528 -0.085728027791416223 0 -0.037149979327061843 -0.086545702414286968 0 -0.053466751150831528 -0.085728027791416223 0 -0.046895924631556341 -0.099640457450003272 0 -0.064978262980951509 -0.095744309556548293 0 -0.053466751150831528 -0.085728027791416223 0 -0.046895924631556341 -0.099640457450003272 0 -0.069502852475768331 -0.077808897141633637 0 -0.053466751150831528 -0.085728027791416223 0 -0.056896828677456698 -0.064957726782933892 0 -0.043795121567553899 -0.073512069705660321 0 -0.053466751150831528 -0.085728027791416223 0 -0.056896828677456698 -0.064957726782933892 0 -0.044923942794737923 -0.054691691027005551 0 -0.043795121567553899 -0.073512069705660321 0 -0.056896828677456698 -0.064957726782933892 0 -0.055973796613101583 -0.11154457769597879 0 -0.041972484009239593 -0.11125691353498 0 -0.051469099840166933 -0.12560748285855791 0 -0.063965210873385206 -0.121372291062271 0 -0.055973796613101583 -0.11154457769597879 0 -0.051469099840166933 -0.12560748285855791 0 -0.064978262980951509 -0.095744309556548293 0 -0.055973796613101583 -0.11154457769597879 0 -0.046895924631556341 -0.099640457450003272 0 -0.055973796613101583 -0.11154457769597879 0 -0.046895924631556341 -0.099640457450003272 0 -0.041972484009239593 -0.11125691353498 0 -0.046895924631556341 -0.099640457450003272 0 -0.041972484009239593 -0.11125691353498 0 -0.027814197350204149 -0.1002222595639333 0 -0.037149979327061843 -0.086545702414286968 0 -0.046895924631556341 -0.099640457450003272 0 -0.027814197350204149 -0.1002222595639333 0 -0.027958050649480481 -0.11798595469309241 0 -0.051469099840166933 -0.12560748285855791 0 -0.041972484009239593 -0.11125691353498 0 -0.027958050649480481 -0.11798595469309241 0 -0.051469099840166933 -0.12560748285855791 0 -0.041972484009239593 -0.11125691353498 0 -0.027958050649480481 -0.11798595469309241 0 -0.027814197350204149 -0.1002222595639333 0 -0.027958050649480481 -0.11798595469309241 0 -0.051469099840166933 -0.12560748285855791 0 -0.035009396245865847 -0.13138946507283039 0 -0.027958050649480481 -0.11798595469309241 0 -0.027814197350204149 -0.1002222595639333 0 -0.004447001458793981 -0.1103644265276268 0 -0.027958050649480481 -0.11798595469309241 0 -0.004447001458793981 -0.1103644265276268 0 -0.0041979068999104599 -0.092692987180200151 0 -0.027814197350204149 -0.1002222595639333 0 -0.004447001458793981 -0.1103644265276268 0 -0.027958050649480481 -0.11798595469309241 0 -0.004447001458793981 -0.1103644265276268 0 -0.0095835093286126792 -0.13067357323387099 0 -0.0095835093286126792 -0.13067357323387099 0 -0.02380622872257708 -0.13863305153198521 0 -0.011420010772425999 -0.14358906931216731 0 -0.0095835093286126792 -0.13067357323387099 0 -0.02380622872257708 -0.13863305153198521 0 -0.035009396245865847 -0.13138946507283039 0 -0.0095835093286126792 -0.13067357323387099 0 -0.035009396245865847 -0.13138946507283039 0 -0.027958050649480481 -0.11798595469309241 0 -0.0095835093286126792 -0.13067357323387099 0 -0.035009396245865847 -0.13138946507283039 0 -0.02380622872257708 -0.13863305153198521 0 -0.02156928320199206 -0.15178510772423359 0 -0.048274716116422638 -0.14250705937413011 0 -0.02380622872257708 -0.13863305153198521 0 -0.02156928320199206 -0.15178510772423359 0 -0.011420010772425999 -0.14358906931216731 0 -0.02156928320199206 -0.15178510772423359 0 0.0051361497124387812 -0.16106315607433669 0 0.00014451492137988051 -0.1496259991592768 0 -0.0095835093286126792 -0.13067357323387099 0 -0.011420010772425999 -0.14358906931216731 0 0.00014451492137988051 -0.1496259991592768 0 -0.02156928320199206 -0.15178510772423359 0 -0.011420010772425999 -0.14358906931216731 0 0.00014451492137988051 -0.1496259991592768 0 -0.011473423231508561 -0.16625464439919799 0 -0.001198061652550745 -0.17280609881212911 0 0.0051361497124387812 -0.16106315607433669 0 -0.011473423231508561 -0.16625464439919799 0 0.0051361497124387812 -0.16106315607433669 0 -0.02156928320199206 -0.15178510772423359 0 -0.011473423231508561 -0.16625464439919799 0 0.0051361497124387812 -0.16106315607433669 0 -0.02156928320199206 -0.15178510772423359 0 0.0051361497124387812 -0.16106315607433669 0 -0.011473423231508561 -0.16625464439919799 0 -0.011684220618858611 -0.1828185141711022 0 -0.001198061652550745 -0.17280609881212911 0 -0.011684220618858611 -0.1828185141711022 0 -0.001198061652550745 -0.17280609881212911 0 0.0039750345954989988 -0.18651425943902311 0 -0.011684220618858611 -0.1828185141711022 0 -0.028082996175455729 -0.1714461327240597 0 -0.02834353692262364 -0.19660149069868879 0 -0.011473423231508561 -0.16625464439919799 0 -0.011684220618858611 -0.1828185141711022 0 -0.028082996175455729 -0.1714461327240597 0 -0.028082996175455729 -0.1714461327240597 0 -0.035076942590977253 -0.17251068978070239 0 -0.02834353692262364 -0.19660149069868879 0 -0.011473423231508561 -0.16625464439919799 0 -0.028082996175455729 -0.1714461327240597 0 -0.011473423231508561 -0.16625464439919799 0 -0.022251169661310358 -0.16246870980996381 0 -0.028082996175455729 -0.1714461327240597 0 -0.02156928320199206 -0.15178510772423359 0 -0.011473423231508561 -0.16625464439919799 0 -0.022251169661310358 -0.16246870980996381 0 -0.022251169661310358 -0.16246870980996381 0 -0.028082996175455729 -0.1714461327240597 0 -0.031809345178707003 -0.1640816166355436 0 -0.02156928320199206 -0.15178510772423359 0 -0.022251169661310358 -0.16246870980996381 0 -0.031809345178707003 -0.1640816166355436 0 -0.02156928320199206 -0.15178510772423359 0 -0.031809345178707003 -0.1640816166355436 0 -0.040578875443760723 -0.15702635465982459 0 -0.031809345178707003 -0.1640816166355436 0 -0.043296803998745907 -0.16925270511447771 0 -0.040578875443760723 -0.15702635465982459 0 -0.031809345178707003 -0.1640816166355436 0 -0.043296803998745907 -0.16925270511447771 0 -0.035076942590977253 -0.17251068978070239 0 -0.028082996175455729 -0.1714461327240597 0 -0.031809345178707003 -0.1640816166355436 0 -0.035076942590977253 -0.17251068978070239 0 -0.043296803998745907 -0.16925270511447771 0 -0.040578875443760723 -0.15702635465982459 0 -0.04778301199147586 -0.16221110159835439 0 -0.035076942590977253 -0.17251068978070239 0 -0.045101912546314182 -0.17781348514508699 0 -0.045384173352602211 -0.1896086705553881 0 -0.035076942590977253 -0.17251068978070239 0 -0.02834353692262364 -0.19660149069868879 0 -0.035076942590977253 -0.17251068978070239 0 -0.02834353692262364 -0.19660149069868879 0 -0.045384173352602211 -0.1896086705553881 0 -0.043296803998745907 -0.16925270511447771 0 -0.035076942590977253 -0.17251068978070239 0 -0.045101912546314182 -0.17781348514508699 0 -0.043296803998745907 -0.16925270511447771 0 -0.045101912546314182 -0.17781348514508699 0 -0.050116399936897628 -0.17439367801967379 0 -0.053826302631423108 -0.18719098183538219 0 -0.0513777658433901 -0.18144884671813011 0 -0.045384173352602211 -0.1896086705553881 0 -0.045101912546314182 -0.17781348514508699 0 -0.0513777658433901 -0.18144884671813011 0 -0.045384173352602211 -0.1896086705553881 0 -0.053826302631423108 -0.18719098183538219 0 -0.0513777658433901 -0.18144884671813011 0 -0.05724186851000123 -0.18306086139846869 0 -0.050116399936897628 -0.17439367801967379 0 -0.056462731779267583 -0.17707926816758701 0 -0.053733136905861317 -0.1679726515631198 0 -0.0513777658433901 -0.18144884671813011 0 -0.050116399936897628 -0.17439367801967379 0 -0.056462731779267583 -0.17707926816758701 0 -0.045101912546314182 -0.17781348514508699 0 -0.0513777658433901 -0.18144884671813011 0 -0.050116399936897628 -0.17439367801967379 0 -0.061772453938110018 -0.1722676601875073 0 -0.056462731779267583 -0.17707926816758701 0 -0.064464826801710964 -0.18158017590305259 0 -0.061772453938110018 -0.1722676601875073 0 -0.056462731779267583 -0.17707926816758701 0 -0.053733136905861317 -0.1679726515631198 0 -0.056462731779267583 -0.17707926816758701 0 -0.05724186851000123 -0.18306086139846869 0 -0.064464826801710964 -0.18158017590305259 0 -0.0513777658433901 -0.18144884671813011 0 -0.056462731779267583 -0.17707926816758701 0 -0.05724186851000123 -0.18306086139846869 0 -0.05724186851000123 -0.18306086139846869 0 -0.060077715494214402 -0.1880050343681916 0 -0.064464826801710964 -0.18158017590305259 0 -0.053826302631423108 -0.18719098183538219 0 -0.05724186851000123 -0.18306086139846869 0 -0.060077715494214402 -0.1880050343681916 0 -0.04778301199147586 -0.16221110159835439 0 -0.053733136905861317 -0.1679726515631198 0 -0.054318116428342743 -0.1550095253668563 0 -0.040578875443760723 -0.15702635465982459 0 -0.04778301199147586 -0.16221110159835439 0 -0.054318116428342743 -0.1550095253668563 0 -0.043296803998745907 -0.16925270511447771 0 -0.04778301199147586 -0.16221110159835439 0 -0.053733136905861317 -0.1679726515631198 0 -0.043296803998745907 -0.16925270511447771 0 -0.050116399936897628 -0.17439367801967379 0 -0.053733136905861317 -0.1679726515631198 0 -0.061772453938110018 -0.1722676601875073 0 -0.053733136905861317 -0.1679726515631198 0 -0.064150653413557149 -0.1630994165534029 0 -0.053733136905861317 -0.1679726515631198 0 -0.054318116428342743 -0.1550095253668563 0 -0.064150653413557149 -0.1630994165534029 0 -0.054318116428342743 -0.1550095253668563 0 -0.06193597557114254 -0.14487761168208729 0 -0.07017092070895159 -0.14876485096333639 0 -0.040578875443760723 -0.15702635465982459 0 -0.054318116428342743 -0.1550095253668563 0 -0.048274716116422638 -0.14250705937413011 0 -0.054318116428342743 -0.1550095253668563 0 -0.048274716116422638 -0.14250705937413011 0 -0.06193597557114254 -0.14487761168208729 0 -0.048274716116422638 -0.14250705937413011 0 -0.06193597557114254 -0.14487761168208729 0 -0.074980149030852788 -0.13322901102402521 0 -0.048274716116422638 -0.14250705937413011 0 -0.074980149030852788 -0.13322901102402521 0 -0.048274716116422638 -0.14250705937413011 0 -0.060435283163119087 -0.13210535691178979 0 -0.035009396245865847 -0.13138946507283039 0 -0.060435283163119087 -0.13210535691178979 0 -0.051469099840166933 -0.12560748285855791 0 -0.035009396245865847 -0.13138946507283039 0 -0.060435283163119087 -0.13210535691178979 0 -0.051469099840166933 -0.12560748285855791 0 -0.074980149030852788 -0.13322901102402521 0 -0.048274716116422638 -0.14250705937413011 0 -0.060435283163119087 -0.13210535691178979 0 -0.074980149030852788 -0.13322901102402521 0 -0.060435283163119087 -0.13210535691178979 0 -0.035009396245865847 -0.13138946507283039 0 -0.02380622872257708 -0.13863305153198521 0 -0.048274716116422638 -0.14250705937413011 0 -0.035009396245865847 -0.13138946507283039 0 -0.02156928320199206 -0.15178510772423359 0 -0.048274716116422638 -0.14250705937413011 0 -0.02156928320199206 -0.15178510772423359 0 -0.040578875443760723 -0.15702635465982459 0 -0.048274716116422638 -0.14250705937413011 0 -0.012379740604400009 -0.25371681360357518 0 -0.01487672558591642 -0.24478309253466149 0 -0.032983601381048028 -0.2367885997845538 0 -0.012379740604400009 -0.25371681360357518 0 -0.032983601381048028 -0.2367885997845538 0 -0.012379740604400009 -0.25371681360357518 0 -0.027326811110253871 -0.25121816526868662 0 -0.032983601381048028 -0.2367885997845538 0 -0.012379740604400009 -0.25371681360357518 0 -0.01487672558591642 -0.24478309253466149 0 -0.0050603712554523096 -0.25502580822232418 0 -0.01487672558591642 -0.24478309253466149 0 -0.0012779613340340411 -0.24176494305706761 0 -0.01487672558591642 -0.24478309253466149 0 -0.0012779613340340411 -0.24176494305706761 0 -0.0098443816872556354 -0.23359128343904409 0 -0.01487672558591642 -0.24478309253466149 0 -0.0098443816872556354 -0.23359128343904409 0 -0.02161013125427003 -0.22069229161667511 0 -0.0098443816872556354 -0.23359128343904409 0 -0.0016127085748020571 -0.22712480654777251 0 -0.02161013125427003 -0.22069229161667511 0 -0.0012779613340340411 -0.24176494305706761 0 -0.0098443816872556354 -0.23359128343904409 0 -0.0016127085748020571 -0.22712480654777251 0 -0.02161013125427003 -0.22069229161667511 0 -0.037749047324124332 -0.2222456785719269 0 -0.032983601381048028 -0.2367885997845538 0 -0.01487672558591642 -0.24478309253466149 0 -0.02161013125427003 -0.22069229161667511 0 -0.01487672558591642 -0.24478309253466149 0 -0.02161013125427003 -0.22069229161667511 0 -0.032983601381048028 -0.2367885997845538 0 -0.02161013125427003 -0.22069229161667511 0 -0.0048422933519348798 -0.20657909219758999 0 -0.02834353692262364 -0.19660149069868879 0 -0.02161013125427003 -0.22069229161667511 0 -0.02834353692262364 -0.19660149069868879 0 -0.04042466355054887 -0.21142906939722611 0 -0.02161013125427003 -0.22069229161667511 0 -0.02834353692262364 -0.19660149069868879 0 -0.0016127085748020571 -0.22712480654777251 0 -0.02161013125427003 -0.22069229161667511 0 -0.0048422933519348798 -0.20657909219758999 0 -0.011684220618858611 -0.1828185141711022 0 -0.0048422933519348798 -0.20657909219758999 0 -0.02834353692262364 -0.19660149069868879 0 -0.011684220618858611 -0.1828185141711022 0 -0.0048422933519348798 -0.20657909219758999 0 0.0039750345954989988 -0.18651425943902311 0 -0.02834353692262364 -0.19660149069868879 0 -0.045384173352602211 -0.1896086705553881 0 -0.048680880466514129 -0.20143667782743011 0 -0.045384173352602211 -0.1896086705553881 0 -0.054600152190027743 -0.1938329285883432 0 -0.048680880466514129 -0.20143667782743011 0 -0.053826302631423108 -0.18719098183538219 0 -0.045384173352602211 -0.1896086705553881 0 -0.054600152190027743 -0.1938329285883432 0 -0.053826302631423108 -0.18719098183538219 0 -0.054600152190027743 -0.1938329285883432 0 -0.060077715494214402 -0.1880050343681916 0 -0.054600152190027743 -0.1938329285883432 0 -0.062207823669324508 -0.19415899925277841 0 -0.060077715494214402 -0.1880050343681916 0 -0.05727161150443684 -0.20059064904333551 0 -0.063912376375580449 -0.2061057797213553 0 -0.063099371948942468 -0.19895763039768499 0 -0.062207823669324508 -0.19415899925277841 0 -0.05727161150443684 -0.20059064904333551 0 -0.063099371948942468 -0.19895763039768499 0 -0.054600152190027743 -0.1938329285883432 0 -0.062207823669324508 -0.19415899925277841 0 -0.05727161150443684 -0.20059064904333551 0 -0.054600152190027743 -0.1938329285883432 0 -0.05727161150443684 -0.20059064904333551 0 -0.048680880466514129 -0.20143667782743011 0 -0.05727161150443684 -0.20059064904333551 0 -0.048680880466514129 -0.20143667782743011 0 -0.053253465001542127 -0.20792698589572001 0 -0.052910920334218993 -0.21967129177291539 0 -0.069612749235620427 -0.2166114240769427 0 -0.064663204576268285 -0.2095762323379651 0 -0.048680880466514129 -0.20143667782743011 0 -0.053253465001542127 -0.20792698589572001 0 -0.04042466355054887 -0.21142906939722611 0 -0.05727161150443684 -0.20059064904333551 0 -0.053253465001542127 -0.20792698589572001 0 -0.063912376375580449 -0.2061057797213553 0 -0.053253465001542127 -0.20792698589572001 0 -0.052910920334218993 -0.21967129177291539 0 -0.063912376375580449 -0.2061057797213553 0 -0.052910920334218993 -0.21967129177291539 0 -0.064663204576268285 -0.2095762323379651 0 -0.052910920334218993 -0.21967129177291539 0 -0.063912376375580449 -0.2061057797213553 0 -0.064663204576268285 -0.2095762323379651 0 -0.052910920334218993 -0.21967129177291539 0 -0.063912376375580449 -0.2061057797213553 0 -0.053253465001542127 -0.20792698589572001 0 -0.04042466355054887 -0.21142906939722611 0 -0.052910920334218993 -0.21967129177291539 0 -0.02834353692262364 -0.19660149069868879 0 -0.048680880466514129 -0.20143667782743011 0 -0.04042466355054887 -0.21142906939722611 0 -0.02161013125427003 -0.22069229161667511 0 -0.04042466355054887 -0.21142906939722611 0 -0.037749047324124332 -0.2222456785719269 0 -0.04042466355054887 -0.21142906939722611 0 -0.037749047324124332 -0.2222456785719269 0 -0.052910920334218993 -0.21967129177291539 0 -0.037749047324124332 -0.2222456785719269 0 -0.052910920334218993 -0.21967129177291539 0 -0.032983601381048028 -0.2367885997845538 0 -0.052910920334218993 -0.21967129177291539 0 -0.032983601381048028 -0.2367885997845538 0 -0.052910920334218993 -0.21967129177291539 0 -0.032983601381048028 -0.2367885997845538 0 -0.040118865722236351 -0.23544472852080089 0 -0.052910920334218993 -0.21967129177291539 0 -0.040118865722236351 -0.23544472852080089 0 -0.052910920334218993 -0.21967129177291539 0 -0.054603171266369793 -0.23243375726732241 0 -0.069083472660325121 -0.22748117926656231 0 -0.052910920334218993 -0.21967129177291539 0 -0.054603171266369793 -0.23243375726732241 0 -0.040118865722236351 -0.23544472852080089 0 -0.054603171266369793 -0.23243375726732241 0 -0.062344578928600528 -0.23779073398242739 0 -0.069083472660325121 -0.22748117926656231 0 -0.054603171266369793 -0.23243375726732241 0 -0.052406799216804557 -0.24459198769464191 0 -0.040118865722236351 -0.23544472852080089 0 -0.054603171266369793 -0.23243375726732241 0 -0.062344578928600528 -0.23779073398242739 0 -0.052406799216804557 -0.24459198769464191 0 -0.065421878849430556 -0.25167039592025259 0 -0.062344578928600528 -0.23779073398242739 0 -0.052406799216804557 -0.24459198769464191 0 -0.027326811110253871 -0.25121816526868662 0 -0.040785035177160277 -0.24958968680164759 0 -0.040118865722236351 -0.23544472852080089 0 -0.027326811110253871 -0.25121816526868662 0 -0.032983601381048028 -0.2367885997845538 0 -0.040118865722236351 -0.23544472852080089 0 -0.027326811110253871 -0.25121816526868662 0 -0.040118865722236351 -0.23544472852080089 0 -0.052406799216804557 -0.24459198769464191 0 -0.040785035177160277 -0.24958968680164759 0 -0.040118865722236351 -0.23544472852080089 0 -0.078278243085297239 -0.23951664672932549 0 -0.086153706899138552 -0.22983104630755541 0 -0.09423246880553815 -0.23787512664900909 0 -0.093765691765433312 -0.25258281812082478 0 -0.078278243085297239 -0.23951664672932549 0 -0.09423246880553815 -0.23787512664900909 0 -0.062344578928600528 -0.23779073398242739 0 -0.078278243085297239 -0.23951664672932549 0 -0.069083472660325121 -0.22748117926656231 0 -0.065421878849430556 -0.25167039592025259 0 -0.062344578928600528 -0.23779073398242739 0 -0.078278243085297239 -0.23951664672932549 0 -0.065421878849430556 -0.25167039592025259 0 -0.079465288233698042 -0.25846821731041458 0 -0.078278243085297239 -0.23951664672932549 0 -0.052910920334218993 -0.21967129177291539 0 -0.069083472660325121 -0.22748117926656231 0 -0.069612749235620427 -0.2166114240769427 0 -0.078278243085297239 -0.23951664672932549 0 -0.069083472660325121 -0.22748117926656231 0 -0.086153706899138552 -0.22983104630755541 0 -0.069083472660325121 -0.22748117926656231 0 -0.082890498454507591 -0.21890744373665691 0 -0.069612749235620427 -0.2166114240769427 0 -0.082890498454507591 -0.21890744373665691 0 -0.086153706899138552 -0.22983104630755541 0 -0.098908818798469189 -0.22405916704643611 0 -0.082890498454507591 -0.21890744373665691 0 -0.092414465742116453 -0.21356058677725129 0 -0.098908818798469189 -0.22405916704643611 0 -0.069083472660325121 -0.22748117926656231 0 -0.082890498454507591 -0.21890744373665691 0 -0.086153706899138552 -0.22983104630755541 0 -0.086153706899138552 -0.22983104630755541 0 -0.098908818798469189 -0.22405916704643611 0 -0.09423246880553815 -0.23787512664900909 0 -0.082890498454507591 -0.21890744373665691 0 -0.092414465742116453 -0.21356058677725129 0 -0.085039292724931326 -0.20636870672523311 0 -0.092414465742116453 -0.21356058677725129 0 -0.085039292724931326 -0.20636870672523311 0 -0.094924882140715844 -0.2023400251814354 0 -0.085039292724931326 -0.20636870672523311 0 -0.076791362556699633 -0.2103212049296195 0 -0.076415488818317417 -0.19948117290301459 0 -0.082890498454507591 -0.21890744373665691 0 -0.085039292724931326 -0.20636870672523311 0 -0.076791362556699633 -0.2103212049296195 0 -0.082890498454507591 -0.21890744373665691 0 -0.069612749235620427 -0.2166114240769427 0 -0.076791362556699633 -0.2103212049296195 0 -0.069612749235620427 -0.2166114240769427 0 -0.07187070129672643 -0.20899750856188551 0 -0.076791362556699633 -0.2103212049296195 0 -0.069612749235620427 -0.2166114240769427 0 -0.064663204576268285 -0.2095762323379651 0 -0.07187070129672643 -0.20899750856188551 0 -0.063912376375580449 -0.2061057797213553 0 -0.064663204576268285 -0.2095762323379651 0 -0.076415488818317417 -0.19948117290301459 0 -0.064663204576268285 -0.2095762323379651 0 -0.07187070129672643 -0.20899750856188551 0 -0.076415488818317417 -0.19948117290301459 0 -0.07187070129672643 -0.20899750856188551 0 -0.076791362556699633 -0.2103212049296195 0 -0.076415488818317417 -0.19948117290301459 0 -0.064663204576268285 -0.2095762323379651 0 -0.076415488818317417 -0.19948117290301459 0 -0.063912376375580449 -0.2061057797213553 0 -0.076415488818317417 -0.19948117290301459 0 -0.074913832416942036 -0.19254026766979529 0 -0.063912376375580449 -0.2061057797213553 0 -0.074913832416942036 -0.19254026766979529 0 -0.063912376375580449 -0.2061057797213553 0 -0.067162409966087119 -0.19576756974744089 0 -0.074913832416942036 -0.19254026766979529 0 -0.063912376375580449 -0.2061057797213553 0 -0.067162409966087119 -0.19576756974744089 0 -0.063099371948942468 -0.19895763039768499 0 -0.062207823669324508 -0.19415899925277841 0 -0.067162409966087119 -0.19576756974744089 0 -0.063099371948942468 -0.19895763039768499 0 -0.062207823669324508 -0.19415899925277841 0 -0.060077715494214402 -0.1880050343681916 0 -0.067992112858964282 -0.18866012404393079 0 -0.062207823669324508 -0.19415899925277841 0 -0.067162409966087119 -0.19576756974744089 0 -0.067992112858964282 -0.18866012404393079 0 -0.067162409966087119 -0.19576756974744089 0 -0.067992112858964282 -0.18866012404393079 0 -0.074913832416942036 -0.19254026766979529 0 -0.067992112858964282 -0.18866012404393079 0 -0.074913832416942036 -0.19254026766979529 0 -0.075495957942860306 -0.18151306003065079 0 -0.076415488818317417 -0.19948117290301459 0 -0.074913832416942036 -0.19254026766979529 0 -0.086799058637230975 -0.19360180682342101 0 -0.074913832416942036 -0.19254026766979529 0 -0.086799058637230975 -0.19360180682342101 0 -0.081197999186964104 -0.18678207382066461 0 -0.085039292724931326 -0.20636870672523311 0 -0.076415488818317417 -0.19948117290301459 0 -0.086799058637230975 -0.19360180682342101 0 -0.085039292724931326 -0.20636870672523311 0 -0.086799058637230975 -0.19360180682342101 0 -0.094924882140715844 -0.2023400251814354 0 -0.086799058637230975 -0.19360180682342101 0 -0.095726771505572558 -0.1875603531079979 0 -0.094924882140715844 -0.2023400251814354 0 -0.094924882140715844 -0.2023400251814354 0 -0.111160472432858 -0.1885386204747187 0 -0.094924882140715844 -0.2023400251814354 0 -0.111160472432858 -0.1885386204747187 0 -0.1114495577303883 -0.20340811176391119 0 -0.095726771505572558 -0.1875603531079979 0 -0.094924882140715844 -0.2023400251814354 0 -0.111160472432858 -0.1885386204747187 0 -0.111160472432858 -0.1885386204747187 0 -0.1221143178041114 -0.19234248283227301 0 -0.1210277983726237 -0.20080419496638871 0 -0.1221143178041114 -0.19234248283227301 0 -0.1210277983726237 -0.20080419496638871 0 -0.1287375196768317 -0.1989974444917289 0 -0.111160472432858 -0.1885386204747187 0 -0.1210277983726237 -0.20080419496638871 0 -0.1114495577303883 -0.20340811176391119 0 -0.1210277983726237 -0.20080419496638871 0 -0.1114495577303883 -0.20340811176391119 0 -0.1178360582138414 -0.2087755546500478 0 -0.1114495577303883 -0.20340811176391119 0 -0.1178360582138414 -0.2087755546500478 0 -0.1085815399970629 -0.214445376318082 0 -0.1210277983726237 -0.20080419496638871 0 -0.1178360582138414 -0.2087755546500478 0 -0.1261734044947341 -0.20832382066201691 0 -0.1178360582138414 -0.2087755546500478 0 -0.121947990474398 -0.21689626953984009 0 -0.1261734044947341 -0.20832382066201691 0 -0.1178360582138414 -0.2087755546500478 0 -0.121947990474398 -0.21689626953984009 0 -0.1085815399970629 -0.214445376318082 0 -0.092414465742116453 -0.21356058677725129 0 -0.094924882140715844 -0.2023400251814354 0 -0.1085815399970629 -0.214445376318082 0 -0.092414465742116453 -0.21356058677725129 0 -0.1085815399970629 -0.214445376318082 0 -0.098908818798469189 -0.22405916704643611 0 -0.094924882140715844 -0.2023400251814354 0 -0.1114495577303883 -0.20340811176391119 0 -0.1085815399970629 -0.214445376318082 0 -0.098908818798469189 -0.22405916704643611 0 -0.1146679177639674 -0.22763479024990699 0 -0.1064059993424292 -0.23999004584722569 0 -0.098908818798469189 -0.22405916704643611 0 -0.1064059993424292 -0.23999004584722569 0 -0.09423246880553815 -0.23787512664900909 0 -0.1085815399970629 -0.214445376318082 0 -0.098908818798469189 -0.22405916704643611 0 -0.1146679177639674 -0.22763479024990699 0 -0.1146679177639674 -0.22763479024990699 0 -0.1192340303868117 -0.24478318800158869 0 -0.13163987617815839 -0.22779776194380719 0 -0.121947990474398 -0.21689626953984009 0 -0.1085815399970629 -0.214445376318082 0 -0.1146679177639674 -0.22763479024990699 0 -0.121947990474398 -0.21689626953984009 0 -0.1146679177639674 -0.22763479024990699 0 -0.13163987617815839 -0.22779776194380719 0 -0.10928029933534041 -0.25911330461652088 0 -0.1192340303868117 -0.24478318800158869 0 -0.1064059993424292 -0.23999004584722569 0 -0.1146679177639674 -0.22763479024990699 0 -0.1192340303868117 -0.24478318800158869 0 -0.1064059993424292 -0.23999004584722569 0 -0.093765691765433312 -0.25258281812082478 0 -0.1064059993424292 -0.23999004584722569 0 -0.09423246880553815 -0.23787512664900909 0 -0.087025139202339175 -0.14924119698846519 0 -0.093760481790990557 -0.16258763704399551 0 -0.10010201785652401 -0.1437821866573995 0 -0.087025139202339175 -0.14924119698846519 0 -0.083645274202728603 -0.1360379667205176 0 -0.10010201785652401 -0.1437821866573995 0 -0.078981128367974607 -0.14447571604620801 0 -0.087025139202339175 -0.14924119698846519 0 -0.083645274202728603 -0.1360379667205176 0 -0.078981128367974607 -0.14447571604620801 0 -0.087025139202339175 -0.14924119698846519 0 -0.078636793793478016 -0.15932247847420561 0 -0.083645274202728603 -0.1360379667205176 0 -0.10010201785652401 -0.1437821866573995 0 -0.096101065320712109 -0.1258911452360538 0 -0.076666436282660663 -0.13264315814890179 0 -0.096101065320712109 -0.1258911452360538 0 -0.083645274202728603 -0.1360379667205176 0 -0.076666436282660663 -0.13264315814890179 0 -0.096101065320712109 -0.1258911452360538 0 -0.078981128367974607 -0.14447571604620801 0 -0.083645274202728603 -0.1360379667205176 0 -0.074980149030852788 -0.13322901102402521 0 -0.083645274202728603 -0.1360379667205176 0 -0.074980149030852788 -0.13322901102402521 0 -0.076666436282660663 -0.13264315814890179 0 -0.083645274202728603 -0.1360379667205176 0 -0.074980149030852788 -0.13322901102402521 0 -0.063965210873385206 -0.121372291062271 0 -0.051469099840166933 -0.12560748285855791 0 -0.074980149030852788 -0.13322901102402521 0 -0.051469099840166933 -0.12560748285855791 0 -0.074980149030852788 -0.13322901102402521 0 -0.074980149030852788 -0.13322901102402521 0 -0.076666436282660663 -0.13264315814890179 0 -0.072499038737136423 -0.12336773177227039 0 -0.074980149030852788 -0.13322901102402521 0 -0.076666436282660663 -0.13264315814890179 0 -0.063965210873385206 -0.121372291062271 0 -0.072499038737136423 -0.12336773177227039 0 -0.074980149030852788 -0.13322901102402521 0 -0.054318116428342743 -0.1550095253668563 0 -0.07017092070895159 -0.14876485096333639 0 -0.064150653413557149 -0.1630994165534029 0 -0.06193597557114254 -0.14487761168208729 0 -0.074980149030852788 -0.13322901102402521 0 -0.07017092070895159 -0.14876485096333639 0 -0.078981128367974607 -0.14447571604620801 0 -0.074980149030852788 -0.13322901102402521 0 -0.07017092070895159 -0.14876485096333639 0 -0.074980149030852788 -0.13322901102402521 0 -0.07017092070895159 -0.14876485096333639 0 -0.078981128367974607 -0.14447571604620801 0 -0.07017092070895159 -0.14876485096333639 0 -0.078636793793478016 -0.15932247847420561 0 -0.061772453938110018 -0.1722676601875073 0 -0.064150653413557149 -0.1630994165534029 0 -0.070050920790153071 -0.171606788750374 0 -0.064150653413557149 -0.1630994165534029 0 -0.070050920790153071 -0.171606788750374 0 -0.078636793793478016 -0.15932247847420561 0 -0.070050920790153071 -0.171606788750374 0 -0.079209040401629252 -0.1719092953843511 0 -0.078636793793478016 -0.15932247847420561 0 -0.07017092070895159 -0.14876485096333639 0 -0.064150653413557149 -0.1630994165534029 0 -0.078636793793478016 -0.15932247847420561 0 -0.060077715494214402 -0.1880050343681916 0 -0.067992112858964282 -0.18866012404393079 0 -0.064464826801710964 -0.18158017590305259 0 -0.067992112858964282 -0.18866012404393079 0 -0.064464826801710964 -0.18158017590305259 0 -0.075495957942860306 -0.18151306003065079 0 -0.061772453938110018 -0.1722676601875073 0 -0.070050920790153071 -0.171606788750374 0 -0.064464826801710964 -0.18158017590305259 0 -0.070050920790153071 -0.171606788750374 0 -0.064464826801710964 -0.18158017590305259 0 -0.075495957942860306 -0.18151306003065079 0 -0.070050920790153071 -0.171606788750374 0 -0.075495957942860306 -0.18151306003065079 0 -0.079209040401629252 -0.1719092953843511 0 -0.074913832416942036 -0.19254026766979529 0 -0.075495957942860306 -0.18151306003065079 0 -0.081197999186964104 -0.18678207382066461 0 -0.08758314775082314 -0.17947316075879149 0 -0.093760481790990557 -0.16258763704399551 0 -0.099296370832405903 -0.1778108956523228 0 -0.075495957942860306 -0.18151306003065079 0 -0.081197999186964104 -0.18678207382066461 0 -0.08758314775082314 -0.17947316075879149 0 -0.086799058637230975 -0.19360180682342101 0 -0.081197999186964104 -0.18678207382066461 0 -0.08758314775082314 -0.17947316075879149 0 -0.075495957942860306 -0.18151306003065079 0 -0.079209040401629252 -0.1719092953843511 0 -0.08758314775082314 -0.17947316075879149 0 -0.086799058637230975 -0.19360180682342101 0 -0.095726771505572558 -0.1875603531079979 0 -0.08758314775082314 -0.17947316075879149 0 -0.079209040401629252 -0.1719092953843511 0 -0.08758314775082314 -0.17947316075879149 0 -0.093760481790990557 -0.16258763704399551 0 -0.079209040401629252 -0.1719092953843511 0 -0.078636793793478016 -0.15932247847420561 0 -0.093760481790990557 -0.16258763704399551 0 -0.087025139202339175 -0.14924119698846519 0 -0.078636793793478016 -0.15932247847420561 0 -0.093760481790990557 -0.16258763704399551 0 -0.093760481790990557 -0.16258763704399551 0 -0.10825098068178519 -0.1708947068761103 0 -0.099296370832405903 -0.1778108956523228 0 -0.093760481790990557 -0.16258763704399551 0 -0.10825098068178519 -0.1708947068761103 0 -0.1079275826681496 -0.15587426481125419 0 -0.111160472432858 -0.1885386204747187 0 -0.10825098068178519 -0.1708947068761103 0 -0.099296370832405903 -0.1778108956523228 0 -0.095726771505572558 -0.1875603531079979 0 -0.08758314775082314 -0.17947316075879149 0 -0.099296370832405903 -0.1778108956523228 0 -0.095726771505572558 -0.1875603531079979 0 -0.111160472432858 -0.1885386204747187 0 -0.099296370832405903 -0.1778108956523228 0 -0.111160472432858 -0.1885386204747187 0 -0.12739606272500029 -0.17473721576800191 0 -0.111160472432858 -0.1885386204747187 0 -0.1221143178041114 -0.19234248283227301 0 -0.12739606272500029 -0.17473721576800191 0 -0.111160472432858 -0.1885386204747187 0 -0.10825098068178519 -0.1708947068761103 0 -0.12739606272500029 -0.17473721576800191 0 -0.1214658785418825 -0.14693817404560541 0 -0.12739606272500029 -0.17473721576800191 0 -0.1214658785418825 -0.14693817404560541 0 -0.1079275826681496 -0.15587426481125419 0 -0.12739606272500029 -0.17473721576800191 0 -0.10825098068178519 -0.1708947068761103 0 -0.1079275826681496 -0.15587426481125419 0 -0.12739606272500029 -0.17473721576800191 0 -0.1214658785418825 -0.14693817404560541 0 -0.10010201785652401 -0.1437821866573995 0 -0.10830116401947081 -0.1339376595655668 0 -0.1214658785418825 -0.14693817404560541 0 -0.10010201785652401 -0.1437821866573995 0 -0.1079275826681496 -0.15587426481125419 0 -0.093760481790990557 -0.16258763704399551 0 -0.10010201785652401 -0.1437821866573995 0 -0.1079275826681496 -0.15587426481125419 0 -0.10010201785652401 -0.1437821866573995 0 -0.10830116401947081 -0.1339376595655668 0 -0.096101065320712109 -0.1258911452360538 0 -0.11649007265168369 -0.1188075605425003 0 -0.10830116401947081 -0.1339376595655668 0 -0.096101065320712109 -0.1258911452360538 0 -0.11649007265168369 -0.1188075605425003 0 -0.12922628187284879 -0.14058113888636839 0 -0.1252704192176744 -0.1172440966648565 0 -0.11649007265168369 -0.1188075605425003 0 -0.12922628187284879 -0.14058113888636839 0 -0.11649007265168369 -0.1188075605425003 0 -0.1214658785418825 -0.14693817404560541 0 -0.11649007265168369 -0.1188075605425003 0 -0.1214658785418825 -0.14693817404560541 0 -0.10830116401947081 -0.1339376595655668 0 -0.11649007265168369 -0.1188075605425003 0 -0.1214658785418825 -0.14693817404560541 0 -0.12922628187284879 -0.14058113888636839 0 -0.12922628187284879 -0.14058113888636839 0 -0.1355018371655794 -0.1265678790332187 0 -0.1252704192176744 -0.1172440966648565 0 -0.12922628187284879 -0.14058113888636839 0 -0.1355018371655794 -0.1265678790332187 0 -0.14553009116939669 -0.13537661130197329 0 -0.1355018371655794 -0.1265678790332187 0 -0.14553009116939669 -0.13537661130197329 0 -0.14420813470266419 -0.11805716313719079 0 -0.14553009116939669 -0.13537661130197329 0 -0.15056350488257919 -0.15504324471534639 0 -0.1628079644011253 -0.13038477387159439 0 -0.14553009116939669 -0.13537661130197329 0 -0.1628079644011253 -0.13038477387159439 0 -0.14420813470266419 -0.11805716313719079 0 -0.12922628187284879 -0.14058113888636839 0 -0.14553009116939669 -0.13537661130197329 0 -0.15056350488257919 -0.15504324471534639 0 -0.12922628187284879 -0.14058113888636839 0 -0.15056350488257919 -0.15504324471534639 0 -0.14196249109401421 -0.16235471723023651 0 -0.1214658785418825 -0.14693817404560541 0 -0.12922628187284879 -0.14058113888636839 0 -0.14196249109401421 -0.16235471723023651 0 -0.12922628187284879 -0.14058113888636839 0 -0.14196249109401421 -0.16235471723023651 0 -0.1214658785418825 -0.14693817404560541 0 -0.12739606272500029 -0.17473721576800191 0 -0.14196249109401421 -0.16235471723023651 0 -0.12739606272500029 -0.17473721576800191 0 -0.14196249109401421 -0.16235471723023651 0 -0.14465078136409831 -0.16695056657522339 0 -0.12739606272500029 -0.17473721576800191 0 -0.14196249109401421 -0.16235471723023651 0 -0.14465078136409831 -0.16695056657522339 0 -0.1314192587983791 -0.19359683159909061 0 -0.12739606272500029 -0.17473721576800191 0 -0.14465078136409831 -0.16695056657522339 0 -0.1314192587983791 -0.19359683159909061 0 -0.12739606272500029 -0.17473721576800191 0 -0.1314192587983791 -0.19359683159909061 0 -0.1221143178041114 -0.19234248283227301 0 -0.12739606272500029 -0.17473721576800191 0 -0.1314192587983791 -0.19359683159909061 0 -0.1506253399441001 -0.18191391990730801 0 -0.14704446987800041 -0.17104277042357799 0 -0.1314192587983791 -0.19359683159909061 0 -0.14704446987800041 -0.17104277042357799 0 -0.14465078136409831 -0.16695056657522339 0 -0.1314192587983791 -0.19359683159909061 0 -0.1506253399441001 -0.18191391990730801 0 -0.14704446987800041 -0.17104277042357799 0 -0.15648019532635571 -0.17138255085024329 0 -0.1506253399441001 -0.18191391990730801 0 -0.16533888001856381 -0.18602690419207779 0 -0.1512090652639769 -0.1911736867042346 0 -0.15056350488257919 -0.15504324471534639 0 -0.14196249109401421 -0.16235471723023651 0 -0.15056350488257919 -0.15504324471534639 0 -0.14196249109401421 -0.16235471723023651 0 -0.14465078136409831 -0.16695056657522339 0 -0.15056350488257919 -0.15504324471534639 0 -0.14465078136409831 -0.16695056657522339 0 -0.14196249109401421 -0.16235471723023651 0 -0.14465078136409831 -0.16695056657522339 0 -0.14704446987800041 -0.17104277042357799 0 -0.14465078136409831 -0.16695056657522339 0 -0.14704446987800041 -0.17104277042357799 0 -0.14465078136409831 -0.16695056657522339 0 -0.15229814259742869 -0.1644326064251338 0 -0.14704446987800041 -0.17104277042357799 0 -0.15229814259742869 -0.1644326064251338 0 -0.15648019532635571 -0.17138255085024329 0 -0.15056350488257919 -0.15504324471534639 0 -0.14465078136409831 -0.16695056657522339 0 -0.15229814259742869 -0.1644326064251338 0 -0.15056350488257919 -0.15504324471534639 0 -0.15229814259742869 -0.1644326064251338 0 -0.16275176153611051 -0.15774389956127821 0 -0.16275176153611051 -0.15774389956127821 0 -0.15648019532635571 -0.17138255085024329 0 -0.17757024440875549 -0.16111115580157981 0 -0.15229814259742869 -0.1644326064251338 0 -0.16275176153611051 -0.15774389956127821 0 -0.15648019532635571 -0.17138255085024329 0 -0.15648019532635571 -0.17138255085024329 0 -0.18421608521209271 -0.17558962027652111 0 -0.15648019532635571 -0.17138255085024329 0 -0.16533888001856381 -0.18602690419207779 0 -0.18421608521209271 -0.17558962027652111 0 -0.1506253399441001 -0.18191391990730801 0 -0.15648019532635571 -0.17138255085024329 0 -0.16533888001856381 -0.18602690419207779 0 -0.16533888001856381 -0.18602690419207779 0 -0.18421608521209271 -0.17558962027652111 0 -0.1786295148813212 -0.19556646452315241 0 -0.15648019532635571 -0.17138255085024329 0 -0.18421608521209271 -0.17558962027652111 0 -0.17757024440875549 -0.16111115580157981 0 -0.18421608521209271 -0.17558962027652111 0 -0.17757024440875549 -0.16111115580157981 0 -0.1979143625406167 -0.1642252661741595 0 -0.17521357040146851 -0.14833135074901779 0 -0.18000311622314791 -0.13001748444371289 0 -0.188845491435889 -0.14939424719825839 0 -0.17757024440875549 -0.16111115580157981 0 -0.17521357040146851 -0.14833135074901779 0 -0.188845491435889 -0.14939424719825839 0 -0.18000311622314791 -0.13001748444371289 0 -0.1628079644011253 -0.13038477387159439 0 -0.18027610093587751 -0.1196181089702751 0 -0.17521357040146851 -0.14833135074901779 0 -0.18000311622314791 -0.13001748444371289 0 -0.16528331055286391 -0.14253036457953011 0 -0.18000311622314791 -0.13001748444371289 0 -0.16528331055286391 -0.14253036457953011 0 -0.18000311622314791 -0.13001748444371289 0 -0.1628079644011253 -0.13038477387159439 0 -0.16528331055286391 -0.14253036457953011 0 -0.15056350488257919 -0.15504324471534639 0 -0.1628079644011253 -0.13038477387159439 0 -0.15056350488257919 -0.15504324471534639 0 -0.1628079644011253 -0.13038477387159439 0 -0.16528331055286391 -0.14253036457953011 0 -0.15056350488257919 -0.15504324471534639 0 -0.16275176153611051 -0.15774389956127821 0 -0.16528331055286391 -0.14253036457953011 0 -0.15056350488257919 -0.15504324471534639 0 -0.16528331055286391 -0.14253036457953011 0 -0.16275176153611051 -0.15774389956127821 0 -0.17521357040146851 -0.14833135074901779 0 -0.16528331055286391 -0.14253036457953011 0 -0.16275176153611051 -0.15774389956127821 0 -0.17757024440875549 -0.16111115580157981 0 -0.17521357040146851 -0.14833135074901779 0 -0.15229660666407671 -0.25401824511238591 0 -0.14920126421366381 -0.23878179657915319 0 -0.13450504990001219 -0.2438564190910647 0 -0.1192340303868117 -0.24478318800158869 0 -0.13450504990001219 -0.2438564190910647 0 -0.13163987617815839 -0.22779776194380719 0 -0.14920126421366381 -0.23878179657915319 0 -0.13450504990001219 -0.2438564190910647 0 -0.13163987617815839 -0.22779776194380719 0 -0.121947990474398 -0.21689626953984009 0 -0.13163987617815839 -0.22779776194380719 0 -0.12955498125585521 -0.21362166548107719 0 -0.13163987617815839 -0.22779776194380719 0 -0.14668655776667011 -0.2223990925877565 0 -0.13817373448855541 -0.2139466733801943 0 -0.14920126421366381 -0.23878179657915319 0 -0.13163987617815839 -0.22779776194380719 0 -0.14668655776667011 -0.2223990925877565 0 -0.14920126421366381 -0.23878179657915319 0 -0.14668655776667011 -0.2223990925877565 0 -0.1666111544691056 -0.22171119925505031 0 -0.14668655776667011 -0.2223990925877565 0 -0.14920765704353961 -0.2069242839694774 0 -0.1666111544691056 -0.22171119925505031 0 -0.14920765704353961 -0.2069242839694774 0 -0.13817373448855541 -0.2139466733801943 0 -0.13929463799343569 -0.2052160077695602 0 -0.14920765704353961 -0.2069242839694774 0 -0.13929463799343569 -0.2052160077695602 0 -0.1420465959208794 -0.1984943042809322 0 -0.14668655776667011 -0.2223990925877565 0 -0.14920765704353961 -0.2069242839694774 0 -0.13817373448855541 -0.2139466733801943 0 -0.13163987617815839 -0.22779776194380719 0 -0.13817373448855541 -0.2139466733801943 0 -0.12955498125585521 -0.21362166548107719 0 -0.13817373448855541 -0.2139466733801943 0 -0.12955498125585521 -0.21362166548107719 0 -0.1326745573724277 -0.20747677911892251 0 -0.121947990474398 -0.21689626953984009 0 -0.12955498125585521 -0.21362166548107719 0 -0.1261734044947341 -0.20832382066201691 0 -0.1210277983726237 -0.20080419496638871 0 -0.12833971984693959 -0.20340181913978941 0 -0.1261734044947341 -0.20832382066201691 0 -0.12955498125585521 -0.21362166548107719 0 -0.1261734044947341 -0.20832382066201691 0 -0.1326745573724277 -0.20747677911892251 0 -0.12833971984693959 -0.20340181913978941 0 -0.1261734044947341 -0.20832382066201691 0 -0.1326745573724277 -0.20747677911892251 0 -0.12833971984693959 -0.20340181913978941 0 -0.1326745573724277 -0.20747677911892251 0 -0.13308531931808101 -0.2014068564598902 0 -0.13817373448855541 -0.2139466733801943 0 -0.1326745573724277 -0.20747677911892251 0 -0.13929463799343569 -0.2052160077695602 0 -0.1326745573724277 -0.20747677911892251 0 -0.13929463799343569 -0.2052160077695602 0 -0.13308531931808101 -0.2014068564598902 0 -0.13929463799343569 -0.2052160077695602 0 -0.13308531931808101 -0.2014068564598902 0 -0.1420465959208794 -0.1984943042809322 0 -0.13308531931808101 -0.2014068564598902 0 -0.1314192587983791 -0.19359683159909061 0 -0.1420465959208794 -0.1984943042809322 0 -0.12833971984693959 -0.20340181913978941 0 -0.13308531931808101 -0.2014068564598902 0 -0.1287375196768317 -0.1989974444917289 0 -0.13308531931808101 -0.2014068564598902 0 -0.1287375196768317 -0.1989974444917289 0 -0.1314192587983791 -0.19359683159909061 0 -0.13308531931808101 -0.2014068564598902 0 -0.1314192587983791 -0.19359683159909061 0 -0.1287375196768317 -0.1989974444917289 0 -0.1314192587983791 -0.19359683159909061 0 -0.1210277983726237 -0.20080419496638871 0 -0.12833971984693959 -0.20340181913978941 0 -0.1287375196768317 -0.1989974444917289 0 -0.1221143178041114 -0.19234248283227301 0 -0.1287375196768317 -0.1989974444917289 0 -0.1314192587983791 -0.19359683159909061 0 -0.1314192587983791 -0.19359683159909061 0 -0.1420465959208794 -0.1984943042809322 0 -0.1512090652639769 -0.1911736867042346 0 -0.14920765704353961 -0.2069242839694774 0 -0.1512090652639769 -0.1911736867042346 0 -0.16613147043060339 -0.2018841564818957 0 -0.14920765704353961 -0.2069242839694774 0 -0.1420465959208794 -0.1984943042809322 0 -0.1512090652639769 -0.1911736867042346 0 -0.1506253399441001 -0.18191391990730801 0 -0.1314192587983791 -0.19359683159909061 0 -0.1512090652639769 -0.1911736867042346 0 -0.16533888001856381 -0.18602690419207779 0 -0.1512090652639769 -0.1911736867042346 0 -0.16613147043060339 -0.2018841564818957 0 -0.16533888001856381 -0.18602690419207779 0 -0.16613147043060339 -0.2018841564818957 0 -0.1786295148813212 -0.19556646452315241 0 -0.1786295148813212 -0.19556646452315241 0 -0.17958500981378461 -0.2107334264309661 0 -0.1981990761364697 -0.20254736480388241 0 -0.18421608521209271 -0.17558962027652111 0 -0.1786295148813212 -0.19556646452315241 0 -0.1981990761364697 -0.20254736480388241 0 -0.16613147043060339 -0.2018841564818957 0 -0.1786295148813212 -0.19556646452315241 0 -0.17958500981378461 -0.2107334264309661 0 -0.17958500981378461 -0.2107334264309661 0 -0.1666111544691056 -0.22171119925505031 0 -0.19116993277822331 -0.22279453133759641 0 -0.16613147043060339 -0.2018841564818957 0 -0.17958500981378461 -0.2107334264309661 0 -0.1666111544691056 -0.22171119925505031 0 -0.14920765704353961 -0.2069242839694774 0 -0.16613147043060339 -0.2018841564818957 0 -0.1666111544691056 -0.22171119925505031 0 -0.16774304296138501 -0.24055682594909811 0 -0.1994177047143332 -0.2432145052078287 0 -0.19116993277822331 -0.22279453133759641 0 -0.18473400419263841 -0.26184427346616201 0 -0.16774304296138501 -0.24055682594909811 0 -0.1994177047143332 -0.2432145052078287 0 -0.14920126421366381 -0.23878179657915319 0 -0.1666111544691056 -0.22171119925505031 0 -0.16774304296138501 -0.24055682594909811 0 -0.1666111544691056 -0.22171119925505031 0 -0.16774304296138501 -0.24055682594909811 0 -0.19116993277822331 -0.22279453133759641 0 -0.15229660666407671 -0.25401824511238591 0 -0.14920126421366381 -0.23878179657915319 0 -0.16774304296138501 -0.24055682594909811 0 -0.1994177047143332 -0.2432145052078287 0 -0.21214113701728249 -0.228940323783688 0 -0.22937054978906041 -0.24331512362502869 0 -0.2113475615474098 -0.26183595308539898 0 -0.1994177047143332 -0.2432145052078287 0 -0.22937054978906041 -0.24331512362502869 0 -0.1994177047143332 -0.2432145052078287 0 -0.19116993277822331 -0.22279453133759641 0 -0.21214113701728249 -0.228940323783688 0 -0.19116993277822331 -0.22279453133759641 0 -0.21214113701728249 -0.228940323783688 0 -0.21151629669390881 -0.21291663877559669 0 -0.21214113701728249 -0.228940323783688 0 -0.21151629669390881 -0.21291663877559669 0 -0.2275824975951227 -0.2207461827585098 0 -0.21151629669390881 -0.21291663877559669 0 -0.1981990761364697 -0.20254736480388241 0 -0.21430725265311781 -0.19815896184605211 0 -0.21151629669390881 -0.21291663877559669 0 -0.21430725265311781 -0.19815896184605211 0 -0.22569788398323701 -0.20431246812385209 0 -0.19116993277822331 -0.22279453133759641 0 -0.21151629669390881 -0.21291663877559669 0 -0.1981990761364697 -0.20254736480388241 0 -0.17958500981378461 -0.2107334264309661 0 -0.19116993277822331 -0.22279453133759641 0 -0.1981990761364697 -0.20254736480388241 0 -0.21430725265311781 -0.19815896184605211 0 -0.2251169230399053 -0.19244957551320049 0 -0.21195197509782959 -0.17979668970279891 0 -0.1981990761364697 -0.20254736480388241 0 -0.21430725265311781 -0.19815896184605211 0 -0.21195197509782959 -0.17979668970279891 0 -0.21430725265311781 -0.19815896184605211 0 -0.2251169230399053 -0.19244957551320049 0 -0.22569788398323701 -0.20431246812385209 0 -0.2251169230399053 -0.19244957551320049 0 -0.23600322778131949 -0.19814692121484651 0 -0.22569788398323701 -0.20431246812385209 0 -0.2251169230399053 -0.19244957551320049 0 -0.23600322778131949 -0.19814692121484651 0 -0.23968786498356659 -0.18400375912907671 0 -0.23600322778131949 -0.19814692121484651 0 -0.23968786498356659 -0.18400375912907671 0 -0.25047429362874257 -0.200219847641955 0 -0.23600322778131949 -0.19814692121484651 0 -0.23949462900920199 -0.21027573078813011 0 -0.25047429362874257 -0.200219847641955 0 -0.23949462900920199 -0.21027573078813011 0 -0.25247744799357308 -0.21261594090752481 0 -0.25047429362874257 -0.200219847641955 0 -0.23949462900920199 -0.21027573078813011 0 -0.24510877540263959 -0.22548599802342939 0 -0.25247744799357308 -0.21261594090752481 0 -0.23949462900920199 -0.21027573078813011 0 -0.22569788398323701 -0.20431246812385209 0 -0.2275824975951227 -0.2207461827585098 0 -0.21151629669390881 -0.21291663877559669 0 -0.22569788398323701 -0.20431246812385209 0 -0.2275824975951227 -0.2207461827585098 0 -0.23600322778131949 -0.19814692121484651 0 -0.23949462900920199 -0.21027573078813011 0 -0.22569788398323701 -0.20431246812385209 0 -0.21214113701728249 -0.228940323783688 0 -0.2275824975951227 -0.2207461827585098 0 -0.22937054978906041 -0.24331512362502869 0 -0.2275824975951227 -0.2207461827585098 0 -0.24510877540263959 -0.22548599802342939 0 -0.22937054978906041 -0.24331512362502869 0 -0.23949462900920199 -0.21027573078813011 0 -0.2275824975951227 -0.2207461827585098 0 -0.24510877540263959 -0.22548599802342939 0 -0.24510877540263959 -0.22548599802342939 0 -0.22937054978906041 -0.24331512362502869 0 -0.2582168116042447 -0.2439014490639565 0 -0.2483490975252734 -0.26098873334868322 0 -0.22937054978906041 -0.24331512362502869 0 -0.2582168116042447 -0.2439014490639565 0 -0.2067502249108786 -0.1536135545564879 0 -0.21547877813771771 -0.14332314171572449 0 -0.20152593766547949 -0.13633519349348669 0 -0.2067502249108786 -0.1536135545564879 0 -0.21547877813771771 -0.14332314171572449 0 -0.22184111984059729 -0.15282479907953789 0 -0.21547877813771771 -0.14332314171572449 0 -0.21860961385214961 -0.13100792014620721 0 -0.20152593766547949 -0.13633519349348669 0 -0.21860961385214961 -0.13100792014620721 0 -0.20152593766547949 -0.13633519349348669 0 -0.2099810947540583 -0.12129541974841899 0 -0.18000311622314791 -0.13001748444371289 0 -0.20152593766547949 -0.13633519349348669 0 -0.19534617212360411 -0.121013351703841 0 -0.18000311622314791 -0.13001748444371289 0 -0.20152593766547949 -0.13633519349348669 0 -0.188845491435889 -0.14939424719825839 0 -0.20152593766547949 -0.13633519349348669 0 -0.2099810947540583 -0.12129541974841899 0 -0.19534617212360411 -0.121013351703841 0 -0.2067502249108786 -0.1536135545564879 0 -0.188845491435889 -0.14939424719825839 0 -0.1979143625406167 -0.1642252661741595 0 -0.2067502249108786 -0.1536135545564879 0 -0.20152593766547949 -0.13633519349348669 0 -0.188845491435889 -0.14939424719825839 0 -0.17757024440875549 -0.16111115580157981 0 -0.188845491435889 -0.14939424719825839 0 -0.1979143625406167 -0.1642252661741595 0 -0.18421608521209271 -0.17558962027652111 0 -0.1981990761364697 -0.20254736480388241 0 -0.21195197509782959 -0.17979668970279891 0 -0.18421608521209271 -0.17558962027652111 0 -0.21195197509782959 -0.17979668970279891 0 -0.18421608521209271 -0.17558962027652111 0 -0.1979143625406167 -0.1642252661741595 0 -0.21195197509782959 -0.17979668970279891 0 -0.1979143625406167 -0.1642252661741595 0 -0.21195197509782959 -0.17979668970279891 0 -0.2165382263276793 -0.1649867273485818 0 -0.2067502249108786 -0.1536135545564879 0 -0.1979143625406167 -0.1642252661741595 0 -0.2165382263276793 -0.1649867273485818 0 -0.2067502249108786 -0.1536135545564879 0 -0.2165382263276793 -0.1649867273485818 0 -0.22184111984059729 -0.15282479907953789 0 -0.2165382263276793 -0.1649867273485818 0 -0.2313091397970973 -0.16435086132264101 0 -0.233842168872713 -0.17694121357944129 0 -0.2165382263276793 -0.1649867273485818 0 -0.2313091397970973 -0.16435086132264101 0 -0.22184111984059729 -0.15282479907953789 0 -0.21195197509782959 -0.17979668970279891 0 -0.233842168872713 -0.17694121357944129 0 -0.23968786498356659 -0.18400375912907671 0 -0.2251169230399053 -0.19244957551320049 0 -0.21195197509782959 -0.17979668970279891 0 -0.23968786498356659 -0.18400375912907671 0 -0.21195197509782959 -0.17979668970279891 0 -0.2165382263276793 -0.1649867273485818 0 -0.233842168872713 -0.17694121357944129 0 -0.21195197509782959 -0.17979668970279891 0 -0.23968786498356659 -0.18400375912907671 0 -0.233842168872713 -0.17694121357944129 0 -0.25982868842644607 -0.17021686968691641 0 -0.233842168872713 -0.17694121357944129 0 -0.23968786498356659 -0.18400375912907671 0 -0.25982868842644607 -0.17021686968691641 0 -0.2313091397970973 -0.16435086132264101 0 -0.24566481473353391 -0.1652464025747532 0 -0.25343568279415951 -0.15224923159364789 0 -0.233842168872713 -0.17694121357944129 0 -0.24566481473353391 -0.1652464025747532 0 -0.25982868842644607 -0.17021686968691641 0 -0.2313091397970973 -0.16435086132264101 0 -0.25343568279415951 -0.15224923159364789 0 -0.2313091397970973 -0.16435086132264101 0 -0.233842168872713 -0.17694121357944129 0 -0.24566481473353391 -0.1652464025747532 0 -0.2313091397970973 -0.16435086132264101 0 -0.23261035815430561 -0.14322336329666011 0 -0.25343568279415951 -0.15224923159364789 0 -0.23261035815430561 -0.14322336329666011 0 -0.2478381125959237 -0.13014188093155071 0 -0.25343568279415951 -0.15224923159364789 0 -0.21547877813771771 -0.14332314171572449 0 -0.23261035815430561 -0.14322336329666011 0 -0.22184111984059729 -0.15282479907953789 0 -0.2313091397970973 -0.16435086132264101 0 -0.23261035815430561 -0.14322336329666011 0 -0.22184111984059729 -0.15282479907953789 0 -0.21547877813771771 -0.14332314171572449 0 -0.21860961385214961 -0.13100792014620721 0 -0.23261035815430561 -0.14322336329666011 0 -0.21860961385214961 -0.13100792014620721 0 -0.23261035815430561 -0.14322336329666011 0 -0.23267318929165751 -0.1266142136656879 0 -0.23261035815430561 -0.14322336329666011 0 -0.23267318929165751 -0.1266142136656879 0 -0.2478381125959237 -0.13014188093155071 0 -0.2478381125959237 -0.13014188093155071 0 -0.2401350799320488 -0.1157431384930437 0 -0.25439292330372432 -0.11161035632906929 0 -0.23267318929165751 -0.1266142136656879 0 -0.2478381125959237 -0.13014188093155071 0 -0.2401350799320488 -0.1157431384930437 0 -0.2401350799320488 -0.1157431384930437 0 -0.2438502060585381 -0.1028583717612334 0 -0.25439292330372432 -0.11161035632906929 0 -0.2438502060585381 -0.1028583717612334 0 -0.2453315870002564 -0.095437246693633959 0 -0.2525882024947626 -0.098821099717938107 0 -0.2453315870002564 -0.095437246693633959 0 -0.25144169010332901 -0.091633326375329338 0 -0.2525882024947626 -0.098821099717938107 0 -0.2438502060585381 -0.1028583717612334 0 -0.2453315870002564 -0.095437246693633959 0 -0.23922762562760841 -0.098169318759804947 0 -0.23922762562760841 -0.098169318759804947 0 -0.23518849288928181 -0.10695649013526939 0 -0.23134854976794339 -0.097632931289006297 0 -0.2453315870002564 -0.095437246693633959 0 -0.23922762562760841 -0.098169318759804947 0 -0.2404192924220224 -0.087961553919881613 0 -0.23922762562760841 -0.098169318759804947 0 -0.23134854976794339 -0.097632931289006297 0 -0.2404192924220224 -0.087961553919881613 0 -0.2438502060585381 -0.1028583717612334 0 -0.23922762562760841 -0.098169318759804947 0 -0.23518849288928181 -0.10695649013526939 0 -0.2401350799320488 -0.1157431384930437 0 -0.2438502060585381 -0.1028583717612334 0 -0.23518849288928181 -0.10695649013526939 0 -0.23518849288928181 -0.10695649013526939 0 -0.23134854976794339 -0.097632931289006297 0 -0.22417278192385959 -0.11295476546097789 0 -0.23134854976794339 -0.097632931289006297 0 -0.22417278192385959 -0.11295476546097789 0 -0.2186303362545719 -0.093883136955868224 0 -0.2401350799320488 -0.1157431384930437 0 -0.23518849288928181 -0.10695649013526939 0 -0.22417278192385959 -0.11295476546097789 0 -0.21860961385214961 -0.13100792014620721 0 -0.23267318929165751 -0.1266142136656879 0 -0.22417278192385959 -0.11295476546097789 0 -0.23267318929165751 -0.1266142136656879 0 -0.2401350799320488 -0.1157431384930437 0 -0.22417278192385959 -0.11295476546097789 0 -0.24388885687392389 -0.071688150345257468 0 -0.2338744138803254 -0.062312468216533988 0 -0.2476323682116322 -0.061520987214930753 0 -0.24388885687392389 -0.071688150345257468 0 -0.2476323682116322 -0.061520987214930753 0 -0.2529882333064245 -0.070973901803662365 0 -0.24388885687392389 -0.071688150345257468 0 -0.24682403554985069 -0.077092069586417622 0 -0.2529882333064245 -0.070973901803662365 0 -0.24388885687392389 -0.071688150345257468 0 -0.24682403554985069 -0.077092069586417622 0 -0.23610695818539329 -0.077097104601848404 0 -0.24388885687392389 -0.071688150345257468 0 -0.23610695818539329 -0.077097104601848404 0 -0.2338744138803254 -0.062312468216533988 0 -0.2404192924220224 -0.087961553919881613 0 -0.23434786935979859 -0.086445608359767251 0 -0.25855249999409979 -0.079349971077516485 0 -0.23434786935979859 -0.086445608359767251 0 -0.25855249999409979 -0.079349971077516485 0 -0.24682403554985069 -0.077092069586417622 0 -0.23434786935979859 -0.086445608359767251 0 -0.25855249999409979 -0.079349971077516485 0 -0.24682403554985069 -0.077092069586417622 0 -0.23610695818539329 -0.077097104601848404 0 -0.23434786935979859 -0.086445608359767251 0 -0.2404192924220224 -0.087961553919881613 0 -0.25356789490128989 -0.088072195653340249 0 -0.25144169010332901 -0.091633326375329338 0 -0.2453315870002564 -0.095437246693633959 0 -0.2404192924220224 -0.087961553919881613 0 -0.25144169010332901 -0.091633326375329338 0 -0.23134854976794339 -0.097632931289006297 0 -0.2404192924220224 -0.087961553919881613 0 -0.2186303362545719 -0.093883136955868224 0 -0.23434786935979859 -0.086445608359767251 0 -0.21819510633345421 -0.084818126690887299 0 -0.2186303362545719 -0.093883136955868224 0 -0.23434786935979859 -0.086445608359767251 0 -0.22784347827361409 -0.07844521728239337 0 -0.21819510633345421 -0.084818126690887299 0 -0.2404192924220224 -0.087961553919881613 0 -0.2186303362545719 -0.093883136955868224 0 -0.2404192924220224 -0.087961553919881613 0 -0.23434786935979859 -0.086445608359767251 0 -0.2186303362545719 -0.093883136955868224 0 -0.23610695818539329 -0.077097104601848404 0 -0.23434786935979859 -0.086445608359767251 0 -0.22784347827361409 -0.07844521728239337 0 -0.22561928727888081 -0.069226289525945936 0 -0.21465014164525181 -0.057056120614390499 0 -0.2338744138803254 -0.062312468216533988 0 -0.23610695818539329 -0.077097104601848404 0 -0.22784347827361409 -0.07844521728239337 0 -0.22561928727888081 -0.069226289525945936 0 -0.22784347827361409 -0.07844521728239337 0 -0.22561928727888081 -0.069226289525945936 0 -0.21562144440981909 -0.071220536914563426 0 -0.23610695818539329 -0.077097104601848404 0 -0.22561928727888081 -0.069226289525945936 0 -0.2338744138803254 -0.062312468216533988 0 -0.20283299924243431 -0.077387366601351398 0 -0.20047874574939811 -0.054521575326106748 0 -0.21465014164525181 -0.057056120614390499 0 -0.22784347827361409 -0.07844521728239337 0 -0.20283299924243431 -0.077387366601351398 0 -0.21562144440981909 -0.071220536914563426 0 -0.20283299924243431 -0.077387366601351398 0 -0.21465014164525181 -0.057056120614390499 0 -0.22784347827361409 -0.07844521728239337 0 -0.21562144440981909 -0.071220536914563426 0 -0.20283299924243431 -0.077387366601351398 0 -0.20283299924243431 -0.077387366601351398 0 -0.21465014164525181 -0.057056120614390499 0 -0.22561928727888081 -0.069226289525945936 0 -0.21562144440981909 -0.071220536914563426 0 -0.21465014164525181 -0.057056120614390499 0 -0.22784347827361409 -0.07844521728239337 0 -0.21819510633345421 -0.084818126690887299 0 -0.20283299924243431 -0.077387366601351398 0 -0.21819510633345421 -0.084818126690887299 0 -0.20732084853685229 -0.087929304255056254 0 -0.20283299924243431 -0.077387366601351398 0 -0.21819510633345421 -0.084818126690887299 0 -0.20732084853685229 -0.087929304255056254 0 -0.2186303362545719 -0.093883136955868224 0 -0.19866559760639321 -0.08455732909318063 0 -0.19684138008712149 -0.099804719991854848 0 -0.1822294403993594 -0.091272888294312293 0 -0.19866559760639321 -0.08455732909318063 0 -0.18940645687904581 -0.076819473560781115 0 -0.1822294403993594 -0.091272888294312293 0 -0.20732084853685229 -0.087929304255056254 0 -0.19866559760639321 -0.08455732909318063 0 -0.19684138008712149 -0.099804719991854848 0 -0.20732084853685229 -0.087929304255056254 0 -0.19866559760639321 -0.08455732909318063 0 -0.20283299924243431 -0.077387366601351398 0 -0.19866559760639321 -0.08455732909318063 0 -0.20283299924243431 -0.077387366601351398 0 -0.18940645687904581 -0.076819473560781115 0 -0.19866559760639321 -0.08455732909318063 0 -0.20283299924243431 -0.077387366601351398 0 -0.20283299924243431 -0.077387366601351398 0 -0.18940645687904581 -0.076819473560781115 0 -0.20047874574939811 -0.054521575326106748 0 -0.18940645687904581 -0.076819473560781115 0 -0.18709502764393729 -0.061773717592220383 0 -0.20047874574939811 -0.054521575326106748 0 -0.18940645687904581 -0.076819473560781115 0 -0.20047874574939811 -0.054521575326106748 0 -0.20283299924243431 -0.077387366601351398 0 -0.18940645687904581 -0.076819473560781115 0 -0.22417278192385959 -0.11295476546097789 0 -0.2099810947540583 -0.12129541974841899 0 -0.20756026250284701 -0.1093706759350784 0 -0.21860961385214961 -0.13100792014620721 0 -0.22417278192385959 -0.11295476546097789 0 -0.2099810947540583 -0.12129541974841899 0 -0.2099810947540583 -0.12129541974841899 0 -0.20756026250284701 -0.1093706759350784 0 -0.19534617212360411 -0.121013351703841 0 -0.2186303362545719 -0.093883136955868224 0 -0.19684138008712149 -0.099804719991854848 0 -0.20732084853685229 -0.087929304255056254 0 -0.2186303362545719 -0.093883136955868224 0 -0.19684138008712149 -0.099804719991854848 0 -0.2186303362545719 -0.093883136955868224 0 -0.20756026250284701 -0.1093706759350784 0 -0.19684138008712149 -0.099804719991854848 0 -0.22417278192385959 -0.11295476546097789 0 -0.2186303362545719 -0.093883136955868224 0 -0.20756026250284701 -0.1093706759350784 0 -0.20756026250284701 -0.1093706759350784 0 -0.19684138008712149 -0.099804719991854848 0 -0.18817082801183779 -0.1109486318043842 0 -0.20756026250284701 -0.1093706759350784 0 -0.18817082801183779 -0.1109486318043842 0 -0.19534617212360411 -0.121013351703841 0 -0.18817082801183779 -0.1109486318043842 0 -0.19534617212360411 -0.121013351703841 0 -0.18027610093587751 -0.1196181089702751 0 -0.18000311622314791 -0.13001748444371289 0 -0.19534617212360411 -0.121013351703841 0 -0.18027610093587751 -0.1196181089702751 0 -0.1628079644011253 -0.13038477387159439 0 -0.18027610093587751 -0.1196181089702751 0 -0.17505242391967141 -0.10572630302784269 0 -0.18817082801183779 -0.1109486318043842 0 -0.18027610093587751 -0.1196181089702751 0 -0.17505242391967141 -0.10572630302784269 0 -0.1628079644011253 -0.13038477387159439 0 -0.16568054242800659 -0.1082732985805344 0 -0.17505242391967141 -0.10572630302784269 0 -0.1628079644011253 -0.13038477387159439 0 -0.16568054242800659 -0.1082732985805344 0 -0.1559183975343586 -0.1153029742025357 0 -0.1628079644011253 -0.13038477387159439 0 -0.17505242391967141 -0.10572630302784269 0 -0.15766897324155929 -0.10201766098942321 0 -0.16769957127680751 -0.09718714727553697 0 -0.15631644193457139 -0.088857398989056272 0 -0.15766897324155929 -0.10201766098942321 0 -0.16568054242800659 -0.1082732985805344 0 -0.16769957127680751 -0.09718714727553697 0 -0.15766897324155929 -0.10201766098942321 0 -0.16568054242800659 -0.1082732985805344 0 -0.1559183975343586 -0.1153029742025357 0 -0.16568054242800659 -0.1082732985805344 0 -0.16769957127680751 -0.09718714727553697 0 -0.17505242391967141 -0.10572630302784269 0 -0.16568054242800659 -0.1082732985805344 0 -0.17505242391967141 -0.10572630302784269 0 -0.19684138008712149 -0.099804719991854848 0 -0.18817082801183779 -0.1109486318043842 0 -0.17505242391967141 -0.10572630302784269 0 -0.19684138008712149 -0.099804719991854848 0 -0.17505242391967141 -0.10572630302784269 0 -0.16769957127680751 -0.09718714727553697 0 -0.17505242391967141 -0.10572630302784269 0 -0.1822294403993594 -0.091272888294312293 0 -0.19684138008712149 -0.099804719991854848 0 -0.17505242391967141 -0.10572630302784269 0 -0.1822294403993594 -0.091272888294312293 0 -0.17505242391967141 -0.10572630302784269 0 -0.1822294403993594 -0.091272888294312293 0 -0.16769957127680751 -0.09718714727553697 0 -0.1822294403993594 -0.091272888294312293 0 -0.16622085479676199 -0.075838808419480111 0 -0.18940645687904581 -0.076819473560781115 0 -0.1822294403993594 -0.091272888294312293 0 -0.16622085479676199 -0.075838808419480111 0 -0.18940645687904581 -0.076819473560781115 0 -0.1822294403993594 -0.091272888294312293 0 -0.18940645687904581 -0.076819473560781115 0 -0.16622085479676199 -0.075838808419480111 0 -0.18940645687904581 -0.076819473560781115 0 -0.17672291357829811 -0.064990721505459842 0 -0.16622085479676199 -0.075838808419480111 0 -0.18940645687904581 -0.076819473560781115 0 -0.17672291357829811 -0.064990721505459842 0 -0.18709502764393729 -0.061773717592220383 0 -0.17672291357829811 -0.064990721505459842 0 -0.16622085479676199 -0.075838808419480111 0 -0.16458020880549121 -0.059492387506912943 0 -0.16622085479676199 -0.075838808419480111 0 -0.15646239569026699 -0.065906604111614212 0 -0.16458020880549121 -0.059492387506912943 0 -0.16769957127680751 -0.09718714727553697 0 -0.16622085479676199 -0.075838808419480111 0 -0.15631644193457139 -0.088857398989056272 0 -0.15631644193457139 -0.088857398989056272 0 -0.14677991412428701 -0.093732051016317916 0 -0.1430352527144782 -0.074858143278179051 0 -0.16622085479676199 -0.075838808419480111 0 -0.15631644193457139 -0.088857398989056272 0 -0.1430352527144782 -0.074858143278179051 0 -0.14677991412428701 -0.093732051016317916 0 -0.1430352527144782 -0.074858143278179051 0 -0.13451756518433111 -0.095180895342251215 0 -0.1430352527144782 -0.074858143278179051 0 -0.1411001381629465 -0.060647222888288201 0 -0.15201326644433669 -0.053437077241884359 0 -0.16622085479676199 -0.075838808419480111 0 -0.15646239569026699 -0.065906604111614212 0 -0.1430352527144782 -0.074858143278179051 0 -0.16622085479676199 -0.075838808419480111 0 -0.1430352527144782 -0.074858143278179051 0 -0.1430352527144782 -0.074858143278179051 0 -0.15201326644433669 -0.053437077241884359 0 -0.15646239569026699 -0.065906604111614212 0 -0.1430352527144782 -0.074858143278179051 0 -0.15201326644433669 -0.053437077241884359 0 -0.13708859775349791 -0.067653843581906681 0 -0.130794656111274 -0.068530613083725267 0 -0.13379805028672059 -0.060142641530726633 0 -0.1430352527144782 -0.074858143278179051 0 -0.13708859775349791 -0.067653843581906681 0 -0.1411001381629465 -0.060647222888288201 0 -0.13708859775349791 -0.067653843581906681 0 -0.13379805028672059 -0.060142641530726633 0 -0.1411001381629465 -0.060647222888288201 0 -0.13708859775349791 -0.067653843581906681 0 -0.13568082893985359 -0.07454707837658528 0 -0.130794656111274 -0.068530613083725267 0 -0.1430352527144782 -0.074858143278179051 0 -0.13708859775349791 -0.067653843581906681 0 -0.13568082893985359 -0.07454707837658528 0 -0.1430352527144782 -0.074858143278179051 0 -0.13568082893985359 -0.07454707837658528 0 -0.1232756904161693 -0.070411489051666373 0 -0.130794656111274 -0.068530613083725267 0 -0.12737817104852411 -0.080741270387750683 0 -0.13568082893985359 -0.07454707837658528 0 -0.130794656111274 -0.068530613083725267 0 -0.12737817104852411 -0.080741270387750683 0 -0.12131955324210091 -0.059181462630683621 0 -0.130794656111274 -0.068530613083725267 0 -0.13379805028672059 -0.060142641530726633 0 -0.1232756904161693 -0.070411489051666373 0 -0.12131955324210091 -0.059181462630683621 0 -0.130794656111274 -0.068530613083725267 0 -0.13568082893985359 -0.07454707837658528 0 -0.12737817104852411 -0.080741270387750683 0 -0.13451756518433111 -0.095180895342251215 0 -0.1430352527144782 -0.074858143278179051 0 -0.13568082893985359 -0.07454707837658528 0 -0.13451756518433111 -0.095180895342251215 0 -0.1430352527144782 -0.074858143278179051 0 -0.13451756518433111 -0.095180895342251215 0 -0.12067370026095731 -0.092005587950159118 0 -0.12737817104852411 -0.080741270387750683 0 -0.13451756518433111 -0.095180895342251215 0 -0.13451756518433111 -0.095180895342251215 0 -0.12599987765418549 -0.11550364740632391 0 -0.13451756518433111 -0.095180895342251215 0 -0.139855014945965 -0.1081270544919556 0 -0.13238394533585049 -0.1132856834133564 0 -0.13451756518433111 -0.095180895342251215 0 -0.12599987765418549 -0.11550364740632391 0 -0.13238394533585049 -0.1132856834133564 0 -0.12182531397588869 -0.1044134543712442 0 -0.13451756518433111 -0.095180895342251215 0 -0.12599987765418549 -0.11550364740632391 0 -0.12182531397588869 -0.1044134543712442 0 -0.12067370026095731 -0.092005587950159118 0 -0.13451756518433111 -0.095180895342251215 0 -0.12599987765418549 -0.11550364740632391 0 -0.1252704192176744 -0.1172440966648565 0 -0.13114171751694609 -0.1183715484722116 0 -0.12599987765418549 -0.11550364740632391 0 -0.1252704192176744 -0.1172440966648565 0 -0.12599987765418549 -0.11550364740632391 0 -0.13238394533585049 -0.1132856834133564 0 -0.12599987765418549 -0.11550364740632391 0 -0.13238394533585049 -0.1132856834133564 0 -0.13114171751694609 -0.1183715484722116 0 -0.1355018371655794 -0.1265678790332187 0 -0.1252704192176744 -0.1172440966648565 0 -0.13114171751694609 -0.1183715484722116 0 -0.1355018371655794 -0.1265678790332187 0 -0.13114171751694609 -0.1183715484722116 0 -0.14420813470266419 -0.11805716313719079 0 -0.139855014945965 -0.1081270544919556 0 -0.13238394533585049 -0.1132856834133564 0 -0.14420813470266419 -0.11805716313719079 0 -0.13238394533585049 -0.1132856834133564 0 -0.13114171751694609 -0.1183715484722116 0 -0.14420813470266419 -0.11805716313719079 0 -0.139855014945965 -0.1081270544919556 0 -0.14420813470266419 -0.11805716313719079 0 -0.1483104145610141 -0.1059844760750239 0 -0.1628079644011253 -0.13038477387159439 0 -0.14420813470266419 -0.11805716313719079 0 -0.1559183975343586 -0.1153029742025357 0 -0.14420813470266419 -0.11805716313719079 0 -0.1559183975343586 -0.1153029742025357 0 -0.1483104145610141 -0.1059844760750239 0 -0.15766897324155929 -0.10201766098942321 0 -0.1559183975343586 -0.1153029742025357 0 -0.1483104145610141 -0.1059844760750239 0 -0.15766897324155929 -0.10201766098942321 0 -0.15631644193457139 -0.088857398989056272 0 -0.14677991412428701 -0.093732051016317916 0 -0.15766897324155929 -0.10201766098942321 0 -0.14677991412428701 -0.093732051016317916 0 -0.1483104145610141 -0.1059844760750239 0 -0.14677991412428701 -0.093732051016317916 0 -0.13451756518433111 -0.095180895342251215 0 -0.1483104145610141 -0.1059844760750239 0 -0.13451756518433111 -0.095180895342251215 0 -0.139855014945965 -0.1081270544919556 0 -0.1483104145610141 -0.1059844760750239 0 -0.1452248522035206 -0.0135074852317284 0 -0.13361245343545181 -0.030305793086055629 0 -0.1484749629479134 -0.038477035386196637 0 -0.1452248522035206 -0.0135074852317284 0 -0.1484749629479134 -0.038477035386196637 0 -0.16099128017419639 -0.03201601120559007 0 -0.1452248522035206 -0.0135074852317284 0 -0.1660829110182864 -0.0110115892886907 0 -0.1564869492866878 -0.00059129627401754796 0 -0.1452248522035206 -0.0135074852317284 0 -0.1564869492866878 -0.00059129627401754796 0 -0.1433170204333889 0.0042533116210359059 0 -0.1452248522035206 -0.0135074852317284 0 -0.13137048688310951 -0.003337023478303953 0 -0.1433170204333889 0.0042533116210359059 0 -0.1236122261121546 -0.0078425818954372464 0 -0.1452248522035206 -0.0135074852317284 0 -0.13137048688310951 -0.003337023478303953 0 -0.1236122261121546 -0.0078425818954372464 0 -0.13137048688310951 -0.003337023478303953 0 -0.1236122261121546 -0.0078425818954372464 0 -0.13361245343545181 -0.030305793086055629 0 -0.1236122261121546 -0.0078425818954372464 0 -0.1185057960264221 -0.028529017004706999 0 -0.13361245343545181 -0.030305793086055629 0 -0.1236122261121546 -0.0078425818954372464 0 -0.1452248522035206 -0.0135074852317284 0 -0.13361245343545181 -0.030305793086055629 0 -0.13361245343545181 -0.030305793086055629 0 -0.14346563865851419 -0.05243870800993642 0 -0.1197314047957487 -0.044466417495601512 0 -0.13361245343545181 -0.030305793086055629 0 -0.1315211872564446 -0.050314657740016588 0 -0.13361245343545181 -0.030305793086055629 0 -0.1315211872564446 -0.050314657740016588 0 -0.14346563865851419 -0.05243870800993642 0 -0.12131955324210091 -0.059181462630683621 0 -0.1315211872564446 -0.050314657740016588 0 -0.13379805028672059 -0.060142641530726633 0 -0.1315211872564446 -0.050314657740016588 0 -0.1374712535911565 -0.055885807542241962 0 -0.14346563865851419 -0.05243870800993642 0 -0.1315211872564446 -0.050314657740016588 0 -0.1374712535911565 -0.055885807542241962 0 -0.13379805028672059 -0.060142641530726633 0 -0.1374712535911565 -0.055885807542241962 0 -0.13379805028672059 -0.060142641530726633 0 -0.1411001381629465 -0.060647222888288201 0 -0.1411001381629465 -0.060647222888288201 0 -0.14346563865851419 -0.05243870800993642 0 -0.15201326644433669 -0.053437077241884359 0 -0.1374712535911565 -0.055885807542241962 0 -0.1411001381629465 -0.060647222888288201 0 -0.14346563865851419 -0.05243870800993642 0 -0.14346563865851419 -0.05243870800993642 0 -0.15201326644433669 -0.053437077241884359 0 -0.1484749629479134 -0.038477035386196637 0 -0.15201326644433669 -0.053437077241884359 0 -0.1484749629479134 -0.038477035386196637 0 -0.16099128017419639 -0.03201601120559007 0 -0.13361245343545181 -0.030305793086055629 0 -0.14346563865851419 -0.05243870800993642 0 -0.1484749629479134 -0.038477035386196637 0 -0.15201326644433669 -0.053437077241884359 0 -0.16099128017419639 -0.03201601120559007 0 -0.15201326644433669 -0.053437077241884359 0 -0.16099128017419639 -0.03201601120559007 0 -0.16622336588392531 -0.046665464390732471 0 -0.16099128017419639 -0.03201601120559007 0 -0.17705927752236811 -0.038294319471390781 0 -0.1772337338696203 -0.023645926918309929 0 -0.16099128017419639 -0.03201601120559007 0 -0.16622336588392531 -0.046665464390732471 0 -0.17705927752236811 -0.038294319471390781 0 -0.15646239569026699 -0.065906604111614212 0 -0.15201326644433669 -0.053437077241884359 0 -0.16458020880549121 -0.059492387506912943 0 -0.15201326644433669 -0.053437077241884359 0 -0.16622336588392531 -0.046665464390732471 0 -0.16458020880549121 -0.059492387506912943 0 -0.16622336588392531 -0.046665464390732471 0 -0.16458020880549121 -0.059492387506912943 0 -0.17631201976625371 -0.05102922044790497 0 -0.17672291357829811 -0.064990721505459842 0 -0.16458020880549121 -0.059492387506912943 0 -0.17631201976625371 -0.05102922044790497 0 -0.17631201976625371 -0.05102922044790497 0 -0.18709502764393729 -0.061773717592220383 0 -0.18868425509965489 -0.047684834797198213 0 -0.17672291357829811 -0.064990721505459842 0 -0.17631201976625371 -0.05102922044790497 0 -0.18709502764393729 -0.061773717592220383 0 -0.16622336588392531 -0.046665464390732471 0 -0.17631201976625371 -0.05102922044790497 0 -0.17705927752236811 -0.038294319471390781 0 -0.17631201976625371 -0.05102922044790497 0 -0.17705927752236811 -0.038294319471390781 0 -0.18868425509965489 -0.047684834797198213 0 -0.17705927752236811 -0.038294319471390781 0 -0.18868425509965489 -0.047684834797198213 0 -0.19198493650835269 -0.034148616047928453 0 -0.17705927752236811 -0.038294319471390781 0 -0.1772337338696203 -0.023645926918309929 0 -0.19198493650835269 -0.034148616047928453 0 -0.1772337338696203 -0.023645926918309929 0 -0.18418091461086311 -0.0067458590849352237 0 -0.19781487964127609 -0.018046172764705552 0 -0.16099128017419639 -0.03201601120559007 0 -0.1772337338696203 -0.023645926918309929 0 -0.1660829110182864 -0.0110115892886907 0 -0.1452248522035206 -0.0135074852317284 0 -0.16099128017419639 -0.03201601120559007 0 -0.1660829110182864 -0.0110115892886907 0 -0.1660829110182864 -0.0110115892886907 0 -0.1564869492866878 -0.00059129627401754796 0 -0.17208342559322409 0.0058404778805985873 0 -0.1660829110182864 -0.0110115892886907 0 -0.18418091461086311 -0.0067458590849352237 0 -0.17208342559322409 0.0058404778805985873 0 -0.1772337338696203 -0.023645926918309929 0 -0.1660829110182864 -0.0110115892886907 0 -0.18418091461086311 -0.0067458590849352237 0 -0.18418091461086311 -0.0067458590849352237 0 -0.2008908429601583 -0.001101000049535744 0 -0.19781487964127609 -0.018046172764705552 0 -0.19781487964127609 -0.018046172764705552 0 -0.19198493650835269 -0.034148616047928453 0 -0.21155103461974961 -0.032223677091432062 0 -0.1772337338696203 -0.023645926918309929 0 -0.19781487964127609 -0.018046172764705552 0 -0.19198493650835269 -0.034148616047928453 0 -0.19781487964127609 -0.018046172764705552 0 -0.21155103461974961 -0.032223677091432062 0 -0.21882158577424271 -0.0103131571922281 0 -0.2008908429601583 -0.001101000049535744 0 -0.19781487964127609 -0.018046172764705552 0 -0.21882158577424271 -0.0103131571922281 0 -0.18709502764393729 -0.061773717592220383 0 -0.18868425509965489 -0.047684834797198213 0 -0.20047874574939811 -0.054521575326106748 0 -0.18868425509965489 -0.047684834797198213 0 -0.20047874574939811 -0.054521575326106748 0 -0.19817474299428881 -0.04214467581566636 0 -0.19817474299428881 -0.04214467581566636 0 -0.19198493650835269 -0.034148616047928453 0 -0.21155103461974961 -0.032223677091432062 0 -0.18868425509965489 -0.047684834797198213 0 -0.19817474299428881 -0.04214467581566636 0 -0.19198493650835269 -0.034148616047928453 0 -0.20047874574939811 -0.054521575326106748 0 -0.21155103461974961 -0.032223677091432062 0 -0.20047874574939811 -0.054521575326106748 0 -0.19817474299428881 -0.04214467581566636 0 -0.21155103461974961 -0.032223677091432062 0 -0.21155103461974961 -0.032223677091432062 0 -0.21465014164525181 -0.057056120614390499 0 -0.22646728404806721 -0.036724874627428489 0 -0.20047874574939811 -0.054521575326106748 0 -0.21155103461974961 -0.032223677091432062 0 -0.21465014164525181 -0.057056120614390499 0 -0.21465014164525181 -0.057056120614390499 0 -0.2338744138803254 -0.062312468216533988 0 -0.22646728404806721 -0.036724874627428489 0 -0.2338744138803254 -0.062312468216533988 0 -0.22646728404806721 -0.036724874627428489 0 -0.21465014164525181 -0.057056120614390499 0 -0.22646728404806721 -0.036724874627428489 0 -0.22646728404806721 -0.036724874627428489 0 -0.2401414722927224 -0.032241302373577058 0 -0.24278742868549399 -0.046838078323859687 0 -0.2401414722927224 -0.032241302373577058 0 -0.25378175816230958 -0.02436733484642779 0 -0.25219715932032732 -0.038265850071314 0 -0.2401414722927224 -0.032241302373577058 0 -0.24278742868549399 -0.046838078323859687 0 -0.25219715932032732 -0.038265850071314 0 -0.2338744138803254 -0.062312468216533988 0 -0.22646728404806721 -0.036724874627428489 0 -0.24278742868549399 -0.046838078323859687 0 -0.24278742868549399 -0.046838078323859687 0 -0.2476323682116322 -0.061520987214930753 0 -0.25620744044593469 -0.049667056832747067 0 -0.2338744138803254 -0.062312468216533988 0 -0.24278742868549399 -0.046838078323859687 0 -0.2476323682116322 -0.061520987214930753 0 -0.21882158577424271 -0.0103131571922281 0 -0.2374946151573453 -0.01775248911154621 0 -0.23546354233931949 0.0078270751002715265 0 -0.22646728404806721 -0.036724874627428489 0 -0.2374946151573453 -0.01775248911154621 0 -0.21155103461974961 -0.032223677091432062 0 -0.22646728404806721 -0.036724874627428489 0 -0.21882158577424271 -0.0103131571922281 0 -0.22646728404806721 -0.036724874627428489 0 -0.21882158577424271 -0.0103131571922281 0 -0.22646728404806721 -0.036724874627428489 0 -0.21882158577424271 -0.0103131571922281 0 -0.2374946151573453 -0.01775248911154621 0 -0.2374946151573453 -0.01775248911154621 0 -0.25227296286688322 -0.0076793426536460041 0 -0.25378175816230958 -0.02436733484642779 0 -0.2401414722927224 -0.032241302373577058 0 -0.2374946151573453 -0.01775248911154621 0 -0.25378175816230958 -0.02436733484642779 0 -0.22646728404806721 -0.036724874627428489 0 -0.2401414722927224 -0.032241302373577058 0 -0.2374946151573453 -0.01775248911154621 0 -0.2374946151573453 -0.01775248911154621 0 -0.25227296286688322 -0.0076793426536460041 0 -0.23546354233931949 0.0078270751002715265 0 -0.25227296286688322 -0.0076793426536460041 0 -0.27504786807920711 -0.016522946018952021 0 -0.26249405175029211 0.007662734938978108 0 -0.25227296286688322 -0.0076793426536460041 0 -0.25378175816230958 -0.02436733484642779 0 -0.27504786807920711 -0.016522946018952021 0 -0.25378175816230958 -0.02436733484642779 0 -0.27504786807920711 -0.016522946018952021 0 -0.26471526887818231 -0.03538659961621915 0 -0.27504786807920711 -0.016522946018952021 0 -0.27907013255445939 -0.03491531901183742 0 -0.26471526887818231 -0.03538659961621915 0 -0.27504786807920711 -0.016522946018952021 0 -0.26249405175029211 0.007662734938978108 0 -0.29088909275279012 0.0052797473078289572 0 -0.27504786807920711 -0.016522946018952021 0 -0.29710775469227729 -0.014596668466157351 0 -0.29088909275279012 0.0052797473078289572 0 -0.27504786807920711 -0.016522946018952021 0 -0.29121836233921761 -0.027938763998333869 0 -0.27907013255445939 -0.03491531901183742 0 -0.27504786807920711 -0.016522946018952021 0 -0.29121836233921761 -0.027938763998333869 0 -0.29710775469227729 -0.014596668466157351 0 -0.29710775469227729 -0.014596668466157351 0 -0.31759413704845219 -0.011310857140017521 0 -0.31311363369768291 -0.03310849193739672 0 -0.29121836233921761 -0.027938763998333869 0 -0.29710775469227729 -0.014596668466157351 0 -0.31311363369768291 -0.03310849193739672 0 -0.29710775469227729 -0.014596668466157351 0 -0.30518798685158838 -0.0020929360932298849 0 -0.29088909275279012 0.0052797473078289572 0 -0.29710775469227729 -0.014596668466157351 0 -0.30518798685158838 -0.0020929360932298849 0 -0.31759413704845219 -0.011310857140017521 0 -0.3114594072847322 -0.049306726894047262 0 -0.29175242267246138 -0.04055039455732605 0 -0.29253753360804391 -0.057483018047446738 0 -0.3114594072847322 -0.049306726894047262 0 -0.29253753360804391 -0.057483018047446738 0 -0.30696176126270219 -0.065158696513015008 0 -0.3114594072847322 -0.049306726894047262 0 -0.29175242267246138 -0.04055039455732605 0 -0.31311363369768291 -0.03310849193739672 0 -0.29175242267246138 -0.04055039455732605 0 -0.31311363369768291 -0.03310849193739672 0 -0.3114594072847322 -0.049306726894047262 0 -0.29175242267246138 -0.04055039455732605 0 -0.29121836233921761 -0.027938763998333869 0 -0.29175242267246138 -0.04055039455732605 0 -0.31311363369768291 -0.03310849193739672 0 -0.29175242267246138 -0.04055039455732605 0 -0.27907013255445939 -0.03491531901183742 0 -0.29121836233921761 -0.027938763998333869 0 -0.29175242267246138 -0.04055039455732605 0 -0.27907013255445939 -0.03491531901183742 0 -0.29175242267246138 -0.04055039455732605 0 -0.29253753360804391 -0.057483018047446738 0 -0.27994708571901822 -0.057980160189140359 0 -0.27994708571901822 -0.057980160189140359 0 -0.26824156593179532 -0.048741199197032549 0 -0.26874039246249382 -0.069271675174266092 0 -0.29175242267246138 -0.04055039455732605 0 -0.27994708571901822 -0.057980160189140359 0 -0.26824156593179532 -0.048741199197032549 0 -0.29175242267246138 -0.04055039455732605 0 -0.26824156593179532 -0.048741199197032549 0 -0.27907013255445939 -0.03491531901183742 0 -0.29175242267246138 -0.04055039455732605 0 -0.26824156593179532 -0.048741199197032549 0 -0.26824156593179532 -0.048741199197032549 0 -0.27907013255445939 -0.03491531901183742 0 -0.26471526887818231 -0.03538659961621915 0 -0.26824156593179532 -0.048741199197032549 0 -0.26471526887818231 -0.03538659961621915 0 -0.25620744044593469 -0.049667056832747067 0 -0.24278742868549399 -0.046838078323859687 0 -0.25219715932032732 -0.038265850071314 0 -0.25620744044593469 -0.049667056832747067 0 -0.26471526887818231 -0.03538659961621915 0 -0.25219715932032732 -0.038265850071314 0 -0.25620744044593469 -0.049667056832747067 0 -0.25378175816230958 -0.02436733484642779 0 -0.26471526887818231 -0.03538659961621915 0 -0.25219715932032732 -0.038265850071314 0 -0.26824156593179532 -0.048741199197032549 0 -0.25818533518880471 -0.062204128102381351 0 -0.26874039246249382 -0.069271675174266092 0 -0.26824156593179532 -0.048741199197032549 0 -0.25818533518880471 -0.062204128102381351 0 -0.25620744044593469 -0.049667056832747067 0 -0.2476323682116322 -0.061520987214930753 0 -0.25818533518880471 -0.062204128102381351 0 -0.25620744044593469 -0.049667056832747067 0 -0.2476323682116322 -0.061520987214930753 0 -0.25818533518880471 -0.062204128102381351 0 -0.2529882333064245 -0.070973901803662365 0 -0.25818533518880471 -0.062204128102381351 0 -0.25865454608389071 -0.0715458776642144 0 -0.2529882333064245 -0.070973901803662365 0 -0.25818533518880471 -0.062204128102381351 0 -0.25865454608389071 -0.0715458776642144 0 -0.26874039246249382 -0.069271675174266092 0 -0.25865454608389071 -0.0715458776642144 0 -0.25855249999409979 -0.079349971077516485 0 -0.26874039246249382 -0.069271675174266092 0 -0.24682403554985069 -0.077092069586417622 0 -0.25425482873356642 -0.074740455032952721 0 -0.25855249999409979 -0.079349971077516485 0 -0.25865454608389071 -0.0715458776642144 0 -0.25425482873356642 -0.074740455032952721 0 -0.25855249999409979 -0.079349971077516485 0 -0.25865454608389071 -0.0715458776642144 0 -0.25425482873356642 -0.074740455032952721 0 -0.2529882333064245 -0.070973901803662365 0 -0.24682403554985069 -0.077092069586417622 0 -0.25425482873356642 -0.074740455032952721 0 -0.2529882333064245 -0.070973901803662365 0 -0.2404192924220224 -0.087961553919881613 0 -0.25356789490128989 -0.088072195653340249 0 -0.26220824858947278 -0.082039970883894989 0 -0.2404192924220224 -0.087961553919881613 0 -0.26220824858947278 -0.082039970883894989 0 -0.2404192924220224 -0.087961553919881613 0 -0.26220824858947278 -0.082039970883894989 0 -0.25855249999409979 -0.079349971077516485 0 -0.25356789490128989 -0.088072195653340249 0 -0.25144169010332901 -0.091633326375329338 0 -0.26020234849033591 -0.090653931434255125 0 -0.25144169010332901 -0.091633326375329338 0 -0.26020234849033591 -0.090653931434255125 0 -0.2525882024947626 -0.098821099717938107 0 -0.26020234849033591 -0.090653931434255125 0 -0.26220824858947278 -0.082039970883894989 0 -0.26803774644364831 -0.088990216861234941 0 -0.26020234849033591 -0.090653931434255125 0 -0.26803774644364831 -0.088990216861234941 0 -0.26237563885443332 -0.099092169843888092 0 -0.25356789490128989 -0.088072195653340249 0 -0.26020234849033591 -0.090653931434255125 0 -0.26220824858947278 -0.082039970883894989 0 -0.26220824858947278 -0.082039970883894989 0 -0.25855249999409979 -0.079349971077516485 0 -0.27123440961567508 -0.082288547260032208 0 -0.27123440961567508 -0.082288547260032208 0 -0.26803774644364831 -0.088990216861234941 0 -0.28416808666832472 -0.090876464884104322 0 -0.26220824858947278 -0.082039970883894989 0 -0.27123440961567508 -0.082288547260032208 0 -0.26803774644364831 -0.088990216861234941 0 -0.27123440961567508 -0.082288547260032208 0 -0.28275713062840102 -0.072254333795265746 0 -0.28416808666832472 -0.090876464884104322 0 -0.26803774644364831 -0.088990216861234941 0 -0.26237563885443332 -0.099092169843888092 0 -0.28416808666832472 -0.090876464884104322 0 -0.25855249999409979 -0.079349971077516485 0 -0.28275713062840102 -0.072254333795265746 0 -0.25855249999409979 -0.079349971077516485 0 -0.26874039246249382 -0.069271675174266092 0 -0.28275713062840102 -0.072254333795265746 0 -0.25855249999409979 -0.079349971077516485 0 -0.27123440961567508 -0.082288547260032208 0 -0.28275713062840102 -0.072254333795265746 0 -0.27994708571901822 -0.057980160189140359 0 -0.26874039246249382 -0.069271675174266092 0 -0.28275713062840102 -0.072254333795265746 0 -0.2478381125959237 -0.13014188093155071 0 -0.26471173226585809 -0.1241277151614352 0 -0.25439292330372432 -0.11161035632906929 0 -0.26471173226585809 -0.1241277151614352 0 -0.25439292330372432 -0.11161035632906929 0 -0.26925149092450551 -0.1104881183943958 0 -0.25439292330372432 -0.11161035632906929 0 -0.26237563885443332 -0.099092169843888092 0 -0.26925149092450551 -0.1104881183943958 0 -0.25439292330372432 -0.11161035632906929 0 -0.2525882024947626 -0.098821099717938107 0 -0.26237563885443332 -0.099092169843888092 0 -0.2438502060585381 -0.1028583717612334 0 -0.25439292330372432 -0.11161035632906929 0 -0.2525882024947626 -0.098821099717938107 0 -0.26020234849033591 -0.090653931434255125 0 -0.2525882024947626 -0.098821099717938107 0 -0.26237563885443332 -0.099092169843888092 0 -0.26237563885443332 -0.099092169843888092 0 -0.26925149092450551 -0.1104881183943958 0 -0.28416808666832472 -0.090876464884104322 0 -0.26237563885443332 -0.099092169843888092 0 -0.28416808666832472 -0.090876464884104322 0 -0.26925149092450551 -0.1104881183943958 0 -0.28362018306611941 -0.1149768545032684 0 -0.28416808666832472 -0.090876464884104322 0 -0.26471173226585809 -0.1241277151614352 0 -0.26925149092450551 -0.1104881183943958 0 -0.28362018306611941 -0.1149768545032684 0 -0.28362018306611941 -0.1149768545032684 0 -0.30012398023346848 -0.099943372585857088 0 -0.29756340944960558 -0.1135198660677226 0 -0.28362018306611941 -0.1149768545032684 0 -0.29756340944960558 -0.1135198660677226 0 -0.29768876878828382 -0.12804597213566191 0 -0.28362018306611941 -0.1149768545032684 0 -0.30012398023346848 -0.099943372585857088 0 -0.28416808666832472 -0.090876464884104322 0 -0.30012398023346848 -0.099943372585857088 0 -0.30783691459248808 -0.106447779092323 0 -0.31567959952596442 -0.097557764174788134 0 -0.30012398023346848 -0.099943372585857088 0 -0.30783691459248808 -0.106447779092323 0 -0.29756340944960558 -0.1135198660677226 0 -0.31981531178534578 -0.1159443424066684 0 -0.31168640084693722 -0.1309238984722621 0 -0.29768876878828382 -0.12804597213566191 0 -0.31097561465500489 -0.1146061177684144 0 -0.31981531178534578 -0.1159443424066684 0 -0.29768876878828382 -0.12804597213566191 0 -0.31981531178534578 -0.1159443424066684 0 -0.29768876878828382 -0.12804597213566191 0 -0.30783691459248808 -0.106447779092323 0 -0.29756340944960558 -0.1135198660677226 0 -0.31097561465500489 -0.1146061177684144 0 -0.30783691459248808 -0.106447779092323 0 -0.31097561465500489 -0.1146061177684144 0 -0.31588048179209449 -0.1075745667651056 0 -0.29756340944960558 -0.1135198660677226 0 -0.31097561465500489 -0.1146061177684144 0 -0.29768876878828382 -0.12804597213566191 0 -0.29253753360804391 -0.057483018047446738 0 -0.28275713062840102 -0.072254333795265746 0 -0.30696176126270219 -0.065158696513015008 0 -0.28275713062840102 -0.072254333795265746 0 -0.30696176126270219 -0.065158696513015008 0 -0.29253753360804391 -0.057483018047446738 0 -0.27994708571901822 -0.057980160189140359 0 -0.28275713062840102 -0.072254333795265746 0 -0.28275713062840102 -0.072254333795265746 0 -0.28416808666832472 -0.090876464884104322 0 -0.30596053448221622 -0.082660759924320565 0 -0.30012398023346848 -0.099943372585857088 0 -0.28416808666832472 -0.090876464884104322 0 -0.30596053448221622 -0.082660759924320565 0 -0.28416808666832472 -0.090876464884104322 0 -0.30596053448221622 -0.082660759924320565 0 -0.30012398023346848 -0.099943372585857088 0 -0.30596053448221622 -0.082660759924320565 0 -0.31567959952596442 -0.097557764174788134 0 -0.28275713062840102 -0.072254333795265746 0 -0.30596053448221622 -0.082660759924320565 0 -0.30696176126270219 -0.065158696513015008 0 -0.30696176126270219 -0.065158696513015008 0 -0.32775298229610761 -0.074445054964536822 0 -0.33116639189700398 -0.058063059230765962 0 -0.30596053448221622 -0.082660759924320565 0 -0.30696176126270219 -0.065158696513015008 0 -0.32775298229610761 -0.074445054964536822 0 -0.30596053448221622 -0.082660759924320565 0 -0.32775298229610761 -0.074445054964536822 0 -0.30596053448221622 -0.082660759924320565 0 -0.32775298229610761 -0.074445054964536822 0 -0.32362127966136711 -0.087321124884110049 0 -0.30596053448221622 -0.082660759924320565 0 -0.32362127966136711 -0.087321124884110049 0 -0.31567959952596442 -0.097557764174788134 0 -0.32362127966136711 -0.087321124884110049 0 -0.31567959952596442 -0.097557764174788134 0 -0.33099901797333198 -0.096034161481027461 0 -0.32775298229610761 -0.074445054964536822 0 -0.32362127966136711 -0.087321124884110049 0 -0.33771426402921512 -0.08590788387587725 0 -0.32775298229610761 -0.074445054964536822 0 -0.33771426402921512 -0.08590788387587725 0 -0.3410929925936918 -0.075329856076351967 0 -0.32362127966136711 -0.087321124884110049 0 -0.33771426402921512 -0.08590788387587725 0 -0.33099901797333198 -0.096034161481027461 0 -0.33771426402921512 -0.08590788387587725 0 -0.34583111956259749 -0.098435285946989581 0 -0.34764631593145701 -0.084003956848892683 0 -0.33771426402921512 -0.08590788387587725 0 -0.33099901797333198 -0.096034161481027461 0 -0.34583111956259749 -0.098435285946989581 0 -0.33771426402921512 -0.08590788387587725 0 -0.3410929925936918 -0.075329856076351967 0 -0.34764631593145701 -0.084003956848892683 0 -0.32775298229610761 -0.074445054964536822 0 -0.34954543010999922 -0.066229350004753773 0 -0.32775298229610761 -0.074445054964536822 0 -0.34954543010999922 -0.066229350004753773 0 -0.33116639189700398 -0.058063059230765962 0 -0.32775298229610761 -0.074445054964536822 0 -0.3410929925936918 -0.075329856076351967 0 -0.34954543010999922 -0.066229350004753773 0 -0.31981531178534578 -0.1159443424066684 0 -0.33811662782018509 -0.1187149432167614 0 -0.32501708124079648 -0.13103464252731351 0 -0.31097561465500489 -0.1146061177684144 0 -0.31981531178534578 -0.1159443424066684 0 -0.31588048179209449 -0.1075745667651056 0 -0.31097561465500489 -0.1146061177684144 0 -0.31981531178534578 -0.1159443424066684 0 -0.31981531178534578 -0.1159443424066684 0 -0.32413251233690038 -0.10459203082738 0 -0.33754729440195652 -0.1062462215562652 0 -0.31981531178534578 -0.1159443424066684 0 -0.32413251233690038 -0.10459203082738 0 -0.31588048179209449 -0.1075745667651056 0 -0.32413251233690038 -0.10459203082738 0 -0.31588048179209449 -0.1075745667651056 0 -0.31567959952596442 -0.097557764174788134 0 -0.30783691459248808 -0.106447779092323 0 -0.31588048179209449 -0.1075745667651056 0 -0.31567959952596442 -0.097557764174788134 0 -0.32413251233690038 -0.10459203082738 0 -0.31567959952596442 -0.097557764174788134 0 -0.33099901797333198 -0.096034161481027461 0 -0.33754729440195652 -0.1062462215562652 0 -0.33811662782018509 -0.1187149432167614 0 -0.34583111956259749 -0.098435285946989581 0 -0.33099901797333198 -0.096034161481027461 0 -0.33754729440195652 -0.1062462215562652 0 -0.34583111956259749 -0.098435285946989581 0 -0.32413251233690038 -0.10459203082738 0 -0.33099901797333198 -0.096034161481027461 0 -0.33754729440195652 -0.1062462215562652 0 -0.31981531178534578 -0.1159443424066684 0 -0.33754729440195652 -0.1062462215562652 0 -0.31981531178534578 -0.1159443424066684 0 -0.33754729440195652 -0.1062462215562652 0 -0.33811662782018509 -0.1187149432167614 0 -0.31981531178534578 -0.1159443424066684 0 -0.33811662782018509 -0.1187149432167614 0 -0.33811662782018509 -0.1187149432167614 0 -0.32501708124079648 -0.13103464252731351 0 -0.33811662782018509 -0.1187149432167614 0 -0.35957868311145441 -0.098530575294378642 0 -0.36560935282136869 -0.1228770136391782 0 -0.33811662782018509 -0.1187149432167614 0 -0.36560935282136869 -0.1228770136391782 0 -0.33811662782018509 -0.1187149432167614 0 -0.35957868311145441 -0.098530575294378642 0 -0.33811662782018509 -0.1187149432167614 0 -0.34583111956259749 -0.098435285946989581 0 -0.35957868311145441 -0.098530575294378642 0 -0.37338072534044958 -0.1015395423542827 0 -0.35957868311145441 -0.098530575294378642 0 -0.36560935282136869 -0.1228770136391782 0 -0.37338072534044958 -0.1015395423542827 0 -0.35957868311145441 -0.098530575294378642 0 -0.3750868287242039 -0.083945666598845156 0 -0.35957868311145441 -0.098530575294378642 0 -0.36560935282136869 -0.1228770136391782 0 -0.37338072534044958 -0.1015395423542827 0 -0.36560935282136869 -0.1228770136391782 0 -0.38088751658449588 -0.11177605152490321 0 -0.35337645997328532 -0.073491557988243944 0 -0.34954543010999922 -0.066229350004753773 0 -0.36110028685175177 -0.071363477205066639 0 -0.34954543010999922 -0.066229350004753773 0 -0.36113753062154968 -0.061859153573384271 0 -0.35391811348297447 -0.060268720819388867 0 -0.34954543010999922 -0.066229350004753773 0 -0.36113753062154968 -0.061859153573384271 0 -0.34954543010999922 -0.066229350004753773 0 -0.36110028685175177 -0.071363477205066639 0 -0.36113753062154968 -0.061859153573384271 0 -0.34954543010999922 -0.066229350004753773 0 -0.36110028685175177 -0.071363477205066639 0 -0.3410929925936918 -0.075329856076351967 0 -0.34954543010999922 -0.066229350004753773 0 -0.34762887643352081 -0.074048264607039227 0 -0.3410929925936918 -0.075329856076351967 0 -0.34762887643352081 -0.074048264607039227 0 -0.34764631593145701 -0.084003956848892683 0 -0.35337645997328532 -0.073491557988243944 0 -0.34762887643352081 -0.074048264607039227 0 -0.34764631593145701 -0.084003956848892683 0 -0.35337645997328532 -0.073491557988243944 0 -0.34954543010999922 -0.066229350004753773 0 -0.34762887643352081 -0.074048264607039227 0 -0.35957868311145441 -0.098530575294378642 0 -0.35337645997328532 -0.073491557988243944 0 -0.34764631593145701 -0.084003956848892683 0 -0.35957868311145441 -0.098530575294378642 0 -0.35337645997328532 -0.073491557988243944 0 -0.34583111956259749 -0.098435285946989581 0 -0.35957868311145441 -0.098530575294378642 0 -0.34764631593145701 -0.084003956848892683 0 -0.35957868311145441 -0.098530575294378642 0 -0.36565466293458038 -0.077117114018749447 0 -0.3750868287242039 -0.083945666598845156 0 -0.35957868311145441 -0.098530575294378642 0 -0.35337645997328532 -0.073491557988243944 0 -0.36565466293458038 -0.077117114018749447 0 -0.35957868311145441 -0.098530575294378642 0 -0.3750868287242039 -0.083945666598845156 0 -0.36565466293458038 -0.077117114018749447 0 -0.37683012181080239 -0.068733301298065499 0 -0.3750868287242039 -0.083945666598845156 0 -0.36565466293458038 -0.077117114018749447 0 -0.36795559713598469 -0.066638105727896774 0 -0.37683012181080239 -0.068733301298065499 0 -0.36565466293458038 -0.077117114018749447 0 -0.36110028685175177 -0.071363477205066639 0 -0.36795559713598469 -0.066638105727896774 0 -0.35337645997328532 -0.073491557988243944 0 -0.36565466293458038 -0.077117114018749447 0 -0.36110028685175177 -0.071363477205066639 0 -0.36110028685175177 -0.071363477205066639 0 -0.36795559713598469 -0.066638105727896774 0 -0.36113753062154968 -0.061859153573384271 0 -0.36795559713598469 -0.066638105727896774 0 -0.37470589733927712 -0.0545527271000322 0 -0.37683012181080239 -0.068733301298065499 0 -0.35650250053147359 -0.050635726844241939 0 -0.37707154236451451 -0.044605869900925722 0 -0.37470589733927712 -0.0545527271000322 0 -0.35650250053147359 -0.050635726844241939 0 -0.36795559713598469 -0.066638105727896774 0 -0.37470589733927712 -0.0545527271000322 0 -0.36113753062154968 -0.061859153573384271 0 -0.37470589733927712 -0.0545527271000322 0 -0.35650250053147359 -0.050635726844241939 0 -0.37707154236451451 -0.044605869900925722 0 -0.37470589733927712 -0.0545527271000322 0 -0.35970252298352262 -0.056514655867325403 0 -0.35650250053147359 -0.050635726844241939 0 -0.37470589733927712 -0.0545527271000322 0 -0.35970252298352262 -0.056514655867325403 0 -0.36113753062154968 -0.061859153573384271 0 -0.35391811348297447 -0.060268720819388867 0 -0.35527395769833642 -0.05300159300784036 0 -0.33116639189700398 -0.058063059230765962 0 -0.35527395769833642 -0.05300159300784036 0 -0.35507992259877907 -0.051052758492802497 0 -0.33116639189700398 -0.058063059230765962 0 -0.34954543010999922 -0.066229350004753773 0 -0.35391811348297447 -0.060268720819388867 0 -0.33116639189700398 -0.058063059230765962 0 -0.35970252298352262 -0.056514655867325403 0 -0.36113753062154968 -0.061859153573384271 0 -0.35391811348297447 -0.060268720819388867 0 -0.35970252298352262 -0.056514655867325403 0 -0.35391811348297447 -0.060268720819388867 0 -0.35527395769833642 -0.05300159300784036 0 -0.35650250053147359 -0.050635726844241939 0 -0.35507992259877907 -0.051052758492802497 0 -0.3484308880043866 -0.044087332347355908 0 -0.35970252298352262 -0.056514655867325403 0 -0.35650250053147359 -0.050635726844241939 0 -0.35527395769833642 -0.05300159300784036 0 -0.35650250053147359 -0.050635726844241939 0 -0.35527395769833642 -0.05300159300784036 0 -0.35650250053147359 -0.050635726844241939 0 -0.35527395769833642 -0.05300159300784036 0 -0.35507992259877907 -0.051052758492802497 0 -0.35650250053147359 -0.050635726844241939 0 -0.35507992259877907 -0.051052758492802497 0 -0.35507992259877907 -0.051052758492802497 0 -0.33978397050626657 -0.048324977944356091 0 -0.35507992259877907 -0.051052758492802497 0 -0.3484308880043866 -0.044087332347355908 0 -0.33978397050626657 -0.048324977944356091 0 -0.35650250053147359 -0.050635726844241939 0 -0.3501214739100334 -0.034607419809747728 0 -0.3484308880043866 -0.044087332347355908 0 -0.35650250053147359 -0.050635726844241939 0 -0.3501214739100334 -0.034607419809747728 0 -0.36684988365240911 -0.03070925546092473 0 -0.3501214739100334 -0.034607419809747728 0 -0.3484308880043866 -0.044087332347355908 0 -0.33506880487583801 -0.038565334792038719 0 -0.35650250053147359 -0.050635726844241939 0 -0.36684988365240911 -0.03070925546092473 0 -0.37707154236451451 -0.044605869900925722 0 -0.35650250053147359 -0.050635726844241939 0 -0.36684988365240911 -0.03070925546092473 0 -0.36684988365240911 -0.03070925546092473 0 -0.37719726677334758 -0.010782784077609161 0 -0.36684988365240911 -0.03070925546092473 0 -0.35583605574812599 -0.018224686697538489 0 -0.37719726677334758 -0.010782784077609161 0 -0.35583605574812599 -0.018224686697538489 0 -0.37719726677334758 -0.010782784077609161 0 -0.37145675818362223 0.001704133189072726 0 -0.35583605574812599 -0.018224686697538489 0 -0.37719726677334758 -0.010782784077609161 0 -0.35583605574812599 -0.018224686697538489 0 -0.35182631000740072 0.0068229147672093007 0 -0.37145675818362223 0.001704133189072726 0 -0.35583605574812599 -0.018224686697538489 0 -0.33449922093445961 -0.0040818700918973123 0 -0.35182631000740072 0.0068229147672093007 0 -0.3501214739100334 -0.034607419809747728 0 -0.35583605574812599 -0.018224686697538489 0 -0.33447484472290451 -0.025666589317467611 0 -0.3501214739100334 -0.034607419809747728 0 -0.36684988365240911 -0.03070925546092473 0 -0.35583605574812599 -0.018224686697538489 0 -0.35583605574812599 -0.018224686697538489 0 -0.33447484472290451 -0.025666589317467611 0 -0.35583605574812599 -0.018224686697538489 0 -0.33447484472290451 -0.025666589317467611 0 -0.33449922093445961 -0.0040818700918973123 0 -0.33447484472290451 -0.025666589317467611 0 -0.33449922093445961 -0.0040818700918973123 0 -0.31759413704845219 -0.011310857140017521 0 -0.33449922093445961 -0.0040818700918973123 0 -0.31759413704845219 -0.011310857140017521 0 -0.32049615199215492 0.0045280339304297253 0 -0.30518798685158838 -0.0020929360932298849 0 -0.31759413704845219 -0.011310857140017521 0 -0.32049615199215492 0.0045280339304297253 0 -0.33447484472290451 -0.025666589317467611 0 -0.31759413704845219 -0.011310857140017521 0 -0.31311363369768291 -0.03310849193739672 0 -0.33447484472290451 -0.025666589317467611 0 -0.31311363369768291 -0.03310849193739672 0 -0.3114594072847322 -0.049306726894047262 0 -0.31311363369768291 -0.03310849193739672 0 -0.32448801841375452 -0.045597197395908257 0 -0.33447484472290451 -0.025666589317467611 0 -0.31311363369768291 -0.03310849193739672 0 -0.33506880487583801 -0.038565334792038719 0 -0.31311363369768291 -0.03310849193739672 0 -0.32448801841375452 -0.045597197395908257 0 -0.33506880487583801 -0.038565334792038719 0 -0.3114594072847322 -0.049306726894047262 0 -0.32448801841375452 -0.045597197395908257 0 -0.33116639189700398 -0.058063059230765962 0 -0.30696176126270219 -0.065158696513015008 0 -0.33116639189700398 -0.058063059230765962 0 -0.3114594072847322 -0.049306726894047262 0 -0.33116639189700398 -0.058063059230765962 0 -0.3114594072847322 -0.049306726894047262 0 -0.30696176126270219 -0.065158696513015008 0 -0.33116639189700398 -0.058063059230765962 0 -0.32448801841375452 -0.045597197395908257 0 -0.33116639189700398 -0.058063059230765962 0 -0.33978397050626657 -0.048324977944356091 0 -0.34954543010999922 -0.066229350004753773 0 -0.33116639189700398 -0.058063059230765962 0 -0.35507992259877907 -0.051052758492802497 0 -0.33116639189700398 -0.058063059230765962 0 -0.33978397050626657 -0.048324977944356091 0 -0.35507992259877907 -0.051052758492802497 0 -0.33116639189700398 -0.058063059230765962 0 -0.32448801841375452 -0.045597197395908257 0 -0.33978397050626657 -0.048324977944356091 0 -0.3501214739100334 -0.034607419809747728 0 -0.33447484472290451 -0.025666589317467611 0 -0.33506880487583801 -0.038565334792038719 0 -0.3484308880043866 -0.044087332347355908 0 -0.33978397050626657 -0.048324977944356091 0 -0.33506880487583801 -0.038565334792038719 0 -0.32448801841375452 -0.045597197395908257 0 -0.33978397050626657 -0.048324977944356091 0 -0.33506880487583801 -0.038565334792038719 0 -0.29859701231105729 -0.25301700882560368 0 -0.3071375446623259 -0.2335196387236223 0 -0.31421725341188372 -0.24977587129631751 0 -0.29859701231105729 -0.25301700882560368 0 -0.3071375446623259 -0.2335196387236223 0 -0.29138670340076089 -0.23873921836977791 0 -0.3071375446623259 -0.2335196387236223 0 -0.29268109579257923 -0.22411955864172181 0 -0.3060605016315725 -0.21226103782782971 0 -0.3071375446623259 -0.2335196387236223 0 -0.3060605016315725 -0.21226103782782971 0 -0.32042736925848198 -0.22641527486886631 0 -0.3071375446623259 -0.2335196387236223 0 -0.29268109579257923 -0.22411955864172181 0 -0.29138670340076089 -0.23873921836977791 0 -0.29268109579257923 -0.22411955864172181 0 -0.27778266513963018 -0.23141617934605249 0 -0.2809246376312578 -0.20830770343947971 0 -0.29268109579257923 -0.22411955864172181 0 -0.29138670340076089 -0.23873921836977791 0 -0.27778266513963018 -0.23141617934605249 0 -0.28073519909821221 -0.25162370631188929 0 -0.29138670340076089 -0.23873921836977791 0 -0.27778266513963018 -0.23141617934605249 0 -0.28073519909821221 -0.25162370631188929 0 -0.29859701231105729 -0.25301700882560368 0 -0.29138670340076089 -0.23873921836977791 0 -0.28073519909821221 -0.25162370631188929 0 -0.2582168116042447 -0.2439014490639565 0 -0.27778266513963018 -0.23141617934605249 0 -0.24510877540263959 -0.22548599802342939 0 -0.2582168116042447 -0.2439014490639565 0 -0.26321090898949828 -0.22136191750140799 0 -0.24510877540263959 -0.22548599802342939 0 -0.26321090898949828 -0.22136191750140799 0 -0.25247744799357308 -0.21261594090752481 0 -0.26321090898949828 -0.22136191750140799 0 -0.27778266513963018 -0.23141617934605249 0 -0.2809246376312578 -0.20830770343947971 0 -0.2582168116042447 -0.2439014490639565 0 -0.26321090898949828 -0.22136191750140799 0 -0.27778266513963018 -0.23141617934605249 0 -0.26321090898949828 -0.22136191750140799 0 -0.2809246376312578 -0.20830770343947971 0 -0.26409863293778341 -0.20573621058270139 0 -0.26321090898949828 -0.22136191750140799 0 -0.26409863293778341 -0.20573621058270139 0 -0.25247744799357308 -0.21261594090752481 0 -0.26409863293778341 -0.20573621058270139 0 -0.25247744799357308 -0.21261594090752481 0 -0.25047429362874257 -0.200219847641955 0 -0.26409863293778341 -0.20573621058270139 0 -0.25047429362874257 -0.200219847641955 0 -0.26742375486930359 -0.1882108285553544 0 -0.25047429362874257 -0.200219847641955 0 -0.26742375486930359 -0.1882108285553544 0 -0.23968786498356659 -0.18400375912907671 0 -0.25047429362874257 -0.200219847641955 0 -0.26742375486930359 -0.1882108285553544 0 -0.2809246376312578 -0.20830770343947971 0 -0.26742375486930359 -0.1882108285553544 0 -0.29199909585561379 -0.19193849570898799 0 -0.26742375486930359 -0.1882108285553544 0 -0.29199909585561379 -0.19193849570898799 0 -0.2809246376312578 -0.20830770343947971 0 -0.26409863293778341 -0.20573621058270139 0 -0.26742375486930359 -0.1882108285553544 0 -0.2809246376312578 -0.20830770343947971 0 -0.3060605016315725 -0.21226103782782971 0 -0.2809246376312578 -0.20830770343947971 0 -0.29199909585561379 -0.19193849570898799 0 -0.3060605016315725 -0.21226103782782971 0 -0.29268109579257923 -0.22411955864172181 0 -0.2809246376312578 -0.20830770343947971 0 -0.3060605016315725 -0.21226103782782971 0 -0.29199909585561379 -0.19193849570898799 0 -0.3060605016315725 -0.21226103782782971 0 -0.3165744368419241 -0.19566616286262159 0 -0.29199909585561379 -0.19193849570898799 0 -0.3165744368419241 -0.19566616286262159 0 -0.29199909585561379 -0.19193849570898799 0 -0.29938476110462459 -0.18143496863655581 0 -0.3165744368419241 -0.19566616286262159 0 -0.29938476110462459 -0.18143496863655581 0 -0.31036357984341878 -0.17729064654437279 0 -0.3165744368419241 -0.19566616286262159 0 -0.29938476110462459 -0.18143496863655581 0 -0.30228981993539911 -0.17082195765291869 0 -0.28961274120160779 -0.1724895052286107 0 -0.29938476110462459 -0.18143496863655581 0 -0.31036357984341878 -0.17729064654437279 0 -0.30228981993539911 -0.17082195765291869 0 -0.31036357984341878 -0.17729064654437279 0 -0.31099079812705838 -0.16810657065420029 0 -0.30228981993539911 -0.17082195765291869 0 -0.31099079812705838 -0.16810657065420029 0 -0.31180172753391222 -0.15676818190186689 0 -0.30228981993539911 -0.17082195765291869 0 -0.31180172753391222 -0.15676818190186689 0 -0.28961274120160779 -0.1724895052286107 0 -0.31180172753391222 -0.15676818190186689 0 -0.28581520798017918 -0.16349252579439161 0 -0.31180172753391222 -0.15676818190186689 0 -0.28581520798017918 -0.16349252579439161 0 -0.30248732557626462 -0.14891872701938649 0 -0.31180172753391222 -0.15676818190186689 0 -0.30228981993539911 -0.17082195765291869 0 -0.28961274120160779 -0.1724895052286107 0 -0.31180172753391222 -0.15676818190186689 0 -0.28581520798017918 -0.16349252579439161 0 -0.28961274120160779 -0.1724895052286107 0 -0.28581520798017918 -0.16349252579439161 0 -0.28961274120160779 -0.1724895052286107 0 -0.27455339795200551 -0.17354596063111 0 -0.29199909585561379 -0.19193849570898799 0 -0.29938476110462459 -0.18143496863655581 0 -0.28961274120160779 -0.1724895052286107 0 -0.26742375486930359 -0.1882108285553544 0 -0.29199909585561379 -0.19193849570898799 0 -0.28961274120160779 -0.1724895052286107 0 -0.26742375486930359 -0.1882108285553544 0 -0.28961274120160779 -0.1724895052286107 0 -0.26742375486930359 -0.1882108285553544 0 -0.28961274120160779 -0.1724895052286107 0 -0.27455339795200551 -0.17354596063111 0 -0.26742375486930359 -0.1882108285553544 0 -0.27455339795200551 -0.17354596063111 0 -0.25982868842644607 -0.17021686968691641 0 -0.23968786498356659 -0.18400375912907671 0 -0.26742375486930359 -0.1882108285553544 0 -0.23968786498356659 -0.18400375912907671 0 -0.26742375486930359 -0.1882108285553544 0 -0.25982868842644607 -0.17021686968691641 0 -0.25982868842644607 -0.17021686968691641 0 -0.27013136078807137 -0.15645680560504849 0 -0.25343568279415951 -0.15224923159364789 0 -0.24566481473353391 -0.1652464025747532 0 -0.25982868842644607 -0.17021686968691641 0 -0.25343568279415951 -0.15224923159364789 0 -0.28581520798017918 -0.16349252579439161 0 -0.25982868842644607 -0.17021686968691641 0 -0.27013136078807137 -0.15645680560504849 0 -0.28581520798017918 -0.16349252579439161 0 -0.27455339795200551 -0.17354596063111 0 -0.25982868842644607 -0.17021686968691641 0 -0.28581520798017918 -0.16349252579439161 0 -0.27013136078807137 -0.15645680560504849 0 -0.281048741890911 -0.15139895950123519 0 -0.28581520798017918 -0.16349252579439161 0 -0.25982868842644607 -0.17021686968691641 0 -0.27013136078807137 -0.15645680560504849 0 -0.281048741890911 -0.15139895950123519 0 -0.27556222579122169 -0.14014760186465491 0 -0.27013136078807137 -0.15645680560504849 0 -0.25343568279415951 -0.15224923159364789 0 -0.27556222579122169 -0.14014760186465491 0 -0.25343568279415951 -0.15224923159364789 0 -0.26038693836179072 -0.13666660738782219 0 -0.27556222579122169 -0.14014760186465491 0 -0.25343568279415951 -0.15224923159364789 0 -0.27556222579122169 -0.14014760186465491 0 -0.2478381125959237 -0.13014188093155071 0 -0.26471173226585809 -0.1241277151614352 0 -0.26038693836179072 -0.13666660738782219 0 -0.2478381125959237 -0.13014188093155071 0 -0.25343568279415951 -0.15224923159364789 0 -0.26038693836179072 -0.13666660738782219 0 -0.26471173226585809 -0.1241277151614352 0 -0.28362018306611941 -0.1149768545032684 0 -0.27556222579122169 -0.14014760186465491 0 -0.26471173226585809 -0.1241277151614352 0 -0.26038693836179072 -0.13666660738782219 0 -0.27556222579122169 -0.14014760186465491 0 -0.27556222579122169 -0.14014760186465491 0 -0.29268617300417199 -0.1454989047408457 0 -0.29768876878828382 -0.12804597213566191 0 -0.28362018306611941 -0.1149768545032684 0 -0.27556222579122169 -0.14014760186465491 0 -0.29768876878828382 -0.12804597213566191 0 -0.27556222579122169 -0.14014760186465491 0 -0.29768876878828382 -0.12804597213566191 0 -0.28581520798017918 -0.16349252579439161 0 -0.29268617300417199 -0.1454989047408457 0 -0.30248732557626462 -0.14891872701938649 0 -0.28581520798017918 -0.16349252579439161 0 -0.281048741890911 -0.15139895950123519 0 -0.29268617300417199 -0.1454989047408457 0 -0.281048741890911 -0.15139895950123519 0 -0.27556222579122169 -0.14014760186465491 0 -0.29268617300417199 -0.1454989047408457 0 -0.29268617300417199 -0.1454989047408457 0 -0.30248732557626462 -0.14891872701938649 0 -0.30370630156068762 -0.1389224563049837 0 -0.31180172753391222 -0.15676818190186689 0 -0.30248732557626462 -0.14891872701938649 0 -0.31398283958777989 -0.14122477915676221 0 -0.30248732557626462 -0.14891872701938649 0 -0.30370630156068762 -0.1389224563049837 0 -0.31398283958777989 -0.14122477915676221 0 -0.29268617300417199 -0.1454989047408457 0 -0.29768876878828382 -0.12804597213566191 0 -0.30370630156068762 -0.1389224563049837 0 -0.31168640084693722 -0.1309238984722621 0 -0.30370630156068762 -0.1389224563049837 0 -0.31398283958777989 -0.14122477915676221 0 -0.31168640084693722 -0.1309238984722621 0 -0.29768876878828382 -0.12804597213566191 0 -0.30370630156068762 -0.1389224563049837 0 -0.32501708124079648 -0.13103464252731351 0 -0.31398283958777989 -0.14122477915676221 0 -0.32769326224381667 -0.1455087240973956 0 -0.31981531178534578 -0.1159443424066684 0 -0.31168640084693722 -0.1309238984722621 0 -0.32501708124079648 -0.13103464252731351 0 -0.31168640084693722 -0.1309238984722621 0 -0.32501708124079648 -0.13103464252731351 0 -0.31398283958777989 -0.14122477915676221 0 -0.31180172753391222 -0.15676818190186689 0 -0.32298463198440808 -0.15387446252221321 0 -0.32769326224381667 -0.1455087240973956 0 -0.31180172753391222 -0.15676818190186689 0 -0.32769326224381667 -0.1455087240973956 0 -0.31180172753391222 -0.15676818190186689 0 -0.31398283958777989 -0.14122477915676221 0 -0.32769326224381667 -0.1455087240973956 0 -0.31180172753391222 -0.15676818190186689 0 -0.32298463198440808 -0.15387446252221321 0 -0.32298463198440808 -0.15387446252221321 0 -0.33102430582003672 -0.15284086827415069 0 -0.32912678435276249 -0.16184097596254959 0 -0.32298463198440808 -0.15387446252221321 0 -0.32769326224381667 -0.1455087240973956 0 -0.33102430582003672 -0.15284086827415069 0 -0.32769326224381667 -0.1455087240973956 0 -0.33779330298695009 -0.14738175250870711 0 -0.34358479695372102 -0.13424926629292419 0 -0.32769326224381667 -0.1455087240973956 0 -0.33102430582003672 -0.15284086827415069 0 -0.33779330298695009 -0.14738175250870711 0 -0.33779330298695009 -0.14738175250870711 0 -0.34838845348846031 -0.14833884467229949 0 -0.33902784532518498 -0.15634369213364299 0 -0.33102430582003672 -0.15284086827415069 0 -0.33779330298695009 -0.14738175250870711 0 -0.33902784532518498 -0.15634369213364299 0 -0.33779330298695009 -0.14738175250870711 0 -0.34358479695372102 -0.13424926629292419 0 -0.34838845348846031 -0.14833884467229949 0 -0.32501708124079648 -0.13103464252731351 0 -0.32769326224381667 -0.1455087240973956 0 -0.34358479695372102 -0.13424926629292419 0 -0.33811662782018509 -0.1187149432167614 0 -0.32501708124079648 -0.13103464252731351 0 -0.34358479695372102 -0.13424926629292419 0 -0.32769326224381667 -0.1455087240973956 0 -0.34358479695372102 -0.13424926629292419 0 -0.33811662782018509 -0.1187149432167614 0 -0.36560935282136869 -0.1228770136391782 0 -0.34358479695372102 -0.13424926629292419 0 -0.36560935282136869 -0.1228770136391782 0 -0.34358479695372102 -0.13424926629292419 0 -0.35789225520722451 -0.13996819740399649 0 -0.36560935282136869 -0.1228770136391782 0 -0.37179133304014322 -0.14783430818272611 0 -0.38404989885292651 -0.1400792958384918 0 -0.36560935282136869 -0.1228770136391782 0 -0.37179133304014322 -0.14783430818272611 0 -0.36560935282136869 -0.1228770136391782 0 -0.35789225520722451 -0.13996819740399649 0 -0.37179133304014322 -0.14783430818272611 0 -0.35789225520722451 -0.13996819740399649 0 -0.37179133304014322 -0.14783430818272611 0 -0.35884313601860912 -0.15417852746750099 0 -0.35884313601860912 -0.15417852746750099 0 -0.34838845348846031 -0.14833884467229949 0 -0.34888414490412811 -0.1629439357986564 0 -0.35789225520722451 -0.13996819740399649 0 -0.35884313601860912 -0.15417852746750099 0 -0.34838845348846031 -0.14833884467229949 0 -0.34358479695372102 -0.13424926629292419 0 -0.35789225520722451 -0.13996819740399649 0 -0.34838845348846031 -0.14833884467229949 0 -0.34838845348846031 -0.14833884467229949 0 -0.34888414490412811 -0.1629439357986564 0 -0.33902784532518498 -0.15634369213364299 0 -0.34888414490412811 -0.1629439357986564 0 -0.34454825898434782 -0.17720191583282571 0 -0.33836769259919219 -0.1670464993373886 0 -0.34888414490412811 -0.1629439357986564 0 -0.35381843126239348 -0.1726746577785957 0 -0.34454825898434782 -0.17720191583282571 0 -0.34888414490412811 -0.1629439357986564 0 -0.36338268495294579 -0.16800377969191779 0 -0.35381843126239348 -0.1726746577785957 0 -0.35884313601860912 -0.15417852746750099 0 -0.34888414490412811 -0.1629439357986564 0 -0.36338268495294579 -0.16800377969191779 0 -0.37179133304014322 -0.14783430818272611 0 -0.37797331325891809 -0.17279160272627381 0 -0.37179133304014322 -0.14783430818272611 0 -0.35884313601860912 -0.15417852746750099 0 -0.36338268495294579 -0.16800377969191779 0 -0.37179133304014322 -0.14783430818272611 0 -0.36338268495294579 -0.16800377969191779 0 -0.37797331325891809 -0.17279160272627381 0 -0.36338268495294579 -0.16800377969191779 0 -0.37192204740575269 -0.18508240213403099 0 -0.3584586362081526 -0.18254899979098321 0 -0.36338268495294579 -0.16800377969191779 0 -0.37192204740575269 -0.18508240213403099 0 -0.37797331325891809 -0.17279160272627381 0 -0.36338268495294579 -0.16800377969191779 0 -0.3584586362081526 -0.18254899979098321 0 -0.35381843126239348 -0.1726746577785957 0 -0.3584586362081526 -0.18254899979098321 0 -0.35381843126239348 -0.1726746577785957 0 -0.34454825898434782 -0.17720191583282571 0 -0.3584586362081526 -0.18254899979098321 0 -0.34454825898434782 -0.17720191583282571 0 -0.34833703943659811 -0.1887712121410032 0 -0.34454825898434782 -0.17720191583282571 0 -0.33350934598544107 -0.1865060965460745 0 -0.34833703943659811 -0.1887712121410032 0 -0.33350934598544107 -0.1865060965460745 0 -0.33087698944707578 -0.17469400287398781 0 -0.32216648346267268 -0.18034048106893991 0 -0.34454825898434782 -0.17720191583282571 0 -0.33087698944707578 -0.17469400287398781 0 -0.33836769259919219 -0.1670464993373886 0 -0.34454825898434782 -0.17720191583282571 0 -0.33350934598544107 -0.1865060965460745 0 -0.33087698944707578 -0.17469400287398781 0 -0.34888414490412811 -0.1629439357986564 0 -0.33836769259919219 -0.1670464993373886 0 -0.33902784532518498 -0.15634369213364299 0 -0.33102430582003672 -0.15284086827415069 0 -0.33902784532518498 -0.15634369213364299 0 -0.32912678435276249 -0.16184097596254959 0 -0.33836769259919219 -0.1670464993373886 0 -0.33902784532518498 -0.15634369213364299 0 -0.32912678435276249 -0.16184097596254959 0 -0.33087698944707578 -0.17469400287398781 0 -0.33836769259919219 -0.1670464993373886 0 -0.32912678435276249 -0.16184097596254959 0 -0.33087698944707578 -0.17469400287398781 0 -0.32912678435276249 -0.16184097596254959 0 -0.31950806519550368 -0.16754549651764289 0 -0.32298463198440808 -0.15387446252221321 0 -0.32912678435276249 -0.16184097596254959 0 -0.31950806519550368 -0.16754549651764289 0 -0.31180172753391222 -0.15676818190186689 0 -0.32298463198440808 -0.15387446252221321 0 -0.31950806519550368 -0.16754549651764289 0 -0.31099079812705838 -0.16810657065420029 0 -0.31180172753391222 -0.15676818190186689 0 -0.31950806519550368 -0.16754549651764289 0 -0.31036357984341878 -0.17729064654437279 0 -0.31099079812705838 -0.16810657065420029 0 -0.31950806519550368 -0.16754549651764289 0 -0.31036357984341878 -0.17729064654437279 0 -0.31950806519550368 -0.16754549651764289 0 -0.32216648346267268 -0.18034048106893991 0 -0.31036357984341878 -0.17729064654437279 0 -0.32216648346267268 -0.18034048106893991 0 -0.3165744368419241 -0.19566616286262159 0 -0.33087698944707578 -0.17469400287398781 0 -0.31950806519550368 -0.16754549651764289 0 -0.32216648346267268 -0.18034048106893991 0 -0.33350934598544107 -0.1865060965460745 0 -0.32216648346267268 -0.18034048106893991 0 -0.3165744368419241 -0.19566616286262159 0 -0.3060605016315725 -0.21226103782782971 0 -0.33119636563188709 -0.2162143722161797 0 -0.32042736925848198 -0.22641527486886631 0 -0.3060605016315725 -0.21226103782782971 0 -0.33119636563188709 -0.2162143722161797 0 -0.3060605016315725 -0.21226103782782971 0 -0.3165744368419241 -0.19566616286262159 0 -0.33119636563188709 -0.2162143722161797 0 -0.33119636563188709 -0.2162143722161797 0 -0.34114977782823441 -0.19939383001625499 0 -0.35633222963220179 -0.22016770660452969 0 -0.3165744368419241 -0.19566616286262159 0 -0.33119636563188709 -0.2162143722161797 0 -0.34114977782823441 -0.19939383001625499 0 -0.3165744368419241 -0.19566616286262159 0 -0.34114977782823441 -0.19939383001625499 0 -0.33350934598544107 -0.1865060965460745 0 -0.3165744368419241 -0.19566616286262159 0 -0.34114977782823441 -0.19939383001625499 0 -0.33350934598544107 -0.1865060965460745 0 -0.34114977782823441 -0.19939383001625499 0 -0.34833703943659811 -0.1887712121410032 0 -0.34114977782823441 -0.19939383001625499 0 -0.36572511881454461 -0.20312149716988859 0 -0.34114977782823441 -0.19939383001625499 0 -0.34833703943659811 -0.1887712121410032 0 -0.36572511881454461 -0.20312149716988859 0 -0.3584586362081526 -0.18254899979098321 0 -0.34833703943659811 -0.1887712121410032 0 -0.36572511881454461 -0.20312149716988859 0 -0.37192204740575269 -0.18508240213403099 0 -0.3584586362081526 -0.18254899979098321 0 -0.36572511881454461 -0.20312149716988859 0 -0.37192204740575269 -0.18508240213403099 0 -0.36572511881454461 -0.20312149716988859 0 -0.37832751345100762 -0.19569708509895661 0 -0.36572511881454461 -0.20312149716988859 0 -0.35633222963220179 -0.22016770660452969 0 -0.37671868671049757 -0.21209106954761561 0 -0.33119636563188709 -0.2162143722161797 0 -0.35633222963220179 -0.22016770660452969 0 -0.34114977782823441 -0.19939383001625499 0 -0.36572511881454461 -0.20312149716988859 0 -0.35633222963220179 -0.22016770660452969 0 -0.34918985577357953 -0.22996643434813971 0 -0.35633222963220179 -0.22016770660452969 0 -0.3644368395520925 -0.23786219595255659 0 -0.33119636563188709 -0.2162143722161797 0 -0.34918985577357953 -0.22996643434813971 0 -0.35633222963220179 -0.22016770660452969 0 -0.35633222963220179 -0.22016770660452969 0 -0.38146809363251649 -0.22412104099287969 0 -0.35633222963220179 -0.22016770660452969 0 -0.37359243883566862 -0.23215909975287299 0 -0.3644368395520925 -0.23786219595255659 0 -0.35633222963220179 -0.22016770660452969 0 -0.37359243883566862 -0.23215909975287299 0 -0.38146809363251649 -0.22412104099287969 0 -0.35633222963220179 -0.22016770660452969 0 -0.38146809363251649 -0.22412104099287969 0 -0.37671868671049757 -0.21209106954761561 0 -0.36999160380854529 -0.25160890498862648 0 -0.3644368395520925 -0.23786219595255659 0 -0.37872015884544641 -0.2435614714605657 0 -0.37359243883566862 -0.23215909975287299 0 -0.3644368395520925 -0.23786219595255659 0 -0.37872015884544641 -0.2435614714605657 0 -0.36999160380854529 -0.25160890498862648 0 -0.3644368395520925 -0.23786219595255659 0 -0.35707845064694121 -0.24935767075674509 0 -0.34918985577357953 -0.22996643434813971 0 -0.3644368395520925 -0.23786219595255659 0 -0.35707845064694121 -0.24935767075674509 0 -0.34918985577357953 -0.22996643434813971 0 -0.35707845064694121 -0.24935767075674509 0 -0.34918985577357953 -0.22996643434813971 0 -0.35707845064694121 -0.24935767075674509 0 -0.34161545739809862 -0.2441761224370865 0 -0.32577683519746242 -0.25897579210934468 0 -0.34161545739809862 -0.2441761224370865 0 -0.32489287339017531 -0.23961736858555491 0 -0.34918985577357953 -0.22996643434813971 0 -0.34161545739809862 -0.2441761224370865 0 -0.33284956097644908 -0.23046395699114461 0 -0.34161545739809862 -0.2441761224370865 0 -0.33284956097644908 -0.23046395699114461 0 -0.32489287339017531 -0.23961736858555491 0 -0.33119636563188709 -0.2162143722161797 0 -0.34918985577357953 -0.22996643434813971 0 -0.33284956097644908 -0.23046395699114461 0 -0.33119636563188709 -0.2162143722161797 0 -0.33284956097644908 -0.23046395699114461 0 -0.32042736925848198 -0.22641527486886631 0 -0.3071375446623259 -0.2335196387236223 0 -0.32042736925848198 -0.22641527486886631 0 -0.32489287339017531 -0.23961736858555491 0 -0.33284956097644908 -0.23046395699114461 0 -0.32042736925848198 -0.22641527486886631 0 -0.32489287339017531 -0.23961736858555491 0 -0.3071375446623259 -0.2335196387236223 0 -0.31421725341188372 -0.24977587129631751 0 -0.32489287339017531 -0.23961736858555491 0 -0.32577683519746242 -0.25897579210934468 0 -0.31421725341188372 -0.24977587129631751 0 -0.32489287339017531 -0.23961736858555491 0 -0.429193077912078 -0.24092705066174019 0 -0.42560539866416353 -0.22692866047589191 0 -0.44336769959532257 -0.23972790925379969 0 -0.429193077912078 -0.24092705066174019 0 -0.42560539866416353 -0.22692866047589191 0 -0.41466813127082142 -0.24184035413310251 0 -0.42775875008346192 -0.25507980811954323 0 -0.429193077912078 -0.24092705066174019 0 -0.41466813127082142 -0.24184035413310251 0 -0.44165736388207272 -0.25360003737878889 0 -0.42775875008346192 -0.25507980811954323 0 -0.429193077912078 -0.24092705066174019 0 -0.42560539866416353 -0.22692866047589191 0 -0.43795718746300122 -0.2140778908121922 0 -0.44658841198271632 -0.22637890077404829 0 -0.42560539866416353 -0.22692866047589191 0 -0.41054768849444062 -0.2248275857939297 0 -0.41466813127082142 -0.24184035413310251 0 -0.42560539866416353 -0.22692866047589191 0 -0.41054768849444062 -0.2248275857939297 0 -0.41728712034711612 -0.21094258822191489 0 -0.42560539866416353 -0.22692866047589191 0 -0.41728712034711612 -0.21094258822191489 0 -0.41054768849444062 -0.2248275857939297 0 -0.41466813127082142 -0.24184035413310251 0 -0.39796822484346261 -0.23652916605093899 0 -0.40220594800304021 -0.25293233307518609 0 -0.39796822484346261 -0.23652916605093899 0 -0.39442967684708991 -0.25208667127465478 0 -0.39796822484346261 -0.23652916605093899 0 -0.38700487251608578 -0.2350830837538336 0 -0.40220594800304021 -0.25293233307518609 0 -0.41466813127082142 -0.24184035413310251 0 -0.39796822484346261 -0.23652916605093899 0 -0.39442967684708991 -0.25208667127465478 0 -0.38700487251608578 -0.2350830837538336 0 -0.37872015884544641 -0.2435614714605657 0 -0.37359243883566862 -0.23215909975287299 0 -0.38700487251608578 -0.2350830837538336 0 -0.37872015884544641 -0.2435614714605657 0 -0.37359243883566862 -0.23215909975287299 0 -0.38700487251608578 -0.2350830837538336 0 -0.38146809363251649 -0.22412104099287969 0 -0.38700487251608578 -0.2350830837538336 0 -0.38146809363251649 -0.22412104099287969 0 -0.39413434232215888 -0.2216891651872302 0 -0.38146809363251649 -0.22412104099287969 0 -0.39413434232215888 -0.2216891651872302 0 -0.38565539561650702 -0.2161876100128117 0 -0.41054768849444062 -0.2248275857939297 0 -0.39796822484346261 -0.23652916605093899 0 -0.39720956734663881 -0.20789716008779879 0 -0.39796822484346261 -0.23652916605093899 0 -0.39413434232215888 -0.2216891651872302 0 -0.39720956734663881 -0.20789716008779879 0 -0.39796822484346261 -0.23652916605093899 0 -0.39720956734663881 -0.20789716008779879 0 -0.39796822484346261 -0.23652916605093899 0 -0.38700487251608578 -0.2350830837538336 0 -0.39413434232215888 -0.2216891651872302 0 -0.39796822484346261 -0.23652916605093899 0 -0.39413434232215888 -0.2216891651872302 0 -0.39720956734663881 -0.20789716008779879 0 -0.40277518483810348 -0.20053664405661509 0 -0.41728712034711612 -0.21094258822191489 0 -0.39720956734663881 -0.20789716008779879 0 -0.39030045980085482 -0.20684916432352149 0 -0.39413434232215888 -0.2216891651872302 0 -0.39720956734663881 -0.20789716008779879 0 -0.39030045980085482 -0.20684916432352149 0 -0.39413434232215888 -0.2216891651872302 0 -0.39030045980085482 -0.20684916432352149 0 -0.36572511881454461 -0.20312149716988859 0 -0.39030045980085482 -0.20684916432352149 0 -0.39413434232215888 -0.2216891651872302 0 -0.38565539561650702 -0.2161876100128117 0 -0.39030045980085482 -0.20684916432352149 0 -0.38565539561650702 -0.2161876100128117 0 -0.39030045980085482 -0.20684916432352149 0 -0.37671868671049757 -0.21209106954761561 0 -0.36572511881454461 -0.20312149716988859 0 -0.39030045980085482 -0.20684916432352149 0 -0.37671868671049757 -0.21209106954761561 0 -0.38146809363251649 -0.22412104099287969 0 -0.38565539561650702 -0.2161876100128117 0 -0.37671868671049757 -0.21209106954761561 0 -0.39030045980085482 -0.20684916432352149 0 -0.38536242778287788 -0.1877352767683855 0 -0.39030045980085482 -0.20684916432352149 0 -0.37832751345100762 -0.19569708509895661 0 -0.38536242778287788 -0.1877352767683855 0 -0.36572511881454461 -0.20312149716988859 0 -0.39030045980085482 -0.20684916432352149 0 -0.37832751345100762 -0.19569708509895661 0 -0.37192204740575269 -0.18508240213403099 0 -0.37832751345100762 -0.19569708509895661 0 -0.38536242778287788 -0.1877352767683855 0 -0.39030045980085482 -0.20684916432352149 0 -0.38536242778287788 -0.1877352767683855 0 -0.39682758983152833 -0.1934811917008569 0 -0.39720956734663881 -0.20789716008779879 0 -0.39682758983152833 -0.1934811917008569 0 -0.39720956734663881 -0.20789716008779879 0 -0.39030045980085482 -0.20684916432352149 0 -0.39682758983152833 -0.1934811917008569 0 -0.39720956734663881 -0.20789716008779879 0 -0.39682758983152833 -0.1934811917008569 0 -0.40277518483810348 -0.20053664405661509 0 -0.39682758983152833 -0.1934811917008569 0 -0.40277518483810348 -0.20053664405661509 0 -0.40786839632368732 -0.19284167875001809 0 -0.40786839632368732 -0.19284167875001809 0 -0.42071188954671479 -0.1977783538484196 0 -0.41728712034711612 -0.21094258822191489 0 -0.40277518483810348 -0.20053664405661509 0 -0.40786839632368732 -0.19284167875001809 0 -0.41728712034711612 -0.21094258822191489 0 -0.40786839632368732 -0.19284167875001809 0 -0.41728712034711612 -0.21094258822191489 0 -0.40786839632368732 -0.19284167875001809 0 -0.42071188954671479 -0.1977783538484196 0 -0.41781993309639348 -0.18473776223631169 0 -0.39720956734663881 -0.20789716008779879 0 -0.41728712034711612 -0.21094258822191489 0 -0.41054768849444062 -0.2248275857939297 0 -0.39720956734663881 -0.20789716008779879 0 -0.41728712034711612 -0.21094258822191489 0 -0.41728712034711612 -0.21094258822191489 0 -0.43042781253814327 -0.20309513998401429 0 -0.43795718746300122 -0.2140778908121922 0 -0.41728712034711612 -0.21094258822191489 0 -0.43795718746300122 -0.2140778908121922 0 -0.42071188954671479 -0.1977783538484196 0 -0.41728712034711612 -0.21094258822191489 0 -0.43042781253814327 -0.20309513998401429 0 -0.42560539866416353 -0.22692866047589191 0 -0.41728712034711612 -0.21094258822191489 0 -0.43795718746300122 -0.2140778908121922 0 -0.43042781253814327 -0.20309513998401429 0 -0.43110417706379089 -0.19272761716818959 0 -0.44507868827009389 -0.1999492498693555 0 -0.42071188954671479 -0.1977783538484196 0 -0.43110417706379089 -0.19272761716818959 0 -0.41781993309639348 -0.18473776223631169 0 -0.42071188954671479 -0.1977783538484196 0 -0.43042781253814327 -0.20309513998401429 0 -0.43110417706379089 -0.19272761716818959 0 -0.43179072736577528 -0.17970529711169 0 -0.42986163711504638 -0.16701354152048811 0 -0.41699473597813752 -0.17063285726143029 0 -0.43179072736577528 -0.17970529711169 0 -0.41699473597813752 -0.17063285726143029 0 -0.41781993309639348 -0.18473776223631169 0 -0.43110417706379089 -0.19272761716818959 0 -0.43179072736577528 -0.17970529711169 0 -0.41781993309639348 -0.18473776223631169 0 -0.43110417706379089 -0.19272761716818959 0 -0.43179072736577528 -0.17970529711169 0 -0.44559792516655838 -0.1851633886427331 0 -0.43179072736577528 -0.17970529711169 0 -0.42986163711504638 -0.16701354152048811 0 -0.44303700991658518 -0.17026832712875151 0 -0.42986163711504638 -0.16701354152048811 0 -0.43823455075000578 -0.15580669622701629 0 -0.44303700991658518 -0.17026832712875151 0 -0.42986163711504638 -0.16701354152048811 0 -0.41699473597813752 -0.17063285726143029 0 -0.41985581490816198 -0.154444998856094 0 -0.42986163711504638 -0.16701354152048811 0 -0.41985581490816198 -0.154444998856094 0 -0.43823455075000578 -0.15580669622701629 0 -0.41699473597813752 -0.17063285726143029 0 -0.39844967230025591 -0.17474076927812279 0 -0.4045200176128938 -0.16008114399198281 0 -0.41699473597813752 -0.17063285726143029 0 -0.4045200176128938 -0.16008114399198281 0 -0.41985581490816198 -0.154444998856094 0 -0.41699473597813752 -0.17063285726143029 0 -0.41781993309639348 -0.18473776223631169 0 -0.39844967230025591 -0.17474076927812279 0 -0.40786839632368732 -0.19284167875001809 0 -0.41781993309639348 -0.18473776223631169 0 -0.39844967230025591 -0.17474076927812279 0 -0.40786839632368732 -0.19284167875001809 0 -0.39844967230025591 -0.17474076927812279 0 -0.39682758983152833 -0.1934811917008569 0 -0.40786839632368732 -0.19284167875001809 0 -0.39844967230025591 -0.17474076927812279 0 -0.38536242778287788 -0.1877352767683855 0 -0.39682758983152833 -0.1934811917008569 0 -0.39844967230025591 -0.17474076927812279 0 -0.38536242778287788 -0.1877352767683855 0 -0.39844967230025591 -0.17474076927812279 0 -0.37797331325891809 -0.17279160272627381 0 -0.37192204740575269 -0.18508240213403099 0 -0.38536242778287788 -0.1877352767683855 0 -0.37797331325891809 -0.17279160272627381 0 -0.37179133304014322 -0.14783430818272611 0 -0.37797331325891809 -0.17279160272627381 0 -0.38903094827682438 -0.15663985980622741 0 -0.39844967230025591 -0.17474076927812279 0 -0.37797331325891809 -0.17279160272627381 0 -0.38903094827682438 -0.15663985980622741 0 -0.39844967230025591 -0.17474076927812279 0 -0.38903094827682438 -0.15663985980622741 0 -0.39844967230025591 -0.17474076927812279 0 -0.38903094827682438 -0.15663985980622741 0 -0.4045200176128938 -0.16008114399198281 0 -0.38903094827682438 -0.15663985980622741 0 -0.4045200176128938 -0.16008114399198281 0 -0.39938536477583741 -0.14370127207381619 0 -0.38903094827682438 -0.15663985980622741 0 -0.39938536477583741 -0.14370127207381619 0 -0.38404989885292651 -0.1400792958384918 0 -0.37179133304014322 -0.14783430818272611 0 -0.38903094827682438 -0.15663985980622741 0 -0.38404989885292651 -0.1400792958384918 0 -0.36560935282136869 -0.1228770136391782 0 -0.38404989885292651 -0.1400792958384918 0 -0.38887223831657869 -0.12639873684615319 0 -0.38887223831657869 -0.12639873684615319 0 -0.41213512381178841 -0.1299204600531296 0 -0.39938536477583741 -0.14370127207381619 0 -0.38887223831657869 -0.12639873684615319 0 -0.41213512381178841 -0.1299204600531296 0 -0.39938536477583741 -0.14370127207381619 0 -0.38404989885292651 -0.1400792958384918 0 -0.38887223831657869 -0.12639873684615319 0 -0.4045200176128938 -0.16008114399198281 0 -0.39938536477583741 -0.14370127207381619 0 -0.41985581490816198 -0.154444998856094 0 -0.39938536477583741 -0.14370127207381619 0 -0.41213512381178841 -0.1299204600531296 0 -0.41985581490816198 -0.154444998856094 0 -0.41985581490816198 -0.154444998856094 0 -0.43539800930699801 -0.1334421832601059 0 -0.43823455075000578 -0.15580669622701629 0 -0.41213512381178841 -0.1299204600531296 0 -0.41985581490816198 -0.154444998856094 0 -0.43539800930699801 -0.1334421832601059 0 -0.41213512381178841 -0.1299204600531296 0 -0.43539800930699801 -0.1334421832601059 0 -0.43259539229225402 -0.1157747654031315 0 -0.41213512381178841 -0.1299204600531296 0 -0.43539800930699801 -0.1334421832601059 0 -0.43539800930699801 -0.1334421832601059 0 -0.45866089480220767 -0.1369639064670822 0 -0.45113905152447542 -0.1175368028588321 0 -0.43539800930699801 -0.1334421832601059 0 -0.44775450515208032 -0.1461386934312979 0 -0.45866089480220767 -0.1369639064670822 0 -0.43539800930699801 -0.1334421832601059 0 -0.45866089480220767 -0.1369639064670822 0 -0.44775450515208032 -0.1461386934312979 0 -0.43823455075000578 -0.15580669622701629 0 -0.45633895227784033 -0.1576945794699274 0 -0.43539800930699801 -0.1334421832601059 0 -0.44775450515208032 -0.1461386934312979 0 -0.43823455075000578 -0.15580669622701629 0 -0.44775450515208032 -0.1461386934312979 0 -0.45866089480220767 -0.1369639064670822 0 -0.45633895227784033 -0.1576945794699274 0 -0.45866089480220767 -0.1369639064670822 0 -0.47575659097790751 -0.15007175010341289 0 -0.45633895227784033 -0.1576945794699274 0 -0.45866089480220767 -0.1369639064670822 0 -0.47575659097790751 -0.15007175010341289 0 -0.46915934665662162 -0.1230624738371303 0 -0.45866089480220767 -0.1369639064670822 0 -0.45113905152447542 -0.1175368028588321 0 -0.46915934665662162 -0.1230624738371303 0 -0.47575659097790751 -0.15007175010341289 0 -0.46915934665662162 -0.1230624738371303 0 -0.48351137830779539 -0.13386722315158131 0 -0.47575659097790751 -0.15007175010341289 0 -0.46915934665662162 -0.1230624738371303 0 -0.48351137830779539 -0.13386722315158131 0 -0.5 -0.12673639045435739 0 -0.5 -0.15610943167098409 0 -0.48351137830779539 -0.13386722315158131 0 -0.5 -0.15610943167098409 0 -0.47575659097790751 -0.15007175010341289 0 -0.47575659097790751 -0.15007175010341289 0 -0.4823538352991934 -0.17708102636969561 0 -0.47575659097790751 -0.15007175010341289 0 -0.46899934294491291 -0.16540597077255109 0 -0.4823538352991934 -0.17708102636969561 0 -0.5 -0.15610943167098409 0 -0.47575659097790751 -0.15007175010341289 0 -0.4823538352991934 -0.17708102636969561 0 -0.5 -0.15610943167098409 0 -0.49999999999999722 -0.18548247288761069 0 -0.4823538352991934 -0.17708102636969561 0 -0.4823538352991934 -0.17708102636969561 0 -0.46154799322471052 -0.17677652714716849 0 -0.47332956926376563 -0.19085067910818809 0 -0.46899934294491291 -0.16540597077255109 0 -0.4823538352991934 -0.17708102636969561 0 -0.46154799322471052 -0.17677652714716849 0 -0.46154799322471052 -0.17677652714716849 0 -0.44559792516655838 -0.1851633886427331 0 -0.46102895515839498 -0.19155331343124329 0 -0.46154799322471052 -0.17677652714716849 0 -0.46102895515839498 -0.19155331343124329 0 -0.47332956926376563 -0.19085067910818809 0 -0.46899934294491291 -0.16540597077255109 0 -0.46154799322471052 -0.17677652714716849 0 -0.45633895227784033 -0.1576945794699274 0 -0.47575659097790751 -0.15007175010341289 0 -0.46899934294491291 -0.16540597077255109 0 -0.45633895227784033 -0.1576945794699274 0 -0.46154799322471052 -0.17677652714716849 0 -0.45633895227784033 -0.1576945794699274 0 -0.44303700991658518 -0.17026832712875151 0 -0.43823455075000578 -0.15580669622701629 0 -0.45633895227784033 -0.1576945794699274 0 -0.44303700991658518 -0.17026832712875151 0 -0.46154799322471052 -0.17677652714716849 0 -0.44303700991658518 -0.17026832712875151 0 -0.44559792516655838 -0.1851633886427331 0 -0.43179072736577528 -0.17970529711169 0 -0.44303700991658518 -0.17026832712875151 0 -0.44559792516655838 -0.1851633886427331 0 -0.44559792516655838 -0.1851633886427331 0 -0.44507868827009389 -0.1999492498693555 0 -0.46102895515839498 -0.19155331343124329 0 -0.43110417706379089 -0.19272761716818959 0 -0.44559792516655838 -0.1851633886427331 0 -0.44507868827009389 -0.1999492498693555 0 -0.44507868827009389 -0.1999492498693555 0 -0.43795718746300122 -0.2140778908121922 0 -0.4586272545788867 -0.21721319340246781 0 -0.43042781253814327 -0.20309513998401429 0 -0.44507868827009389 -0.1999492498693555 0 -0.43795718746300122 -0.2140778908121922 0 -0.43795718746300122 -0.2140778908121922 0 -0.4586272545788867 -0.21721319340246781 0 -0.4586272545788867 -0.21721319340246781 0 -0.46102895515839498 -0.19155331343124329 0 -0.47276598301604827 -0.20475222595685469 0 -0.44507868827009389 -0.1999492498693555 0 -0.4586272545788867 -0.21721319340246781 0 -0.46102895515839498 -0.19155331343124329 0 -0.47332956926376563 -0.19085067910818809 0 -0.48895107962048001 -0.20409030263597791 0 -0.47276598301604827 -0.20475222595685469 0 -0.4823538352991934 -0.17708102636969561 0 -0.47332956926376563 -0.19085067910818809 0 -0.48895107962048001 -0.20409030263597791 0 -0.46102895515839498 -0.19155331343124329 0 -0.47332956926376563 -0.19085067910818809 0 -0.47276598301604827 -0.20475222595685469 0 -0.4823538352991934 -0.17708102636969561 0 -0.48895107962048001 -0.20409030263597791 0 -0.49999999999999722 -0.18548247288761069 0 -0.48895107962048001 -0.20409030263597791 0 -0.49999999999999722 -0.18548247288761069 0 -0.5 -0.2044856090206181 0 -0.48895107962048001 -0.20409030263597791 0 -0.49999999999999722 -0.18548247288761069 0 -0.4823538352991934 -0.17708102636969561 0 -0.48895107962048001 -0.20409030263597791 0 -0.5 -0.2044856090206181 0 -0.500000000000002 -0.2234887451536256 0 -0.49344650703865789 -0.22249469015893941 0 -0.5 -0.2044856090206181 0 -0.48895107962048001 -0.20409030263597791 0 -0.49344650703865789 -0.22249469015893941 0 -0.48895107962048001 -0.20409030263597791 0 -0.47929732169477218 -0.22034849599274231 0 -0.49344650703865789 -0.22249469015893941 0 -0.48895107962048001 -0.20409030263597791 0 -0.49344650703865789 -0.22249469015893941 0 -0.48895107962048001 -0.20409030263597791 0 -0.47276598301604827 -0.20475222595685469 0 -0.47929732169477218 -0.22034849599274231 0 -0.48895107962048001 -0.20409030263597791 0 -0.47929732169477218 -0.22034849599274231 0 -0.4586272545788867 -0.21721319340246781 0 -0.47276598301604827 -0.20475222595685469 0 -0.47929732169477218 -0.22034849599274231 0 -0.4586272545788867 -0.21721319340246781 0 -0.47929732169477218 -0.22034849599274231 0 -0.47929732169477218 -0.22034849599274231 0 -0.48416686203858311 -0.23469505857438669 0 -0.46465652818918263 -0.24483730068029039 0 -0.47929732169477218 -0.22034849599274231 0 -0.46465652818918263 -0.24483730068029039 0 -0.47929732169477218 -0.22034849599274231 0 -0.49344650703865789 -0.22249469015893941 0 -0.47929732169477218 -0.22034849599274231 0 -0.49344650703865789 -0.22249469015893941 0 -0.48416686203858311 -0.23469505857438669 0 -0.49344650703865789 -0.22249469015893941 0 -0.49730382647131183 -0.23828664830542051 0 -0.48416686203858311 -0.23469505857438669 0 -0.500000000000002 -0.2234887451536256 0 -0.49344650703865789 -0.22249469015893941 0 -0.49730382647131183 -0.23828664830542051 0 -0.49344650703865789 -0.22249469015893941 0 -0.49730382647131183 -0.23828664830542051 0 -0.500000000000002 -0.2234887451536256 0 -0.49344650703865789 -0.22249469015893941 0 -0.5 -0.25150281007534703 0 -0.500000000000002 -0.2234887451536256 0 -0.49730382647131183 -0.23828664830542051 0 -0.5 -0.25150281007534703 0 -0.49730382647131183 -0.23828664830542051 0 -0.48570939693172899 -0.24902992718248729 0 -0.49730382647131183 -0.23828664830542051 0 -0.48570939693172899 -0.24902992718248729 0 -0.48416686203858311 -0.23469505857438669 0 -0.48570939693172899 -0.24902992718248729 0 -0.48416686203858311 -0.23469505857438669 0 -0.46465652818918263 -0.24483730068029039 0 -0.4586272545788867 -0.21721319340246781 0 -0.47929732169477218 -0.22034849599274231 0 -0.46465652818918263 -0.24483730068029039 0 -0.4586272545788867 -0.21721319340246781 0 -0.46465652818918263 -0.24483730068029039 0 -0.44658841198271632 -0.22637890077404829 0 -0.43795718746300122 -0.2140778908121922 0 -0.4586272545788867 -0.21721319340246781 0 -0.44658841198271632 -0.22637890077404829 0 -0.42560539866416353 -0.22692866047589191 0 -0.44658841198271632 -0.22637890077404829 0 -0.44336769959532257 -0.23972790925379969 0 -0.46465652818918263 -0.24483730068029039 0 -0.44658841198271632 -0.22637890077404829 0 -0.44336769959532257 -0.23972790925379969 0 -0.44165736388207272 -0.25360003737878889 0 -0.46465652818918263 -0.24483730068029039 0 -0.44336769959532257 -0.23972790925379969 0 -0.44165736388207272 -0.25360003737878889 0 -0.429193077912078 -0.24092705066174019 0 -0.44336769959532257 -0.23972790925379969 0 -0.41631059699689099 -0.042084497863468198 0 -0.41965755993826598 -0.033894451920331033 0 -0.42761534325808798 -0.038876017594557971 0 -0.41631059699689099 -0.042084497863468198 0 -0.41965755993826598 -0.033894451920331033 0 -0.41128163845263888 -0.036426639289896208 0 -0.41965755993826598 -0.033894451920331033 0 -0.41128163845263888 -0.036426639289896208 0 -0.41258462043609562 -0.025993866725156231 0 -0.41128163845263888 -0.036426639289896208 0 -0.40704563849368902 -0.043093498236160592 0 -0.40124408047313331 -0.037519640608623422 0 -0.41128163845263888 -0.036426639289896208 0 -0.41258462043609562 -0.025993866725156231 0 -0.40124408047313331 -0.037519640608623422 0 -0.41631059699689099 -0.042084497863468198 0 -0.40704563849368902 -0.043093498236160592 0 -0.41300523529446281 -0.049717993690613083 0 -0.41631059699689099 -0.042084497863468198 0 -0.41128163845263888 -0.036426639289896208 0 -0.40704563849368902 -0.043093498236160592 0 -0.40704563849368902 -0.043093498236160592 0 -0.41300523529446281 -0.049717993690613083 0 -0.40411610338443682 -0.050557450003133962 0 -0.41300523529446281 -0.049717993690613083 0 -0.41414033076402768 -0.061585207313392322 0 -0.40411610338443682 -0.050557450003133962 0 -0.41300523529446281 -0.049717993690613083 0 -0.41414033076402768 -0.061585207313392322 0 -0.42341350683326928 -0.051269315036910318 0 -0.41631059699689099 -0.042084497863468198 0 -0.41300523529446281 -0.049717993690613083 0 -0.42341350683326928 -0.051269315036910318 0 -0.41414033076402768 -0.061585207313392322 0 -0.42341350683326928 -0.051269315036910318 0 -0.43505259438904009 -0.065314564308975948 0 -0.42341350683326928 -0.051269315036910318 0 -0.43594560852523878 -0.049663465434261311 0 -0.43505259438904009 -0.065314564308975948 0 -0.43594560852523878 -0.049663465434261311 0 -0.42761534325808798 -0.038876017594557971 0 -0.44052059365423879 -0.038318026972638523 0 -0.42341350683326928 -0.051269315036910318 0 -0.43594560852523878 -0.049663465434261311 0 -0.42761534325808798 -0.038876017594557971 0 -0.41631059699689099 -0.042084497863468198 0 -0.42341350683326928 -0.051269315036910318 0 -0.42761534325808798 -0.038876017594557971 0 -0.41965755993826598 -0.033894451920331033 0 -0.42761534325808798 -0.038876017594557971 0 -0.43049560054761637 -0.026091238128576531 0 -0.42761534325808798 -0.038876017594557971 0 -0.43049560054761637 -0.026091238128576531 0 -0.44052059365423879 -0.038318026972638523 0 -0.43049560054761637 -0.026091238128576531 0 -0.42123606753034548 -0.0078521834473191492 0 -0.44016826678282051 -0.008282799190680902 0 -0.42123606753034548 -0.0078521834473191492 0 -0.41258462043609562 -0.025993866725156231 0 -0.40359645288427559 -0.01255273007959058 0 -0.42123606753034548 -0.0078521834473191492 0 -0.40359645288427559 -0.01255273007959058 0 -0.411842978763718 0.0071810696113592566 0 -0.43049560054761637 -0.026091238128576531 0 -0.42123606753034548 -0.0078521834473191492 0 -0.41258462043609562 -0.025993866725156231 0 -0.41965755993826598 -0.033894451920331033 0 -0.43049560054761637 -0.026091238128576531 0 -0.41258462043609562 -0.025993866725156231 0 -0.41258462043609562 -0.025993866725156231 0 -0.40359645288427559 -0.01255273007959058 0 -0.40124408047313331 -0.037519640608623422 0 -0.40359645288427559 -0.01255273007959058 0 -0.39764058419755538 -0.038576012957609408 0 -0.40124408047313331 -0.037519640608623422 0 -0.40359645288427559 -0.01255273007959058 0 -0.38932648706987377 -0.013730584936831609 0 -0.38650677435962982 -0.026234410340964749 0 -0.40359645288427559 -0.01255273007959058 0 -0.38650677435962982 -0.026234410340964749 0 -0.39764058419755538 -0.038576012957609408 0 -0.40359645288427559 -0.01255273007959058 0 -0.39764058419755538 -0.038576012957609408 0 -0.40359645288427559 -0.01255273007959058 0 -0.411842978763718 0.0071810696113592566 0 -0.39856960861661739 0.0046729487720050386 0 -0.40359645288427559 -0.01255273007959058 0 -0.39149303023403142 -0.005335277537219363 0 -0.39856960861661739 0.0046729487720050386 0 -0.40359645288427559 -0.01255273007959058 0 -0.39149303023403142 -0.005335277537219363 0 -0.38932648706987377 -0.013730584936831609 0 -0.39149303023403142 -0.005335277537219363 0 -0.38087232901863782 -0.0095024514541764069 0 -0.38510027358075227 0.0044364300124967379 0 -0.39149303023403142 -0.005335277537219363 0 -0.38932648706987377 -0.013730584936831609 0 -0.38087232901863782 -0.0095024514541764069 0 -0.38932648706987377 -0.013730584936831609 0 -0.38087232901863782 -0.0095024514541764069 0 -0.38186988518864651 -0.018280442328540609 0 -0.37719726677334758 -0.010782784077609161 0 -0.38087232901863782 -0.0095024514541764069 0 -0.38186988518864651 -0.018280442328540609 0 -0.37719726677334758 -0.010782784077609161 0 -0.38087232901863782 -0.0095024514541764069 0 -0.37719726677334758 -0.010782784077609161 0 -0.38510027358075227 0.0044364300124967379 0 -0.37145675818362223 0.001704133189072726 0 -0.37719726677334758 -0.010782784077609161 0 -0.38510027358075227 0.0044364300124967379 0 -0.37719726677334758 -0.010782784077609161 0 -0.38087232901863782 -0.0095024514541764069 0 -0.38510027358075227 0.0044364300124967379 0 -0.36684988365240911 -0.03070925546092473 0 -0.38650677435962982 -0.026234410340964749 0 -0.38186988518864651 -0.018280442328540609 0 -0.36684988365240911 -0.03070925546092473 0 -0.37719726677334758 -0.010782784077609161 0 -0.38186988518864651 -0.018280442328540609 0 -0.38932648706987377 -0.013730584936831609 0 -0.38650677435962982 -0.026234410340964749 0 -0.38186988518864651 -0.018280442328540609 0 -0.36684988365240911 -0.03070925546092473 0 -0.38650677435962982 -0.026234410340964749 0 -0.37707154236451451 -0.044605869900925722 0 -0.38650677435962982 -0.026234410340964749 0 -0.37707154236451451 -0.044605869900925722 0 -0.39764058419755538 -0.038576012957609408 0 -0.37707154236451451 -0.044605869900925722 0 -0.39764058419755538 -0.038576012957609408 0 -0.39764058419755538 -0.038576012957609408 0 -0.40065489473756588 -0.045520490424667083 0 -0.40124408047313331 -0.037519640608623422 0 -0.40704563849368902 -0.043093498236160592 0 -0.40065489473756588 -0.045520490424667083 0 -0.40124408047313331 -0.037519640608623422 0 -0.40704563849368902 -0.043093498236160592 0 -0.40065489473756588 -0.045520490424667083 0 -0.40411610338443682 -0.050557450003133962 0 -0.39764058419755538 -0.038576012957609408 0 -0.40124408047313331 -0.037519640608623422 0 -0.39764058419755538 -0.038576012957609408 0 -0.40065489473756588 -0.045520490424667083 0 -0.39322806713901498 -0.057855850317809959 0 -0.41414033076402768 -0.061585207313392322 0 -0.39322806713901498 -0.057855850317809959 0 -0.40444542418072821 -0.066780626888537295 0 -0.41414033076402768 -0.061585207313392322 0 -0.40411610338443682 -0.050557450003133962 0 -0.39322806713901498 -0.057855850317809959 0 -0.39764058419755538 -0.038576012957609408 0 -0.39322806713901498 -0.057855850317809959 0 -0.41414033076402768 -0.061585207313392322 0 -0.39322806713901498 -0.057855850317809959 0 -0.40065489473756588 -0.045520490424667083 0 -0.40411610338443682 -0.050557450003133962 0 -0.39322806713901498 -0.057855850317809959 0 -0.37470589733927712 -0.0545527271000322 0 -0.39322806713901498 -0.057855850317809959 0 -0.37470589733927712 -0.0545527271000322 0 -0.37707154236451451 -0.044605869900925722 0 -0.39322806713901498 -0.057855850317809959 0 -0.37707154236451451 -0.044605869900925722 0 -0.39764058419755538 -0.038576012957609408 0 -0.39322806713901498 -0.057855850317809959 0 -0.37470589733927712 -0.0545527271000322 0 -0.39322806713901498 -0.057855850317809959 0 -0.3838397651565123 -0.062625659154805113 0 -0.37470589733927712 -0.0545527271000322 0 -0.37683012181080239 -0.068733301298065499 0 -0.3838397651565123 -0.062625659154805113 0 -0.39322806713901498 -0.057855850317809959 0 -0.3838397651565123 -0.062625659154805113 0 -0.39059497433695439 -0.069360757903312753 0 -0.37683012181080239 -0.068733301298065499 0 -0.3838397651565123 -0.062625659154805113 0 -0.39059497433695439 -0.069360757903312753 0 -0.39059497433695439 -0.069360757903312753 0 -0.3750868287242039 -0.083945666598845156 0 -0.37683012181080239 -0.068733301298065499 0 -0.39059497433695439 -0.069360757903312753 0 -0.3750868287242039 -0.083945666598845156 0 -0.39059497433695439 -0.069360757903312753 0 -0.38574124546072602 -0.090568404714108222 0 -0.3750868287242039 -0.083945666598845156 0 -0.39059497433695439 -0.069360757903312753 0 -0.38574124546072602 -0.090568404714108222 0 -0.37338072534044958 -0.1015395423542827 0 -0.38574124546072602 -0.090568404714108222 0 -0.3750868287242039 -0.083945666598845156 0 -0.39059497433695439 -0.069360757903312753 0 -0.38574124546072602 -0.090568404714108222 0 -0.39722678832591729 -0.08549102947411294 0 -0.38574124546072602 -0.090568404714108222 0 -0.39722678832591729 -0.08549102947411294 0 -0.39016591446444671 -0.1027403174982935 0 -0.39722678832591729 -0.08549102947411294 0 -0.40358704082088931 -0.10183248075400859 0 -0.40955223446300359 -0.086375659296802715 0 -0.39722678832591729 -0.08549102947411294 0 -0.40456307765117672 -0.076708553120630463 0 -0.40955223446300359 -0.086375659296802715 0 -0.39722678832591729 -0.08549102947411294 0 -0.40456307765117672 -0.076708553120630463 0 -0.39841612749299532 -0.072664694729402735 0 -0.40456307765117672 -0.076708553120630463 0 -0.40444542418072821 -0.066780626888537295 0 -0.39841612749299532 -0.072664694729402735 0 -0.39059497433695439 -0.069360757903312753 0 -0.39722678832591729 -0.08549102947411294 0 -0.39841612749299532 -0.072664694729402735 0 -0.40444542418072821 -0.066780626888537295 0 -0.39525037297019971 -0.064982506260420264 0 -0.39841612749299532 -0.072664694729402735 0 -0.39059497433695439 -0.069360757903312753 0 -0.39525037297019971 -0.064982506260420264 0 -0.39841612749299532 -0.072664694729402735 0 -0.39322806713901498 -0.057855850317809959 0 -0.39059497433695439 -0.069360757903312753 0 -0.39525037297019971 -0.064982506260420264 0 -0.39322806713901498 -0.057855850317809959 0 -0.40444542418072821 -0.066780626888537295 0 -0.39525037297019971 -0.064982506260420264 0 -0.39322806713901498 -0.057855850317809959 0 -0.39059497433695439 -0.069360757903312753 0 -0.39059497433695439 -0.069360757903312753 0 -0.39525037297019971 -0.064982506260420264 0 -0.36560935282136869 -0.1228770136391782 0 -0.38887223831657869 -0.12639873684615319 0 -0.38887223831657869 -0.12639873684615319 0 -0.38088751658449588 -0.11177605152490321 0 -0.39861419104112761 -0.1141217052544175 0 -0.38088751658449588 -0.11177605152490321 0 -0.39016591446444671 -0.1027403174982935 0 -0.39861419104112761 -0.1141217052544175 0 -0.36560935282136869 -0.1228770136391782 0 -0.38887223831657869 -0.12639873684615319 0 -0.38088751658449588 -0.11177605152490321 0 -0.38574124546072602 -0.090568404714108222 0 -0.38088751658449588 -0.11177605152490321 0 -0.38574124546072602 -0.090568404714108222 0 -0.38088751658449588 -0.11177605152490321 0 -0.39016591446444671 -0.1027403174982935 0 -0.37338072534044958 -0.1015395423542827 0 -0.38574124546072602 -0.090568404714108222 0 -0.38088751658449588 -0.11177605152490321 0 -0.40358704082088931 -0.10183248075400859 0 -0.39861419104112761 -0.1141217052544175 0 -0.4160373122485671 -0.1120621848500169 0 -0.39722678832591729 -0.08549102947411294 0 -0.39016591446444671 -0.1027403174982935 0 -0.40358704082088931 -0.10183248075400859 0 -0.39016591446444671 -0.1027403174982935 0 -0.40358704082088931 -0.10183248075400859 0 -0.39861419104112761 -0.1141217052544175 0 -0.38887223831657869 -0.12639873684615319 0 -0.41213512381178841 -0.1299204600531296 0 -0.39861419104112761 -0.1141217052544175 0 -0.41213512381178841 -0.1299204600531296 0 -0.39861419104112761 -0.1141217052544175 0 -0.4160373122485671 -0.1120621848500169 0 -0.41213512381178841 -0.1299204600531296 0 -0.4160373122485671 -0.1120621848500169 0 -0.43259539229225402 -0.1157747654031315 0 -0.4160373122485671 -0.1120621848500169 0 -0.4169341364211625 -0.097460269163205951 0 -0.43115901768430159 -0.099355876929453982 0 -0.40358704082088931 -0.10183248075400859 0 -0.4160373122485671 -0.1120621848500169 0 -0.4169341364211625 -0.097460269163205951 0 -0.40358704082088931 -0.10183248075400859 0 -0.4169341364211625 -0.097460269163205951 0 -0.40955223446300359 -0.086375659296802715 0 -0.4160373122485671 -0.1120621848500169 0 -0.43115901768430159 -0.099355876929453982 0 -0.43259539229225402 -0.1157747654031315 0 -0.43115901768430159 -0.099355876929453982 0 -0.43259539229225402 -0.1157747654031315 0 -0.44676155729694311 -0.09856935048049352 0 -0.41414033076402768 -0.061585207313392322 0 -0.41477655714820522 -0.073508962632903227 0 -0.43505259438904009 -0.065314564308975948 0 -0.41414033076402768 -0.061585207313392322 0 -0.40444542418072821 -0.066780626888537295 0 -0.41477655714820522 -0.073508962632903227 0 -0.40456307765117672 -0.076708553120630463 0 -0.40444542418072821 -0.066780626888537295 0 -0.41477655714820522 -0.073508962632903227 0 -0.40456307765117672 -0.076708553120630463 0 -0.41477655714820522 -0.073508962632903227 0 -0.40955223446300359 -0.086375659296802715 0 -0.41477655714820522 -0.073508962632903227 0 -0.40955223446300359 -0.086375659296802715 0 -0.42547236143691691 -0.079964116854811126 0 -0.4169341364211625 -0.097460269163205951 0 -0.40955223446300359 -0.086375659296802715 0 -0.42547236143691691 -0.079964116854811126 0 -0.43115901768430159 -0.099355876929453982 0 -0.42547236143691691 -0.079964116854811126 0 -0.43948503029078051 -0.084366611422258486 0 -0.4169341364211625 -0.097460269163205951 0 -0.43115901768430159 -0.099355876929453982 0 -0.42547236143691691 -0.079964116854811126 0 -0.42547236143691691 -0.079964116854811126 0 -0.43593321389199208 -0.076166958257645731 0 -0.43948503029078051 -0.084366611422258486 0 -0.41414033076402768 -0.061585207313392322 0 -0.43505259438904009 -0.065314564308975948 0 -0.42547236143691691 -0.079964116854811126 0 -0.43593321389199208 -0.076166958257645731 0 -0.43505259438904009 -0.065314564308975948 0 -0.41477655714820522 -0.073508962632903227 0 -0.42547236143691691 -0.079964116854811126 0 -0.43505259438904009 -0.065314564308975948 0 -0.43505259438904009 -0.065314564308975948 0 -0.45596485801405168 -0.069043921304564548 0 -0.45254776170430372 -0.055054247167343383 0 -0.43505259438904009 -0.065314564308975948 0 -0.44372286945123102 -0.075022540444537378 0 -0.45596485801405168 -0.069043921304564548 0 -0.43505259438904009 -0.065314564308975948 0 -0.45596485801405168 -0.069043921304564548 0 -0.44372286945123102 -0.075022540444537378 0 -0.44986078827983011 -0.084538284578158471 0 -0.45596485801405168 -0.069043921304564548 0 -0.43593321389199208 -0.076166958257645731 0 -0.43505259438904009 -0.065314564308975948 0 -0.44372286945123102 -0.075022540444537378 0 -0.43593321389199208 -0.076166958257645731 0 -0.44372286945123102 -0.075022540444537378 0 -0.43948503029078051 -0.084366611422258486 0 -0.44986078827983011 -0.084538284578158471 0 -0.44676155729694311 -0.09856935048049352 0 -0.46256210233533568 -0.096053197570847695 0 -0.44372286945123102 -0.075022540444537378 0 -0.43948503029078051 -0.084366611422258486 0 -0.44986078827983011 -0.084538284578158471 0 -0.43948503029078051 -0.084366611422258486 0 -0.44986078827983011 -0.084538284578158471 0 -0.44676155729694311 -0.09856935048049352 0 -0.46571079481874128 -0.075383853833439818 0 -0.45596485801405168 -0.069043921304564548 0 -0.46256210233533568 -0.096053197570847695 0 -0.45596485801405168 -0.069043921304564548 0 -0.46256210233533568 -0.096053197570847695 0 -0.44986078827983011 -0.084538284578158471 0 -0.45596485801405168 -0.069043921304564548 0 -0.46256210233533568 -0.096053197570847695 0 -0.46571079481874128 -0.075383853833439818 0 -0.46440728388852631 -0.065665476577682319 0 -0.45759908464129401 -0.069335358645535999 0 -0.46571079481874128 -0.075383853833439818 0 -0.46440728388852631 -0.065665476577682319 0 -0.47046251890076313 -0.067508589662998122 0 -0.45759908464129401 -0.069335358645535999 0 -0.45958199435623182 -0.062522792654202811 0 -0.45596485801405168 -0.069043921304564548 0 -0.46440728388852631 -0.065665476577682319 0 -0.45759908464129401 -0.069335358645535999 0 -0.45958199435623182 -0.062522792654202811 0 -0.45759908464129401 -0.069335358645535999 0 -0.45596485801405168 -0.069043921304564548 0 -0.46571079481874128 -0.075383853833439818 0 -0.45759908464129401 -0.069335358645535999 0 -0.45596485801405168 -0.069043921304564548 0 -0.43539800930699801 -0.1334421832601059 0 -0.43259539229225402 -0.1157747654031315 0 -0.45113905152447542 -0.1175368028588321 0 -0.43259539229225402 -0.1157747654031315 0 -0.45113905152447542 -0.1175368028588321 0 -0.44676155729694311 -0.09856935048049352 0 -0.43115901768430159 -0.099355876929453982 0 -0.43948503029078051 -0.084366611422258486 0 -0.44676155729694311 -0.09856935048049352 0 -0.45113905152447542 -0.1175368028588321 0 -0.44676155729694311 -0.09856935048049352 0 -0.46256210233533568 -0.096053197570847695 0 -0.46256210233533568 -0.096053197570847695 0 -0.46915934665662162 -0.1230624738371303 0 -0.45113905152447542 -0.1175368028588321 0 -0.46256210233533568 -0.096053197570847695 0 -0.46915934665662162 -0.1230624738371303 0 -0.48351137830779539 -0.13386722315158131 0 -0.46915934665662162 -0.1230624738371303 0 -0.48133806505124233 -0.10835548473569059 0 -0.46256210233533568 -0.096053197570847695 0 -0.46915934665662162 -0.1230624738371303 0 -0.48133806505124233 -0.10835548473569059 0 -0.46256210233533568 -0.096053197570847695 0 -0.48133806505124233 -0.10835548473569059 0 -0.4787903951136242 -0.090525190808538269 0 -0.48133806505124233 -0.10835548473569059 0 -0.500000000000001 -0.097363349237730712 0 -0.4787903951136242 -0.090525190808538269 0 -0.48351137830779539 -0.13386722315158131 0 -0.5 -0.12673639045435739 0 -0.48133806505124233 -0.10835548473569059 0 -0.5 -0.12673639045435739 0 -0.48133806505124233 -0.10835548473569059 0 -0.500000000000001 -0.097363349237730712 0 -0.48434101336280139 -0.075470068664982515 0 -0.47046251890076313 -0.067508589662998122 0 -0.46868202672560128 -0.053576788092234838 0 -0.46571079481874128 -0.075383853833439818 0 -0.48434101336280139 -0.075470068664982515 0 -0.47046251890076313 -0.067508589662998122 0 -0.48434101336280139 -0.075470068664982515 0 -0.46868202672560128 -0.053576788092234838 0 -0.46571079481874128 -0.075383853833439818 0 -0.48434101336280139 -0.075470068664982515 0 -0.4787903951136242 -0.090525190808538269 0 -0.46571079481874128 -0.075383853833439818 0 -0.46256210233533568 -0.096053197570847695 0 -0.4787903951136242 -0.090525190808538269 0 -0.500000000000001 -0.097363349237730712 0 -0.48434101336280139 -0.075470068664982515 0 -0.5 -0.067775448906690738 0 -0.500000000000001 -0.097363349237730712 0 -0.48434101336280139 -0.075470068664982515 0 -0.4787903951136242 -0.090525190808538269 0 -0.500000000000001 -0.097363349237730712 0 -0.48434101336280139 -0.075470068664982515 0 -0.48434101336280139 -0.075470068664982515 0 -0.5 -0.067775448906690738 0 -0.48551694096935982 -0.058082376044726818 0 -0.5 -0.067775448906690738 0 -0.48551694096935982 -0.058082376044726818 0 -0.5 -0.038187548575650758 0 -0.48551694096935982 -0.058082376044726818 0 -0.5 -0.038187548575650758 0 -0.47983884509016961 -0.04559408958900394 0 -0.5 -0.038187548575650758 0 -0.47627813796950452 -0.032068202833415903 0 -0.47983884509016961 -0.04559408958900394 0 -0.47627813796950452 -0.032068202833415903 0 -0.47983884509016961 -0.04559408958900394 0 -0.46868202672560128 -0.053576788092234838 0 -0.48434101336280139 -0.075470068664982515 0 -0.48551694096935982 -0.058082376044726818 0 -0.46868202672560128 -0.053576788092234838 0 -0.48551694096935982 -0.058082376044726818 0 -0.47983884509016961 -0.04559408958900394 0 -0.46868202672560128 -0.053576788092234838 0 -0.46440728388852631 -0.065665476577682319 0 -0.47046251890076313 -0.067508589662998122 0 -0.46868202672560128 -0.053576788092234838 0 -0.45958199435623182 -0.062522792654202811 0 -0.46868202672560128 -0.053576788092234838 0 -0.45254776170430372 -0.055054247167343383 0 -0.46440728388852631 -0.065665476577682319 0 -0.45958199435623182 -0.062522792654202811 0 -0.46868202672560128 -0.053576788092234838 0 -0.45596485801405168 -0.069043921304564548 0 -0.45254776170430372 -0.055054247167343383 0 -0.45958199435623182 -0.062522792654202811 0 -0.45596485801405168 -0.069043921304564548 0 -0.45254776170430372 -0.055054247167343383 0 -0.46868202672560128 -0.053576788092234838 0 -0.45302304008840111 -0.031683507519487203 0 -0.45254776170430372 -0.055054247167343383 0 -0.46868202672560128 -0.053576788092234838 0 -0.45302304008840111 -0.031683507519487203 0 -0.47627813796950452 -0.032068202833415903 0 -0.46868202672560128 -0.053576788092234838 0 -0.45302304008840111 -0.031683507519487203 0 -0.43049560054761637 -0.026091238128576531 0 -0.45302304008840111 -0.031683507519487203 0 -0.44052059365423879 -0.038318026972638523 0 -0.45302304008840111 -0.031683507519487203 0 -0.44052059365423879 -0.038318026972638523 0 -0.45254776170430372 -0.055054247167343383 0 -0.43594560852523878 -0.049663465434261311 0 -0.44052059365423879 -0.038318026972638523 0 -0.45254776170430372 -0.055054247167343383 0 -0.43594560852523878 -0.049663465434261311 0 -0.43505259438904009 -0.065314564308975948 0 -0.45254776170430372 -0.055054247167343383 0 -0.44016826678282051 -0.008282799190680902 0 -0.46819439313074318 -0.0088485217403602174 0 -0.44910531892432481 0.0088256729137652749 0 -0.43049560054761637 -0.026091238128576531 0 -0.45302304008840111 -0.031683507519487203 0 -0.44016826678282051 -0.008282799190680902 0 -0.45302304008840111 -0.031683507519487203 0 -0.44016826678282051 -0.008282799190680902 0 -0.46819439313074318 -0.0088485217403602174 0 -0.47627813796950452 -0.032068202833415903 0 -0.45302304008840111 -0.031683507519487203 0 -0.46819439313074318 -0.0088485217403602174 0 -0.47627813796950452 -0.032068202833415903 0 -0.46819439313074318 -0.0088485217403602174 0 -0.5 -0.0085996482446106803 0 -0.46819439313074318 -0.0088485217403602174 0 -0.5 -0.0085996482446106803 0 -0.48327269561072528 0.0075949784500739621 0 -0.5 -0.038187548575650758 0 -0.47627813796950452 -0.032068202833415903 0 -0.5 -0.0085996482446106803 0 -0.5 -0.0085996482446106803 0 -0.500000000000001 0.020988252086429401 0 -0.48327269561072528 0.0075949784500739621 0 -0.500000000000001 0.020988252086429401 0 -0.4818334059336834 0.02486827538731046 0 -0.48327269561072528 0.0075949784500739621 0 -0.500000000000001 0.020988252086429401 0 -0.4818334059336834 0.02486827538731046 0 -0.48627387230376801 0.042906068467448051 0 -0.4818334059336834 0.02486827538731046 0 -0.46506519868097418 0.040930436164492531 0 -0.46608959876636241 0.01500864777446809 0 -0.4818334059336834 0.02486827538731046 0 -0.48327269561072528 0.0075949784500739621 0 -0.46608959876636241 0.01500864777446809 0 -0.46819439313074318 -0.0088485217403602174 0 -0.48327269561072528 0.0075949784500739621 0 -0.46608959876636241 0.01500864777446809 0 -0.5 0.047519219301533577 0 -0.48827346409411548 0.06027768147110632 0 -0.48627387230376801 0.042906068467448051 0 -0.5 0.047519219301533577 0 -0.48827346409411548 0.06027768147110632 0 -0.5 0.074050186516637917 0 -0.500000000000001 0.020988252086429401 0 -0.48627387230376801 0.042906068467448051 0 -0.500000000000001 0.020988252086429401 0 -0.5 0.047519219301533577 0 -0.48627387230376801 0.042906068467448051 0 -0.4818334059336834 0.02486827538731046 0 -0.48627387230376801 0.042906068467448051 0 -0.46506519868097418 0.040930436164492531 0 -0.48627387230376801 0.042906068467448051 0 -0.46506519868097418 0.040930436164492531 0 -0.47254774460753413 0.064823884848466309 0 -0.48827346409411548 0.06027768147110632 0 -0.48627387230376801 0.042906068467448051 0 -0.47254774460753413 0.064823884848466309 0 -0.48627387230376801 0.042906068467448051 0 -0.47254774460753413 0.064823884848466309 0 -0.46506519868097418 0.040930436164492531 0 -0.44375990034961432 0.061031549153910312 0 -0.47254774460753413 0.064823884848466309 0 -0.46506519868097418 0.040930436164492531 0 -0.44486031810931148 0.031744527408694517 0 -0.44375990034961432 0.061031549153910312 0 -0.46819439313074318 -0.0088485217403602174 0 -0.46608959876636241 0.01500864777446809 0 -0.44910531892432481 0.0088256729137652749 0 -0.46506519868097418 0.040930436164492531 0 -0.44486031810931148 0.031744527408694517 0 -0.46608959876636241 0.01500864777446809 0 -0.44486031810931148 0.031744527408694517 0 -0.46608959876636241 0.01500864777446809 0 -0.44910531892432481 0.0088256729137652749 0 -0.44486031810931148 0.031744527408694517 0 -0.44910531892432481 0.0088256729137652749 0 -0.43171222321057451 0.016975124179167082 0 -0.44016826678282051 -0.008282799190680902 0 -0.44910531892432481 0.0088256729137652749 0 -0.43171222321057451 0.016975124179167082 0 -0.42123606753034548 -0.0078521834473191492 0 -0.44016826678282051 -0.008282799190680902 0 -0.43171222321057451 0.016975124179167082 0 -0.44016826678282051 -0.008282799190680902 0 -0.43171222321057451 0.016975124179167082 0 -0.42123606753034548 -0.0078521834473191492 0 -0.411842978763718 0.0071810696113592566 0 -0.43171222321057451 0.016975124179167082 0 -0.411842978763718 0.0071810696113592566 0 -0.40872204527111111 0.022867749962900141 0 -0.39856960861661739 0.0046729487720050386 0 -0.40872204527111111 0.022867749962900141 0 -0.43171222321057451 0.016975124179167082 0 -0.4232561796383284 0.042233047549015017 0 -0.411842978763718 0.0071810696113592566 0 -0.40872204527111111 0.022867749962900141 0 -0.43171222321057451 0.016975124179167082 0 -0.44486031810931148 0.031744527408694517 0 -0.43171222321057451 0.016975124179167082 0 -0.4232561796383284 0.042233047549015017 0 -0.43171222321057451 0.016975124179167082 0 -0.4232561796383284 0.042233047549015017 0 -0.44486031810931148 0.031744527408694517 0 -0.44375990034961432 0.061031549153910312 0 -0.4232561796383284 0.042233047549015017 0 -0.44375990034961432 0.061031549153910312 0 -0.4232561796383284 0.042233047549015017 0 -0.41480013606608229 0.067490970918863163 0 -0.4232561796383284 0.042233047549015017 0 -0.41480013606608229 0.067490970918863163 0 -0.4232561796383284 0.042233047549015017 0 -0.40217936848404251 0.040656332868689943 0 -0.41480013606608229 0.067490970918863163 0 -0.40872204527111111 0.022867749962900141 0 -0.4232561796383284 0.042233047549015017 0 -0.40217936848404251 0.040656332868689943 0 -0.40217936848404251 0.040656332868689943 0 -0.38532972384356262 0.04987884220830327 0 -0.38670634030283008 0.033034015008687988 0 -0.40217936848404251 0.040656332868689943 0 -0.39445515791527019 0.0661614229995688 0 -0.41480013606608229 0.067490970918863163 0 -0.40217936848404251 0.040656332868689943 0 -0.38532972384356262 0.04987884220830327 0 -0.39445515791527019 0.0661614229995688 0 -0.38532972384356262 0.04987884220830327 0 -0.36842953035862158 0.050481425088617103 0 -0.37191756568804107 0.066739953928913298 0 -0.38532972384356262 0.04987884220830327 0 -0.39445515791527019 0.0661614229995688 0 -0.37191756568804107 0.066739953928913298 0 -0.38532972384356262 0.04987884220830327 0 -0.38670634030283008 0.033034015008687988 0 -0.37363166703579942 0.035604814688565273 0 -0.38532972384356262 0.04987884220830327 0 -0.37363166703579942 0.035604814688565273 0 -0.36842953035862158 0.050481425088617103 0 -0.38670634030283008 0.033034015008687988 0 -0.37938766176258892 0.01937444117527904 0 -0.37363166703579942 0.035604814688565273 0 -0.38670634030283008 0.033034015008687988 0 -0.37938766176258892 0.01937444117527904 0 -0.39300328038815729 0.019655644102602461 0 -0.37938766176258892 0.01937444117527904 0 -0.38510027358075227 0.0044364300124967379 0 -0.37145675818362223 0.001704133189072726 0 -0.38510027358075227 0.0044364300124967379 0 -0.39300328038815729 0.019655644102602461 0 -0.37938766176258892 0.01937444117527904 0 -0.38510027358075227 0.0044364300124967379 0 -0.39300328038815729 0.019655644102602461 0 -0.38510027358075227 0.0044364300124967379 0 -0.39856960861661739 0.0046729487720050386 0 -0.39300328038815729 0.019655644102602461 0 -0.39149303023403142 -0.005335277537219363 0 -0.38510027358075227 0.0044364300124967379 0 -0.39856960861661739 0.0046729487720050386 0 -0.40872204527111111 0.022867749962900141 0 -0.40217936848404251 0.040656332868689943 0 -0.39300328038815729 0.019655644102602461 0 -0.40217936848404251 0.040656332868689943 0 -0.38670634030283008 0.033034015008687988 0 -0.39300328038815729 0.019655644102602461 0 -0.40872204527111111 0.022867749962900141 0 -0.39856960861661739 0.0046729487720050386 0 -0.39300328038815729 0.019655644102602461 0 -0.3875766108720648 0.10801011350679229 0 -0.40575939566394709 0.088936040450249165 0 -0.41194990864025682 0.1130743234930766 0 -0.3875766108720648 0.10801011350679229 0 -0.41194990864025682 0.1130743234930766 0 -0.39303850838018423 0.12948099644521679 0 -0.3875766108720648 0.10801011350679229 0 -0.39303850838018423 0.12948099644521679 0 -0.36938718168541179 0.1255902499967409 0 -0.3875766108720648 0.10801011350679229 0 -0.37678680274428078 0.095920052983538381 0 -0.36262419495280129 0.1038515713423341 0 -0.3875766108720648 0.10801011350679229 0 -0.37678680274428078 0.095920052983538381 0 -0.38674475774594591 0.083266397622394045 0 -0.37678680274428078 0.095920052983538381 0 -0.38674475774594591 0.083266397622394045 0 -0.37138104083623391 0.082703932652830325 0 -0.38674475774594591 0.083266397622394045 0 -0.37191756568804107 0.066739953928913298 0 -0.37138104083623391 0.082703932652830325 0 -0.38674475774594591 0.083266397622394045 0 -0.39445515791527019 0.0661614229995688 0 -0.37191756568804107 0.066739953928913298 0 -0.39445515791527019 0.0661614229995688 0 -0.40575939566394709 0.088936040450249165 0 -0.41480013606608229 0.067490970918863163 0 -0.38674475774594591 0.083266397622394045 0 -0.39445515791527019 0.0661614229995688 0 -0.40575939566394709 0.088936040450249165 0 -0.3875766108720648 0.10801011350679229 0 -0.38674475774594591 0.083266397622394045 0 -0.40575939566394709 0.088936040450249165 0 -0.40575939566394709 0.088936040450249165 0 -0.41480013606608229 0.067490970918863163 0 -0.43079976792318958 0.090862199026124468 0 -0.44375990034961432 0.061031549153910312 0 -0.41480013606608229 0.067490970918863163 0 -0.43079976792318958 0.090862199026124468 0 -0.43079976792318958 0.090862199026124468 0 -0.41194990864025682 0.1130743234930766 0 -0.43625153759456498 0.1245866202337218 0 -0.40575939566394709 0.088936040450249165 0 -0.43079976792318958 0.090862199026124468 0 -0.41194990864025682 0.1130743234930766 0 -0.43079976792318958 0.090862199026124468 0 -0.43625153759456498 0.1245866202337218 0 -0.45075561745381781 0.10580031757457831 0 -0.43625153759456498 0.1245866202337218 0 -0.45075561745381781 0.10580031757457831 0 -0.46287227134589981 0.1236989169114972 0 -0.43079976792318958 0.090862199026124468 0 -0.45075561745381781 0.10580031757457831 0 -0.4588216169113003 0.086741701229484575 0 -0.45075561745381781 0.10580031757457831 0 -0.4588216169113003 0.086741701229484575 0 -0.47201107007212878 0.1037065685212097 0 -0.45075561745381781 0.10580031757457831 0 -0.46287227134589981 0.1236989169114972 0 -0.47201107007212878 0.1037065685212097 0 -0.44375990034961432 0.061031549153910312 0 -0.43079976792318958 0.090862199026124468 0 -0.4588216169113003 0.086741701229484575 0 -0.44375990034961432 0.061031549153910312 0 -0.4588216169113003 0.086741701229484575 0 -0.47254774460753413 0.064823884848466309 0 -0.4588216169113003 0.086741701229484575 0 -0.47254774460753413 0.064823884848466309 0 -0.4588216169113003 0.086741701229484575 0 -0.47254774460753413 0.064823884848466309 0 -0.4818122771930986 0.082263337292499406 0 -0.48827346409411548 0.06027768147110632 0 -0.47254774460753413 0.064823884848466309 0 -0.4818122771930986 0.082263337292499406 0 -0.4588216169113003 0.086741701229484575 0 -0.4818122771930986 0.082263337292499406 0 -0.47201107007212878 0.1037065685212097 0 -0.4818122771930986 0.082263337292499406 0 -0.5 0.074050186516637917 0 -0.5 0.1005811537317424 0 -0.48827346409411548 0.06027768147110632 0 -0.4818122771930986 0.082263337292499406 0 -0.5 0.074050186516637917 0 -0.46287227134589981 0.1236989169114972 0 -0.48219315692656572 0.1205151432882924 0 -0.47201107007212878 0.1037065685212097 0 -0.4818122771930986 0.082263337292499406 0 -0.47201107007212878 0.1037065685212097 0 -0.5 0.1005811537317424 0 -0.48219315692656572 0.1205151432882924 0 -0.47201107007212878 0.1037065685212097 0 -0.5 0.1005811537317424 0 -0.48219315692656572 0.1205151432882924 0 -0.5 0.1005811537317424 0 -0.5 0.12711212094684679 0 -0.48219315692656572 0.1205151432882924 0 -0.5 0.12711212094684679 0 -0.47883924748460222 0.14018161060892731 0 -0.5 0.12711212094684679 0 -0.47883924748460222 0.14018161060892731 0 -0.5 0.15364308816195121 0 -0.46287227134589981 0.1236989169114972 0 -0.48219315692656572 0.1205151432882924 0 -0.47883924748460222 0.14018161060892731 0 -0.47883924748460222 0.14018161060892731 0 -0.5 0.15364308816195121 0 -0.47008479780898071 0.1615400033189848 0 -0.5 0.15364308816195121 0 -0.50000000000000089 0.18017405537705561 0 -0.48213074815480522 0.17495155205334359 0 -0.50000000000000089 0.18017405537705561 0 -0.48146292621815812 0.19355635563559381 0 -0.50000000000000089 0.18017405537705561 0 -0.48213074815480522 0.17495155205334359 0 -0.48146292621815812 0.19355635563559381 0 -0.48213074815480522 0.17495155205334359 0 -0.45945765920556431 0.18493118343544621 0 -0.48146292621815812 0.19355635563559381 0 -0.48213074815480522 0.17495155205334359 0 -0.47008479780898071 0.1615400033189848 0 -0.45945765920556431 0.18493118343544621 0 -0.5 0.15364308816195121 0 -0.48213074815480522 0.17495155205334359 0 -0.47008479780898071 0.1615400033189848 0 -0.47008479780898071 0.1615400033189848 0 -0.45945765920556431 0.18493118343544621 0 -0.44491624466772411 0.16813711573335099 0 -0.47008479780898071 0.1615400033189848 0 -0.44491624466772411 0.16813711573335099 0 -0.45700588157118233 0.14460720660399121 0 -0.45945765920556431 0.18493118343544621 0 -0.44491624466772411 0.16813711573335099 0 -0.43474290047699488 0.19015608798310391 0 -0.44491624466772411 0.16813711573335099 0 -0.45700588157118233 0.14460720660399121 0 -0.43611169665434868 0.1504606440305504 0 -0.43625153759456498 0.1245866202337218 0 -0.45700588157118233 0.14460720660399121 0 -0.43611169665434868 0.1504606440305504 0 -0.43625153759456498 0.1245866202337218 0 -0.46287227134589981 0.1236989169114972 0 -0.45700588157118233 0.14460720660399121 0 -0.46287227134589981 0.1236989169114972 0 -0.47883924748460222 0.14018161060892731 0 -0.45700588157118233 0.14460720660399121 0 -0.47883924748460222 0.14018161060892731 0 -0.47008479780898071 0.1615400033189848 0 -0.45700588157118233 0.14460720660399121 0 -0.48207357253193078 0.21739097549918149 0 -0.5 0.2118815469096284 0 -0.5 0.25502500317745308 0 -0.48207357253193078 0.21739097549918149 0 -0.46802780128701832 0.22930896654194979 0 -0.5 0.25502500317745308 0 -0.46802780128701832 0.22930896654194979 0 -0.5 0.25502500317745308 0 -0.46826200115894351 0.25268254595322559 0 -0.50000000000000089 0.18017405537705561 0 -0.5 0.2118815469096284 0 -0.48146292621815812 0.19355635563559381 0 -0.48207357253193078 0.21739097549918149 0 -0.46292585243631501 0.20693865589413171 0 -0.46802780128701832 0.22930896654194979 0 -0.48207357253193078 0.21739097549918149 0 -0.48146292621815812 0.19355635563559381 0 -0.46292585243631501 0.20693865589413171 0 -0.48207357253193078 0.21739097549918149 0 -0.5 0.2118815469096284 0 -0.48146292621815812 0.19355635563559381 0 -0.48146292621815812 0.19355635563559381 0 -0.46292585243631501 0.20693865589413171 0 -0.45945765920556431 0.18493118343544621 0 -0.44696073447060752 0.20212681262101459 0 -0.46292585243631501 0.20693865589413171 0 -0.45945765920556431 0.18493118343544621 0 -0.48146292621815812 0.19355635563559381 0 -0.46292585243631501 0.20693865589413171 0 -0.45945765920556431 0.18493118343544621 0 -0.44696073447060752 0.20212681262101459 0 -0.43474290047699488 0.19015608798310391 0 -0.44696073447060752 0.20212681262101459 0 -0.43414988282090411 0.20902301392359759 0 -0.43474290047699488 0.19015608798310391 0 -0.44696073447060752 0.20212681262101459 0 -0.44438877865447191 0.2203209561526695 0 -0.43414988282090411 0.20902301392359759 0 -0.44696073447060752 0.20212681262101459 0 -0.46292585243631501 0.20693865589413171 0 -0.44438877865447191 0.2203209561526695 0 -0.46292585243631501 0.20693865589413171 0 -0.46802780128701832 0.22930896654194979 0 -0.45690026230445402 0.21971898361319381 0 -0.46292585243631501 0.20693865589413171 0 -0.44438877865447191 0.2203209561526695 0 -0.46292585243631501 0.20693865589413171 0 -0.45690026230445402 0.21971898361319381 0 -0.44438877865447191 0.2203209561526695 0 -0.46802780128701832 0.22930896654194979 0 -0.45424796336563722 0.22861724854116511 0 -0.45412118124825718 0.2395922552223117 0 -0.46802780128701832 0.22930896654194979 0 -0.45424796336563722 0.22861724854116511 0 -0.45690026230445402 0.21971898361319381 0 -0.45424796336563722 0.22861724854116511 0 -0.45690026230445402 0.21971898361319381 0 -0.44707608940517052 0.22231138206831691 0 -0.44707608940517052 0.22231138206831691 0 -0.44438877865447191 0.2203209561526695 0 -0.42586105085507731 0.219809117860577 0 -0.45690026230445402 0.21971898361319381 0 -0.44707608940517052 0.22231138206831691 0 -0.44438877865447191 0.2203209561526695 0 -0.44707608940517052 0.22231138206831691 0 -0.43755936465329281 0.22698532229141799 0 -0.44511448258328629 0.23215465526005299 0 -0.43755936465329281 0.22698532229141799 0 -0.44511448258328629 0.23215465526005299 0 -0.43218583576963709 0.2336661339767252 0 -0.45424796336563722 0.22861724854116511 0 -0.44707608940517052 0.22231138206831691 0 -0.44511448258328629 0.23215465526005299 0 -0.45424796336563722 0.22861724854116511 0 -0.44511448258328629 0.23215465526005299 0 -0.45412118124825718 0.2395922552223117 0 -0.44511448258328629 0.23215465526005299 0 -0.44161393816558842 0.24155257742212199 0 -0.45412118124825718 0.2395922552223117 0 -0.44511448258328629 0.23215465526005299 0 -0.44161393816558842 0.24155257742212199 0 -0.43218583576963709 0.2336661339767252 0 -0.44161393816558842 0.24155257742212199 0 -0.43243648966469961 0.24825823729562091 0 -0.44622747097204157 0.25447826500352411 0 -0.44161393816558842 0.24155257742212199 0 -0.45412118124825718 0.2395922552223117 0 -0.44622747097204157 0.25447826500352411 0 -0.46802780128701832 0.22930896654194979 0 -0.45412118124825718 0.2395922552223117 0 -0.46826200115894351 0.25268254595322559 0 -0.45412118124825718 0.2395922552223117 0 -0.46826200115894351 0.25268254595322559 0 -0.44622747097204157 0.25447826500352411 0 -0.40931020750963998 0.23948355441692229 0 -0.40101037553383972 0.24850817254535781 0 -0.4154354269666965 0.25327969466909228 0 -0.40931020750963998 0.23948355441692229 0 -0.42148184861410209 0.2406921978309261 0 -0.41698703102379953 0.22969989485302911 0 -0.40931020750963998 0.23948355441692229 0 -0.42148184861410209 0.2406921978309261 0 -0.4154354269666965 0.25327969466909228 0 -0.42148184861410209 0.2406921978309261 0 -0.43243648966469961 0.24825823729562091 0 -0.4154354269666965 0.25327969466909228 0 -0.44161393816558842 0.24155257742212199 0 -0.43243648966469961 0.24825823729562091 0 -0.43218583576963709 0.2336661339767252 0 -0.42148184861410209 0.2406921978309261 0 -0.43243648966469961 0.24825823729562091 0 -0.43218583576963709 0.2336661339767252 0 -0.42148184861410209 0.2406921978309261 0 -0.43218583576963709 0.2336661339767252 0 -0.41698703102379953 0.22969989485302911 0 -0.43218583576963709 0.2336661339767252 0 -0.42586105085507731 0.219809117860577 0 -0.41698703102379953 0.22969989485302911 0 -0.44707608940517052 0.22231138206831691 0 -0.42586105085507731 0.219809117860577 0 -0.44707608940517052 0.22231138206831691 0 -0.43755936465329281 0.22698532229141799 0 -0.42586105085507731 0.219809117860577 0 -0.43755936465329281 0.22698532229141799 0 -0.43218583576963709 0.2336661339767252 0 -0.42586105085507731 0.219809117860577 0 -0.42586105085507731 0.219809117860577 0 -0.41698703102379953 0.22969989485302911 0 -0.4046460123049842 0.2173068536528372 0 -0.40931020750963998 0.23948355441692229 0 -0.41698703102379953 0.22969989485302911 0 -0.40590702596286521 0.22946517391640911 0 -0.41698703102379953 0.22969989485302911 0 -0.4046460123049842 0.2173068536528372 0 -0.40590702596286521 0.22946517391640911 0 -0.42586105085507731 0.219809117860577 0 -0.4046460123049842 0.2173068536528372 0 -0.41722227291546332 0.20591524768845371 0 -0.39877196507631202 0.20270266476287849 0 -0.4046460123049842 0.2173068536528372 0 -0.42586105085507731 0.219809117860577 0 -0.41722227291546332 0.20591524768845371 0 -0.4046460123049842 0.2173068536528372 0 -0.42586105085507731 0.219809117860577 0 -0.41722227291546332 0.20591524768845371 0 -0.43414988282090411 0.20902301392359759 0 -0.44438877865447191 0.2203209561526695 0 -0.42586105085507731 0.219809117860577 0 -0.43414988282090411 0.20902301392359759 0 -0.41722227291546332 0.20591524768845371 0 -0.43414988282090411 0.20902301392359759 0 -0.43474290047699488 0.19015608798310391 0 -0.41722227291546332 0.20591524768845371 0 -0.40891615430536432 0.18798503216574861 0 -0.39877196507631202 0.20270266476287849 0 -0.41722227291546332 0.20591524768845371 0 -0.43474290047699488 0.19015608798310391 0 -0.40891615430536432 0.18798503216574861 0 -0.40891615430536432 0.18798503216574861 0 -0.39877196507631202 0.20270266476287849 0 -0.38648279715089662 0.18713020989402271 0 -0.38343097375489099 0.21480458944509739 0 -0.38648279715089662 0.18713020989402271 0 -0.37238122863976891 0.2002171120067491 0 -0.39877196507631202 0.20270266476287849 0 -0.38343097375489099 0.21480458944509739 0 -0.38648279715089662 0.18713020989402271 0 -0.38343097375489099 0.21480458944509739 0 -0.38648279715089662 0.18713020989402271 0 -0.38343097375489099 0.21480458944509739 0 -0.37154761244084089 0.2134029747549531 0 -0.37238122863976891 0.2002171120067491 0 -0.38343097375489099 0.21480458944509739 0 -0.37566813965858681 0.2234148702422048 0 -0.37154761244084089 0.2134029747549531 0 -0.38343097375489099 0.21480458944509739 0 -0.37154761244084089 0.2134029747549531 0 -0.38343097375489099 0.21480458944509739 0 -0.4046460123049842 0.2173068536528372 0 -0.38992427199157043 0.22185450724293909 0 -0.38343097375489099 0.21480458944509739 0 -0.4046460123049842 0.2173068536528372 0 -0.39877196507631202 0.20270266476287849 0 -0.38343097375489099 0.21480458944509739 0 -0.4046460123049842 0.2173068536528372 0 -0.4046460123049842 0.2173068536528372 0 -0.39872340832513992 0.226351764622962 0 -0.40590702596286521 0.22946517391640911 0 -0.39872340832513992 0.226351764622962 0 -0.40590702596286521 0.22946517391640911 0 -0.39648996776890633 0.23582301492399779 0 -0.39872340832513992 0.226351764622962 0 -0.38992427199157043 0.22185450724293909 0 -0.39648996776890633 0.23582301492399779 0 -0.4046460123049842 0.2173068536528372 0 -0.39872340832513992 0.226351764622962 0 -0.38992427199157043 0.22185450724293909 0 -0.38343097375489099 0.21480458944509739 0 -0.37566813965858681 0.2234148702422048 0 -0.38119555285080597 0.2350757121572056 0 -0.38343097375489099 0.21480458944509739 0 -0.38992427199157043 0.22185450724293909 0 -0.38119555285080597 0.2350757121572056 0 -0.38343097375489099 0.21480458944509739 0 -0.38119555285080597 0.2350757121572056 0 -0.38119555285080597 0.2350757121572056 0 -0.37210575503526089 0.24405057661464391 0 -0.37896013194671968 0.25534683486931381 0 -0.38119555285080597 0.2350757121572056 0 -0.37896013194671968 0.25534683486931381 0 -0.38992427199157043 0.22185450724293909 0 -0.38119555285080597 0.2350757121572056 0 -0.38722819947627368 0.24843385443806909 0 -0.38992427199157043 0.22185450724293909 0 -0.38722819947627368 0.24843385443806909 0 -0.38119555285080597 0.2350757121572056 0 -0.38722819947627368 0.24843385443806909 0 -0.37896013194671968 0.25534683486931381 0 -0.38992427199157043 0.22185450724293909 0 -0.38722819947627368 0.24843385443806909 0 -0.39648996776890633 0.23582301492399779 0 -0.38722819947627368 0.24843385443806909 0 -0.39648996776890633 0.23582301492399779 0 -0.40101037553383972 0.24850817254535781 0 -0.40931020750963998 0.23948355441692229 0 -0.39648996776890633 0.23582301492399779 0 -0.40101037553383972 0.24850817254535781 0 -0.40931020750963998 0.23948355441692229 0 -0.40590702596286521 0.22946517391640911 0 -0.39648996776890633 0.23582301492399779 0 -0.41530534823700072 0.1390315752597536 0 -0.41919069938251302 0.1652820875776414 0 -0.39528973877013662 0.15130477977831461 0 -0.41194990864025682 0.1130743234930766 0 -0.41530534823700072 0.1390315752597536 0 -0.39303850838018423 0.12948099644521679 0 -0.41194990864025682 0.1130743234930766 0 -0.43625153759456498 0.1245866202337218 0 -0.41530534823700072 0.1390315752597536 0 -0.43625153759456498 0.1245866202337218 0 -0.41530534823700072 0.1390315752597536 0 -0.43611169665434868 0.1504606440305504 0 -0.41530534823700072 0.1390315752597536 0 -0.43611169665434868 0.1504606440305504 0 -0.41919069938251302 0.1652820875776414 0 -0.44491624466772411 0.16813711573335099 0 -0.43611169665434868 0.1504606440305504 0 -0.41919069938251302 0.1652820875776414 0 -0.44491624466772411 0.16813711573335099 0 -0.43474290047699488 0.19015608798310391 0 -0.41919069938251302 0.1652820875776414 0 -0.40891615430536432 0.18798503216574861 0 -0.41919069938251302 0.1652820875776414 0 -0.39971758700540821 0.17129016696027699 0 -0.43474290047699488 0.19015608798310391 0 -0.40891615430536432 0.18798503216574861 0 -0.41919069938251302 0.1652820875776414 0 -0.41919069938251302 0.1652820875776414 0 -0.39971758700540821 0.17129016696027699 0 -0.39528973877013662 0.15130477977831461 0 -0.40891615430536432 0.18798503216574861 0 -0.39971758700540821 0.17129016696027699 0 -0.38648279715089662 0.18713020989402271 0 -0.39971758700540821 0.17129016696027699 0 -0.38648279715089662 0.18713020989402271 0 -0.372146074932449 0.16344591630492469 0 -0.39971758700540821 0.17129016696027699 0 -0.39528973877013662 0.15130477977831461 0 -0.372146074932449 0.16344591630492469 0 -0.37815506306193358 0.1433222327004802 0 -0.39528973877013662 0.15130477977831461 0 -0.39303850838018423 0.12948099644521679 0 -0.37815506306193358 0.1433222327004802 0 -0.39528973877013662 0.15130477977831461 0 -0.372146074932449 0.16344591630492469 0 -0.41530534823700072 0.1390315752597536 0 -0.39528973877013662 0.15130477977831461 0 -0.39303850838018423 0.12948099644521679 0 -0.37815506306193358 0.1433222327004802 0 -0.39303850838018423 0.12948099644521679 0 -0.36938718168541179 0.1255902499967409 0 -0.36938718168541179 0.1255902499967409 0 -0.35200794605681629 0.12502238642781019 0 -0.36027383228078641 0.14176664061691219 0 -0.37815506306193358 0.1433222327004802 0 -0.36938718168541179 0.1255902499967409 0 -0.36027383228078641 0.14176664061691219 0 -0.35200794605681629 0.12502238642781019 0 -0.36027383228078641 0.14176664061691219 0 -0.34238396195098092 0.13747367741656721 0 -0.34692124746973713 0.1542878562826405 0 -0.36027383228078641 0.14176664061691219 0 -0.34238396195098092 0.13747367741656721 0 -0.34692124746973713 0.1542878562826405 0 -0.36027383228078641 0.14176664061691219 0 -0.372146074932449 0.16344591630492469 0 -0.37815506306193358 0.1433222327004802 0 -0.36027383228078641 0.14176664061691219 0 -0.372146074932449 0.16344591630492469 0 -0.38648279715089662 0.18713020989402271 0 -0.372146074932449 0.16344591630492469 0 -0.35825464468573548 0.18846491094187309 0 -0.372146074932449 0.16344591630492469 0 -0.35358483912925948 0.17080886943100959 0 -0.35825464468573548 0.18846491094187309 0 -0.35358483912925948 0.17080886943100959 0 -0.35825464468573548 0.18846491094187309 0 -0.33660402194939321 0.18841081708856641 0 -0.34692124746973713 0.1542878562826405 0 -0.372146074932449 0.16344591630492469 0 -0.35358483912925948 0.17080886943100959 0 -0.34692124746973713 0.1542878562826405 0 -0.35358483912925948 0.17080886943100959 0 -0.33500456297109971 0.16792639800837539 0 -0.33500456297109971 0.16792639800837539 0 -0.31851102729851588 0.15590236448055639 0 -0.33255517435583237 0.14646848770795259 0 -0.35358483912925948 0.17080886943100959 0 -0.33500456297109971 0.16792639800837539 0 -0.33660402194939321 0.18841081708856641 0 -0.33500456297109971 0.16792639800837539 0 -0.31289652582642141 0.1805837036697519 0 -0.33660402194939321 0.18841081708856641 0 -0.33500456297109971 0.16792639800837539 0 -0.31289652582642141 0.1805837036697519 0 -0.33500456297109971 0.16792639800837539 0 -0.31289652582642141 0.1805837036697519 0 -0.31851102729851588 0.15590236448055639 0 -0.31851102729851588 0.15590236448055639 0 -0.31283651791160189 0.14254581953933751 0 -0.32160496684282269 0.13812883269818441 0 -0.31851102729851588 0.15590236448055639 0 -0.32160496684282269 0.13812883269818441 0 -0.33255517435583237 0.14646848770795259 0 -0.31283651791160189 0.14254581953933751 0 -0.32160496684282269 0.13812883269818441 0 -0.31723531685176609 0.1198603304800319 0 -0.32160496684282269 0.13812883269818441 0 -0.33282908497732799 0.12691684344983439 0 -0.31723531685176609 0.1198603304800319 0 -0.32160496684282269 0.13812883269818441 0 -0.33282908497732799 0.12691684344983439 0 -0.33255517435583237 0.14646848770795259 0 -0.35200794605681629 0.12502238642781019 0 -0.34238396195098092 0.13747367741656721 0 -0.33282908497732799 0.12691684344983439 0 -0.34238396195098092 0.13747367741656721 0 -0.33282908497732799 0.12691684344983439 0 -0.33255517435583237 0.14646848770795259 0 -0.34692124746973713 0.1542878562826405 0 -0.34238396195098092 0.13747367741656721 0 -0.33255517435583237 0.14646848770795259 0 -0.34692124746973713 0.1542878562826405 0 -0.33500456297109971 0.16792639800837539 0 -0.33255517435583237 0.14646848770795259 0 -0.36182205832064851 0.24457456243760281 0 -0.34139946132247112 0.24041351753421181 0 -0.35754908974886279 0.25815157521253052 0 -0.36182205832064851 0.24457456243760281 0 -0.36649841958780932 0.23037620461156319 0 -0.34139946132247112 0.24041351753421181 0 -0.36182205832064851 0.24457456243760281 0 -0.37210575503526089 0.24405057661464391 0 -0.36759241766554501 0.2538245840294952 0 -0.38119555285080597 0.2350757121572056 0 -0.37210575503526089 0.24405057661464391 0 -0.36649841958780932 0.23037620461156319 0 -0.36182205832064851 0.24457456243760281 0 -0.37210575503526089 0.24405057661464391 0 -0.36649841958780932 0.23037620461156319 0 -0.36649841958780932 0.23037620461156319 0 -0.35688565293773689 0.21871143604885451 0 -0.37154761244084089 0.2134029747549531 0 -0.37566813965858681 0.2234148702422048 0 -0.36649841958780932 0.23037620461156319 0 -0.37154761244084089 0.2134029747549531 0 -0.37566813965858681 0.2234148702422048 0 -0.38119555285080597 0.2350757121572056 0 -0.36649841958780932 0.23037620461156319 0 -0.35688565293773689 0.21871143604885451 0 -0.34289792395499269 0.21218791974938919 0 -0.34139946132247112 0.24041351753421181 0 -0.36649841958780932 0.23037620461156319 0 -0.35688565293773689 0.21871143604885451 0 -0.34139946132247112 0.24041351753421181 0 -0.35688565293773689 0.21871143604885451 0 -0.36039341253181489 0.20659687070036381 0 -0.34289792395499269 0.21218791974938919 0 -0.35688565293773689 0.21871143604885451 0 -0.37154761244084089 0.2134029747549531 0 -0.36039341253181489 0.20659687070036381 0 -0.37154761244084089 0.2134029747549531 0 -0.36039341253181489 0.20659687070036381 0 -0.37238122863976891 0.2002171120067491 0 -0.38648279715089662 0.18713020989402271 0 -0.37238122863976891 0.2002171120067491 0 -0.35825464468573548 0.18846491094187309 0 -0.36039341253181489 0.20659687070036381 0 -0.37238122863976891 0.2002171120067491 0 -0.35825464468573548 0.18846491094187309 0 -0.36039341253181489 0.20659687070036381 0 -0.35825464468573548 0.18846491094187309 0 -0.34289792395499269 0.21218791974938919 0 -0.35825464468573548 0.18846491094187309 0 -0.33660402194939321 0.18841081708856641 0 -0.34289792395499269 0.21218791974938919 0 -0.33660402194939321 0.18841081708856641 0 -0.32037844320246261 0.2049322073775762 0 -0.34289792395499269 0.21218791974938919 0 -0.31289652582642141 0.1805837036697519 0 -0.33660402194939321 0.18841081708856641 0 -0.32037844320246261 0.2049322073775762 0 -0.32037844320246261 0.2049322073775762 0 -0.32007631676378118 0.22793178832776281 0 -0.30808679103638181 0.2157672566230279 0 -0.32037844320246261 0.2049322073775762 0 -0.34289792395499269 0.21218791974938919 0 -0.32007631676378118 0.22793178832776281 0 -0.34289792395499269 0.21218791974938919 0 -0.34139946132247112 0.24041351753421181 0 -0.34289792395499269 0.21218791974938919 0 -0.32007631676378118 0.22793178832776281 0 -0.34139946132247112 0.24041351753421181 0 -0.32007631676378118 0.22793178832776281 0 -0.30683534910107541 0.24131982490484771 0 -0.32052316857880009 0.25199218265017043 0 -0.32007631676378118 0.22793178832776281 0 -0.34139946132247112 0.24041351753421181 0 -0.32052316857880009 0.25199218265017043 0 -0.28520633826073721 0.24204505302591109 0 -0.29177957584356251 0.2379097909607483 0 -0.29813700426351908 0.2549985658140525 0 -0.28520633826073721 0.24204505302591109 0 -0.29177957584356251 0.2379097909607483 0 -0.28620422144783292 0.23331914670984491 0 -0.28520633826073721 0.24204505302591109 0 -0.28620422144783292 0.23331914670984491 0 -0.2743775822837069 0.2311971640619615 0 -0.28520633826073721 0.24204505302591109 0 -0.29177957584356251 0.2379097909607483 0 -0.28520633826073721 0.24204505302591109 0 -0.29813700426351908 0.2549985658140525 0 -0.29177957584356251 0.2379097909607483 0 -0.30683534910107541 0.24131982490484771 0 -0.29813700426351908 0.2549985658140525 0 -0.30683534910107541 0.24131982490484771 0 -0.32052316857880009 0.25199218265017043 0 -0.29813700426351908 0.2549985658140525 0 -0.29177957584356251 0.2379097909607483 0 -0.30683534910107541 0.24131982490484771 0 -0.3025311369596701 0.2279451799051346 0 -0.32007631676378118 0.22793178832776281 0 -0.3025311369596701 0.2279451799051346 0 -0.30808679103638181 0.2157672566230279 0 -0.32007631676378118 0.22793178832776281 0 -0.30683534910107541 0.24131982490484771 0 -0.3025311369596701 0.2279451799051346 0 -0.3025311369596701 0.2279451799051346 0 -0.29339823295664158 0.22906557906458669 0 -0.29484583138699982 0.21546216672010021 0 -0.3025311369596701 0.2279451799051346 0 -0.29484583138699982 0.21546216672010021 0 -0.30808679103638181 0.2157672566230279 0 -0.28556364975324361 0.2258194074993474 0 -0.29484583138699982 0.21546216672010021 0 -0.2791973288468384 0.21790572090905611 0 -0.29339823295664158 0.22906557906458669 0 -0.28556364975324361 0.2258194074993474 0 -0.29484583138699982 0.21546216672010021 0 -0.29177957584356251 0.2379097909607483 0 -0.29339823295664158 0.22906557906458669 0 -0.28620422144783292 0.23331914670984491 0 -0.29177957584356251 0.2379097909607483 0 -0.3025311369596701 0.2279451799051346 0 -0.29339823295664158 0.22906557906458669 0 -0.29339823295664158 0.22906557906458669 0 -0.28620422144783292 0.23331914670984491 0 -0.28556364975324361 0.2258194074993474 0 -0.28620422144783292 0.23331914670984491 0 -0.28556364975324361 0.2258194074993474 0 -0.2743775822837069 0.2311971640619615 0 -0.29484583138699982 0.21546216672010021 0 -0.2791973288468384 0.21790572090905611 0 -0.28722286546432818 0.20701443054747121 0 -0.29484583138699982 0.21546216672010021 0 -0.2791973288468384 0.21790572090905611 0 -0.28722286546432818 0.20701443054747121 0 -0.29484583138699982 0.21546216672010021 0 -0.30260222686899518 0.20256494078456561 0 -0.32037844320246261 0.2049322073775762 0 -0.30808679103638181 0.2157672566230279 0 -0.30260222686899518 0.20256494078456561 0 -0.29484583138699982 0.21546216672010021 0 -0.30808679103638181 0.2157672566230279 0 -0.30260222686899518 0.20256494078456561 0 -0.31289652582642141 0.1805837036697519 0 -0.30260222686899518 0.20256494078456561 0 -0.29078848868174278 0.1932410093311285 0 -0.31289652582642141 0.1805837036697519 0 -0.32037844320246261 0.2049322073775762 0 -0.30260222686899518 0.20256494078456561 0 -0.28722286546432818 0.20701443054747121 0 -0.29078848868174278 0.1932410093311285 0 -0.26868045153706449 0.20589831499250541 0 -0.28722286546432818 0.20701443054747121 0 -0.30260222686899518 0.20256494078456561 0 -0.29078848868174278 0.1932410093311285 0 -0.29078848868174278 0.1932410093311285 0 -0.27856333876668132 0.18821622517566469 0 -0.28884814108856732 0.1821072455122304 0 -0.29078848868174278 0.1932410093311285 0 -0.27856333876668132 0.18821622517566469 0 -0.26868045153706449 0.20589831499250541 0 -0.27856333876668132 0.18821622517566469 0 -0.26868045153706449 0.20589831499250541 0 -0.29078848868174278 0.1932410093311285 0 -0.26868045153706449 0.20589831499250541 0 -0.27856333876668132 0.18821622517566469 0 -0.26868045153706449 0.20589831499250541 0 -0.26716833294266512 0.18744146854889909 0 -0.25462413856064708 0.2114088186030785 0 -0.26716833294266512 0.18744146854889909 0 -0.25193880530206408 0.19370481573741441 0 -0.26716833294266512 0.18744146854889909 0 -0.25648243047464631 0.1826357185327456 0 -0.25193880530206408 0.19370481573741441 0 -0.25462413856064708 0.2114088186030785 0 -0.26716833294266512 0.18744146854889909 0 -0.25462413856064708 0.2114088186030785 0 -0.26868045153706449 0.20589831499250541 0 -0.26716833294266512 0.18744146854889909 0 -0.2562356768596219 0.21302320427817639 0 -0.26868045153706449 0.20589831499250541 0 -0.25462413856064708 0.2114088186030785 0 -0.2562356768596219 0.21302320427817639 0 -0.26868045153706449 0.20589831499250541 0 -0.25272816581491458 0.21503132644266379 0 -0.25462413856064708 0.2114088186030785 0 -0.25272816581491458 0.21503132644266379 0 -0.2562356768596219 0.21302320427817639 0 -0.25272816581491458 0.21503132644266379 0 -0.25462413856064708 0.2114088186030785 0 -0.2562356768596219 0.21302320427817639 0 -0.25462413856064708 0.2114088186030785 0 -0.2562356768596219 0.21302320427817639 0 -0.25272816581491458 0.21503132644266379 0 -0.2562356768596219 0.21302320427817639 0 -0.25599591734786031 0.2173373503046071 0 -0.2562356768596219 0.21302320427817639 0 -0.25599591734786031 0.2173373503046071 0 -0.25801218981811458 0.2175055682723043 0 -0.25272816581491458 0.21503132644266379 0 -0.25599591734786031 0.2173373503046071 0 -0.2564563288255462 0.2214567869436789 0 -0.25599591734786031 0.2173373503046071 0 -0.25801218981811458 0.2175055682723043 0 -0.25703316838862827 0.21958787938824861 0 -0.2562356768596219 0.21302320427817639 0 -0.26166069193192981 0.2184578046382698 0 -0.26868045153706449 0.20589831499250541 0 -0.25801218981811458 0.2175055682723043 0 -0.25913549456253288 0.21912160275221951 0 -0.25703316838862827 0.21958787938824861 0 -0.26166069193192981 0.2184578046382698 0 -0.26868045153706449 0.20589831499250541 0 -0.26354882630667698 0.22034927509801169 0 -0.2562356768596219 0.21302320427817639 0 -0.26166069193192981 0.2184578046382698 0 -0.26166069193192981 0.2184578046382698 0 -0.26868045153706449 0.20589831499250541 0 -0.25801218981811458 0.2175055682723043 0 -0.26166069193192981 0.2184578046382698 0 -0.25913549456253288 0.21912160275221951 0 -0.2562356768596219 0.21302320427817639 0 -0.25801218981811458 0.2175055682723043 0 -0.26166069193192981 0.2184578046382698 0 -0.28722286546432818 0.20701443054747121 0 -0.26868045153706449 0.20589831499250541 0 -0.2791973288468384 0.21790572090905611 0 -0.26868045153706449 0.20589831499250541 0 -0.2791973288468384 0.21790572090905611 0 -0.26354882630667698 0.22034927509801169 0 -0.2791973288468384 0.21790572090905611 0 -0.26354882630667698 0.22034927509801169 0 -0.2791973288468384 0.21790572090905611 0 -0.2743775822837069 0.2311971640619615 0 -0.26354882630667698 0.22034927509801169 0 -0.28556364975324361 0.2258194074993474 0 -0.2791973288468384 0.21790572090905611 0 -0.2743775822837069 0.2311971640619615 0 -0.2743775822837069 0.2311971640619615 0 -0.26322708885207657 0.23130122429223079 0 -0.27053130904085088 0.23989425105438689 0 -0.2743775822837069 0.2311971640619615 0 -0.26354882630667698 0.22034927509801169 0 -0.26322708885207657 0.23130122429223079 0 -0.2743775822837069 0.2311971640619615 0 -0.26354882630667698 0.22034927509801169 0 -0.26354882630667698 0.22034927509801169 0 -0.26032187107898369 0.22085317251209219 0 -0.26322708885207657 0.23130122429223079 0 -0.26354882630667698 0.22034927509801169 0 -0.26032187107898369 0.22085317251209219 0 -0.26166069193192981 0.2184578046382698 0 -0.26354882630667698 0.22034927509801169 0 -0.26032187107898369 0.22085317251209219 0 -0.26166069193192981 0.2184578046382698 0 -0.26354882630667698 0.22034927509801169 0 -0.26166069193192981 0.2184578046382698 0 -0.26032187107898369 0.22085317251209219 0 -0.26166069193192981 0.2184578046382698 0 -0.26032187107898369 0.22085317251209219 0 -0.25913549456253288 0.21912160275221951 0 -0.26032187107898369 0.22085317251209219 0 -0.2564563288255462 0.2214567869436789 0 -0.26032187107898369 0.22085317251209219 0 -0.25703316838862827 0.21958787938824861 0 -0.2564563288255462 0.2214567869436789 0 -0.26032187107898369 0.22085317251209219 0 -0.25913549456253288 0.21912160275221951 0 -0.25703316838862827 0.21958787938824861 0 -0.25599591734786031 0.2173373503046071 0 -0.25703316838862827 0.21958787938824861 0 -0.2564563288255462 0.2214567869436789 0 -0.2564563288255462 0.2214567869436789 0 -0.25210514226647263 0.23555423440704959 0 -0.248734035528067 0.22266264303674471 0 -0.26032187107898369 0.22085317251209219 0 -0.2564563288255462 0.2214567869436789 0 -0.25210514226647263 0.23555423440704959 0 -0.25703316838862827 0.21958787938824861 0 -0.2564563288255462 0.2214567869436789 0 -0.25272816581491458 0.21503132644266379 0 -0.2564563288255462 0.2214567869436789 0 -0.248734035528067 0.22266264303674471 0 -0.2564563288255462 0.2214567869436789 0 -0.248734035528067 0.22266264303674471 0 -0.25272816581491458 0.21503132644266379 0 -0.248734035528067 0.22266264303674471 0 -0.26032187107898369 0.22085317251209219 0 -0.25210514226647263 0.23555423440704959 0 -0.2564563288255462 0.2214567869436789 0 -0.25210514226647263 0.23555423440704959 0 -0.26032187107898369 0.22085317251209219 0 -0.26322708885207657 0.23130122429223079 0 -0.25210514226647263 0.23555423440704959 0 -0.26322708885207657 0.23130122429223079 0 -0.25210514226647263 0.23555423440704959 0 -0.25993357060704247 0.2432609816545768 0 -0.25054816238852479 0.24059870715785611 0 -0.25993357060704247 0.2432609816545768 0 -0.2546175921406465 0.26128861144859822 0 -0.26322708885207657 0.23130122429223079 0 -0.25993357060704247 0.2432609816545768 0 -0.27053130904085088 0.23989425105438689 0 -0.25054816238852479 0.24059870715785611 0 -0.25210514226647263 0.23555423440704959 0 -0.25993357060704247 0.2432609816545768 0 -0.25054816238852479 0.24059870715785611 0 -0.25210514226647263 0.23555423440704959 0 -0.25993357060704247 0.2432609816545768 0 -0.27053130904085088 0.23989425105438689 0 -0.26991196520069161 0.25166683223725428 0 -0.28520633826073721 0.24204505302591109 0 -0.2743775822837069 0.2311971640619615 0 -0.27053130904085088 0.23989425105438689 0 -0.28520633826073721 0.24204505302591109 0 -0.2743775822837069 0.2311971640619615 0 -0.28520633826073721 0.24204505302591109 0 -0.26991196520069161 0.25166683223725428 0 -0.28520633826073721 0.24204505302591109 0 -0.27053130904085088 0.23989425105438689 0 -0.26991196520069161 0.25166683223725428 0 -0.29367763624156518 0.14580120048619691 0 -0.30132029725935677 0.14489814247345079 0 -0.28540527766694768 0.16993595446686949 0 -0.30132029725935677 0.14489814247345079 0 -0.29832911322591421 0.15285204554198301 0 -0.28540527766694768 0.16993595446686949 0 -0.29225672170669897 0.1395067684405393 0 -0.27971252732468282 0.16347411849471971 0 -0.29367763624156518 0.14580120048619691 0 -0.29225672170669897 0.1395067684405393 0 -0.27971252732468282 0.16347411849471971 0 -0.29225672170669897 0.1395067684405393 0 -0.27971252732468282 0.16347411849471971 0 -0.27793738210199243 0.14829742822643491 0 -0.29367763624156518 0.14580120048619691 0 -0.29225672170669897 0.1395067684405393 0 -0.29367763624156518 0.14580120048619691 0 -0.29225672170669897 0.1395067684405393 0 -0.29707098058306791 0.1417275861303573 0 -0.29225672170669897 0.1395067684405393 0 -0.27793738210199243 0.14829742822643491 0 -0.28046643513796882 0.14013597811185341 0 -0.29225672170669897 0.1395067684405393 0 -0.27842990629181991 0.12905884737457521 0 -0.28046643513796882 0.14013597811185341 0 -0.29225672170669897 0.1395067684405393 0 -0.27842990629181991 0.12905884737457521 0 -0.2863041877154166 0.1131379617402274 0 -0.29225672170669897 0.1395067684405393 0 -0.2863041877154166 0.1131379617402274 0 -0.29225672170669897 0.1395067684405393 0 -0.2981778848162786 0.128193599602963 0 -0.2863041877154166 0.1131379617402274 0 -0.29225672170669897 0.1395067684405393 0 -0.30121224024343363 0.13483728542546841 0 -0.29707098058306791 0.1417275861303573 0 -0.29225672170669897 0.1395067684405393 0 -0.2981778848162786 0.128193599602963 0 -0.29225672170669897 0.1395067684405393 0 -0.30121224024343363 0.13483728542546841 0 -0.2981778848162786 0.128193599602963 0 -0.30121224024343363 0.13483728542546841 0 -0.2981778848162786 0.128193599602963 0 -0.31723531685176609 0.1198603304800319 0 -0.30132029725935677 0.14489814247345079 0 -0.31723531685176609 0.1198603304800319 0 -0.30121224024343363 0.13483728542546841 0 -0.30132029725935677 0.14489814247345079 0 -0.29707098058306791 0.1417275861303573 0 -0.31283651791160189 0.14254581953933751 0 -0.30132029725935677 0.14489814247345079 0 -0.31723531685176609 0.1198603304800319 0 -0.30121224024343363 0.13483728542546841 0 -0.30132029725935677 0.14489814247345079 0 -0.31723531685176609 0.1198603304800319 0 -0.31283651791160189 0.14254581953933751 0 -0.30132029725935677 0.14489814247345079 0 -0.30551098130554788 0.1539394275644638 0 -0.29367763624156518 0.14580120048619691 0 -0.30132029725935677 0.14489814247345079 0 -0.29707098058306791 0.1417275861303573 0 -0.30132029725935677 0.14489814247345079 0 -0.29832911322591421 0.15285204554198301 0 -0.30551098130554788 0.1539394275644638 0 -0.31851102729851588 0.15590236448055639 0 -0.31283651791160189 0.14254581953933751 0 -0.30551098130554788 0.1539394275644638 0 -0.31289652582642141 0.1805837036697519 0 -0.31851102729851588 0.15590236448055639 0 -0.30548605551313601 0.16580850627828139 0 -0.31851102729851588 0.15590236448055639 0 -0.30551098130554788 0.1539394275644638 0 -0.30548605551313601 0.16580850627828139 0 -0.30548605551313601 0.16580850627828139 0 -0.29764345600278319 0.16844986735664469 0 -0.29759451090954719 0.17643761218330459 0 -0.30548605551313601 0.16580850627828139 0 -0.29764345600278319 0.16844986735664469 0 -0.29908316640873578 0.16231679642003941 0 -0.29832911322591421 0.15285204554198301 0 -0.30551098130554788 0.1539394275644638 0 -0.29908316640873578 0.16231679642003941 0 -0.30551098130554788 0.1539394275644638 0 -0.30548605551313601 0.16580850627828139 0 -0.29908316640873578 0.16231679642003941 0 -0.31289652582642141 0.1805837036697519 0 -0.29078848868174278 0.1932410093311285 0 -0.29759451090954719 0.17643761218330459 0 -0.31289652582642141 0.1805837036697519 0 -0.29078848868174278 0.1932410093311285 0 -0.31289652582642141 0.1805837036697519 0 -0.30548605551313601 0.16580850627828139 0 -0.29759451090954719 0.17643761218330459 0 -0.27856333876668132 0.18821622517566469 0 -0.28844622599629782 0.17053413535882381 0 -0.27856333876668132 0.18821622517566469 0 -0.28884814108856732 0.1821072455122304 0 -0.28844622599629782 0.17053413535882381 0 -0.27856333876668132 0.18821622517566469 0 -0.28540527766694768 0.16993595446686949 0 -0.28844622599629782 0.17053413535882381 0 -0.29078848868174278 0.1932410093311285 0 -0.29759451090954719 0.17643761218330459 0 -0.28884814108856732 0.1821072455122304 0 -0.29759451090954719 0.17643761218330459 0 -0.28884814108856732 0.1821072455122304 0 -0.28844622599629782 0.17053413535882381 0 -0.29832911322591421 0.15285204554198301 0 -0.29908316640873578 0.16231679642003941 0 -0.28844622599629782 0.17053413535882381 0 -0.30132029725935677 0.14489814247345079 0 -0.28540527766694768 0.16993595446686949 0 -0.29367763624156518 0.14580120048619691 0 -0.28540527766694768 0.16993595446686949 0 -0.27971252732468282 0.16347411849471971 0 -0.29832911322591421 0.15285204554198301 0 -0.28540527766694768 0.16993595446686949 0 -0.28844622599629782 0.17053413535882381 0 -0.29832911322591421 0.15285204554198301 0 -0.28844622599629782 0.17053413535882381 0 -0.29764345600278319 0.16844986735664469 0 -0.29759451090954719 0.17643761218330459 0 -0.28844622599629782 0.17053413535882381 0 -0.29764345600278319 0.16844986735664469 0 -0.29908316640873578 0.16231679642003941 0 -0.28844622599629782 0.17053413535882381 0 -0.27971252732468282 0.16347411849471971 0 -0.26681583754358312 0.15703960248194049 0 -0.27793738210199243 0.14829742822643491 0 -0.27971252732468282 0.16347411849471971 0 -0.26864544582317851 0.1695326912228835 0 -0.26681583754358312 0.15703960248194049 0 -0.28540527766694768 0.16993595446686949 0 -0.27971252732468282 0.16347411849471971 0 -0.26716833294266512 0.18744146854889909 0 -0.27971252732468282 0.16347411849471971 0 -0.26716833294266512 0.18744146854889909 0 -0.27856333876668132 0.18821622517566469 0 -0.28540527766694768 0.16993595446686949 0 -0.26716833294266512 0.18744146854889909 0 -0.27971252732468282 0.16347411849471971 0 -0.26864544582317851 0.1695326912228835 0 -0.26716833294266512 0.18744146854889909 0 -0.26088508548178302 0.1701755753659748 0 -0.24346313069296871 0.16633892637512099 0 -0.24593749817207319 0.17922101447869401 0 -0.26864544582317851 0.1695326912228835 0 -0.26716833294266512 0.18744146854889909 0 -0.26088508548178302 0.1701755753659748 0 -0.26716833294266512 0.18744146854889909 0 -0.25648243047464631 0.1826357185327456 0 -0.26088508548178302 0.1701755753659748 0 -0.25648243047464631 0.1826357185327456 0 -0.26088508548178302 0.1701755753659748 0 -0.24593749817207319 0.17922101447869401 0 -0.25193880530206408 0.19370481573741441 0 -0.25648243047464631 0.1826357185327456 0 -0.24593749817207319 0.17922101447869401 0 -0.26681583754358312 0.15703960248194049 0 -0.26088508548178302 0.1701755753659748 0 -0.25072842261960387 0.15603505327837411 0 -0.26088508548178302 0.1701755753659748 0 -0.25072842261960387 0.15603505327837411 0 -0.24346313069296871 0.16633892637512099 0 -0.26864544582317851 0.1695326912228835 0 -0.26681583754358312 0.15703960248194049 0 -0.26088508548178302 0.1701755753659748 0 -0.26088508548178302 0.1701755753659748 0 -0.25072842261960387 0.15603505327837411 0 -0.26681583754358312 0.15703960248194049 0 -0.25608290515330878 0.14176455504424121 0 -0.27043538879702828 0.1413306736031216 0 -0.26681583754358312 0.15703960248194049 0 -0.25072842261960387 0.15603505327837411 0 -0.25608290515330878 0.14176455504424121 0 -0.26681583754358312 0.15703960248194049 0 -0.27043538879702828 0.1413306736031216 0 -0.27793738210199243 0.14829742822643491 0 -0.27043538879702828 0.1413306736031216 0 -0.27793738210199243 0.14829742822643491 0 -0.28046643513796882 0.14013597811185341 0 -0.27043538879702828 0.1413306736031216 0 -0.27842990629181991 0.12905884737457521 0 -0.28046643513796882 0.14013597811185341 0 -0.27043538879702828 0.1413306736031216 0 -0.27842990629181991 0.12905884737457521 0 -0.2648400147316442 0.13011893998476409 0 -0.27842990629181991 0.12905884737457521 0 -0.2648400147316442 0.13011893998476409 0 -0.26830038075826779 0.11624375259475619 0 -0.25608290515330878 0.14176455504424121 0 -0.2648400147316442 0.13011893998476409 0 -0.24895710550971339 0.12165530893482571 0 -0.25608290515330878 0.14176455504424121 0 -0.27043538879702828 0.1413306736031216 0 -0.2648400147316442 0.13011893998476409 0 -0.25734245126200062 0.1014160866788785 0 -0.26830038075826779 0.11624375259475619 0 -0.24895710550971339 0.12165530893482571 0 -0.2648400147316442 0.13011893998476409 0 -0.26830038075826779 0.11624375259475619 0 -0.24895710550971339 0.12165530893482571 0 -0.25734245126200062 0.1014160866788785 0 -0.24895710550971339 0.12165530893482571 0 -0.25734245126200062 0.1014160866788785 0 -0.27392861903901239 0.1020753708552664 0 -0.26830038075826779 0.11624375259475619 0 -0.27392861903901239 0.1020753708552664 0 -0.2863041877154166 0.1131379617402274 0 -0.28035165372413551 0.086769155039914989 0 -0.25734245126200062 0.1014160866788785 0 -0.27392861903901239 0.1020753708552664 0 -0.26572779701428773 0.081176864422931191 0 -0.27842990629181991 0.12905884737457521 0 -0.26830038075826779 0.11624375259475619 0 -0.2863041877154166 0.1131379617402274 0 -0.27392861903901239 0.1020753708552664 0 -0.26830038075826779 0.11624375259475619 0 -0.2863041877154166 0.1131379617402274 0 -0.2981778848162786 0.128193599602963 0 -0.2863041877154166 0.1131379617402274 0 -0.30134905106005738 0.1164832023402728 0 -0.2863041877154166 0.1131379617402274 0 -0.28035165372413551 0.086769155039914989 0 -0.2863041877154166 0.1131379617402274 0 -0.29405774138327462 0.094893752904386258 0 -0.28035165372413551 0.086769155039914989 0 -0.2863041877154166 0.1131379617402274 0 -0.29405774138327462 0.094893752904386258 0 -0.30367881485676818 0.104740917537869 0 -0.29405774138327462 0.094893752904386258 0 -0.30367881485676818 0.104740917537869 0 -0.30859009333780452 0.087437634974232029 0 -0.30367881485676818 0.104740917537869 0 -0.30859009333780452 0.087437634974232029 0 -0.31724517505712951 0.098806923667406316 0 -0.2981778848162786 0.128193599602963 0 -0.30134905106005738 0.1164832023402728 0 -0.31723531685176609 0.1198603304800319 0 -0.2863041877154166 0.1131379617402274 0 -0.30367881485676818 0.104740917537869 0 -0.30134905106005738 0.1164832023402728 0 -0.30367881485676818 0.104740917537869 0 -0.30134905106005738 0.1164832023402728 0 -0.31723531685176609 0.1198603304800319 0 -0.30660633332941051 0.074378369855040594 0 -0.29366682663590249 0.070755320590707688 0 -0.31081826144354868 0.060679329518446831 0 -0.30660633332941051 0.074378369855040594 0 -0.29665452968210548 0.0828468466728563 0 -0.29366682663590249 0.070755320590707688 0 -0.29405774138327462 0.094893752904386258 0 -0.30859009333780452 0.087437634974232029 0 -0.29665452968210548 0.0828468466728563 0 -0.30660633332941051 0.074378369855040594 0 -0.30859009333780452 0.087437634974232029 0 -0.29665452968210548 0.0828468466728563 0 -0.29665452968210548 0.0828468466728563 0 -0.29366682663590249 0.070755320590707688 0 -0.28035165372413551 0.086769155039914989 0 -0.29405774138327462 0.094893752904386258 0 -0.29665452968210548 0.0828468466728563 0 -0.28035165372413551 0.086769155039914989 0 -0.29366682663590249 0.070755320590707688 0 -0.28035165372413551 0.086769155039914989 0 -0.2743991197328543 0.06040034833960263 0 -0.28035165372413551 0.086769155039914989 0 -0.2743991197328543 0.06040034833960263 0 -0.28035165372413551 0.086769155039914989 0 -0.26572779701428773 0.081176864422931191 0 -0.2743991197328543 0.06040034833960263 0 -0.27392861903901239 0.1020753708552664 0 -0.28035165372413551 0.086769155039914989 0 -0.26572779701428773 0.081176864422931191 0 -0.25734245126200062 0.1014160866788785 0 -0.26572779701428773 0.081176864422931191 0 -0.24672703352553629 0.080158677613093823 0 -0.25734245126200062 0.1014160866788785 0 -0.26572779701428773 0.081176864422931191 0 -0.26572779701428773 0.081176864422931191 0 -0.2559826395353394 0.061597363551489349 0 -0.2743991197328543 0.06040034833960263 0 -0.26572779701428773 0.081176864422931191 0 -0.2559826395353394 0.061597363551489349 0 -0.24672703352553629 0.080158677613093823 0 -0.2559826395353394 0.061597363551489349 0 -0.26844658574157321 0.034031541639290362 0 -0.24450296286368231 0.049373315754277197 0 -0.26844658574157321 0.034031541639290362 0 -0.24192231969137759 0.032530148466345048 0 -0.24450296286368231 0.049373315754277197 0 -0.26844658574157321 0.034031541639290362 0 -0.2743991197328543 0.06040034833960263 0 -0.28919208176463768 0.041254089627619089 0 -0.26844658574157321 0.034031541639290362 0 -0.28503043027369879 0.024646141826126219 0 -0.28919208176463768 0.041254089627619089 0 -0.2559826395353394 0.061597363551489349 0 -0.26844658574157321 0.034031541639290362 0 -0.2743991197328543 0.06040034833960263 0 -0.26844658574157321 0.034031541639290362 0 -0.2743991197328543 0.06040034833960263 0 -0.25227296286688322 -0.0076793426536460041 0 -0.26249405175029211 0.007662734938978108 0 -0.23546354233931949 0.0078270751002715265 0 -0.26844658574157321 0.034031541639290362 0 -0.26249405175029211 0.007662734938978108 0 -0.26844658574157321 0.034031541639290362 0 -0.26249405175029211 0.007662734938978108 0 -0.24192231969137759 0.032530148466345048 0 -0.26844658574157321 0.034031541639290362 0 -0.26249405175029211 0.007662734938978108 0 -0.28503043027369879 0.024646141826126219 0 -0.26249405175029211 0.007662734938978108 0 -0.29088909275279012 0.0052797473078289572 0 -0.28503043027369879 0.024646141826126219 0 -0.28503043027369879 0.024646141826126219 0 -0.30319396424779033 0.026796870749645822 0 -0.28919208176463768 0.041254089627619089 0 -0.29088909275279012 0.0052797473078289572 0 -0.28503043027369879 0.024646141826126219 0 -0.30319396424779033 0.026796870749645822 0 -0.30319396424779033 0.026796870749645822 0 -0.30957503066598552 0.011427225412800709 0 -0.32058731744473762 0.019928587991941731 0 -0.29088909275279012 0.0052797473078289572 0 -0.30319396424779033 0.026796870749645822 0 -0.30957503066598552 0.011427225412800709 0 -0.30518798685158838 -0.0020929360932298849 0 -0.29088909275279012 0.0052797473078289572 0 -0.30957503066598552 0.011427225412800709 0 -0.30518798685158838 -0.0020929360932298849 0 -0.30957503066598552 0.011427225412800709 0 -0.32049615199215492 0.0045280339304297253 0 -0.2743991197328543 0.06040034833960263 0 -0.29603323201561299 0.055812399873303893 0 -0.28919208176463768 0.041254089627619089 0 -0.29366682663590249 0.070755320590707688 0 -0.2743991197328543 0.06040034833960263 0 -0.29603323201561299 0.055812399873303893 0 -0.30319396424779033 0.026796870749645822 0 -0.28919208176463768 0.041254089627619089 0 -0.31060618731623352 0.044985865152084623 0 -0.30319396424779033 0.026796870749645822 0 -0.31060618731623352 0.044985865152084623 0 -0.31880783956767128 0.032922242476857162 0 -0.29603323201561299 0.055812399873303893 0 -0.28919208176463768 0.041254089627619089 0 -0.31060618731623352 0.044985865152084623 0 -0.29603323201561299 0.055812399873303893 0 -0.31060618731623352 0.044985865152084623 0 -0.31081826144354868 0.060679329518446831 0 -0.29366682663590249 0.070755320590707688 0 -0.29603323201561299 0.055812399873303893 0 -0.31081826144354868 0.060679329518446831 0 -0.31060618731623352 0.044985865152084623 0 -0.32788744175529538 0.041514351910999107 0 -0.32831049041907839 0.055921771907720449 0 -0.31060618731623352 0.044985865152084623 0 -0.31081826144354868 0.060679329518446831 0 -0.32831049041907839 0.055921771907720449 0 -0.31060618731623352 0.044985865152084623 0 -0.31880783956767128 0.032922242476857162 0 -0.32788744175529538 0.041514351910999107 0 -0.31880783956767128 0.032922242476857162 0 -0.32788744175529538 0.041514351910999107 0 -0.33284048064853922 0.02898560650307868 0 -0.34306862850599618 0.040992927417729488 0 -0.33284048064853922 0.02898560650307868 0 -0.34878147881263583 0.02639136098039228 0 -0.32788744175529538 0.041514351910999107 0 -0.34306862850599618 0.040992927417729488 0 -0.32831049041907839 0.055921771907720449 0 -0.32788744175529538 0.041514351910999107 0 -0.34306862850599618 0.040992927417729488 0 -0.33284048064853922 0.02898560650307868 0 -0.32831049041907839 0.055921771907720449 0 -0.34909822148757808 0.06037421403352132 0 -0.3353113387102199 0.067919589230939131 0 -0.34306862850599618 0.040992927417729488 0 -0.32831049041907839 0.055921771907720449 0 -0.34909822148757808 0.06037421403352132 0 -0.30957503066598552 0.011427225412800709 0 -0.32049615199215492 0.0045280339304297253 0 -0.32058731744473762 0.019928587991941731 0 -0.32049615199215492 0.0045280339304297253 0 -0.32058731744473762 0.019928587991941731 0 -0.33553321900770577 0.01329805350298063 0 -0.30319396424779033 0.026796870749645822 0 -0.31880783956767128 0.032922242476857162 0 -0.32058731744473762 0.019928587991941731 0 -0.31880783956767128 0.032922242476857162 0 -0.32058731744473762 0.019928587991941731 0 -0.33284048064853922 0.02898560650307868 0 -0.33284048064853922 0.02898560650307868 0 -0.33553321900770577 0.01329805350298063 0 -0.34878147881263583 0.02639136098039228 0 -0.32058731744473762 0.019928587991941731 0 -0.33284048064853922 0.02898560650307868 0 -0.33553321900770577 0.01329805350298063 0 -0.33449922093445961 -0.0040818700918973123 0 -0.32049615199215492 0.0045280339304297253 0 -0.33553321900770577 0.01329805350298063 0 -0.33449922093445961 -0.0040818700918973123 0 -0.33553321900770577 0.01329805350298063 0 -0.35182631000740072 0.0068229147672093007 0 -0.33553321900770577 0.01329805350298063 0 -0.35182631000740072 0.0068229147672093007 0 -0.34878147881263583 0.02639136098039228 0 -0.34878147881263583 0.02639136098039228 0 -0.3640039126182737 0.02126082680388874 0 -0.35655106705292511 0.040817520418704747 0 -0.35182631000740072 0.0068229147672093007 0 -0.34878147881263583 0.02639136098039228 0 -0.3640039126182737 0.02126082680388874 0 -0.3640039126182737 0.02126082680388874 0 -0.35655106705292511 0.040817520418704747 0 -0.37938766176258892 0.01937444117527904 0 -0.3640039126182737 0.02126082680388874 0 -0.37363166703579942 0.035604814688565273 0 -0.3640039126182737 0.02126082680388874 0 -0.37145675818362223 0.001704133189072726 0 -0.35182631000740072 0.0068229147672093007 0 -0.3640039126182737 0.02126082680388874 0 -0.37145675818362223 0.001704133189072726 0 -0.37938766176258892 0.01937444117527904 0 -0.3640039126182737 0.02126082680388874 0 -0.37145675818362223 0.001704133189072726 0 -0.34909822148757808 0.06037421403352132 0 -0.35655106705292511 0.040817520418704747 0 -0.34306862850599618 0.040992927417729488 0 -0.34909822148757808 0.06037421403352132 0 -0.35655106705292511 0.040817520418704747 0 -0.34306862850599618 0.040992927417729488 0 -0.34909822148757808 0.06037421403352132 0 -0.34909822148757808 0.06037421403352132 0 -0.35655106705292511 0.040817520418704747 0 -0.36842953035862158 0.050481425088617103 0 -0.34306862850599618 0.040992927417729488 0 -0.34878147881263583 0.02639136098039228 0 -0.35655106705292511 0.040817520418704747 0 -0.3640039126182737 0.02126082680388874 0 -0.35655106705292511 0.040817520418704747 0 -0.37363166703579942 0.035604814688565273 0 -0.35655106705292511 0.040817520418704747 0 -0.37363166703579942 0.035604814688565273 0 -0.36842953035862158 0.050481425088617103 0 -0.34909822148757808 0.06037421403352132 0 -0.36842953035862158 0.050481425088617103 0 -0.37191756568804107 0.066739953928913298 0 -0.37191756568804107 0.066739953928913298 0 -0.35586120822019068 0.082112892687927444 0 -0.37138104083623391 0.082703932652830325 0 -0.34909822148757808 0.06037421403352132 0 -0.35586120822019068 0.082112892687927444 0 -0.34909822148757808 0.06037421403352132 0 -0.35586120822019068 0.082112892687927444 0 -0.34122595447521131 0.081031493547087358 0 -0.34909822148757808 0.06037421403352132 0 -0.37191756568804107 0.066739953928913298 0 -0.35586120822019068 0.082112892687927444 0 -0.34909822148757808 0.06037421403352132 0 -0.34122595447521131 0.081031493547087358 0 -0.35586120822019068 0.082112892687927444 0 -0.36262419495280129 0.1038515713423341 0 -0.35586120822019068 0.082112892687927444 0 -0.36262419495280129 0.1038515713423341 0 -0.34676829850597268 0.094510259469289468 0 -0.35586120822019068 0.082112892687927444 0 -0.34676829850597268 0.094510259469289468 0 -0.34122595447521131 0.081031493547087358 0 -0.35586120822019068 0.082112892687927444 0 -0.37138104083623391 0.082703932652830325 0 -0.36262419495280129 0.1038515713423341 0 -0.37678680274428078 0.095920052983538381 0 -0.37138104083623391 0.082703932652830325 0 -0.36262419495280129 0.1038515713423341 0 -0.36938718168541179 0.1255902499967409 0 -0.35200794605681629 0.12502238642781019 0 -0.36262419495280129 0.1038515713423341 0 -0.3875766108720648 0.10801011350679229 0 -0.36938718168541179 0.1255902499967409 0 -0.36262419495280129 0.1038515713423341 0 -0.36938718168541179 0.1255902499967409 0 -0.36262419495280129 0.1038515713423341 0 -0.35200794605681629 0.12502238642781019 0 -0.36262419495280129 0.1038515713423341 0 -0.34097979843748499 0.11073282128248541 0 -0.36262419495280129 0.1038515713423341 0 -0.34676829850597268 0.094510259469289468 0 -0.34097979843748499 0.11073282128248541 0 -0.33315033644417541 0.094822518486612939 0 -0.34097979843748499 0.11073282128248541 0 -0.31723531685176609 0.1198603304800319 0 -0.34676829850597268 0.094510259469289468 0 -0.33315033644417541 0.094822518486612939 0 -0.34097979843748499 0.11073282128248541 0 -0.35200794605681629 0.12502238642781019 0 -0.33282908497732799 0.12691684344983439 0 -0.34097979843748499 0.11073282128248541 0 -0.33282908497732799 0.12691684344983439 0 -0.34097979843748499 0.11073282128248541 0 -0.31723531685176609 0.1198603304800319 0 -0.30367881485676818 0.104740917537869 0 -0.31723531685176609 0.1198603304800319 0 -0.31724517505712951 0.098806923667406316 0 -0.33315033644417541 0.094822518486612939 0 -0.31723531685176609 0.1198603304800319 0 -0.33315033644417541 0.094822518486612939 0 -0.31723531685176609 0.1198603304800319 0 -0.31724517505712951 0.098806923667406316 0 -0.30859009333780452 0.087437634974232029 0 -0.31724517505712951 0.098806923667406316 0 -0.32357131379513321 0.087173216858285787 0 -0.33315033644417541 0.094822518486612939 0 -0.31724517505712951 0.098806923667406316 0 -0.32357131379513321 0.087173216858285787 0 -0.30660633332941051 0.074378369855040594 0 -0.30859009333780452 0.087437634974232029 0 -0.32274642435413547 0.073355371094589714 0 -0.30859009333780452 0.087437634974232029 0 -0.32357131379513321 0.087173216858285787 0 -0.32274642435413547 0.073355371094589714 0 -0.31081826144354868 0.060679329518446831 0 -0.32831049041907839 0.055921771907720449 0 -0.32274642435413547 0.073355371094589714 0 -0.30660633332941051 0.074378369855040594 0 -0.31081826144354868 0.060679329518446831 0 -0.32274642435413547 0.073355371094589714 0 -0.32831049041907839 0.055921771907720449 0 -0.32274642435413547 0.073355371094589714 0 -0.3353113387102199 0.067919589230939131 0 -0.34909822148757808 0.06037421403352132 0 -0.3353113387102199 0.067919589230939131 0 -0.34122595447521131 0.081031493547087358 0 -0.32274642435413547 0.073355371094589714 0 -0.3353113387102199 0.067919589230939131 0 -0.34122595447521131 0.081031493547087358 0 -0.33315033644417541 0.094822518486612939 0 -0.32357131379513321 0.087173216858285787 0 -0.34122595447521131 0.081031493547087358 0 -0.32357131379513321 0.087173216858285787 0 -0.32274642435413547 0.073355371094589714 0 -0.34122595447521131 0.081031493547087358 0 -0.34676829850597268 0.094510259469289468 0 -0.33315033644417541 0.094822518486612939 0 -0.34122595447521131 0.081031493547087358 0 -0.39098080248864292 0.48082949146892462 0 -0.39688472812408349 0.46225301958370763 0 -0.40654981809613899 0.47943816589621452 0 -0.39098080248864292 0.48082949146892462 0 -0.40517642966730788 0.5 0 -0.40654981809613899 0.47943816589621452 0 -0.39098080248864292 0.48082949146892462 0 -0.40517642966730788 0.5 0 -0.37984386551400101 0.5 0 -0.39098080248864292 0.48082949146892462 0 -0.37984386551400101 0.5 0 -0.36562800957556379 0.48144847740775781 0 -0.39098080248864292 0.48082949146892462 0 -0.37674471779043378 0.46289695481551602 0 -0.36562800957556379 0.48144847740775781 0 -0.39098080248864292 0.48082949146892462 0 -0.37674471779043378 0.46289695481551602 0 -0.39688472812408349 0.46225301958370763 0 -0.37674471779043378 0.46289695481551602 0 -0.38786142600530288 0.44434543222327372 0 -0.37674471779043378 0.46289695481551602 0 -0.38786142600530288 0.44434543222327372 0 -0.3636594906987341 0.45259116813215772 0 -0.37674471779043378 0.46289695481551602 0 -0.38786142600530288 0.44434543222327372 0 -0.39688472812408349 0.46225301958370763 0 -0.38786142600530288 0.44434543222327372 0 -0.38219330561030318 0.43733759585905729 0 -0.37031446948010971 0.44164379239859503 0 -0.38786142600530288 0.44434543222327372 0 -0.3636594906987341 0.45259116813215772 0 -0.38786142600530288 0.44434543222327372 0 -0.39005529127119792 0.44068431777663197 0 -0.38219330561030318 0.43733759585905729 0 -0.38786142600530288 0.44434543222327372 0 -0.39005529127119792 0.44068431777663197 0 -0.38786142600530288 0.44434543222327372 0 -0.40276516754681568 0.43926764339155733 0 -0.39688472812408349 0.46225301958370763 0 -0.38786142600530288 0.44434543222327372 0 -0.40276516754681568 0.43926764339155733 0 -0.38786142600530288 0.44434543222327372 0 -0.39005529127119792 0.44068431777663197 0 -0.40276516754681568 0.43926764339155733 0 -0.40276516754681568 0.43926764339155733 0 -0.39688472812408349 0.46225301958370763 0 -0.41912534642966243 0.46276605766276058 0 -0.39688472812408349 0.46225301958370763 0 -0.41912534642966243 0.46276605766276058 0 -0.40654981809613899 0.47943816589621452 0 -0.40276516754681568 0.43926764339155733 0 -0.41912534642966243 0.46276605766276058 0 -0.41766890908832871 0.43418985455984122 0 -0.41912534642966243 0.46276605766276058 0 -0.41766890908832871 0.43418985455984122 0 -0.43637228529971711 0.45059119829788907 0 -0.44062134191292651 0.43194009349776402 0 -0.42355994468304931 0.43218274549486041 0 -0.41912534642966243 0.46276605766276058 0 -0.43637228529971711 0.45059119829788907 0 -0.41766890908832871 0.43418985455984122 0 -0.43637228529971711 0.45059119829788907 0 -0.42355994468304931 0.43218274549486041 0 -0.41766890908832871 0.43418985455984122 0 -0.41912534642966243 0.46276605766276058 0 -0.43637228529971711 0.45059119829788907 0 -0.43819607322225379 0.4802098919466351 0 -0.41912534642966243 0.46276605766276058 0 -0.42058178377099831 0.49134226076567977 0 -0.43819607322225379 0.4802098919466351 0 -0.41912534642966243 0.46276605766276058 0 -0.40654981809613899 0.47943816589621452 0 -0.42058178377099831 0.49134226076567977 0 -0.41912534642966243 0.46276605766276058 0 -0.42058178377099831 0.49134226076567977 0 -0.40517642966730788 0.5 0 -0.40654981809613899 0.47943816589621452 0 -0.42058178377099831 0.49134226076567977 0 -0.40517642966730788 0.5 0 -0.42058178377099831 0.49134226076567977 0 -0.43050899382061492 0.5 0 -0.42058178377099831 0.49134226076567977 0 -0.43050899382061492 0.5 0 -0.43819607322225379 0.4802098919466351 0 -0.43050899382061492 0.5 0 -0.43819607322225379 0.4802098919466351 0 -0.4558415579739219 0.50000000000000289 0 -0.5 0.5 0 -0.45848093797747058 0.44107104525054719 0 -0.5 0.39368719930634488 0 -0.43819607322225379 0.4802098919466351 0 -0.45716124797569629 0.47053552262527509 0 -0.4558415579739219 0.50000000000000289 0 -0.45716124797569629 0.47053552262527509 0 -0.4558415579739219 0.50000000000000289 0 -0.45716124797569629 0.47053552262527509 0 -0.5 0.5 0 -0.45848093797747058 0.44107104525054719 0 -0.45716124797569629 0.47053552262527509 0 -0.4558415579739219 0.50000000000000289 0 -0.5 0.5 0 -0.45716124797569629 0.47053552262527509 0 -0.45848093797747058 0.44107104525054719 0 -0.43637228529971711 0.45059119829788907 0 -0.45716124797569629 0.47053552262527509 0 -0.45848093797747058 0.44107104525054719 0 -0.43637228529971711 0.45059119829788907 0 -0.43819607322225379 0.4802098919466351 0 -0.45716124797569629 0.47053552262527509 0 -0.43637228529971711 0.45059119829788907 0 -0.45848093797747058 0.44107104525054719 0 -0.44062134191292651 0.43194009349776402 0 -0.45848093797747058 0.44107104525054719 0 -0.44062134191292651 0.43194009349776402 0 -0.45980062797924498 0.41160656787581928 0 -0.44121582346845373 0.41376147505037958 0 -0.45980062797924498 0.41160656787581928 0 -0.45143531712829632 0.39504510946912502 0 -0.44062134191292651 0.43194009349776402 0 -0.44121582346845373 0.41376147505037958 0 -0.45980062797924498 0.41160656787581928 0 -0.45848093797747058 0.44107104525054719 0 -0.45980062797924498 0.41160656787581928 0 -0.45848093797747058 0.44107104525054719 0 -0.45980062797924498 0.41160656787581928 0 -0.5 0.39368719930634488 0 -0.45980062797924498 0.41160656787581928 0 -0.5 0.39368719930634488 0 -0.47061151440635052 0.38738233066939171 0 -0.5 0.39368719930634488 0 -0.47061151440635052 0.38738233066939171 0 -0.47244599738177773 0.36378702031114818 0 -0.47061151440635052 0.38738233066939171 0 -0.45360913424094712 0.37591717629495691 0 -0.45143531712829632 0.39504510946912502 0 -0.47061151440635052 0.38738233066939171 0 -0.45360913424094712 0.37591717629495691 0 -0.47244599738177773 0.36378702031114818 0 -0.45980062797924498 0.41160656787581928 0 -0.47061151440635052 0.38738233066939171 0 -0.45143531712829632 0.39504510946912502 0 -0.44121582346845373 0.41376147505037958 0 -0.45143531712829632 0.39504510946912502 0 -0.43115992967391842 0.40404311620122768 0 -0.45143531712829632 0.39504510946912502 0 -0.43477227110011651 0.38804733227876548 0 -0.43115992967391842 0.40404311620122768 0 -0.45360913424094712 0.37591717629495691 0 -0.43477227110011651 0.38804733227876548 0 -0.43761421779729981 0.36799172170783712 0 -0.45360913424094712 0.37591717629495691 0 -0.43477227110011651 0.38804733227876548 0 -0.45360913424094712 0.37591717629495691 0 -0.45143531712829632 0.39504510946912502 0 -0.43477227110011651 0.38804733227876548 0 -0.41504006019910189 0.38261021041501481 0 -0.43761421779729981 0.36799172170783712 0 -0.43477227110011651 0.38804733227876548 0 -0.41504006019910189 0.38261021041501481 0 -0.43761421779729981 0.36799172170783712 0 -0.43477227110011651 0.38804733227876548 0 -0.41504006019910189 0.38261021041501481 0 -0.4159354079592873 0.40017748826257649 0 -0.41504006019910189 0.38261021041501481 0 -0.41164644412426671 0.3848078356442457 0 -0.42787124419666578 0.3625299828724986 0 -0.41164644412426671 0.3848078356442457 0 -0.40212947449434688 0.3748414468342991 0 -0.41107150013157362 0.36619624614190099 0 -0.41504006019910189 0.38261021041501481 0 -0.41164644412426671 0.3848078356442457 0 -0.41109804598765209 0.39149102164547678 0 -0.41504006019910189 0.38261021041501481 0 -0.41164644412426671 0.3848078356442457 0 -0.41504006019910189 0.38261021041501481 0 -0.4159354079592873 0.40017748826257649 0 -0.41504006019910189 0.38261021041501481 0 -0.41109804598765209 0.39149102164547678 0 -0.4159354079592873 0.40017748826257649 0 -0.41164644412426671 0.3848078356442457 0 -0.41109804598765209 0.39149102164547678 0 -0.40177027166795132 0.3983685522600704 0 -0.41109804598765209 0.39149102164547678 0 -0.4159354079592873 0.40017748826257649 0 -0.40177027166795132 0.3983685522600704 0 -0.41164644412426671 0.3848078356442457 0 -0.40177027166795132 0.3983685522600704 0 -0.43477227110011651 0.38804733227876548 0 -0.4159354079592873 0.40017748826257649 0 -0.43477227110011651 0.38804733227876548 0 -0.4159354079592873 0.40017748826257649 0 -0.43115992967391842 0.40404311620122768 0 -0.44121582346845373 0.41376147505037958 0 -0.43115992967391842 0.40404311620122768 0 -0.42986314558338468 0.42022497384430652 0 -0.43115992967391842 0.40404311620122768 0 -0.42986314558338468 0.42022497384430652 0 -0.41680215852380748 0.41718367141120882 0 -0.44062134191292651 0.43194009349776402 0 -0.44121582346845373 0.41376147505037958 0 -0.42986314558338468 0.42022497384430652 0 -0.44062134191292651 0.43194009349776402 0 -0.42986314558338468 0.42022497384430652 0 -0.42355994468304931 0.43218274549486041 0 -0.42986314558338468 0.42022497384430652 0 -0.42355994468304931 0.43218274549486041 0 -0.41680215852380748 0.41718367141120882 0 -0.41766890908832871 0.43418985455984122 0 -0.41680215852380748 0.41718367141120882 0 -0.41766890908832871 0.43418985455984122 0 -0.41680215852380748 0.41718367141120882 0 -0.40452415779474138 0.42721409118458831 0 -0.42355994468304931 0.43218274549486041 0 -0.41766890908832871 0.43418985455984122 0 -0.41680215852380748 0.41718367141120882 0 -0.42355994468304931 0.43218274549486041 0 -0.41766890908832871 0.43418985455984122 0 -0.40276516754681568 0.43926764339155733 0 -0.41766890908832871 0.43418985455984122 0 -0.40276516754681568 0.43926764339155733 0 -0.41766890908832871 0.43418985455984122 0 -0.40452415779474138 0.42721409118458831 0 -0.4159354079592873 0.40017748826257649 0 -0.43115992967391842 0.40404311620122768 0 -0.41680215852380748 0.41718367141120882 0 -0.4159354079592873 0.40017748826257649 0 -0.41680215852380748 0.41718367141120882 0 -0.4159354079592873 0.40017748826257649 0 -0.41680215852380748 0.41718367141120882 0 -0.39328619543943649 0.41476263859902718 0 -0.39328619543943649 0.41476263859902718 0 -0.39189409921163532 0.41192926887589459 0 -0.40177027166795132 0.3983685522600704 0 -0.4159354079592873 0.40017748826257649 0 -0.39328619543943649 0.41476263859902718 0 -0.41680215852380748 0.41718367141120882 0 -0.39328619543943649 0.41476263859902718 0 -0.40452415779474138 0.42721409118458831 0 -0.39328619543943649 0.41476263859902718 0 -0.40452415779474138 0.42721409118458831 0 -0.39209835837531859 0.43066664796130649 0 -0.40276516754681568 0.43926764339155733 0 -0.40452415779474138 0.42721409118458831 0 -0.39209835837531859 0.43066664796130649 0 -0.39005529127119792 0.44068431777663197 0 -0.40276516754681568 0.43926764339155733 0 -0.39209835837531859 0.43066664796130649 0 -0.39328619543943649 0.41476263859902718 0 -0.37063698291958719 0.42934778893548009 0 -0.39209835837531859 0.43066664796130649 0 -0.38219330561030318 0.43733759585905729 0 -0.37063698291958719 0.42934778893548009 0 -0.39328619543943649 0.41476263859902718 0 -0.39209835837531859 0.43066664796130649 0 -0.37063698291958719 0.42934778893548009 0 -0.39005529127119792 0.44068431777663197 0 -0.39209835837531859 0.43066664796130649 0 -0.38219330561030318 0.43733759585905729 0 -0.39189409921163532 0.41192926887589459 0 -0.39195655763330312 0.3975585388349005 0 -0.37226667114234002 0.41030924202555608 0 -0.39328619543943649 0.41476263859902718 0 -0.39189409921163532 0.41192926887589459 0 -0.37226667114234002 0.41030924202555608 0 -0.39328619543943649 0.41476263859902718 0 -0.37226667114234002 0.41030924202555608 0 -0.37063698291958719 0.42934778893548009 0 -0.39195655763330312 0.3975585388349005 0 -0.37226667114234002 0.41030924202555608 0 -0.39195655763330312 0.3975585388349005 0 -0.37495024184161951 0.39669027322643757 0 -0.37226667114234002 0.41030924202555608 0 -0.38343510648805168 0.38508963626910381 0 -0.39195655763330312 0.3975585388349005 0 -0.37495024184161951 0.39669027322643757 0 -0.38343510648805168 0.38508963626910381 0 -0.36896039956082288 0.38726624238899698 0 -0.37495024184161951 0.39669027322643757 0 -0.38343510648805168 0.38508963626910381 0 -0.37817844187468841 0.37049799817574158 0 -0.36896039956082288 0.38726624238899698 0 -0.38343510648805168 0.38508963626910381 0 -0.39677184295297052 0.38392901966133991 0 -0.39106782088146019 0.37499676007273403 0 -0.38343510648805168 0.38508963626910381 0 -0.39106782088146019 0.37499676007273403 0 -0.37817844187468841 0.37049799817574158 0 -0.38343510648805168 0.38508963626910381 0 -0.39677184295297052 0.38392901966133991 0 -0.39195655763330312 0.3975585388349005 0 -0.41164644412426671 0.3848078356442457 0 -0.39677184295297052 0.38392901966133991 0 -0.39195655763330312 0.3975585388349005 0 -0.39677184295297052 0.38392901966133991 0 -0.40212947449434688 0.3748414468342991 0 -0.39106782088146019 0.37499676007273403 0 -0.41164644412426671 0.3848078356442457 0 -0.39677184295297052 0.38392901966133991 0 -0.40212947449434688 0.3748414468342991 0 -0.41164644412426671 0.3848078356442457 0 -0.39195655763330312 0.3975585388349005 0 -0.4159354079592873 0.40017748826257649 0 -0.39328619543943649 0.41476263859902718 0 -0.40177027166795132 0.3983685522600704 0 -0.41164644412426671 0.3848078356442457 0 -0.40177027166795132 0.3983685522600704 0 -0.39195655763330312 0.3975585388349005 0 -0.39189409921163532 0.41192926887589459 0 -0.40177027166795132 0.3983685522600704 0 -0.39195655763330312 0.3975585388349005 0 -0.39189409921163532 0.41192926887589459 0 -0.40177027166795132 0.3983685522600704 0 -0.38763875309648088 0.35121150247505228 0 -0.41586739868277361 0.34573181628790323 0 -0.39706953126344319 0.36332699894800602 0 -0.38763875309648088 0.35121150247505228 0 -0.41586739868277361 0.34573181628790323 0 -0.38763875309648088 0.35121150247505228 0 -0.3937872350367228 0.33507229671605809 0 -0.41586739868277361 0.34573181628790323 0 -0.40212947449434688 0.3748414468342991 0 -0.39706953126344319 0.36332699894800602 0 -0.41107150013157362 0.36619624614190099 0 -0.40212947449434688 0.3748414468342991 0 -0.39106782088146019 0.37499676007273403 0 -0.39706953126344319 0.36332699894800602 0 -0.37817844187468841 0.37049799817574158 0 -0.38763875309648088 0.35121150247505228 0 -0.35941010751018809 0.3566911886622014 0 -0.39706953126344319 0.36332699894800602 0 -0.37817844187468841 0.37049799817574158 0 -0.38763875309648088 0.35121150247505228 0 -0.39106782088146019 0.37499676007273403 0 -0.39706953126344319 0.36332699894800602 0 -0.37817844187468841 0.37049799817574158 0 -0.38659885775585739 0.31565850626255348 0 -0.3937872350367228 0.33507229671605809 0 -0.371857819856382 0.33718357931137699 0 -0.38763875309648088 0.35121150247505228 0 -0.3937872350367228 0.33507229671605809 0 -0.371857819856382 0.33718357931137699 0 -0.38659885775585739 0.31565850626255348 0 -0.371857819856382 0.33718357931137699 0 -0.38659885775585739 0.31565850626255348 0 -0.3736940231061725 0.31398947852622111 0 -0.371857819856382 0.33718357931137699 0 -0.38659885775585739 0.31565850626255348 0 -0.3937872350367228 0.33507229671605809 0 -0.40697334579212008 0.32557607924340459 0 -0.38659885775585739 0.31565850626255348 0 -0.40697334579212008 0.32557607924340459 0 -0.40344199037643141 0.31069905435295109 0 -0.3937872350367228 0.33507229671605809 0 -0.40697334579212008 0.32557607924340459 0 -0.41586739868277361 0.34573181628790323 0 -0.40697334579212008 0.32557607924340459 0 -0.42641657962310969 0.33014507151577532 0 -0.41586739868277361 0.34573181628790323 0 -0.40697334579212008 0.32557607924340459 0 -0.42482201379485501 0.3164116993459492 0 -0.40344199037643141 0.31069905435295109 0 -0.40697334579212008 0.32557607924340459 0 -0.42482201379485501 0.3164116993459492 0 -0.42641657962310969 0.33014507151577532 0 -0.42482201379485501 0.3164116993459492 0 -0.44032409557673402 0.32275363260086698 0 -0.44093041861641502 0.30629419798598828 0 -0.42482201379485501 0.3164116993459492 0 -0.42641657962310969 0.33014507151577532 0 -0.44032409557673402 0.32275363260086698 0 -0.42641657962310969 0.33014507151577532 0 -0.41586739868277361 0.34573181628790323 0 -0.44409604426906601 0.34025213010075239 0 -0.42641657962310969 0.33014507151577532 0 -0.44409604426906601 0.34025213010075239 0 -0.44032409557673402 0.32275363260086698 0 -0.41586739868277361 0.34573181628790323 0 -0.44409604426906601 0.34025213010075239 0 -0.42787124419666578 0.3625299828724986 0 -0.44409604426906601 0.34025213010075239 0 -0.41586739868277361 0.34573181628790323 0 -0.42787124419666578 0.3625299828724986 0 -0.44409604426906601 0.34025213010075239 0 -0.41586739868277361 0.34573181628790323 0 -0.41107150013157362 0.36619624614190099 0 -0.42787124419666578 0.3625299828724986 0 -0.39706953126344319 0.36332699894800602 0 -0.41586739868277361 0.34573181628790323 0 -0.41107150013157362 0.36619624614190099 0 -0.41164644412426671 0.3848078356442457 0 -0.41107150013157362 0.36619624614190099 0 -0.42787124419666578 0.3625299828724986 0 -0.41164644412426671 0.3848078356442457 0 -0.42787124419666578 0.3625299828724986 0 -0.41504006019910189 0.38261021041501481 0 -0.42787124419666578 0.3625299828724986 0 -0.43761421779729981 0.36799172170783712 0 -0.42787124419666578 0.3625299828724986 0 -0.43761421779729981 0.36799172170783712 0 -0.44532995730629832 0.35516754502531411 0 -0.5 0.39368719930634488 0 -0.5 0.31375562759013931 0 -0.49236992051172512 0.33088130527536841 0 -0.5 0.39368719930634488 0 -0.49236992051172512 0.33088130527536841 0 -0.48276253299369798 0.33875474429348529 0 -0.43761421779729981 0.36799172170783712 0 -0.46018837539549878 0.35337323300066131 0 -0.45360913424094712 0.37591717629495691 0 -0.43761421779729981 0.36799172170783712 0 -0.46018837539549878 0.35337323300066131 0 -0.44532995730629832 0.35516754502531411 0 -0.46018837539549878 0.35337323300066131 0 -0.44409604426906601 0.34025213010075239 0 -0.42787124419666578 0.3625299828724986 0 -0.44532995730629832 0.35516754502531411 0 -0.44409604426906601 0.34025213010075239 0 -0.43761421779729981 0.36799172170783712 0 -0.44532995730629832 0.35516754502531411 0 -0.46018837539549878 0.35337323300066131 0 -0.45360913424094712 0.37591717629495691 0 -0.47244599738177773 0.36378702031114818 0 -0.45360913424094712 0.37591717629495691 0 -0.46018837539549878 0.35337323300066131 0 -0.47244599738177773 0.36378702031114818 0 -0.5 0.39368719930634488 0 -0.47244599738177773 0.36378702031114818 0 -0.48276253299369798 0.33875474429348529 0 -0.46018837539549878 0.35337323300066131 0 -0.47244599738177773 0.36378702031114818 0 -0.48276253299369798 0.33875474429348529 0 -0.46018837539549878 0.35337323300066131 0 -0.48276253299369798 0.33875474429348529 0 -0.5 0.31375562759013931 0 -0.49236992051172512 0.33088130527536841 0 -0.47844448370196352 0.32365782782372382 0 -0.49236992051172512 0.33088130527536841 0 -0.48276253299369798 0.33875474429348529 0 -0.46823298239039562 0.33556671768806118 0 -0.49236992051172512 0.33088130527536841 0 -0.47844448370196352 0.32365782782372382 0 -0.46823298239039562 0.33556671768806118 0 -0.46018837539549878 0.35337323300066131 0 -0.48276253299369798 0.33875474429348529 0 -0.46823298239039562 0.33556671768806118 0 -0.49236992051172512 0.33088130527536841 0 -0.46823298239039562 0.33556671768806118 0 -0.5 0.31375562759013931 0 -0.47844448370196352 0.32365782782372382 0 -0.47326150671693828 0.30885130336962702 0 -0.47844448370196352 0.32365782782372382 0 -0.46553845445045222 0.32292377735302652 0 -0.46823298239039562 0.33556671768806118 0 -0.47844448370196352 0.32365782782372382 0 -0.46553845445045222 0.32292377735302652 0 -0.47326150671693828 0.30885130336962702 0 -0.46553845445045222 0.32292377735302652 0 -0.45536731290503107 0.31414791777939732 0 -0.47326150671693828 0.30885130336962702 0 -0.46553845445045222 0.32292377735302652 0 -0.45342644041040631 0.32744080480790411 0 -0.45536731290503107 0.31414791777939732 0 -0.46823298239039562 0.33556671768806118 0 -0.44409604426906601 0.34025213010075239 0 -0.46018837539549878 0.35337323300066131 0 -0.46823298239039562 0.33556671768806118 0 -0.44409604426906601 0.34025213010075239 0 -0.45342644041040631 0.32744080480790411 0 -0.46823298239039562 0.33556671768806118 0 -0.44409604426906601 0.34025213010075239 0 -0.46553845445045222 0.32292377735302652 0 -0.45342644041040631 0.32744080480790411 0 -0.46823298239039562 0.33556671768806118 0 -0.45342644041040631 0.32744080480790411 0 -0.44409604426906601 0.34025213010075239 0 -0.44032409557673402 0.32275363260086698 0 -0.45342644041040631 0.32744080480790411 0 -0.44409604426906601 0.34025213010075239 0 -0.45536731290503107 0.31414791777939732 0 -0.44032409557673402 0.32275363260086698 0 -0.44093041861641502 0.30629419798598828 0 -0.45342644041040631 0.32744080480790411 0 -0.45536731290503107 0.31414791777939732 0 -0.44032409557673402 0.32275363260086698 0 -0.44093041861641502 0.30629419798598828 0 -0.44456522433562062 0.28987896746967612 0 -0.45784842118247587 0.29630392741269229 0 -0.45536731290503107 0.31414791777939732 0 -0.44093041861641502 0.30629419798598828 0 -0.45784842118247587 0.29630392741269229 0 -0.44456522433562062 0.28987896746967612 0 -0.45784842118247587 0.29630392741269229 0 -0.45683589886731429 0.27944522996227389 0 -0.45784842118247587 0.29630392741269229 0 -0.47613016565353689 0.27920594790919162 0 -0.45683589886731429 0.27944522996227389 0 -0.45536731290503107 0.31414791777939732 0 -0.45784842118247587 0.29630392741269229 0 -0.47326150671693828 0.30885130336962702 0 -0.5 0.31375562759013931 0 -0.47326150671693828 0.30885130336962702 0 -0.47613016565353689 0.27920594790919162 0 -0.5 0.31375562759013931 0 -0.5 0.25502500317745308 0 -0.47613016565353689 0.27920594790919162 0 -0.45784842118247587 0.29630392741269229 0 -0.47326150671693828 0.30885130336962702 0 -0.47613016565353689 0.27920594790919162 0 -0.5 0.25502500317745308 0 -0.47613016565353689 0.27920594790919162 0 -0.46826200115894351 0.25268254595322559 0 -0.46826200115894351 0.25268254595322559 0 -0.46001429554523132 0.26715439528268792 0 -0.44622747097204157 0.25447826500352411 0 -0.47613016565353689 0.27920594790919162 0 -0.46001429554523132 0.26715439528268792 0 -0.45683589886731429 0.27944522996227389 0 -0.47613016565353689 0.27920594790919162 0 -0.46826200115894351 0.25268254595322559 0 -0.46001429554523132 0.26715439528268792 0 -0.44456522433562062 0.28987896746967612 0 -0.45683589886731429 0.27944522996227389 0 -0.43912327732866052 0.27082845975049152 0 -0.46001429554523132 0.26715439528268792 0 -0.45683589886731429 0.27944522996227389 0 -0.43912327732866052 0.27082845975049152 0 -0.43912327732866052 0.27082845975049152 0 -0.44622747097204157 0.25447826500352411 0 -0.4271662496375016 0.26119471126077209 0 -0.46001429554523132 0.26715439528268792 0 -0.43912327732866052 0.27082845975049152 0 -0.44622747097204157 0.25447826500352411 0 -0.43243648966469961 0.24825823729562091 0 -0.4271662496375016 0.26119471126077209 0 -0.4154354269666965 0.25327969466909228 0 -0.43243648966469961 0.24825823729562091 0 -0.44622747097204157 0.25447826500352411 0 -0.4271662496375016 0.26119471126077209 0 -0.4154354269666965 0.25327969466909228 0 -0.41608093355480807 0.27260836016490658 0 -0.3994904005985685 0.26310408063752239 0 -0.4271662496375016 0.26119471126077209 0 -0.4154354269666965 0.25327969466909228 0 -0.41608093355480807 0.27260836016490658 0 -0.43912327732866052 0.27082845975049152 0 -0.4271662496375016 0.26119471126077209 0 -0.41608093355480807 0.27260836016490658 0 -0.43912327732866052 0.27082845975049152 0 -0.41608093355480807 0.27260836016490658 0 -0.42569467822547491 0.29333324823827622 0 -0.44093041861641502 0.30629419798598828 0 -0.44456522433562062 0.28987896746967612 0 -0.42569467822547491 0.29333324823827622 0 -0.44456522433562062 0.28987896746967612 0 -0.43912327732866052 0.27082845975049152 0 -0.42569467822547491 0.29333324823827622 0 -0.42482201379485501 0.3164116993459492 0 -0.44093041861641502 0.30629419798598828 0 -0.42569467822547491 0.29333324823827622 0 -0.42482201379485501 0.3164116993459492 0 -0.42569467822547491 0.29333324823827622 0 -0.41580892915603301 0.30455156730479449 0 -0.41580892915603301 0.30455156730479449 0 -0.40133989565533279 0.29413343321372998 0 -0.40344199037643141 0.31069905435295109 0 -0.42569467822547491 0.29333324823827622 0 -0.41580892915603301 0.30455156730479449 0 -0.40133989565533279 0.29413343321372998 0 -0.42482201379485501 0.3164116993459492 0 -0.41580892915603301 0.30455156730479449 0 -0.40344199037643141 0.31069905435295109 0 -0.41608093355480807 0.27260836016490658 0 -0.42569467822547491 0.29333324823827622 0 -0.40133989565533279 0.29413343321372998 0 -0.41608093355480807 0.27260836016490658 0 -0.40133989565533279 0.29413343321372998 0 -0.40133989565533279 0.29413343321372998 0 -0.391405356210975 0.28736794428101681 0 -0.38183605444568008 0.30159254882832942 0 -0.41608093355480807 0.27260836016490658 0 -0.40133989565533279 0.29413343321372998 0 -0.39791334778191012 0.27873259344880857 0 -0.40133989565533279 0.29413343321372998 0 -0.391405356210975 0.28736794428101681 0 -0.39791334778191012 0.27873259344880857 0 -0.38659885775585739 0.31565850626255348 0 -0.40133989565533279 0.29413343321372998 0 -0.40344199037643141 0.31069905435295109 0 -0.38659885775585739 0.31565850626255348 0 -0.40133989565533279 0.29413343321372998 0 -0.38659885775585739 0.31565850626255348 0 -0.40133989565533279 0.29413343321372998 0 -0.38183605444568008 0.30159254882832942 0 -0.38183605444568008 0.30159254882832942 0 -0.37466468983423318 0.28951354051077988 0 -0.36997315068782782 0.30191223918603199 0 -0.38183605444568008 0.30159254882832942 0 -0.36997315068782782 0.30191223918603199 0 -0.3736940231061725 0.31398947852622111 0 -0.38659885775585739 0.31565850626255348 0 -0.38183605444568008 0.30159254882832942 0 -0.3736940231061725 0.31398947852622111 0 -0.391405356210975 0.28736794428101681 0 -0.38183605444568008 0.30159254882832942 0 -0.38453212696097688 0.2750132016331992 0 -0.38183605444568008 0.30159254882832942 0 -0.38453212696097688 0.2750132016331992 0 -0.37466468983423318 0.28951354051077988 0 -0.38183605444568008 0.30159254882832942 0 -0.38453212696097688 0.2750132016331992 0 -0.37672471104263361 0.27561795758142188 0 -0.38453212696097688 0.2750132016331992 0 -0.37466468983423318 0.28951354051077988 0 -0.37672471104263361 0.27561795758142188 0 -0.38453212696097688 0.2750132016331992 0 -0.37896013194671968 0.25534683486931381 0 -0.38722819947627368 0.24843385443806909 0 -0.38453212696097688 0.2750132016331992 0 -0.37896013194671968 0.25534683486931381 0 -0.37672471104263361 0.27561795758142188 0 -0.37896013194671968 0.25534683486931381 0 -0.38722819947627368 0.24843385443806909 0 -0.38453212696097688 0.2750132016331992 0 -0.3994904005985685 0.26310408063752239 0 -0.38722819947627368 0.24843385443806909 0 -0.38453212696097688 0.2750132016331992 0 -0.40101037553383972 0.24850817254535781 0 -0.4154354269666965 0.25327969466909228 0 -0.3994904005985685 0.26310408063752239 0 -0.38722819947627368 0.24843385443806909 0 -0.40101037553383972 0.24850817254535781 0 -0.3994904005985685 0.26310408063752239 0 -0.38453212696097688 0.2750132016331992 0 -0.3994904005985685 0.26310408063752239 0 -0.39791334778191012 0.27873259344880857 0 -0.41608093355480807 0.27260836016490658 0 -0.3994904005985685 0.26310408063752239 0 -0.39791334778191012 0.27873259344880857 0 -0.391405356210975 0.28736794428101681 0 -0.38453212696097688 0.2750132016331992 0 -0.39791334778191012 0.27873259344880857 0 -0.35754908974886279 0.25815157521253052 0 -0.35995394297715549 0.27846885519039472 0 -0.3399009986899495 0.26863911531903439 0 -0.34139946132247112 0.24041351753421181 0 -0.35754908974886279 0.25815157521253052 0 -0.3399009986899495 0.26863911531903439 0 -0.37672471104263361 0.27561795758142188 0 -0.37896013194671968 0.25534683486931381 0 -0.3691483330232409 0.26445373858247911 0 -0.35754908974886279 0.25815157521253052 0 -0.36759241766554501 0.2538245840294952 0 -0.3691483330232409 0.26445373858247911 0 -0.36182205832064851 0.24457456243760281 0 -0.35754908974886279 0.25815157521253052 0 -0.36759241766554501 0.2538245840294952 0 -0.37210575503526089 0.24405057661464391 0 -0.37896013194671968 0.25534683486931381 0 -0.36759241766554501 0.2538245840294952 0 -0.37896013194671968 0.25534683486931381 0 -0.36759241766554501 0.2538245840294952 0 -0.3691483330232409 0.26445373858247911 0 -0.35754908974886279 0.25815157521253052 0 -0.3691483330232409 0.26445373858247911 0 -0.35995394297715549 0.27846885519039472 0 -0.37672471104263361 0.27561795758142188 0 -0.3691483330232409 0.26445373858247911 0 -0.35995394297715549 0.27846885519039472 0 -0.37672471104263361 0.27561795758142188 0 -0.35995394297715549 0.27846885519039472 0 -0.37466468983423318 0.28951354051077988 0 -0.35995394297715549 0.27846885519039472 0 -0.37466468983423318 0.28951354051077988 0 -0.36067095067979221 0.29568292426180159 0 -0.37466468983423318 0.28951354051077988 0 -0.36067095067979221 0.29568292426180159 0 -0.36997315068782782 0.30191223918603199 0 -0.36067095067979221 0.29568292426180159 0 -0.36997315068782782 0.30191223918603199 0 -0.35820423278511537 0.31360051904281339 0 -0.36997315068782782 0.30191223918603199 0 -0.35820423278511537 0.31360051904281339 0 -0.3736940231061725 0.31398947852622111 0 -0.36067095067979221 0.29568292426180159 0 -0.33840253605742793 0.29686471310385681 0 -0.35820423278511537 0.31360051904281339 0 -0.33840253605742793 0.29686471310385681 0 -0.33690407342490619 0.32509031088867912 0 -0.35820423278511537 0.31360051904281339 0 -0.35995394297715549 0.27846885519039472 0 -0.33840253605742793 0.29686471310385681 0 -0.3399009986899495 0.26863911531903439 0 -0.35995394297715549 0.27846885519039472 0 -0.36067095067979221 0.29568292426180159 0 -0.33840253605742793 0.29686471310385681 0 -0.33840253605742793 0.29686471310385681 0 -0.3399009986899495 0.26863911531903439 0 -0.33840253605742793 0.29686471310385681 0 -0.31331907053128433 0.313878567385664 0 -0.33690407342490619 0.32509031088867912 0 -0.33840253605742793 0.29686471310385681 0 -0.33690407342490619 0.32509031088867912 0 -0.33840253605742793 0.29686471310385681 0 -0.31760133335066493 0.29423642541125972 0 -0.31331907053128433 0.313878567385664 0 -0.33840253605742793 0.29686471310385681 0 -0.31760133335066493 0.29423642541125972 0 -0.31493928155445272 0.27430993559415479 0 -0.33840253605742793 0.29686471310385681 0 -0.31493928155445272 0.27430993559415479 0 -0.3399009986899495 0.26863911531903439 0 -0.34139946132247112 0.24041351753421181 0 -0.3399009986899495 0.26863911531903439 0 -0.34139946132247112 0.24041351753421181 0 -0.3399009986899495 0.26863911531903439 0 -0.32052316857880009 0.25199218265017043 0 -0.31493928155445272 0.27430993559415479 0 -0.3399009986899495 0.26863911531903439 0 -0.32052316857880009 0.25199218265017043 0 -0.31493928155445272 0.27430993559415479 0 -0.32052316857880009 0.25199218265017043 0 -0.29813700426351908 0.2549985658140525 0 -0.31493928155445272 0.27430993559415479 0 -0.29813700426351908 0.2549985658140525 0 -0.29529200006252948 0.27158343417855851 0 -0.31493928155445272 0.27430993559415479 0 -0.29529200006252948 0.27158343417855851 0 -0.29860197381843362 0.29024571476828781 0 -0.29529200006252948 0.27158343417855851 0 -0.28356153015689661 0.26077246338072052 0 -0.28122021051934548 0.27759049133557667 0 -0.29529200006252948 0.27158343417855851 0 -0.28122021051934548 0.27759049133557667 0 -0.29860197381843362 0.29024571476828781 0 -0.29813700426351908 0.2549985658140525 0 -0.29529200006252948 0.27158343417855851 0 -0.28356153015689661 0.26077246338072052 0 -0.28520633826073721 0.24204505302591109 0 -0.29813700426351908 0.2549985658140525 0 -0.28356153015689661 0.26077246338072052 0 -0.28520633826073721 0.24204505302591109 0 -0.28356153015689661 0.26077246338072052 0 -0.26991196520069161 0.25166683223725428 0 -0.28356153015689661 0.26077246338072052 0 -0.26991196520069161 0.25166683223725428 0 -0.26982671458757052 0.26781375962876097 0 -0.28356153015689661 0.26077246338072052 0 -0.26982671458757052 0.26781375962876097 0 -0.28122021051934548 0.27759049133557667 0 -0.26982671458757052 0.26781375962876097 0 -0.28122021051934548 0.27759049133557667 0 -0.25982227492027221 0.287750399741656 0 -0.2546175921406465 0.26128861144859822 0 -0.25982227492027221 0.287750399741656 0 -0.26982671458757052 0.26781375962876097 0 -0.2546175921406465 0.26128861144859822 0 -0.25982227492027221 0.287750399741656 0 -0.2546175921406465 0.26128861144859822 0 -0.25982227492027221 0.287750399741656 0 -0.24164285362834059 0.26945109504960563 0 -0.25054816238852479 0.24059870715785611 0 -0.2546175921406465 0.26128861144859822 0 -0.26991196520069161 0.25166683223725428 0 -0.26982671458757052 0.26781375962876097 0 -0.2546175921406465 0.26128861144859822 0 -0.25993357060704247 0.2432609816545768 0 -0.26991196520069161 0.25166683223725428 0 -0.2546175921406465 0.26128861144859822 0 -0.26991196520069161 0.25166683223725428 0 -0.2546175921406465 0.26128861144859822 0 -0.25982227492027221 0.287750399741656 0 -0.26502695769989643 0.31421218803471418 0 -0.25040582964490582 0.29567583303740069 0 -0.26031873506221342 0.31817490468258641 0 -0.26502695769989643 0.31421218803471418 0 -0.25040582964490582 0.29567583303740069 0 -0.26031873506221342 0.31817490468258641 0 -0.25040582964490582 0.29567583303740069 0 -0.25982227492027221 0.287750399741656 0 -0.26502695769989643 0.31421218803471418 0 -0.25040582964490582 0.29567583303740069 0 -0.26031873506221342 0.31817490468258641 0 -0.2434150889916675 0.31528126182336752 0 -0.25040582964490582 0.29567583303740069 0 -0.25982227492027221 0.287750399741656 0 -0.2404929242275981 0.27317676139221531 0 -0.28122021051934548 0.27759049133557667 0 -0.25982227492027221 0.287750399741656 0 -0.27872696579211859 0.29653502721740232 0 -0.27872696579211859 0.29653502721740232 0 -0.2889634120026453 0.31287634220677663 0 -0.26502695769989643 0.31421218803471418 0 -0.25982227492027221 0.287750399741656 0 -0.27872696579211859 0.29653502721740232 0 -0.26502695769989643 0.31421218803471418 0 -0.27872696579211859 0.29653502721740232 0 -0.29860197381843362 0.29024571476828781 0 -0.2889634120026453 0.31287634220677663 0 -0.28122021051934548 0.27759049133557667 0 -0.27872696579211859 0.29653502721740232 0 -0.29860197381843362 0.29024571476828781 0 -0.31760133335066493 0.29423642541125972 0 -0.31493928155445272 0.27430993559415479 0 -0.29860197381843362 0.29024571476828781 0 -0.29860197381843362 0.29024571476828781 0 -0.2889634120026453 0.31287634220677663 0 -0.31331907053128433 0.313878567385664 0 -0.31760133335066493 0.29423642541125972 0 -0.29860197381843362 0.29024571476828781 0 -0.31331907053128433 0.313878567385664 0 -0.29891576475332582 0.33197597815543639 0 -0.2889634120026453 0.31287634220677663 0 -0.31331907053128433 0.313878567385664 0 -0.29891576475332582 0.33197597815543639 0 -0.31508677610875602 0.33246264155886579 0 -0.31331907053128433 0.313878567385664 0 -0.29891576475332582 0.33197597815543639 0 -0.30998113757288742 0.35016350933599311 0 -0.31508677610875602 0.33246264155886579 0 -0.29891576475332582 0.33197597815543639 0 -0.27956012110933898 0.33426516842927712 0 -0.28899367546018362 0.34990607578599969 0 -0.27956012110933898 0.33426516842927712 0 -0.27835705654663001 0.3466973614805422 0 -0.28899367546018362 0.34990607578599969 0 -0.29891576475332582 0.33197597815543639 0 -0.2889634120026453 0.31287634220677663 0 -0.27956012110933898 0.33426516842927712 0 -0.27023164047952081 0.34067397632777208 0 -0.26502695769989643 0.31421218803471418 0 -0.2889634120026453 0.31287634220677663 0 -0.27956012110933898 0.33426516842927712 0 -0.26502695769989643 0.31421218803471418 0 -0.27956012110933898 0.33426516842927712 0 -0.27023164047952081 0.34067397632777208 0 -0.26502695769989643 0.31421218803471418 0 -0.27956012110933898 0.33426516842927712 0 -0.27023164047952081 0.34067397632777208 0 -0.27835705654663001 0.3466973614805422 0 -0.27023164047952081 0.34067397632777208 0 -0.25008303346203908 0.33611797840414298 0 -0.26058904667577898 0.35313253120237981 0 -0.27023164047952081 0.34067397632777208 0 -0.25008303346203908 0.33611797840414298 0 -0.26031873506221342 0.31817490468258641 0 -0.27023164047952081 0.34067397632777208 0 -0.26031873506221342 0.31817490468258641 0 -0.27023164047952081 0.34067397632777208 0 -0.26031873506221342 0.31817490468258641 0 -0.26502695769989643 0.31421218803471418 0 -0.25008303346203908 0.33611797840414298 0 -0.26031873506221342 0.31817490468258641 0 -0.2434150889916675 0.31528126182336752 0 -0.2592717334901794 0.37344143954643821 0 -0.26058904667577898 0.35313253120237981 0 -0.245130999697667 0.35617292401417999 0 -0.2592717334901794 0.37344143954643821 0 -0.26058904667577898 0.35313253120237981 0 -0.2742317000365197 0.36101118680509853 0 -0.25008303346203908 0.33611797840414298 0 -0.26058904667577898 0.35313253120237981 0 -0.245130999697667 0.35617292401417999 0 -0.27023164047952081 0.34067397632777208 0 -0.27835705654663001 0.3466973614805422 0 -0.2742317000365197 0.36101118680509853 0 -0.27023164047952081 0.34067397632777208 0 -0.26058904667577898 0.35313253120237981 0 -0.2742317000365197 0.36101118680509853 0 -0.27023164047952081 0.34067397632777208 0 -0.2742317000365197 0.36101118680509853 0 -0.27835705654663001 0.3466973614805422 0 -0.2742317000365197 0.36101118680509853 0 -0.28899367546018362 0.34990607578599969 0 -0.2592717334901794 0.37344143954643821 0 -0.2742317000365197 0.36101118680509853 0 -0.27666944541277583 0.38068284486427251 0 -0.2742317000365197 0.36101118680509853 0 -0.2918056253057611 0.36977816091582622 0 -0.27666944541277583 0.38068284486427251 0 -0.2742317000365197 0.36101118680509853 0 -0.2918056253057611 0.36977816091582622 0 -0.28899367546018362 0.34990607578599969 0 -0.2918056253057611 0.36977816091582622 0 -0.28899367546018362 0.34990607578599969 0 -0.30998113757288742 0.35016350933599311 0 -0.29891576475332582 0.33197597815543639 0 -0.28899367546018362 0.34990607578599969 0 -0.30998113757288742 0.35016350933599311 0 -0.2918056253057611 0.36977816091582622 0 -0.30998113757288742 0.35016350933599311 0 -0.30751920709622288 0.37811993239733782 0 -0.30998113757288742 0.35016350933599311 0 -0.3241796865990505 0.37446232129606583 0 -0.30998113757288742 0.35016350933599311 0 -0.3241796865990505 0.37446232129606583 0 -0.3311814619238953 0.36217087484935062 0 -0.30998113757288742 0.35016350933599311 0 -0.3241796865990505 0.37446232129606583 0 -0.30751920709622288 0.37811993239733782 0 -0.3241796865990505 0.37446232129606583 0 -0.3311814619238953 0.36217087484935062 0 -0.3450213805631549 0.37637896488870742 0 -0.3311814619238953 0.36217087484935062 0 -0.34248144252655999 0.3449329262912757 0 -0.32671787735756741 0.34394441277493482 0 -0.30998113757288742 0.35016350933599311 0 -0.3311814619238953 0.36217087484935062 0 -0.32671787735756741 0.34394441277493482 0 -0.30998113757288742 0.35016350933599311 0 -0.32671787735756741 0.34394441277493482 0 -0.31508677610875602 0.33246264155886579 0 -0.32671787735756741 0.34394441277493482 0 -0.31508677610875602 0.33246264155886579 0 -0.33690407342490619 0.32509031088867912 0 -0.31508677610875602 0.33246264155886579 0 -0.31331907053128433 0.313878567385664 0 -0.33690407342490619 0.32509031088867912 0 -0.34248144252655999 0.3449329262912757 0 -0.32671787735756741 0.34394441277493482 0 -0.33690407342490619 0.32509031088867912 0 -0.34248144252655999 0.3449329262912757 0 -0.33690407342490619 0.32509031088867912 0 -0.35402019531300261 0.33435003863570822 0 -0.33690407342490619 0.32509031088867912 0 -0.35402019531300261 0.33435003863570822 0 -0.35820423278511537 0.31360051904281339 0 -0.35820423278511537 0.31360051904281339 0 -0.3736940231061725 0.31398947852622111 0 -0.371857819856382 0.33718357931137699 0 -0.35402019531300261 0.33435003863570822 0 -0.35820423278511537 0.31360051904281339 0 -0.371857819856382 0.33718357931137699 0 -0.35402019531300261 0.33435003863570822 0 -0.371857819856382 0.33718357931137699 0 -0.35941010751018809 0.3566911886622014 0 -0.38763875309648088 0.35121150247505228 0 -0.371857819856382 0.33718357931137699 0 -0.35941010751018809 0.3566911886622014 0 -0.38763875309648088 0.35121150247505228 0 -0.35941010751018809 0.3566911886622014 0 -0.37817844187468841 0.37049799817574158 0 -0.35941010751018809 0.3566911886622014 0 -0.36132744716974019 0.37598607000928502 0 -0.35941010751018809 0.3566911886622014 0 -0.3450213805631549 0.37637896488870742 0 -0.36132744716974019 0.37598607000928502 0 -0.3311814619238953 0.36217087484935062 0 -0.35941010751018809 0.3566911886622014 0 -0.3450213805631549 0.37637896488870742 0 -0.3311814619238953 0.36217087484935062 0 -0.35941010751018809 0.3566911886622014 0 -0.34248144252655999 0.3449329262912757 0 -0.35402019531300261 0.33435003863570822 0 -0.35941010751018809 0.3566911886622014 0 -0.3311814619238953 0.36217087484935062 0 -0.34248144252655999 0.3449329262912757 0 -0.35941010751018809 0.3566911886622014 0 -0.35813247438357998 0.40322770661363078 0 -0.35506690633984689 0.38909595593077778 0 -0.33837823562521357 0.3987611332561386 0 -0.3450213805631549 0.37637896488870742 0 -0.35506690633984689 0.38909595593077778 0 -0.36132744716974019 0.37598607000928502 0 -0.3450213805631549 0.37637896488870742 0 -0.35506690633984689 0.38909595593077778 0 -0.33837823562521357 0.3987611332561386 0 -0.37817844187468841 0.37049799817574158 0 -0.36132744716974019 0.37598607000928502 0 -0.36896039956082288 0.38726624238899698 0 -0.35506690633984689 0.38909595593077778 0 -0.36132744716974019 0.37598607000928502 0 -0.36896039956082288 0.38726624238899698 0 -0.35813247438357998 0.40322770661363078 0 -0.35506690633984689 0.38909595593077778 0 -0.36896039956082288 0.38726624238899698 0 -0.35813247438357998 0.40322770661363078 0 -0.36896039956082288 0.38726624238899698 0 -0.37495024184161951 0.39669027322643757 0 -0.35813247438357998 0.40322770661363078 0 -0.37495024184161951 0.39669027322643757 0 -0.37226667114234002 0.41030924202555608 0 -0.37226667114234002 0.41030924202555608 0 -0.37063698291958719 0.42934778893548009 0 -0.35257678465137682 0.42305994521621149 0 -0.37226667114234002 0.41030924202555608 0 -0.35257678465137682 0.42305994521621149 0 -0.35813247438357998 0.40322770661363078 0 -0.37226667114234002 0.41030924202555608 0 -0.35257678465137682 0.42305994521621149 0 -0.37063698291958719 0.42934778893548009 0 -0.35509229673206349 0.42736488897625841 0 -0.35257678465137682 0.42305994521621149 0 -0.38219330561030318 0.43733759585905729 0 -0.37063698291958719 0.42934778893548009 0 -0.37031446948010971 0.44164379239859503 0 -0.37063698291958719 0.42934778893548009 0 -0.35100800832540779 0.43373908660655719 0 -0.34797539811694939 0.44391372641119659 0 -0.35257678465137682 0.42305994521621149 0 -0.34703292232895172 0.42665001888350013 0 -0.33490384995054723 0.4214646834239163 0 -0.37063698291958719 0.42934778893548009 0 -0.35509229673206349 0.42736488897625841 0 -0.35100800832540779 0.43373908660655719 0 -0.37063698291958719 0.42934778893548009 0 -0.34797539811694939 0.44391372641119659 0 -0.35509229673206349 0.42736488897625841 0 -0.35257678465137682 0.42305994521621149 0 -0.35120601168128568 0.42714359628681298 0 -0.35509229673206349 0.42736488897625841 0 -0.35120601168128568 0.42714359628681298 0 -0.35100800832540779 0.43373908660655719 0 -0.35509229673206349 0.42736488897625841 0 -0.35257678465137682 0.42305994521621149 0 -0.35257678465137682 0.42305994521621149 0 -0.34703292232895172 0.42665001888350013 0 -0.35120601168128568 0.42714359628681298 0 -0.35257678465137682 0.42305994521621149 0 -0.34703292232895172 0.42665001888350013 0 -0.34703292232895172 0.42665001888350013 0 -0.35120601168128568 0.42714359628681298 0 -0.35100800832540779 0.43373908660655719 0 -0.34703292232895172 0.42665001888350013 0 -0.35100800832540779 0.43373908660655719 0 -0.3416144021158749 0.43307637903049229 0 -0.35100800832540779 0.43373908660655719 0 -0.3416144021158749 0.43307637903049229 0 -0.34797539811694939 0.44391372641119659 0 -0.35257678465137682 0.42305994521621149 0 -0.33837823562521357 0.3987611332561386 0 -0.35813247438357998 0.40322770661363078 0 -0.35257678465137682 0.42305994521621149 0 -0.33837823562521357 0.3987611332561386 0 -0.35257678465137682 0.42305994521621149 0 -0.33490384995054723 0.4214646834239163 0 -0.33837823562521357 0.3987611332561386 0 -0.33490384995054723 0.4214646834239163 0 -0.32139182098691871 0.40894936325787168 0 -0.33837823562521357 0.3987611332561386 0 -0.34703292232895172 0.42665001888350013 0 -0.33490384995054723 0.4214646834239163 0 -0.3416144021158749 0.43307637903049229 0 -0.33490384995054723 0.4214646834239163 0 -0.3416144021158749 0.43307637903049229 0 -0.32915885350338547 0.436077628681731 0 -0.32915885350338547 0.436077628681731 0 -0.31540425984898302 0.42282960227343241 0 -0.31037484696397899 0.44222133160263499 0 -0.33490384995054723 0.4214646834239163 0 -0.32915885350338547 0.436077628681731 0 -0.31540425984898302 0.42282960227343241 0 -0.31540425984898302 0.42282960227343241 0 -0.32139182098691871 0.40894936325787168 0 -0.30380921659141291 0.40737586576510598 0 -0.33490384995054723 0.4214646834239163 0 -0.31540425984898302 0.42282960227343241 0 -0.32139182098691871 0.40894936325787168 0 -0.32139182098691871 0.40894936325787168 0 -0.31446354291843659 0.3943155315707651 0 -0.30380921659141291 0.40737586576510598 0 -0.32139182098691871 0.40894936325787168 0 -0.31446354291843659 0.3943155315707651 0 -0.33837823562521357 0.3987611332561386 0 -0.3241796865990505 0.37446232129606583 0 -0.33837823562521357 0.3987611332561386 0 -0.3241796865990505 0.37446232129606583 0 -0.3450213805631549 0.37637896488870742 0 -0.33837823562521357 0.3987611332561386 0 -0.3241796865990505 0.37446232129606583 0 -0.31446354291843659 0.3943155315707651 0 -0.33837823562521357 0.3987611332561386 0 -0.3241796865990505 0.37446232129606583 0 -0.31446354291843659 0.3943155315707651 0 -0.30751920709622288 0.37811993239733782 0 -0.31446354291843659 0.3943155315707651 0 -0.30751920709622288 0.37811993239733782 0 -0.29017157169787189 0.39747123853798338 0 -0.31446354291843659 0.3943155315707651 0 -0.29017157169787189 0.39747123853798338 0 -0.30380921659141291 0.40737586576510598 0 -0.31446354291843659 0.3943155315707651 0 -0.29017157169787189 0.39747123853798338 0 -0.2918056253057611 0.36977816091582622 0 -0.29017157169787189 0.39747123853798338 0 -0.27666944541277583 0.38068284486427251 0 -0.2918056253057611 0.36977816091582622 0 -0.30751920709622288 0.37811993239733782 0 -0.29017157169787189 0.39747123853798338 0 -0.2592717334901794 0.37344143954643821 0 -0.27666944541277583 0.38068284486427251 0 -0.26587960047730708 0.40062694550520161 0 -0.29017157169787189 0.39747123853798338 0 -0.26587960047730708 0.40062694550520161 0 -0.29017157169787189 0.39747123853798338 0 -0.27666944541277583 0.38068284486427251 0 -0.26587960047730708 0.40062694550520161 0 -0.26587960047730708 0.40062694550520161 0 -0.24390026663595221 0.4098265108577458 0 -0.24158762925674229 0.40378265247242029 0 -0.26587960047730708 0.40062694550520161 0 -0.24855740320059311 0.38849035142128929 0 -0.24158762925674229 0.40378265247242029 0 -0.26587960047730708 0.40062694550520161 0 -0.24158762925674229 0.40378265247242029 0 -0.2592717334901794 0.37344143954643821 0 -0.24855740320059311 0.38849035142128929 0 -0.24298804513369371 0.37489662163126852 0 -0.2592717334901794 0.37344143954643821 0 -0.26587960047730708 0.40062694550520161 0 -0.24855740320059311 0.38849035142128929 0 -0.26486291021761232 0.42723466671622251 0 -0.25440434670568679 0.43727792757369249 0 -0.24390026663595221 0.4098265108577458 0 -0.26486291021761232 0.42723466671622251 0 -0.25440434670568679 0.43727792757369249 0 -0.268601175871508 0.43936588513269881 0 -0.26587960047730708 0.40062694550520161 0 -0.26486291021761232 0.42723466671622251 0 -0.24390026663595221 0.4098265108577458 0 -0.26486291021761232 0.42723466671622251 0 -0.24390026663595221 0.4098265108577458 0 -0.26587960047730708 0.40062694550520161 0 -0.26486291021761232 0.42723466671622251 0 -0.29212211282505068 0.42111929002973092 0 -0.26486291021761232 0.42723466671622251 0 -0.28582555379927221 0.44464282257469973 0 -0.26486291021761232 0.42723466671622251 0 -0.29212211282505068 0.42111929002973092 0 -0.28582555379927221 0.44464282257469973 0 -0.26486291021761232 0.42723466671622251 0 -0.28582555379927221 0.44464282257469973 0 -0.268601175871508 0.43936588513269881 0 -0.29212211282505068 0.42111929002973092 0 -0.31037484696397899 0.44222133160263499 0 -0.28582555379927221 0.44464282257469973 0 -0.29017157169787189 0.39747123853798338 0 -0.26587960047730708 0.40062694550520161 0 -0.29212211282505068 0.42111929002973092 0 -0.29017157169787189 0.39747123853798338 0 -0.29212211282505068 0.42111929002973092 0 -0.30380921659141291 0.40737586576510598 0 -0.31540425984898302 0.42282960227343241 0 -0.29212211282505068 0.42111929002973092 0 -0.30380921659141291 0.40737586576510598 0 -0.31540425984898302 0.42282960227343241 0 -0.29212211282505068 0.42111929002973092 0 -0.31037484696397899 0.44222133160263499 0 -0.31037484696397899 0.44222133160263499 0 -0.30678819738092977 0.46205097843317938 0 -0.28582555379927221 0.44464282257469973 0 -0.30678819738092977 0.46205097843317938 0 -0.28923783613749188 0.46977947950295129 0 -0.30678819738092977 0.46205097843317938 0 -0.28923783613749188 0.46977947950295129 0 -0.30891410950205461 0.46909475087526598 0 -0.30891410950205461 0.46909475087526598 0 -0.31325745709166991 0.46742329137141808 0 -0.30678819738092977 0.46205097843317938 0 -0.30891410950205461 0.46909475087526598 0 -0.31325745709166991 0.46742329137141808 0 -0.30891410950205461 0.46909475087526598 0 -0.31525562008559699 0.46908263994992622 0 -0.31325745709166991 0.46742329137141808 0 -0.30678819738092977 0.46205097843317938 0 -0.31325745709166991 0.46742329137141808 0 -0.30678819738092977 0.46205097843317938 0 -0.29206160947224158 0.45498445755246653 0 -0.28582555379927221 0.44464282257469973 0 -0.30678819738092977 0.46205097843317938 0 -0.28582555379927221 0.44464282257469973 0 -0.30678819738092977 0.46205097843317938 0 -0.29206160947224158 0.45498445755246653 0 -0.28923783613749188 0.46977947950295129 0 -0.29206160947224158 0.45498445755246653 0 -0.28923783613749188 0.46977947950295129 0 -0.29206160947224158 0.45498445755246653 0 -0.27802275223802481 0.45856884181986929 0 -0.28923783613749188 0.46977947950295129 0 -0.29206160947224158 0.45498445755246653 0 -0.28582555379927221 0.44464282257469973 0 -0.27802275223802481 0.45856884181986929 0 -0.28582555379927221 0.44464282257469973 0 -0.26931189276346068 0.44830812366618028 0 -0.27802275223802481 0.45856884181986929 0 -0.28582555379927221 0.44464282257469973 0 -0.268601175871508 0.43936588513269881 0 -0.26931189276346068 0.44830812366618028 0 -0.26931189276346068 0.44830812366618028 0 -0.27802275223802481 0.45856884181986929 0 -0.26490842677542209 0.46472934428963919 0 -0.27802275223802481 0.45856884181986929 0 -0.26490842677542209 0.46472934428963919 0 -0.27188202748178247 0.47742230712921863 0 -0.27802275223802481 0.45856884181986929 0 -0.27188202748178247 0.47742230712921863 0 -0.28923783613749188 0.46977947950295129 0 -0.26190074499161498 0.45925492802712919 0 -0.25374771190227041 0.46769530379170138 0 -0.2470835307717511 0.45204209071788648 0 -0.25440434670568679 0.43727792757369249 0 -0.26190074499161498 0.45925492802712919 0 -0.26490842677542209 0.46472934428963919 0 -0.26190074499161498 0.45925492802712919 0 -0.26490842677542209 0.46472934428963919 0 -0.25374771190227041 0.46769530379170138 0 -0.26190074499161498 0.45925492802712919 0 -0.26490842677542209 0.46472934428963919 0 -0.25440434670568679 0.43727792757369249 0 -0.26190074499161498 0.45925492802712919 0 -0.2470835307717511 0.45204209071788648 0 -0.25440434670568679 0.43727792757369249 0 -0.26490842677542209 0.46472934428963919 0 -0.25440434670568679 0.43727792757369249 0 -0.26931189276346068 0.44830812366618028 0 -0.26490842677542209 0.46472934428963919 0 -0.25440434670568679 0.43727792757369249 0 -0.268601175871508 0.43936588513269881 0 -0.26931189276346068 0.44830812366618028 0 -0.25847810702610519 0.48850414280974469 0 -0.27007053304879808 0.47822001929417107 0 -0.24534086517324849 0.48911000964708612 0 -0.25847810702610519 0.48850414280974469 0 -0.26092149103342371 0.50000000000000044 0 -0.24271601658602809 0.5 0 -0.25847810702610519 0.48850414280974469 0 -0.27201266959149478 0.48329560889354789 0 -0.25847810702610519 0.48850414280974469 0 -0.26092149103342371 0.50000000000000044 0 -0.26665442019254082 0.49000718405533439 0 -0.26490842677542209 0.46472934428963919 0 -0.25374771190227041 0.46769530379170138 0 -0.27007053304879808 0.47822001929417107 0 -0.25374771190227041 0.46769530379170138 0 -0.27007053304879808 0.47822001929417107 0 -0.24534086517324849 0.48911000964708612 0 -0.27007053304879808 0.47822001929417107 0 -0.24534086517324849 0.48911000964708612 0 -0.27188202748178247 0.47742230712921863 0 -0.28923783613749188 0.46977947950295129 0 -0.25847810702610519 0.48850414280974469 0 -0.27007053304879808 0.47822001929417107 0 -0.27201266959149478 0.48329560889354789 0 -0.27188202748178247 0.47742230712921863 0 -0.27456848518075422 0.48231204905436859 0 -0.28781911866264892 0.47721278015904062 0 -0.27007053304879808 0.47822001929417107 0 -0.27188202748178247 0.47742230712921863 0 -0.27210308472192962 0.4803444769229962 0 -0.27188202748178247 0.47742230712921863 0 -0.27456848518075422 0.48231204905436859 0 -0.27188202748178247 0.47742230712921863 0 -0.27210308472192962 0.4803444769229962 0 -0.27456848518075422 0.48231204905436859 0 -0.27007053304879808 0.47822001929417107 0 -0.27188202748178247 0.47742230712921863 0 -0.27007053304879808 0.47822001929417107 0 -0.27201266959149478 0.48329560889354789 0 -0.27210308472192962 0.4803444769229962 0 -0.27201266959149478 0.48329560889354789 0 -0.27456848518075422 0.48231204905436859 0 -0.27007053304879808 0.47822001929417107 0 -0.27210308472192962 0.4803444769229962 0 -0.27201266959149478 0.48329560889354789 0 -0.27201266959149478 0.48329560889354789 0 -0.27456848518075422 0.48231204905436859 0 -0.26490842677542209 0.46472934428963919 0 -0.27188202748178247 0.47742230712921863 0 -0.26490842677542209 0.46472934428963919 0 -0.27007053304879808 0.47822001929417107 0 -0.27188202748178247 0.47742230712921863 0 -0.26490842677542209 0.46472934428963919 0 -0.27007053304879808 0.47822001929417107 0 -0.27456848518075422 0.48231204905436859 0 -0.28781911866264892 0.47721278015904062 0 -0.26092149103342371 0.50000000000000044 0 -0.27494821351356852 0.49096737443205551 0 -0.27840448038632598 0.49999999999999989 0 -0.27456848518075422 0.48231204905436859 0 -0.27818028796098981 0.48888605298774751 0 -0.28662963421400323 0.4834450256126463 0 -0.27818028796098981 0.48888605298774751 0 -0.27494821351356852 0.49096737443205551 0 -0.27201266959149478 0.48329560889354789 0 -0.27494821351356852 0.49096737443205551 0 -0.27201266959149478 0.48329560889354789 0 -0.27456848518075422 0.48231204905436859 0 -0.27818028796098981 0.48888605298774751 0 -0.27201266959149478 0.48329560889354789 0 -0.27818028796098981 0.48888605298774751 0 -0.27494821351356852 0.49096737443205551 0 -0.27456848518075422 0.48231204905436859 0 -0.27818028796098981 0.48888605298774751 0 -0.27201266959149478 0.48329560889354789 0 -0.27494821351356852 0.49096737443205551 0 -0.26665442019254082 0.49000718405533439 0 -0.25847810702610519 0.48850414280974469 0 -0.27201266959149478 0.48329560889354789 0 -0.26665442019254082 0.49000718405533439 0 -0.26092149103342371 0.50000000000000044 0 -0.27494821351356852 0.49096737443205551 0 -0.26092149103342371 0.50000000000000044 0 -0.27494821351356852 0.49096737443205551 0 -0.26665442019254082 0.49000718405533439 0 -0.27494821351356852 0.49096737443205551 0 -0.27840448038632598 0.49999999999999989 0 -0.27818028796098981 0.48888605298774751 0 -0.27840448038632598 0.49999999999999989 0 -0.28368044823936328 0.49889714094141469 0 -0.27818028796098981 0.48888605298774751 0 -0.27494821351356852 0.49096737443205551 0 -0.27840448038632598 0.49999999999999989 0 -0.27818028796098981 0.48888605298774751 0 -0.28368044823936328 0.49889714094141469 0 -0.28368044823936328 0.49889714094141469 0 -0.29224888689071188 0.49344190183271952 0 -0.30769467815930068 0.5 0 -0.27818028796098981 0.48888605298774751 0 -0.28368044823936328 0.49889714094141469 0 -0.28662963421400323 0.4834450256126463 0 -0.28368044823936328 0.49889714094141469 0 -0.28662963421400323 0.4834450256126463 0 -0.28368044823936328 0.49889714094141469 0 -0.29224888689071188 0.49344190183271952 0 -0.28662963421400323 0.4834450256126463 0 -0.27818028796098981 0.48888605298774751 0 -0.28662963421400323 0.4834450256126463 0 -0.29224888689071188 0.49344190183271952 0 -0.28662963421400323 0.4834450256126463 0 -0.30094150763636901 0.48708058862929682 0 -0.28781911866264892 0.47721278015904062 0 -0.28923783613749188 0.46977947950295129 0 -0.30891410950205461 0.46909475087526598 0 -0.27188202748178247 0.47742230712921863 0 -0.28781911866264892 0.47721278015904062 0 -0.28923783613749188 0.46977947950295129 0 -0.28781911866264892 0.47721278015904062 0 -0.28923783613749188 0.46977947950295129 0 -0.27456848518075422 0.48231204905436859 0 -0.28781911866264892 0.47721278015904062 0 -0.28662963421400323 0.4834450256126463 0 -0.28781911866264892 0.47721278015904062 0 -0.28662963421400323 0.4834450256126463 0 -0.28662963421400323 0.4834450256126463 0 -0.30182933433063519 0.4736570512592001 0 -0.30094150763636901 0.48708058862929682 0 -0.28781911866264892 0.47721278015904062 0 -0.28662963421400323 0.4834450256126463 0 -0.30182933433063519 0.4736570512592001 0 -0.28662963421400323 0.4834450256126463 0 -0.30182933433063519 0.4736570512592001 0 -0.28781911866264892 0.47721278015904062 0 -0.30182933433063519 0.4736570512592001 0 -0.30182933433063519 0.4736570512592001 0 -0.31729910476423501 0.48596558745179752 0 -0.31525562008559699 0.46908263994992622 0 -0.30182933433063519 0.4736570512592001 0 -0.30094150763636901 0.48708058862929682 0 -0.31729910476423501 0.48596558745179752 0 -0.28781911866264892 0.47721278015904062 0 -0.30182933433063519 0.4736570512592001 0 -0.30891410950205461 0.46909475087526598 0 -0.28781911866264892 0.47721278015904062 0 -0.30891410950205461 0.46909475087526598 0 -0.30182933433063519 0.4736570512592001 0 -0.31525562008559699 0.46908263994992622 0 -0.30182933433063519 0.4736570512592001 0 -0.30891410950205461 0.46909475087526598 0 -0.31525562008559699 0.46908263994992622 0 -0.30182933433063519 0.4736570512592001 0 -0.30891410950205461 0.46909475087526598 0 -0.30094150763636901 0.48708058862929682 0 -0.30769467815930068 0.5 0 -0.31729910476423501 0.48596558745179752 0 -0.29224888689071188 0.49344190183271952 0 -0.30094150763636901 0.48708058862929682 0 -0.30769467815930068 0.5 0 -0.31729910476423501 0.48596558745179752 0 -0.33427013892530733 0.48487300084816443 0 -0.33110298975999741 0.5 0 -0.30769467815930068 0.5 0 -0.31729910476423501 0.48596558745179752 0 -0.33110298975999741 0.5 0 -0.33427013892530733 0.48487300084816443 0 -0.33110298975999741 0.5 0 -0.35451130136069398 0.4999999999999995 0 -0.33427013892530733 0.48487300084816443 0 -0.33945755539216582 0.46083690404104272 0 -0.34969032548814538 0.47637365565428952 0 -0.33427013892530733 0.48487300084816443 0 -0.31525562008559699 0.46908263994992622 0 -0.33945755539216582 0.46083690404104272 0 -0.31729910476423501 0.48596558745179752 0 -0.33427013892530733 0.48487300084816443 0 -0.31525562008559699 0.46908263994992622 0 -0.33427013892530733 0.48487300084816443 0 -0.31525562008559699 0.46908263994992622 0 -0.31525562008559699 0.46908263994992622 0 -0.31325745709166991 0.46742329137141808 0 -0.33361387207467458 0.45958948977355291 0 -0.31325745709166991 0.46742329137141808 0 -0.33024094015483157 0.45536115943149169 0 -0.33361387207467458 0.45958948977355291 0 -0.31525562008559699 0.46908263994992622 0 -0.31325745709166991 0.46742329137141808 0 -0.30678819738092977 0.46205097843317938 0 -0.32738179774893988 0.45298235242218882 0 -0.30678819738092977 0.46205097843317938 0 -0.31325745709166991 0.46742329137141808 0 -0.32738179774893988 0.45298235242218882 0 -0.31325745709166991 0.46742329137141808 0 -0.33024094015483157 0.45536115943149169 0 -0.31325745709166991 0.46742329137141808 0 -0.32738179774893988 0.45298235242218882 0 -0.33024094015483157 0.45536115943149169 0 -0.31325745709166991 0.46742329137141808 0 -0.33361387207467458 0.45958948977355291 0 -0.31525562008559699 0.46908263994992622 0 -0.33945755539216582 0.46083690404104272 0 -0.31037484696397899 0.44222133160263499 0 -0.30678819738092977 0.46205097843317938 0 -0.32738179774893988 0.45298235242218882 0 -0.32915885350338547 0.436077628681731 0 -0.31037484696397899 0.44222133160263499 0 -0.32738179774893988 0.45298235242218882 0 -0.32915885350338547 0.436077628681731 0 -0.32738179774893988 0.45298235242218882 0 -0.34797539811694939 0.44391372641119659 0 -0.32738179774893988 0.45298235242218882 0 -0.34797539811694939 0.44391372641119659 0 -0.33024094015483157 0.45536115943149169 0 -0.33361387207467458 0.45958948977355291 0 -0.34797539811694939 0.44391372641119659 0 -0.3416144021158749 0.43307637903049229 0 -0.32915885350338547 0.436077628681731 0 -0.34797539811694939 0.44391372641119659 0 -0.33024094015483157 0.45536115943149169 0 -0.34797539811694939 0.44391372641119659 0 -0.32738179774893988 0.45298235242218882 0 -0.33024094015483157 0.45536115943149169 0 -0.34797539811694939 0.44391372641119659 0 -0.31525562008559699 0.46908263994992622 0 -0.33361387207467458 0.45958948977355291 0 -0.33945755539216582 0.46083690404104272 0 -0.33361387207467458 0.45958948977355291 0 -0.33945755539216582 0.46083690404104272 0 -0.35397028705767941 0.45175568817568751 0 -0.33945755539216582 0.46083690404104272 0 -0.35397028705767941 0.45175568817568751 0 -0.3636594906987341 0.45259116813215772 0 -0.33945755539216582 0.46083690404104272 0 -0.35903601978900862 0.4668294320101527 0 -0.3636594906987341 0.45259116813215772 0 -0.33945755539216582 0.46083690404104272 0 -0.35903601978900862 0.4668294320101527 0 -0.34969032548814538 0.47637365565428952 0 -0.33361387207467458 0.45958948977355291 0 -0.35397028705767941 0.45175568817568751 0 -0.33945755539216582 0.46083690404104272 0 -0.3636594906987341 0.45259116813215772 0 -0.35397028705767941 0.45175568817568751 0 -0.34797539811694939 0.44391372641119659 0 -0.3636594906987341 0.45259116813215772 0 -0.33361387207467458 0.45958948977355291 0 -0.35397028705767941 0.45175568817568751 0 -0.34797539811694939 0.44391372641119659 0 -0.38786142600530288 0.44434543222327372 0 -0.3636594906987341 0.45259116813215772 0 -0.37031446948010971 0.44164379239859503 0 -0.34797539811694939 0.44391372641119659 0 -0.3636594906987341 0.45259116813215772 0 -0.37031446948010971 0.44164379239859503 0 -0.37063698291958719 0.42934778893548009 0 -0.34797539811694939 0.44391372641119659 0 -0.37031446948010971 0.44164379239859503 0 -0.37674471779043378 0.46289695481551602 0 -0.35903601978900862 0.4668294320101527 0 -0.3636594906987341 0.45259116813215772 0 -0.37674471779043378 0.46289695481551602 0 -0.35903601978900862 0.4668294320101527 0 -0.36562800957556379 0.48144847740775781 0 -0.37674471779043378 0.46289695481551602 0 -0.36562800957556379 0.48144847740775781 0 -0.36562800957556379 0.48144847740775781 0 -0.35451130136069398 0.4999999999999995 0 -0.37984386551400101 0.5 0 -0.36562800957556379 0.48144847740775781 0 -0.35451130136069398 0.4999999999999995 0 -0.33427013892530733 0.48487300084816443 0 -0.35451130136069398 0.4999999999999995 0 -0.34969032548814538 0.47637365565428952 0 -0.36562800957556379 0.48144847740775781 0 -0.35451130136069398 0.4999999999999995 0 -0.34969032548814538 0.47637365565428952 0 -0.35903601978900862 0.4668294320101527 0 -0.36562800957556379 0.48144847740775781 0 -0.34969032548814538 0.47637365565428952 0 -0.13298062755884579 0.48255116261061692 0 -0.15843735091332889 0.4710522502620903 0 -0.13298062755884579 0.48255116261061692 0 -0.14150291950411281 0.46425469992345519 0 -0.15843735091332889 0.4710522502620903 0 -0.13975760046378269 0.49999999999999878 0 -0.15843735091332889 0.4710522502620903 0 -0.16099880066542119 0.50000000000000022 0 -0.13975760046378269 0.49999999999999878 0 -0.13298062755884579 0.48255116261061692 0 -0.15843735091332889 0.4710522502620903 0 -0.13975760046378269 0.49999999999999878 0 -0.13298062755884579 0.48255116261061692 0 -0.13975760046378269 0.49999999999999878 0 -0.13298062755884579 0.48255116261061692 0 -0.11380605494256869 0.5 0 -0.13298062755884579 0.48255116261061692 0 -0.12544051825853689 0.4631374593356033 0 -0.14150291950411281 0.46425469992345519 0 -0.13298062755884579 0.48255116261061692 0 -0.12544051825853689 0.4631374593356033 0 -0.1336307511693739 0.45491465667522191 0 -0.12544051825853689 0.4631374593356033 0 -0.14150291950411281 0.46425469992345519 0 -0.1336307511693739 0.45491465667522191 0 -0.13175207046494611 0.44346192959665548 0 -0.11475987009784661 0.45084407402711402 0 -0.13175207046494611 0.44346192959665548 0 -0.15702534962047851 0.44961797073374349 0 -0.14544522351027661 0.43702334659483638 0 -0.1336307511693739 0.45491465667522191 0 -0.13175207046494611 0.44346192959665548 0 -0.15702534962047851 0.44961797073374349 0 -0.15702534962047851 0.44961797073374349 0 -0.14544522351027661 0.43702334659483638 0 -0.1556699124179855 0.4290423380990836 0 -0.13175207046494611 0.44346192959665548 0 -0.15702534962047851 0.44961797073374349 0 -0.1336307511693739 0.45491465667522191 0 -0.14150291950411281 0.46425469992345519 0 -0.15702534962047851 0.44961797073374349 0 -0.14150291950411281 0.46425469992345519 0 -0.15702534962047851 0.44961797073374349 0 -0.15843735091332889 0.4710522502620903 0 -0.15702534962047851 0.44961797073374349 0 -0.15843735091332889 0.4710522502620903 0 -0.16426353778385031 0.46842053638370362 0 -0.16193071402987511 0.45081281469960982 0 -0.15843735091332889 0.4710522502620903 0 -0.15702534962047851 0.44961797073374349 0 -0.16193071402987511 0.45081281469960982 0 -0.15843735091332889 0.4710522502620903 0 -0.16426353778385031 0.46842053638370362 0 -0.16193071402987511 0.45081281469960982 0 -0.17220307999619611 0.44534927840499378 0 -0.16426353778385031 0.46842053638370362 0 -0.17220307999619611 0.44534927840499378 0 -0.15702534962047851 0.44961797073374349 0 -0.1556699124179855 0.4290423380990836 0 -0.16306062424848339 0.44050736484390751 0 -0.15702534962047851 0.44961797073374349 0 -0.1556699124179855 0.4290423380990836 0 -0.16306062424848339 0.44050736484390751 0 -0.15702534962047851 0.44961797073374349 0 -0.16193071402987511 0.45081281469960982 0 -0.15702534962047851 0.44961797073374349 0 -0.16193071402987511 0.45081281469960982 0 -0.16306062424848339 0.44050736484390751 0 -0.16193071402987511 0.45081281469960982 0 -0.17220307999619611 0.44534927840499378 0 -0.16306062424848339 0.44050736484390751 0 -0.17220307999619611 0.44534927840499378 0 -0.16780974434499221 0.43040982398245581 0 -0.17220307999619611 0.44534927840499378 0 -0.18281758700689349 0.4600395918781951 0 -0.19105692089556489 0.43334490180876922 0 -0.18281758700689349 0.4600395918781951 0 -0.19105692089556489 0.43334490180876922 0 -0.18281758700689349 0.4600395918781951 0 -0.17801000380965989 0.47561572280906489 0 -0.19482622675472999 0.46587529032893948 0 -0.16426353778385031 0.46842053638370362 0 -0.17220307999619611 0.44534927840499378 0 -0.18281758700689349 0.4600395918781951 0 -0.16426353778385031 0.46842053638370362 0 -0.18281758700689349 0.4600395918781951 0 -0.17801000380965989 0.47561572280906489 0 -0.16426353778385031 0.46842053638370362 0 -0.18281758700689349 0.4600395918781951 0 -0.18281758700689349 0.4600395918781951 0 -0.17801000380965989 0.47561572280906489 0 -0.17801000380965989 0.47561572280906489 0 -0.17320242061242691 0.49119185373993512 0 -0.190689979325044 0.47856994519631457 0 -0.17801000380965989 0.47561572280906489 0 -0.17014513666291531 0.48171822366538508 0 -0.17320242061242691 0.49119185373993512 0 -0.17801000380965989 0.47561572280906489 0 -0.17320242061242691 0.49119185373993512 0 -0.16116749874829769 0.47741721571243328 0 -0.15843735091332889 0.4710522502620903 0 -0.16099880066542119 0.50000000000000022 0 -0.16426353778385031 0.46842053638370362 0 -0.17801000380965989 0.47561572280906489 0 -0.17014513666291531 0.48171822366538508 0 -0.16426353778385031 0.46842053638370362 0 -0.17014513666291531 0.48171822366538508 0 -0.16116749874829769 0.47741721571243328 0 -0.16426353778385031 0.46842053638370362 0 -0.16116749874829769 0.47741721571243328 0 -0.15843735091332889 0.4710522502620903 0 -0.16426353778385031 0.46842053638370362 0 -0.16116749874829769 0.47741721571243328 0 -0.16426353778385031 0.46842053638370362 0 -0.15843735091332889 0.4710522502620903 0 -0.17014513666291531 0.48171822366538508 0 -0.16116749874829769 0.47741721571243328 0 -0.16099880066542119 0.50000000000000022 0 -0.17014513666291531 0.48171822366538508 0 -0.16099880066542119 0.50000000000000022 0 -0.17320242061242691 0.49119185373993512 0 -0.15843735091332889 0.4710522502620903 0 -0.16099880066542119 0.50000000000000022 0 -0.17048378039640921 0.499999999999996 0 -0.17320242061242691 0.49119185373993512 0 -0.16099880066542119 0.50000000000000022 0 -0.17048378039640921 0.499999999999996 0 -0.17320242061242691 0.49119185373993512 0 -0.16099880066542119 0.50000000000000022 0 -0.17320242061242691 0.49119185373993512 0 -0.17320242061242691 0.49119185373993512 0 -0.190689979325044 0.47856994519631457 0 -0.17048378039640921 0.499999999999996 0 -0.17320242061242691 0.49119185373993512 0 -0.18581873262730181 0.49118729788902749 0 -0.17320242061242691 0.49119185373993512 0 -0.18581873262730181 0.49118729788902749 0 -0.190689979325044 0.47856994519631457 0 -0.17048378039640921 0.499999999999996 0 -0.18581873262730181 0.49118729788902749 0 -0.19554748884705389 0.5 0 -0.18581873262730181 0.49118729788902749 0 -0.19487595816744871 0.48827984865781948 0 -0.19554748884705389 0.5 0 -0.19487595816744871 0.48827984865781948 0 -0.19554748884705389 0.5 0 -0.20744763187039511 0.48336215154593609 0 -0.18581873262730181 0.49118729788902749 0 -0.19487595816744871 0.48827984865781948 0 -0.190689979325044 0.47856994519631457 0 -0.190689979325044 0.47856994519631457 0 -0.20817753803766101 0.46594803665269391 0 -0.190689979325044 0.47856994519631457 0 -0.20817753803766101 0.46594803665269391 0 -0.19482622675472999 0.46587529032893948 0 -0.19487595816744871 0.48827984865781948 0 -0.190689979325044 0.47856994519631457 0 -0.20744763187039511 0.48336215154593609 0 -0.17801000380965989 0.47561572280906489 0 -0.190689979325044 0.47856994519631457 0 -0.19482622675472999 0.46587529032893948 0 -0.190689979325044 0.47856994519631457 0 -0.20744763187039511 0.48336215154593609 0 -0.20817753803766101 0.46594803665269391 0 -0.20744763187039511 0.48336215154593609 0 -0.2232475932131088 0.47874498222143241 0 -0.20817753803766101 0.46594803665269391 0 -0.2232475932131088 0.47874498222143241 0 -0.22334275735617259 0.46647783610587229 0 -0.20817753803766101 0.46594803665269391 0 -0.19554748884705389 0.5 0 -0.20744763187039511 0.48336215154593609 0 -0.22061119729769851 0.50000000000000044 0 -0.20744763187039511 0.48336215154593609 0 -0.22061119729769851 0.50000000000000044 0 -0.2232475932131088 0.47874498222143241 0 -0.22061119729769851 0.50000000000000044 0 -0.22451054213863281 0.50000000000000233 0 -0.24534086517324849 0.48911000964708612 0 -0.22061119729769851 0.50000000000000044 0 -0.2232475932131088 0.47874498222143241 0 -0.24534086517324849 0.48911000964708612 0 -0.22061119729769851 0.50000000000000044 0 -0.24534086517324849 0.48911000964708612 0 -0.22451054213863281 0.50000000000000233 0 -0.24148255890114151 0.49421753813106339 0 -0.2232475932131088 0.47874498222143241 0 -0.23628080142364249 0.46789219744028959 0 -0.22334275735617259 0.46647783610587229 0 -0.2232475932131088 0.47874498222143241 0 -0.24534086517324849 0.48911000964708612 0 -0.23628080142364249 0.46789219744028959 0 -0.25374771190227041 0.46769530379170138 0 -0.24534086517324849 0.48911000964708612 0 -0.23628080142364249 0.46789219744028959 0 -0.22451054213863281 0.50000000000000233 0 -0.24534086517324849 0.48911000964708612 0 -0.24148255890114151 0.49421753813106339 0 -0.25847810702610519 0.48850414280974469 0 -0.24534086517324849 0.48911000964708612 0 -0.24148255890114151 0.49421753813106339 0 -0.22451054213863281 0.50000000000000233 0 -0.24271601658602809 0.5 0 -0.24148255890114151 0.49421753813106339 0 -0.25847810702610519 0.48850414280974469 0 -0.24271601658602809 0.5 0 -0.24148255890114151 0.49421753813106339 0 -0.25847810702610519 0.48850414280974469 0 -0.24148255890114151 0.49421753813106339 0 -0.25440434670568679 0.43727792757369249 0 -0.2470835307717511 0.45204209071788648 0 -0.23583124119127399 0.4374763133559072 0 -0.2470835307717511 0.45204209071788648 0 -0.2256650967502781 0.4533261281090733 0 -0.23583124119127399 0.4374763133559072 0 -0.2470835307717511 0.45204209071788648 0 -0.23628080142364249 0.46789219744028959 0 -0.2256650967502781 0.4533261281090733 0 -0.25374771190227041 0.46769530379170138 0 -0.2470835307717511 0.45204209071788648 0 -0.23628080142364249 0.46789219744028959 0 -0.22334275735617259 0.46647783610587229 0 -0.2256650967502781 0.4533261281090733 0 -0.20817753803766101 0.46594803665269391 0 -0.23628080142364249 0.46789219744028959 0 -0.22334275735617259 0.46647783610587229 0 -0.2256650967502781 0.4533261281090733 0 -0.2256650967502781 0.4533261281090733 0 -0.22084070426585289 0.43538371924467612 0 -0.23583124119127399 0.4374763133559072 0 -0.2256650967502781 0.4533261281090733 0 -0.20831066890565611 0.44852425621752878 0 -0.22084070426585289 0.43538371924467612 0 -0.2256650967502781 0.4533261281090733 0 -0.20831066890565611 0.44852425621752878 0 -0.20817753803766101 0.46594803665269391 0 -0.2256650967502781 0.4533261281090733 0 -0.20817753803766101 0.46594803665269391 0 -0.20831066890565611 0.44852425621752878 0 -0.20817753803766101 0.46594803665269391 0 -0.19482622675472999 0.46587529032893948 0 -0.18281758700689349 0.4600395918781951 0 -0.20831066890565611 0.44852425621752878 0 -0.19482622675472999 0.46587529032893948 0 -0.18281758700689349 0.4600395918781951 0 -0.20831066890565611 0.44852425621752878 0 -0.18281758700689349 0.4600395918781951 0 -0.20831066890565611 0.44852425621752878 0 -0.19105692089556489 0.43334490180876922 0 -0.20831066890565611 0.44852425621752878 0 -0.19105692089556489 0.43334490180876922 0 -0.20810391325395439 0.42398758438242701 0 -0.19105692089556489 0.43334490180876922 0 -0.1992962547842371 0.40665021173934351 0 -0.19105692089556489 0.43334490180876922 0 -0.1992962547842371 0.40665021173934351 0 -0.18014262220854191 0.42227802042628387 0 -0.1992962547842371 0.40665021173934351 0 -0.18808216442088779 0.39920676244757408 0 -0.18014262220854191 0.42227802042628387 0 -0.19105692089556489 0.43334490180876922 0 -0.1992962547842371 0.40665021173934351 0 -0.20810391325395439 0.42398758438242701 0 -0.1992962547842371 0.40665021173934351 0 -0.21742618678061951 0.40692140278904287 0 -0.20810391325395439 0.42398758438242701 0 -0.21742618678061951 0.40692140278904287 0 -0.20810391325395439 0.42398758438242701 0 -0.22035716728969429 0.42060188859009112 0 -0.20831066890565611 0.44852425621752878 0 -0.20810391325395439 0.42398758438242701 0 -0.22084070426585289 0.43538371924467612 0 -0.20810391325395439 0.42398758438242701 0 -0.22084070426585289 0.43538371924467612 0 -0.22035716728969429 0.42060188859009112 0 -0.22084070426585289 0.43538371924467612 0 -0.22806234900785671 0.42609527632417488 0 -0.23583124119127399 0.4374763133559072 0 -0.22806234900785671 0.42609527632417488 0 -0.23583124119127399 0.4374763133559072 0 -0.23813634159033989 0.42290976463926327 0 -0.22084070426585289 0.43538371924467612 0 -0.22806234900785671 0.42609527632417488 0 -0.22035716728969429 0.42060188859009112 0 -0.21742618678061951 0.40692140278904287 0 -0.22961658629595061 0.41319157683878799 0 -0.24158762925674229 0.40378265247242029 0 -0.22806234900785671 0.42609527632417488 0 -0.22035716728969429 0.42060188859009112 0 -0.22961658629595061 0.41319157683878799 0 -0.21742618678061951 0.40692140278904287 0 -0.22035716728969429 0.42060188859009112 0 -0.22961658629595061 0.41319157683878799 0 -0.22806234900785671 0.42609527632417488 0 -0.22961658629595061 0.41319157683878799 0 -0.23813634159033989 0.42290976463926327 0 -0.22961658629595061 0.41319157683878799 0 -0.239163799237434 0.41168781992760201 0 -0.23813634159033989 0.42290976463926327 0 -0.239163799237434 0.41168781992760201 0 -0.24390026663595221 0.4098265108577458 0 -0.23813634159033989 0.42290976463926327 0 -0.22961658629595061 0.41319157683878799 0 -0.239163799237434 0.41168781992760201 0 -0.24158762925674229 0.40378265247242029 0 -0.239163799237434 0.41168781992760201 0 -0.24390026663595221 0.4098265108577458 0 -0.24158762925674229 0.40378265247242029 0 -0.24390026663595221 0.4098265108577458 0 -0.24158762925674229 0.40378265247242029 0 -0.25440434670568679 0.43727792757369249 0 -0.24390026663595221 0.4098265108577458 0 -0.25440434670568679 0.43727792757369249 0 -0.23583124119127399 0.4374763133559072 0 -0.23813634159033989 0.42290976463926327 0 -0.25440434670568679 0.43727792757369249 0 -0.24390026663595221 0.4098265108577458 0 -0.23813634159033989 0.42290976463926327 0 -0.23424469339825599 0.38459258624753379 0 -0.22773539588177269 0.371785806926901 0 -0.24298804513369371 0.37489662163126852 0 -0.24855740320059311 0.38849035142128929 0 -0.23424469339825599 0.38459258624753379 0 -0.24298804513369371 0.37489662163126852 0 -0.24158762925674229 0.40378265247242029 0 -0.23424469339825599 0.38459258624753379 0 -0.24855740320059311 0.38849035142128929 0 -0.24158762925674229 0.40378265247242029 0 -0.23424469339825599 0.38459258624753379 0 -0.24158762925674229 0.40378265247242029 0 -0.22554848148559539 0.39550039904942808 0 -0.23424469339825599 0.38459258624753379 0 -0.21742618678061951 0.40692140278904287 0 -0.24158762925674229 0.40378265247242029 0 -0.21742618678061951 0.40692140278904287 0 -0.24158762925674229 0.40378265247242029 0 -0.22554848148559539 0.39550039904942808 0 -0.21742618678061951 0.40692140278904287 0 -0.22554848148559539 0.39550039904942808 0 -0.2145442316967007 0.39558569262158683 0 -0.22554848148559539 0.39550039904942808 0 -0.2206001822887777 0.38503322384510019 0 -0.2145442316967007 0.39558569262158683 0 -0.22554848148559539 0.39550039904942808 0 -0.2206001822887777 0.38503322384510019 0 -0.23424469339825599 0.38459258624753379 0 -0.2206001822887777 0.38503322384510019 0 -0.23424469339825599 0.38459258624753379 0 -0.22773539588177269 0.371785806926901 0 -0.2206001822887777 0.38503322384510019 0 -0.2075355886729093 0.37995552166991781 0 -0.22773539588177269 0.371785806926901 0 -0.2206001822887777 0.38503322384510019 0 -0.2075355886729093 0.37995552166991781 0 -0.2145442316967007 0.39558569262158683 0 -0.1992962547842371 0.40665021173934351 0 -0.21742618678061951 0.40692140278904287 0 -0.2145442316967007 0.39558569262158683 0 -0.1992962547842371 0.40665021173934351 0 -0.2075355886729093 0.37995552166991781 0 -0.2145442316967007 0.39558569262158683 0 -0.1992962547842371 0.40665021173934351 0 -0.2075355886729093 0.37995552166991781 0 -0.1992962547842371 0.40665021173934351 0 -0.2075355886729093 0.37995552166991781 0 -0.19773392862781691 0.3904870000814249 0 -0.1992962547842371 0.40665021173934351 0 -0.18808216442088779 0.39920676244757408 0 -0.19773392862781691 0.3904870000814249 0 -0.18808216442088779 0.39920676244757408 0 -0.19602170663323359 0.37613550446886429 0 -0.18808216442088779 0.39920676244757408 0 -0.19602170663323359 0.37613550446886429 0 -0.19773392862781691 0.3904870000814249 0 -0.18808216442088779 0.39920676244757408 0 -0.19602170663323359 0.37613550446886429 0 -0.18047408951467989 0.38368683415264299 0 -0.2075355886729093 0.37995552166991781 0 -0.19602170663323359 0.37613550446886429 0 -0.19773392862781691 0.3904870000814249 0 -0.18047408951467989 0.38368683415264299 0 -0.16393263101776051 0.377811301899728 0 -0.17738562461233581 0.36620191856746193 0 -0.19602170663323359 0.37613550446886429 0 -0.18047408951467989 0.38368683415264299 0 -0.18587119209385661 0.37354081621318608 0 -0.16393263101776051 0.377811301899728 0 -0.1697532507094677 0.3985670854867942 0 -0.14892453724321039 0.38998910039625528 0 -0.18047408951467989 0.38368683415264299 0 -0.16393263101776051 0.377811301899728 0 -0.1697532507094677 0.3985670854867942 0 -0.1697532507094677 0.3985670854867942 0 -0.1543144752154926 0.40846670546442382 0 -0.14892453724321039 0.38998910039625528 0 -0.18808216442088779 0.39920676244757408 0 -0.18047408951467989 0.38368683415264299 0 -0.1697532507094677 0.3985670854867942 0 -0.18808216442088779 0.39920676244757408 0 -0.1697532507094677 0.3985670854867942 0 -0.1764876300481629 0.40873099662466561 0 -0.18808216442088779 0.39920676244757408 0 -0.1764876300481629 0.40873099662466561 0 -0.18014262220854191 0.42227802042628387 0 -0.18808216442088779 0.39920676244757408 0 -0.18014262220854191 0.42227802042628387 0 -0.1764876300481629 0.40873099662466561 0 -0.18014262220854191 0.42227802042628387 0 -0.16797248285375421 0.41487211813801012 0 -0.17220307999619611 0.44534927840499378 0 -0.18014262220854191 0.42227802042628387 0 -0.17220307999619611 0.44534927840499378 0 -0.19105692089556489 0.43334490180876922 0 -0.18014262220854191 0.42227802042628387 0 -0.17220307999619611 0.44534927840499378 0 -0.18014262220854191 0.42227802042628387 0 -0.16780974434499221 0.43040982398245581 0 -0.18014262220854191 0.42227802042628387 0 -0.16780974434499221 0.43040982398245581 0 -0.16797248285375421 0.41487211813801012 0 -0.16780974434499221 0.43040982398245581 0 -0.16797248285375421 0.41487211813801012 0 -0.1556699124179855 0.4290423380990836 0 -0.16306062424848339 0.44050736484390751 0 -0.16780974434499221 0.43040982398245581 0 -0.1556699124179855 0.4290423380990836 0 -0.1697532507094677 0.3985670854867942 0 -0.1764876300481629 0.40873099662466561 0 -0.16797248285375421 0.41487211813801012 0 -0.16797248285375421 0.41487211813801012 0 -0.1543144752154926 0.40846670546442382 0 -0.1556699124179855 0.4290423380990836 0 -0.1697532507094677 0.3985670854867942 0 -0.16797248285375421 0.41487211813801012 0 -0.1543144752154926 0.40846670546442382 0 -0.1543144752154926 0.40846670546442382 0 -0.13955083839820601 0.41331054213078378 0 -0.1342738988421254 0.39940632656162323 0 -0.1543144752154926 0.40846670546442382 0 -0.1556699124179855 0.4290423380990836 0 -0.13955083839820601 0.41331054213078378 0 -0.1543144752154926 0.40846670546442382 0 -0.1556699124179855 0.4290423380990836 0 -0.14544522351027661 0.43702334659483638 0 -0.1556699124179855 0.4290423380990836 0 -0.13656638764367751 0.42782024169105087 0 -0.1556699124179855 0.4290423380990836 0 -0.13656638764367751 0.42782024169105087 0 -0.13955083839820601 0.41331054213078378 0 -0.13175207046494611 0.44346192959665548 0 -0.13656638764367751 0.42782024169105087 0 -0.1221002198223846 0.42926878838971572 0 -0.13175207046494611 0.44346192959665548 0 -0.14544522351027661 0.43702334659483638 0 -0.13656638764367751 0.42782024169105087 0 -0.13656638764367751 0.42782024169105087 0 -0.12548201032280559 0.41579856094527679 0 -0.1221002198223846 0.42926878838971572 0 -0.13955083839820601 0.41331054213078378 0 -0.12548201032280559 0.41579856094527679 0 -0.1342738988421254 0.39940632656162323 0 -0.13656638764367751 0.42782024169105087 0 -0.13955083839820601 0.41331054213078378 0 -0.12548201032280559 0.41579856094527679 0 -0.1342738988421254 0.39940632656162323 0 -0.12655549565904481 0.38459039506062281 0 -0.14892453724321039 0.38998910039625528 0 -0.12655549565904481 0.38459039506062281 0 -0.14892453724321039 0.38998910039625528 0 -0.14471747201537141 0.37109278790434008 0 -0.16393263101776051 0.377811301899728 0 -0.14892453724321039 0.38998910039625528 0 -0.14471747201537141 0.37109278790434008 0 -0.1543144752154926 0.40846670546442382 0 -0.1342738988421254 0.39940632656162323 0 -0.14892453724321039 0.38998910039625528 0 -0.14165043288496271 0.34906334461799549 0 -0.15843984593516669 0.3353087962765417 0 -0.16020893970901179 0.3578896071927124 0 -0.14165043288496271 0.34906334461799549 0 -0.14471747201537141 0.37109278790434008 0 -0.16020893970901179 0.3578896071927124 0 -0.12655549565904481 0.38459039506062281 0 -0.14471747201537141 0.37109278790434008 0 -0.12710123171609961 0.3622807710251873 0 -0.14165043288496271 0.34906334461799549 0 -0.14471747201537141 0.37109278790434008 0 -0.12710123171609961 0.3622807710251873 0 -0.14165043288496271 0.34906334461799549 0 -0.12710123171609961 0.3622807710251873 0 -0.1189994847652637 0.3425748687043878 0 -0.14165043288496271 0.34906334461799549 0 -0.1315170279352865 0.33102482385584192 0 -0.1189994847652637 0.3425748687043878 0 -0.14165043288496271 0.34906334461799549 0 -0.1315170279352865 0.33102482385584192 0 -0.1443776795059328 0.33390895980560381 0 -0.1315170279352865 0.33102482385584192 0 -0.14495419486811961 0.31734813855161759 0 -0.12577302420238409 0.3093301053864293 0 -0.1315170279352865 0.33102482385584192 0 -0.14495419486811961 0.31734813855161759 0 -0.1443776795059328 0.33390895980560381 0 -0.14495419486811961 0.31734813855161759 0 -0.15843984593516669 0.3353087962765417 0 -0.16290230207748849 0.31861206890147392 0 -0.14495419486811961 0.31734813855161759 0 -0.1443776795059328 0.33390895980560381 0 -0.15843984593516669 0.3353087962765417 0 -0.14165043288496271 0.34906334461799549 0 -0.1443776795059328 0.33390895980560381 0 -0.15843984593516669 0.3353087962765417 0 -0.15843984593516669 0.3353087962765417 0 -0.17774973011518999 0.33020764546750409 0 -0.17749789925717871 0.34686132115754031 0 -0.15843984593516669 0.3353087962765417 0 -0.16290230207748849 0.31861206890147392 0 -0.17774973011518999 0.33020764546750409 0 -0.17774973011518999 0.33020764546750409 0 -0.19720201262974121 0.32662885324472202 0 -0.17861358928141469 0.31234998356939919 0 -0.16290230207748849 0.31861206890147392 0 -0.17774973011518999 0.33020764546750409 0 -0.17861358928141469 0.31234998356939919 0 -0.17774973011518999 0.33020764546750409 0 -0.17749789925717871 0.34686132115754031 0 -0.1924972983359893 0.34358046834146699 0 -0.17749789925717871 0.34686132115754031 0 -0.17738562461233581 0.36620191856746193 0 -0.1942619271162552 0.36094369023707662 0 -0.17749789925717871 0.34686132115754031 0 -0.16020893970901179 0.3578896071927124 0 -0.17738562461233581 0.36620191856746193 0 -0.15843984593516669 0.3353087962765417 0 -0.17749789925717871 0.34686132115754031 0 -0.16020893970901179 0.3578896071927124 0 -0.16393263101776051 0.377811301899728 0 -0.16020893970901179 0.3578896071927124 0 -0.17738562461233581 0.36620191856746193 0 -0.16393263101776051 0.377811301899728 0 -0.14471747201537141 0.37109278790434008 0 -0.16020893970901179 0.3578896071927124 0 -0.18047408951467989 0.38368683415264299 0 -0.17738562461233581 0.36620191856746193 0 -0.18587119209385661 0.37354081621318608 0 -0.17738562461233581 0.36620191856746193 0 -0.18587119209385661 0.37354081621318608 0 -0.1942619271162552 0.36094369023707662 0 -0.19602170663323359 0.37613550446886429 0 -0.18587119209385661 0.37354081621318608 0 -0.1942619271162552 0.36094369023707662 0 -0.2075355886729093 0.37995552166991781 0 -0.19602170663323359 0.37613550446886429 0 -0.1942619271162552 0.36094369023707662 0 -0.1942619271162552 0.36094369023707662 0 -0.2157749225615814 0.35326083160049221 0 -0.1924972983359893 0.34358046834146699 0 -0.17749789925717871 0.34686132115754031 0 -0.1942619271162552 0.36094369023707662 0 -0.1924972983359893 0.34358046834146699 0 -0.2075355886729093 0.37995552166991781 0 -0.2157749225615814 0.35326083160049221 0 -0.2075355886729093 0.37995552166991781 0 -0.2157749225615814 0.35326083160049221 0 -0.22773539588177269 0.371785806926901 0 -0.2075355886729093 0.37995552166991781 0 -0.1942619271162552 0.36094369023707662 0 -0.2157749225615814 0.35326083160049221 0 -0.2157749225615814 0.35326083160049221 0 -0.22773539588177269 0.371785806926901 0 -0.245130999697667 0.35617292401417999 0 -0.2157749225615814 0.35326083160049221 0 -0.245130999697667 0.35617292401417999 0 -0.23295058751304551 0.34252643707592823 0 -0.25008303346203908 0.33611797840414298 0 -0.245130999697667 0.35617292401417999 0 -0.23295058751304551 0.34252643707592823 0 -0.22773539588177269 0.371785806926901 0 -0.245130999697667 0.35617292401417999 0 -0.24298804513369371 0.37489662163126852 0 -0.2592717334901794 0.37344143954643821 0 -0.245130999697667 0.35617292401417999 0 -0.24298804513369371 0.37489662163126852 0 -0.25008303346203908 0.33611797840414298 0 -0.2434150889916675 0.31528126182336752 0 -0.22401425645025361 0.32656614153106639 0 -0.25008303346203908 0.33611797840414298 0 -0.23295058751304551 0.34252643707592823 0 -0.22401425645025361 0.32656614153106639 0 -0.2157749225615814 0.35326083160049221 0 -0.22401425645025361 0.32656614153106639 0 -0.2157749225615814 0.35326083160049221 0 -0.23295058751304551 0.34252643707592823 0 -0.22401425645025361 0.32656614153106639 0 -0.2434150889916675 0.31528126182336752 0 -0.22401425645025361 0.32656614153106639 0 -0.2322535903389257 0.29987145146164079 0 -0.22401425645025361 0.32656614153106639 0 -0.2322535903389257 0.29987145146164079 0 -0.22401425645025361 0.32656614153106639 0 -0.19720201262974121 0.32662885324472202 0 -0.19906220937645289 0.30981321912625731 0 -0.2157749225615814 0.35326083160049221 0 -0.22401425645025361 0.32656614153106639 0 -0.19720201262974121 0.32662885324472202 0 -0.2157749225615814 0.35326083160049221 0 -0.1924972983359893 0.34358046834146699 0 -0.19720201262974121 0.32662885324472202 0 -0.17774973011518999 0.33020764546750409 0 -0.1924972983359893 0.34358046834146699 0 -0.19720201262974121 0.32662885324472202 0 -0.19720201262974121 0.32662885324472202 0 -0.19906220937645289 0.30981321912625731 0 -0.17861358928141469 0.31234998356939919 0 -0.19906220937645289 0.30981321912625731 0 -0.19856760929965681 0.29512163553205928 0 -0.18259298835682489 0.29782857031946008 0 -0.19085311474529701 0.28244454806871849 0 -0.19856760929965681 0.29512163553205928 0 -0.18259298835682489 0.29782857031946008 0 -0.19085311474529701 0.28244454806871849 0 -0.19856760929965681 0.29512163553205928 0 -0.2071077174296316 0.28582887531117668 0 -0.2071077174296316 0.28582887531117668 0 -0.21338280024082609 0.30038413056083629 0 -0.2192288693812762 0.28355186314419151 0 -0.19856760929965681 0.29512163553205928 0 -0.2071077174296316 0.28582887531117668 0 -0.21338280024082609 0.30038413056083629 0 -0.2071077174296316 0.28582887531117668 0 -0.2192288693812762 0.28355186314419151 0 -0.2134516182061634 0.27614892865934582 0 -0.22401425645025361 0.32656614153106639 0 -0.19906220937645289 0.30981321912625731 0 -0.21338280024082609 0.30038413056083629 0 -0.19906220937645289 0.30981321912625731 0 -0.19856760929965681 0.29512163553205928 0 -0.21338280024082609 0.30038413056083629 0 -0.22401425645025361 0.32656614153106639 0 -0.21338280024082609 0.30038413056083629 0 -0.2322535903389257 0.29987145146164079 0 -0.21338280024082609 0.30038413056083629 0 -0.2322535903389257 0.29987145146164079 0 -0.2192288693812762 0.28355186314419151 0 -0.2322535903389257 0.29987145146164079 0 -0.2192288693812762 0.28355186314419151 0 -0.2404929242275981 0.27317676139221531 0 -0.2322535903389257 0.29987145146164079 0 -0.2404929242275981 0.27317676139221531 0 -0.25040582964490582 0.29567583303740069 0 -0.2322535903389257 0.29987145146164079 0 -0.2404929242275981 0.27317676139221531 0 -0.25040582964490582 0.29567583303740069 0 -0.2404929242275981 0.27317676139221531 0 -0.25040582964490582 0.29567583303740069 0 -0.2434150889916675 0.31528126182336752 0 -0.2322535903389257 0.29987145146164079 0 -0.25054816238852479 0.24059870715785611 0 -0.2546175921406465 0.26128861144859822 0 -0.24164285362834059 0.26945109504960563 0 -0.25054816238852479 0.24059870715785611 0 -0.24164285362834059 0.26945109504960563 0 -0.24164285362834059 0.26945109504960563 0 -0.23310158204141429 0.25640081827561029 0 -0.2466801300010773 0.2452604621424746 0 -0.25054816238852479 0.24059870715785611 0 -0.24164285362834059 0.26945109504960563 0 -0.2466801300010773 0.2452604621424746 0 -0.24164285362834059 0.26945109504960563 0 -0.2394572339012683 0.27082608115536438 0 -0.23310158204141429 0.25640081827561029 0 -0.2394572339012683 0.27082608115536438 0 -0.23310158204141429 0.25640081827561029 0 -0.2546175921406465 0.26128861144859822 0 -0.24164285362834059 0.26945109504960563 0 -0.25982227492027221 0.287750399741656 0 -0.24164285362834059 0.26945109504960563 0 -0.2404929242275981 0.27317676139221531 0 -0.24164285362834059 0.26945109504960563 0 -0.2404929242275981 0.27317676139221531 0 -0.24164285362834059 0.26945109504960563 0 -0.2394572339012683 0.27082608115536438 0 -0.24164285362834059 0.26945109504960563 0 -0.2404929242275981 0.27317676139221531 0 -0.2394572339012683 0.27082608115536438 0 -0.2404929242275981 0.27317676139221531 0 -0.2394572339012683 0.27082608115536438 0 -0.2192288693812762 0.28355186314419151 0 -0.2404929242275981 0.27317676139221531 0 -0.2394572339012683 0.27082608115536438 0 -0.2192288693812762 0.28355186314419151 0 -0.2394572339012683 0.27082608115536438 0 -0.2223662512991782 0.27304179816788748 0 -0.2192288693812762 0.28355186314419151 0 -0.2394572339012683 0.27082608115536438 0 -0.2394572339012683 0.27082608115536438 0 -0.2223662512991782 0.27304179816788748 0 -0.23310158204141429 0.25640081827561029 0 -0.2223662512991782 0.27304179816788748 0 -0.23310158204141429 0.25640081827561029 0 -0.2355501434136231 0.2478522206023164 0 -0.2223662512991782 0.27304179816788748 0 -0.2355501434136231 0.2478522206023164 0 -0.2223662512991782 0.27304179816788748 0 -0.222192014233517 0.25700640751059239 0 -0.2355501434136231 0.2478522206023164 0 -0.2223662512991782 0.27304179816788748 0 -0.222192014233517 0.25700640751059239 0 -0.21287289659801359 0.26516855002046552 0 -0.222192014233517 0.25700640751059239 0 -0.22222104444170529 0.2467327462878163 0 -0.2355501434136231 0.2478522206023164 0 -0.222192014233517 0.25700640751059239 0 -0.21371201764358261 0.25214650866738469 0 -0.22222104444170529 0.2467327462878163 0 -0.222192014233517 0.25700640751059239 0 -0.21371201764358261 0.25214650866738469 0 -0.21287289659801359 0.26516855002046552 0 -0.21371201764358261 0.25214650866738469 0 -0.21287289659801359 0.26516855002046552 0 -0.20206212765223941 0.25873777709478579 0 -0.21287289659801359 0.26516855002046552 0 -0.20374397774259509 0.27266482885045462 0 -0.20206212765223941 0.25873777709478579 0 -0.21371201764358261 0.25214650866738469 0 -0.20206212765223941 0.25873777709478579 0 -0.20132404028626799 0.2438270423260239 0 -0.2192288693812762 0.28355186314419151 0 -0.2223662512991782 0.27304179816788748 0 -0.2134516182061634 0.27614892865934582 0 -0.2223662512991782 0.27304179816788748 0 -0.21287289659801359 0.26516855002046552 0 -0.2134516182061634 0.27614892865934582 0 -0.21287289659801359 0.26516855002046552 0 -0.2134516182061634 0.27614892865934582 0 -0.20374397774259509 0.27266482885045462 0 -0.2071077174296316 0.28582887531117668 0 -0.2134516182061634 0.27614892865934582 0 -0.20374397774259509 0.27266482885045462 0 -0.19085311474529701 0.28244454806871849 0 -0.2071077174296316 0.28582887531117668 0 -0.20374397774259509 0.27266482885045462 0 -0.20374397774259509 0.27266482885045462 0 -0.19076826268548239 0.26827287779833747 0 -0.20206212765223941 0.25873777709478579 0 -0.19085311474529701 0.28244454806871849 0 -0.20374397774259509 0.27266482885045462 0 -0.19076826268548239 0.26827287779833747 0 -0.19076826268548239 0.26827287779833747 0 -0.20206212765223941 0.25873777709478579 0 -0.18859670902218051 0.25052543551881717 0 -0.20206212765223941 0.25873777709478579 0 -0.18859670902218051 0.25052543551881717 0 -0.20132404028626799 0.2438270423260239 0 -0.18859670902218051 0.25052543551881717 0 -0.17798103800664031 0.2589484764895198 0 -0.1765110772481347 0.2431385849621667 0 -0.19076826268548239 0.26827287779833747 0 -0.18859670902218051 0.25052543551881717 0 -0.17798103800664031 0.2589484764895198 0 -0.1593990608277665 0.26226189644582071 0 -0.1613020889038615 0.23837444865205379 0 -0.14911298171075679 0.24967097175487091 0 -0.17798103800664031 0.2589484764895198 0 -0.1593990608277665 0.26226189644582071 0 -0.1765110772481347 0.2431385849621667 0 -0.1593990608277665 0.26226189644582071 0 -0.1613020889038615 0.23837444865205379 0 -0.17798103800664031 0.2589484764895198 0 -0.1593990608277665 0.26226189644582071 0 -0.17625891120693621 0.27267786553860818 0 -0.1593990608277665 0.26226189644582071 0 -0.1625734141651913 0.27864750634068558 0 -0.17625891120693621 0.27267786553860818 0 -0.1625734141651913 0.27864750634068558 0 -0.17625891120693621 0.27267786553860818 0 -0.1759785768112396 0.28549188808856729 0 -0.19076826268548239 0.26827287779833747 0 -0.17798103800664031 0.2589484764895198 0 -0.17625891120693621 0.27267786553860818 0 -0.19085311474529701 0.28244454806871849 0 -0.19076826268548239 0.26827287779833747 0 -0.17625891120693621 0.27267786553860818 0 -0.19085311474529701 0.28244454806871849 0 -0.17625891120693621 0.27267786553860818 0 -0.1759785768112396 0.28549188808856729 0 -0.19085311474529701 0.28244454806871849 0 -0.1759785768112396 0.28549188808856729 0 -0.18259298835682489 0.29782857031946008 0 -0.1759785768112396 0.28549188808856729 0 -0.18259298835682489 0.29782857031946008 0 -0.16136995080389721 0.29864400117774398 0 -0.17861358928141469 0.31234998356939919 0 -0.18259298835682489 0.29782857031946008 0 -0.16136995080389721 0.29864400117774398 0 -0.19906220937645289 0.30981321912625731 0 -0.17861358928141469 0.31234998356939919 0 -0.18259298835682489 0.29782857031946008 0 -0.14495419486811961 0.31734813855161759 0 -0.16290230207748849 0.31861206890147392 0 -0.16136995080389721 0.29864400117774398 0 -0.16290230207748849 0.31861206890147392 0 -0.17861358928141469 0.31234998356939919 0 -0.16136995080389721 0.29864400117774398 0 -0.1625734141651913 0.27864750634068558 0 -0.16136995080389721 0.29864400117774398 0 -0.1450808597671244 0.27950790118027541 0 -0.1625734141651913 0.27864750634068558 0 -0.1759785768112396 0.28549188808856729 0 -0.16136995080389721 0.29864400117774398 0 -0.16136995080389721 0.29864400117774398 0 -0.14126992245711781 0.29947087285495883 0 -0.1450808597671244 0.27950790118027541 0 -0.14495419486811961 0.31734813855161759 0 -0.16136995080389721 0.29864400117774398 0 -0.14126992245711781 0.29947087285495883 0 -0.14126992245711781 0.29947087285495883 0 -0.12577302420238409 0.3093301053864293 0 -0.12922822593455879 0.28960894173240792 0 -0.14495419486811961 0.31734813855161759 0 -0.14126992245711781 0.29947087285495883 0 -0.12577302420238409 0.3093301053864293 0 -0.14126992245711781 0.29947087285495883 0 -0.12922822593455879 0.28960894173240792 0 -0.1450808597671244 0.27950790118027541 0 -0.12922822593455879 0.28960894173240792 0 -0.1349930010153193 0.26255216121800568 0 -0.12922822593455879 0.28960894173240792 0 -0.1349930010153193 0.26255216121800568 0 -0.1450808597671244 0.27950790118027541 0 -0.12922822593455879 0.28960894173240792 0 -0.1349930010153193 0.26255216121800568 0 -0.1154385093851408 0.26413547420137762 0 -0.1593990608277665 0.26226189644582071 0 -0.1349930010153193 0.26255216121800568 0 -0.14911298171075679 0.24967097175487091 0 -0.1593990608277665 0.26226189644582071 0 -0.1349930010153193 0.26255216121800568 0 -0.1450808597671244 0.27950790118027541 0 -0.1593990608277665 0.26226189644582071 0 -0.1625734141651913 0.27864750634068558 0 -0.1450808597671244 0.27950790118027541 0 -0.1125365884501535 0.28353815127968629 0 -0.09362037031597753 0.26527792879994888 0 -0.1125365884501535 0.28353815127968629 0 -0.093128128460342754 0.28254352657507131 0 -0.09362037031597753 0.26527792879994888 0 -0.1154385093851408 0.26413547420137762 0 -0.1125365884501535 0.28353815127968629 0 -0.09362037031597753 0.26527792879994888 0 -0.1154385093851408 0.26413547420137762 0 -0.09362037031597753 0.26527792879994888 0 -0.097135213821017974 0.2450179218164267 0 -0.1154385093851408 0.26413547420137762 0 -0.097135213821017974 0.2450179218164267 0 -0.11832329044822951 0.24304604882281969 0 -0.1349930010153193 0.26255216121800568 0 -0.1154385093851408 0.26413547420137762 0 -0.11832329044822951 0.24304604882281969 0 -0.12922822593455879 0.28960894173240792 0 -0.1154385093851408 0.26413547420137762 0 -0.1125365884501535 0.28353815127968629 0 -0.12922822593455879 0.28960894173240792 0 -0.1125365884501535 0.28353815127968629 0 -0.11715930820710339 0.29724977554595788 0 -0.1125365884501535 0.28353815127968629 0 -0.11715930820710339 0.29724977554595788 0 -0.1038404580068167 0.30398166541893579 0 -0.12577302420238409 0.3093301053864293 0 -0.1038404580068167 0.30398166541893579 0 -0.11250071635914489 0.32397018824961021 0 -0.12577302420238409 0.3093301053864293 0 -0.11715930820710339 0.29724977554595788 0 -0.1038404580068167 0.30398166541893579 0 -0.12577302420238409 0.3093301053864293 0 -0.12922822593455879 0.28960894173240792 0 -0.11715930820710339 0.29724977554595788 0 -0.1125365884501535 0.28353815127968629 0 -0.1038404580068167 0.30398166541893579 0 -0.093128128460342754 0.28254352657507131 0 -0.083140595227089928 0.29591471829194321 0 -0.093128128460342754 0.28254352657507131 0 -0.06936539161773822 0.28020753346750782 0 -0.1038404580068167 0.30398166541893579 0 -0.083140595227089928 0.29591471829194321 0 -0.093128128460342754 0.28254352657507131 0 -0.1038404580068167 0.30398166541893579 0 -0.083140595227089928 0.29591471829194321 0 -0.090988500091643998 0.31647506579520901 0 -0.083140595227089928 0.29591471829194321 0 -0.073171874186503463 0.31004866742903531 0 -0.090988500091643998 0.31647506579520901 0 -0.083140595227089928 0.29591471829194321 0 -0.073171874186503463 0.31004866742903531 0 -0.058649820332164468 0.29485946887662068 0 -0.073171874186503463 0.31004866742903531 0 -0.058649820332164468 0.29485946887662068 0 -0.056101506374375817 0.3128319137626559 0 -0.083140595227089928 0.29591471829194321 0 -0.06936539161773822 0.28020753346750782 0 -0.058649820332164468 0.29485946887662068 0 -0.06936539161773822 0.28020753346750782 0 -0.077315147936728598 0.26324091235374891 0 -0.061029816546774987 0.26105054837526498 0 -0.093128128460342754 0.28254352657507131 0 -0.09362037031597753 0.26527792879994888 0 -0.077315147936728598 0.26324091235374891 0 -0.093128128460342754 0.28254352657507131 0 -0.06936539161773822 0.28020753346750782 0 -0.077315147936728598 0.26324091235374891 0 -0.09362037031597753 0.26527792879994888 0 -0.097135213821017974 0.2450179218164267 0 -0.074704152181801681 0.24701770632021169 0 -0.09362037031597753 0.26527792879994888 0 -0.077315147936728598 0.26324091235374891 0 -0.074704152181801681 0.24701770632021169 0 -0.09362037031597753 0.26527792879994888 0 -0.074704152181801681 0.24701770632021169 0 -0.061029816546774987 0.26105054837526498 0 -0.074704152181801681 0.24701770632021169 0 -0.057747386715908428 0.24463041023760571 0 -0.077315147936728598 0.26324091235374891 0 -0.061029816546774987 0.26105054837526498 0 -0.074704152181801681 0.24701770632021169 0 -0.061029816546774987 0.26105054837526498 0 -0.03742977218140614 0.26357467527551443 0 -0.046594812073733123 0.24823599275617891 0 -0.061029816546774987 0.26105054837526498 0 -0.046594812073733123 0.24823599275617891 0 -0.057747386715908428 0.24463041023760571 0 -0.06936539161773822 0.28020753346750782 0 -0.061029816546774987 0.26105054837526498 0 -0.048476972550706023 0.27982564543664679 0 -0.061029816546774987 0.26105054837526498 0 -0.048476972550706023 0.27982564543664679 0 -0.03742977218140614 0.26357467527551443 0 -0.061029816546774987 0.26105054837526498 0 -0.048476972550706023 0.27982564543664679 0 -0.048476972550706023 0.27982564543664679 0 -0.031819983271387867 0.27999546987022927 0 -0.03742977218140614 0.26357467527551443 0 -0.03742977218140614 0.26357467527551443 0 -0.03189830216395443 0.24568919817845219 0 -0.046594812073733123 0.24823599275617891 0 -0.03742977218140614 0.26357467527551443 0 -0.020565667716041462 0.25572736355358933 0 -0.03189830216395443 0.24568919817845219 0 -0.03742977218140614 0.26357467527551443 0 -0.020565667716041462 0.25572736355358933 0 -0.022715456858953278 0.26994870387583431 0 -0.020565667716041462 0.25572736355358933 0 -0.022715456858953278 0.26994870387583431 0 -0.0080731797928139601 0.26595294531788349 0 -0.031819983271387867 0.27999546987022927 0 -0.03742977218140614 0.26357467527551443 0 -0.022715456858953278 0.26994870387583431 0 -0.031819983271387867 0.27999546987022927 0 -0.022715456858953278 0.26994870387583431 0 -0.01304989637173277 0.28246747093767138 0 -0.022715456858953278 0.26994870387583431 0 -0.0080731797928139601 0.26595294531788349 0 -0.01304989637173277 0.28246747093767138 0 -0.0080731797928139601 0.26595294531788349 0 -0.01304989637173277 0.28246747093767138 0 0.0042686616650212863 0.27440264234540929 0 -0.0080731797928139601 0.26595294531788349 0 -0.004361582131907446 0.25012675423618741 0 0.0045166499774289158 0.26107549289106269 0 -0.020565667716041462 0.25572736355358933 0 -0.0080731797928139601 0.26595294531788349 0 -0.004361582131907446 0.25012675423618741 0 -0.0025045175740335168 0.31031314766219981 0 -0.001308369768482999 0.29320410557187471 0 -0.016598711115656001 0.30159589275249321 0 -0.0025045175740335168 0.31031314766219981 0 -0.016598711115656001 0.30159589275249321 0 -0.021593132986752129 0.32003539370993961 0 -0.001308369768482999 0.29320410557187471 0 -0.01304989637173277 0.28246747093767138 0 0.0042686616650212863 0.27440264234540929 0 -0.001308369768482999 0.29320410557187471 0 -0.01304989637173277 0.28246747093767138 0 -0.016598711115656001 0.30159589275249321 0 -0.01304989637173277 0.28246747093767138 0 -0.035924128554638488 0.29860074249802943 0 -0.01304989637173277 0.28246747093767138 0 -0.016598711115656001 0.30159589275249321 0 -0.035924128554638488 0.29860074249802943 0 -0.031819983271387867 0.27999546987022927 0 -0.01304989637173277 0.28246747093767138 0 -0.035924128554638488 0.29860074249802943 0 -0.016598711115656001 0.30159589275249321 0 -0.035924128554638488 0.29860074249802943 0 -0.021593132986752129 0.32003539370993961 0 -0.035924128554638488 0.29860074249802943 0 -0.021593132986752129 0.32003539370993961 0 -0.035924128554638488 0.29860074249802943 0 -0.056101506374375817 0.3128319137626559 0 -0.035924128554638488 0.29860074249802943 0 -0.038849285662232391 0.31623083740802288 0 -0.021593132986752129 0.32003539370993961 0 -0.035924128554638488 0.29860074249802943 0 -0.056101506374375817 0.3128319137626559 0 -0.038849285662232391 0.31623083740802288 0 -0.048476972550706023 0.27982564543664679 0 -0.031819983271387867 0.27999546987022927 0 -0.035924128554638488 0.29860074249802943 0 -0.048476972550706023 0.27982564543664679 0 -0.035924128554638488 0.29860074249802943 0 -0.06936539161773822 0.28020753346750782 0 -0.048476972550706023 0.27982564543664679 0 -0.058649820332164468 0.29485946887662068 0 -0.048476972550706023 0.27982564543664679 0 -0.035924128554638488 0.29860074249802943 0 -0.058649820332164468 0.29485946887662068 0 -0.035924128554638488 0.29860074249802943 0 -0.058649820332164468 0.29485946887662068 0 -0.056101506374375817 0.3128319137626559 0 -0.056101506374375817 0.3128319137626559 0 -0.061273612338163523 0.34168082392211641 0 -0.041778374733163148 0.33345529966146709 0 -0.041778374733163148 0.33345529966146709 0 -0.038849285662232391 0.31623083740802288 0 -0.021593132986752129 0.32003539370993961 0 -0.056101506374375817 0.3128319137626559 0 -0.041778374733163148 0.33345529966146709 0 -0.038849285662232391 0.31623083740802288 0 -0.021593132986752129 0.32003539370993961 0 -0.0072621374188671052 0.34147004492185079 0 -0.026756520995263839 0.34622662442059521 0 -0.041778374733163148 0.33345529966146709 0 -0.021593132986752129 0.32003539370993961 0 -0.026756520995263839 0.34622662442059521 0 -0.021593132986752129 0.32003539370993961 0 -0.0072621374188671052 0.34147004492185079 0 -0.021593132986752129 0.32003539370993961 0 -0.0072621374188671052 0.34147004492185079 0 -0.00017254440855824261 0.32560037032276101 0 -0.0025045175740335168 0.31031314766219981 0 -0.021593132986752129 0.32003539370993961 0 -0.00017254440855824261 0.32560037032276101 0 -0.017975249263795932 0.36469023687930041 0 -0.0036227877329230301 0.37947700469323042 0 0.0070688581490178301 0.36290469613376197 0 -0.017975249263795932 0.36469023687930041 0 -0.017202423973373768 0.37968737263981228 0 -0.0036227877329230301 0.37947700469323042 0 -0.0072621374188671052 0.34147004492185079 0 0.0070688581490178301 0.36290469613376197 0 -0.0072621374188671052 0.34147004492185079 0 -0.017975249263795932 0.36469023687930041 0 0.0070688581490178301 0.36290469613376197 0 -0.0072621374188671052 0.34147004492185079 0 -0.026756520995263839 0.34622662442059521 0 -0.017975249263795932 0.36469023687930041 0 -0.026756520995263839 0.34622662442059521 0 -0.017975249263795932 0.36469023687930041 0 -0.044972299261370183 0.36017708579622421 0 -0.017975249263795932 0.36469023687930041 0 -0.044972299261370183 0.36017708579622421 0 -0.033696569954803593 0.38151106350699548 0 -0.044972299261370183 0.36017708579622421 0 -0.056355392512392112 0.37995563405969551 0 -0.033696569954803593 0.38151106350699548 0 -0.041778374733163148 0.33345529966146709 0 -0.026756520995263839 0.34622662442059521 0 -0.044972299261370183 0.36017708579622421 0 -0.061273612338163523 0.34168082392211641 0 -0.044972299261370183 0.36017708579622421 0 -0.06521228616511808 0.36405037212009378 0 -0.061273612338163523 0.34168082392211641 0 -0.041778374733163148 0.33345529966146709 0 -0.044972299261370183 0.36017708579622421 0 -0.044972299261370183 0.36017708579622421 0 -0.06521228616511808 0.36405037212009378 0 -0.056355392512392112 0.37995563405969551 0 -0.06521228616511808 0.36405037212009378 0 -0.083611302269088666 0.35468926302163939 0 -0.079848824444575958 0.38374905380079372 0 -0.083611302269088666 0.35468926302163939 0 -0.096975471326963783 0.37148378381343322 0 -0.079848824444575958 0.38374905380079372 0 -0.061273612338163523 0.34168082392211641 0 -0.06521228616511808 0.36405037212009378 0 -0.083611302269088666 0.35468926302163939 0 -0.061273612338163523 0.34168082392211641 0 -0.083611302269088666 0.35468926302163939 0 -0.076278884194113258 0.32706308502728249 0 -0.056101506374375817 0.3128319137626559 0 -0.076278884194113258 0.32706308502728249 0 -0.056101506374375817 0.3128319137626559 0 -0.061273612338163523 0.34168082392211641 0 -0.076278884194113258 0.32706308502728249 0 -0.073171874186503463 0.31004866742903531 0 -0.056101506374375817 0.3128319137626559 0 -0.076278884194113258 0.32706308502728249 0 -0.076278884194113258 0.32706308502728249 0 -0.090988500091643998 0.31647506579520901 0 -0.096998472576195746 0.33787207035444761 0 -0.073171874186503463 0.31004866742903531 0 -0.076278884194113258 0.32706308502728249 0 -0.090988500091643998 0.31647506579520901 0 -0.083611302269088666 0.35468926302163939 0 -0.076278884194113258 0.32706308502728249 0 -0.096998472576195746 0.33787207035444761 0 -0.090988500091643998 0.31647506579520901 0 -0.096998472576195746 0.33787207035444761 0 -0.11250071635914489 0.32397018824961021 0 -0.1038404580068167 0.30398166541893579 0 -0.090988500091643998 0.31647506579520901 0 -0.11250071635914489 0.32397018824961021 0 -0.1315170279352865 0.33102482385584192 0 -0.12577302420238409 0.3093301053864293 0 -0.11250071635914489 0.32397018824961021 0 -0.1315170279352865 0.33102482385584192 0 -0.11250071635914489 0.32397018824961021 0 -0.1189994847652637 0.3425748687043878 0 -0.096998472576195746 0.33787207035444761 0 -0.11250071635914489 0.32397018824961021 0 -0.1189994847652637 0.3425748687043878 0 -0.12710123171609961 0.3622807710251873 0 -0.1189994847652637 0.3425748687043878 0 -0.1089146800649551 0.3561770594294375 0 -0.12710123171609961 0.3622807710251873 0 -0.1130895959368447 0.37246627340933908 0 -0.1089146800649551 0.3561770594294375 0 -0.12655549565904481 0.38459039506062281 0 -0.12710123171609961 0.3622807710251873 0 -0.1130895959368447 0.37246627340933908 0 -0.1130895959368447 0.37246627340933908 0 -0.096975471326963783 0.37148378381343322 0 -0.1089146800649551 0.3561770594294375 0 -0.083611302269088666 0.35468926302163939 0 -0.096975471326963783 0.37148378381343322 0 -0.1089146800649551 0.3561770594294375 0 -0.096998472576195746 0.33787207035444761 0 -0.1189994847652637 0.3425748687043878 0 -0.1089146800649551 0.3561770594294375 0 -0.083611302269088666 0.35468926302163939 0 -0.096998472576195746 0.33787207035444761 0 -0.1089146800649551 0.3561770594294375 0 -0.10335637586111809 0.38776536102133979 0 -0.1122756033997336 0.40440751886529608 0 -0.092626744140319878 0.40339206391310989 0 -0.1130895959368447 0.37246627340933908 0 -0.096975471326963783 0.37148378381343322 0 -0.10335637586111809 0.38776536102133979 0 -0.12655549565904481 0.38459039506062281 0 -0.1130895959368447 0.37246627340933908 0 -0.10335637586111809 0.38776536102133979 0 -0.12655549565904481 0.38459039506062281 0 -0.10335637586111809 0.38776536102133979 0 -0.1122756033997336 0.40440751886529608 0 -0.1342738988421254 0.39940632656162323 0 -0.12655549565904481 0.38459039506062281 0 -0.1122756033997336 0.40440751886529608 0 -0.12548201032280559 0.41579856094527679 0 -0.1122756033997336 0.40440751886529608 0 -0.1104394098233438 0.42174348832390141 0 -0.12548201032280559 0.41579856094527679 0 -0.1342738988421254 0.39940632656162323 0 -0.1122756033997336 0.40440751886529608 0 -0.13175207046494611 0.44346192959665548 0 -0.1221002198223846 0.42926878838971572 0 -0.1064787913094135 0.43730588845956792 0 -0.12548201032280559 0.41579856094527679 0 -0.1104394098233438 0.42174348832390141 0 -0.1221002198223846 0.42926878838971572 0 -0.1104394098233438 0.42174348832390141 0 -0.1221002198223846 0.42926878838971572 0 -0.1064787913094135 0.43730588845956792 0 -0.1064787913094135 0.43730588845956792 0 -0.08120551215388104 0.43114984732248018 0 -0.1064787913094135 0.43730588845956792 0 -0.097026127818036836 0.42472771569137829 0 -0.08120551215388104 0.43114984732248018 0 -0.1104394098233438 0.42174348832390141 0 -0.1064787913094135 0.43730588845956792 0 -0.097026127818036836 0.42472771569137829 0 -0.1122756033997336 0.40440751886529608 0 -0.098824778170087071 0.41543684488035082 0 -0.092626744140319878 0.40339206391310989 0 -0.1122756033997336 0.40440751886529608 0 -0.1104394098233438 0.42174348832390141 0 -0.098824778170087071 0.41543684488035082 0 -0.1104394098233438 0.42174348832390141 0 -0.097026127818036836 0.42472771569137829 0 -0.098824778170087071 0.41543684488035082 0 -0.097026127818036836 0.42472771569137829 0 -0.098824778170087071 0.41543684488035082 0 -0.088182147633458732 0.41800250947059109 0 -0.088182147633458732 0.41800250947059109 0 -0.075766822878524695 0.41019172804676379 0 -0.092626744140319878 0.40339206391310989 0 -0.088182147633458732 0.41800250947059109 0 -0.08120551215388104 0.43114984732248018 0 -0.075766822878524695 0.41019172804676379 0 -0.098824778170087071 0.41543684488035082 0 -0.088182147633458732 0.41800250947059109 0 -0.092626744140319878 0.40339206391310989 0 -0.08120551215388104 0.43114984732248018 0 -0.071684821312473307 0.43663440229273398 0 -0.093222345705159748 0.44373923815992428 0 -0.097026127818036836 0.42472771569137829 0 -0.088182147633458732 0.41800250947059109 0 -0.08120551215388104 0.43114984732248018 0 -0.1064787913094135 0.43730588845956792 0 -0.08120551215388104 0.43114984732248018 0 -0.093222345705159748 0.44373923815992428 0 -0.065135249615538293 0.42231944082984091 0 -0.071684821312473307 0.43663440229273398 0 -0.055943765893954757 0.43144171565494821 0 -0.065135249615538293 0.42231944082984091 0 -0.071684821312473307 0.43663440229273398 0 -0.075766822878524695 0.41019172804676379 0 -0.08120551215388104 0.43114984732248018 0 -0.071684821312473307 0.43663440229273398 0 -0.075766822878524695 0.41019172804676379 0 -0.071684821312473307 0.43663440229273398 0 -0.055943765893954757 0.43144171565494821 0 -0.071684821312473307 0.43663440229273398 0 -0.075766822878524695 0.41019172804676379 0 -0.065135249615538293 0.42231944082984091 0 -0.075766822878524695 0.41019172804676379 0 -0.05600936231039217 0.41342904923233581 0 -0.075766822878524695 0.41019172804676379 0 -0.063299398534094969 0.39691509799282482 0 -0.05600936231039217 0.41342904923233581 0 -0.075766822878524695 0.41019172804676379 0 -0.063299398534094969 0.39691509799282482 0 -0.079848824444575958 0.38374905380079372 0 -0.075766822878524695 0.41019172804676379 0 -0.079848824444575958 0.38374905380079372 0 -0.10335637586111809 0.38776536102133979 0 -0.092626744140319878 0.40339206391310989 0 -0.079848824444575958 0.38374905380079372 0 -0.075766822878524695 0.41019172804676379 0 -0.092626744140319878 0.40339206391310989 0 -0.079848824444575958 0.38374905380079372 0 -0.096975471326963783 0.37148378381343322 0 -0.10335637586111809 0.38776536102133979 0 -0.079848824444575958 0.38374905380079372 0 -0.06521228616511808 0.36405037212009378 0 -0.079848824444575958 0.38374905380079372 0 -0.056355392512392112 0.37995563405969551 0 -0.063299398534094969 0.39691509799282482 0 -0.079848824444575958 0.38374905380079372 0 -0.056355392512392112 0.37995563405969551 0 -0.063299398534094969 0.39691509799282482 0 -0.056355392512392112 0.37995563405969551 0 -0.048516590524589932 0.3972500248245352 0 -0.063299398534094969 0.39691509799282482 0 -0.048516590524589932 0.3972500248245352 0 -0.05600936231039217 0.41342904923233581 0 -0.048516590524589932 0.3972500248245352 0 -0.032850518460687449 0.39898186447299261 0 -0.037770955976974781 0.41204834058667128 0 -0.048516590524589932 0.3972500248245352 0 -0.032850518460687449 0.39898186447299261 0 -0.033696569954803593 0.38151106350699548 0 -0.056355392512392112 0.37995563405969551 0 -0.048516590524589932 0.3972500248245352 0 -0.033696569954803593 0.38151106350699548 0 -0.017975249263795932 0.36469023687930041 0 -0.033696569954803593 0.38151106350699548 0 -0.017202423973373768 0.37968737263981228 0 -0.033696569954803593 0.38151106350699548 0 -0.017202423973373768 0.37968737263981228 0 -0.018646700241063071 0.39302480292672293 0 -0.018646700241063071 0.39302480292672293 0 -0.0081246324890641812 0.40805065625530412 0 -0.02380123978217763 0.41023834757766542 0 -0.032850518460687449 0.39898186447299261 0 -0.018646700241063071 0.39302480292672293 0 -0.02380123978217763 0.41023834757766542 0 -0.032850518460687449 0.39898186447299261 0 -0.033696569954803593 0.38151106350699548 0 -0.018646700241063071 0.39302480292672293 0 -0.018646700241063071 0.39302480292672293 0 -0.0081246324890641812 0.40805065625530412 0 0.0058412231562265226 0.39891749499975832 0 -0.018646700241063071 0.39302480292672293 0 -0.0036227877329230301 0.37947700469323042 0 0.0058412231562265226 0.39891749499975832 0 -0.017202423973373768 0.37968737263981228 0 -0.018646700241063071 0.39302480292672293 0 -0.0036227877329230301 0.37947700469323042 0 -0.0072392309157056894 0.43649428994281841 0 -0.01082192781792536 0.4212785973985777 0 -0.025245314308565012 0.42614172839533782 0 -0.0072392309157056894 0.43649428994281841 0 -0.01082192781792536 0.4212785973985777 0 0.0059488009041311612 0.41735624870114602 0 -0.0081246324890641812 0.40805065625530412 0 -0.01082192781792536 0.4212785973985777 0 -0.02380123978217763 0.41023834757766542 0 -0.0081246324890641812 0.40805065625530412 0 -0.01082192781792536 0.4212785973985777 0 0.0059488009041311612 0.41735624870114602 0 -0.02380123978217763 0.41023834757766542 0 -0.025245314308565012 0.42614172839533782 0 -0.037770955976974781 0.41204834058667128 0 -0.01082192781792536 0.4212785973985777 0 -0.02380123978217763 0.41023834757766542 0 -0.025245314308565012 0.42614172839533782 0 -0.0072392309157056894 0.43649428994281841 0 -0.025245314308565012 0.42614172839533782 0 -0.027102965719072159 0.44246949839488359 0 -0.025245314308565012 0.42614172839533782 0 -0.040202710475436512 0.4262490290171615 0 -0.027102965719072159 0.44246949839488359 0 -0.040202710475436512 0.4262490290171615 0 -0.037770955976974781 0.41204834058667128 0 -0.05600936231039217 0.41342904923233581 0 -0.032850518460687449 0.39898186447299261 0 -0.02380123978217763 0.41023834757766542 0 -0.037770955976974781 0.41204834058667128 0 -0.025245314308565012 0.42614172839533782 0 -0.040202710475436512 0.4262490290171615 0 -0.037770955976974781 0.41204834058667128 0 -0.048516590524589932 0.3972500248245352 0 -0.037770955976974781 0.41204834058667128 0 -0.05600936231039217 0.41342904923233581 0 -0.040202710475436512 0.4262490290171615 0 -0.055943765893954757 0.43144171565494821 0 -0.065135249615538293 0.42231944082984091 0 -0.05600936231039217 0.41342904923233581 0 -0.055943765893954757 0.43144171565494821 0 -0.040202710475436512 0.4262490290171615 0 -0.055943765893954757 0.43144171565494821 0 -0.044517274739645132 0.44459183642540612 0 -0.040202710475436512 0.4262490290171615 0 -0.05600936231039217 0.41342904923233581 0 -0.055943765893954757 0.43144171565494821 0 -0.058335943557526457 0.44624868987483279 0 -0.051109653666529857 0.46081922680591902 0 -0.044517274739645132 0.44459183642540612 0 -0.071684821312473307 0.43663440229273398 0 -0.055943765893954757 0.43144171565494821 0 -0.058335943557526457 0.44624868987483279 0 -0.055943765893954757 0.43144171565494821 0 -0.058335943557526457 0.44624868987483279 0 -0.044517274739645132 0.44459183642540612 0 -0.051109653666529857 0.46081922680591902 0 -0.065163583037585071 0.47887813409757868 0 -0.068424202175029258 0.45775626819515641 0 -0.058335943557526457 0.44624868987483279 0 -0.051109653666529857 0.46081922680591902 0 -0.068424202175029258 0.45775626819515641 0 -0.051109653666529857 0.46081922680591902 0 -0.032757904119458489 0.46093040696708881 0 -0.044531910374045837 0.48023148171387958 0 -0.051109653666529857 0.46081922680591902 0 -0.032757904119458489 0.46093040696708881 0 -0.044517274739645132 0.44459183642540612 0 -0.040202710475436512 0.4262490290171615 0 -0.044517274739645132 0.44459183642540612 0 -0.027102965719072159 0.44246949839488359 0 -0.032757904119458489 0.46093040696708881 0 -0.044517274739645132 0.44459183642540612 0 -0.027102965719072159 0.44246949839488359 0 -0.0072392309157056894 0.43649428994281841 0 -0.027102965719072159 0.44246949839488359 0 -0.01461213653914459 0.45725057482734738 0 -0.032757904119458489 0.46093040696708881 0 -0.027102965719072159 0.44246949839488359 0 -0.01461213653914459 0.45725057482734738 0 -0.032757904119458489 0.46093040696708881 0 -0.01461213653914459 0.45725057482734738 0 -0.02185909025790168 0.48076112241269181 0 -0.01461213653914459 0.45725057482734738 0 -0.003089566724048357 0.47326761514296101 0 0.0026031304198410629 0.45131346537392758 0 -0.0072392309157056894 0.43649428994281841 0 -0.01461213653914459 0.45725057482734738 0 0.0026031304198410629 0.45131346537392758 0 -0.0068935706251778139 0.5 0 -0.003089566724048357 0.47326761514296101 0 -0.02185909025790168 0.48076112241269181 0 -0.01461213653914459 0.45725057482734738 0 -0.003089566724048357 0.47326761514296101 0 -0.02185909025790168 0.48076112241269181 0 -0.0068935706251778139 0.5 0 -0.02185909025790168 0.48076112241269181 0 -0.034398267262659273 0.5 0 -0.02185909025790168 0.48076112241269181 0 -0.034398267262659273 0.5 0 -0.044531910374045837 0.48023148171387958 0 -0.032757904119458489 0.46093040696708881 0 -0.02185909025790168 0.48076112241269181 0 -0.044531910374045837 0.48023148171387958 0 -0.051109653666529857 0.46081922680591902 0 -0.044531910374045837 0.48023148171387958 0 -0.065163583037585071 0.47887813409757868 0 -0.044531910374045837 0.48023148171387958 0 -0.061902963900140731 0.50000000000000089 0 -0.065163583037585071 0.47887813409757868 0 -0.034398267262659273 0.5 0 -0.044531910374045837 0.48023148171387958 0 -0.061902963900140731 0.50000000000000089 0 -0.061902963900140731 0.50000000000000089 0 -0.065163583037585071 0.47887813409757868 0 -0.061902963900140731 0.50000000000000089 0 -0.077838109667281524 0.48710250329852411 0 -0.087854509421354754 0.5 0 -0.061902963900140731 0.50000000000000089 0 -0.077838109667281524 0.48710250329852411 0 -0.065163583037585071 0.47887813409757868 0 -0.077838109667281524 0.48710250329852411 0 -0.087854509421354754 0.5 0 -0.093631833857276997 0.48378290981445132 0 -0.077838109667281524 0.48710250329852411 0 -0.093631833857276997 0.48378290981445132 0 -0.080637658120050082 0.47285147258059063 0 -0.093631833857276997 0.48378290981445132 0 -0.080637658120050082 0.47285147258059063 0 -0.095304075467821936 0.46893627996427029 0 -0.080637658120050082 0.47285147258059063 0 -0.065163583037585071 0.47887813409757868 0 -0.068424202175029258 0.45775626819515641 0 -0.077838109667281524 0.48710250329852411 0 -0.080637658120050082 0.47285147258059063 0 -0.065163583037585071 0.47887813409757868 0 -0.065163583037585071 0.47887813409757868 0 -0.068424202175029258 0.45775626819515641 0 -0.068424202175029258 0.45775626819515641 0 -0.079579065155363032 0.44906004053067289 0 -0.084984891428789844 0.45811025347487683 0 -0.080637658120050082 0.47285147258059063 0 -0.068424202175029258 0.45775626819515641 0 -0.084984891428789844 0.45811025347487683 0 -0.071684821312473307 0.43663440229273398 0 -0.058335943557526457 0.44624868987483279 0 -0.068424202175029258 0.45775626819515641 0 -0.071684821312473307 0.43663440229273398 0 -0.068424202175029258 0.45775626819515641 0 -0.071684821312473307 0.43663440229273398 0 -0.068424202175029258 0.45775626819515641 0 -0.079579065155363032 0.44906004053067289 0 -0.071684821312473307 0.43663440229273398 0 -0.079579065155363032 0.44906004053067289 0 -0.093222345705159748 0.44373923815992428 0 -0.071684821312473307 0.43663440229273398 0 -0.093222345705159748 0.44373923815992428 0 -0.079579065155363032 0.44906004053067289 0 -0.093222345705159748 0.44373923815992428 0 -0.084984891428789844 0.45811025347487683 0 -0.093222345705159748 0.44373923815992428 0 -0.084984891428789844 0.45811025347487683 0 -0.099437105326258865 0.45731761566948659 0 -0.084984891428789844 0.45811025347487683 0 -0.099437105326258865 0.45731761566948659 0 -0.095304075467821936 0.46893627996427029 0 -0.080637658120050082 0.47285147258059063 0 -0.084984891428789844 0.45811025347487683 0 -0.095304075467821936 0.46893627996427029 0 -0.099437105326258865 0.45731761566948659 0 -0.10891434393167621 0.46495823272124781 0 -0.095304075467821936 0.46893627996427029 0 -0.099437105326258865 0.45731761566948659 0 -0.10891434393167621 0.46495823272124781 0 -0.11475987009784661 0.45084407402711402 0 -0.093222345705159748 0.44373923815992428 0 -0.099437105326258865 0.45731761566948659 0 -0.11475987009784661 0.45084407402711402 0 -0.1064787913094135 0.43730588845956792 0 -0.093222345705159748 0.44373923815992428 0 -0.11475987009784661 0.45084407402711402 0 -0.093222345705159748 0.44373923815992428 0 -0.11475987009784661 0.45084407402711402 0 -0.13175207046494611 0.44346192959665548 0 -0.1064787913094135 0.43730588845956792 0 -0.13175207046494611 0.44346192959665548 0 -0.1064787913094135 0.43730588845956792 0 -0.11475987009784661 0.45084407402711402 0 -0.1336307511693739 0.45491465667522191 0 -0.12544051825853689 0.4631374593356033 0 -0.11475987009784661 0.45084407402711402 0 -0.12544051825853689 0.4631374593356033 0 -0.10891434393167621 0.46495823272124781 0 -0.1136160252334053 0.47771856728300521 0 -0.12544051825853689 0.4631374593356033 0 -0.10891434393167621 0.46495823272124781 0 -0.11475987009784661 0.45084407402711402 0 -0.13298062755884579 0.48255116261061692 0 -0.12544051825853689 0.4631374593356033 0 -0.1136160252334053 0.47771856728300521 0 -0.13298062755884579 0.48255116261061692 0 -0.1058458182692171 0.49480807365413371 0 -0.13298062755884579 0.48255116261061692 0 -0.11380605494256869 0.5 0 -0.1058458182692171 0.49480807365413371 0 -0.13298062755884579 0.48255116261061692 0 -0.1136160252334053 0.47771856728300521 0 -0.1058458182692171 0.49480807365413371 0 -0.087854509421354754 0.5 0 -0.11380605494256869 0.5 0 -0.1058458182692171 0.49480807365413371 0 -0.087854509421354754 0.5 0 -0.093631833857276997 0.48378290981445132 0 -0.1058458182692171 0.49480807365413371 0 -0.1136160252334053 0.47771856728300521 0 -0.1058458182692171 0.49480807365413371 0 -0.1043559736166358 0.48381945471134902 0 -0.093631833857276997 0.48378290981445132 0 -0.1058458182692171 0.49480807365413371 0 -0.1043559736166358 0.48381945471134902 0 -0.093631833857276997 0.48378290981445132 0 -0.1048057889081305 0.47442420204765762 0 -0.1043559736166358 0.48381945471134902 0 -0.093631833857276997 0.48378290981445132 0 -0.095304075467821936 0.46893627996427029 0 -0.1048057889081305 0.47442420204765762 0 -0.10891434393167621 0.46495823272124781 0 -0.1136160252334053 0.47771856728300521 0 -0.1048057889081305 0.47442420204765762 0 -0.10891434393167621 0.46495823272124781 0 -0.095304075467821936 0.46893627996427029 0 -0.1048057889081305 0.47442420204765762 0 -0.1136160252334053 0.47771856728300521 0 -0.1048057889081305 0.47442420204765762 0 -0.1043559736166358 0.48381945471134902 0 -0.16372231175516949 0.08442819848465731 0 -0.15093626356447659 0.087069345181943508 0 -0.15518952671466241 0.069788713381716036 0 -0.16372231175516949 0.08442819848465731 0 -0.1756345505012066 0.070889783495268699 0 -0.1751333004977583 0.097143888168289519 0 -0.16372231175516949 0.08442819848465731 0 -0.1751333004977583 0.097143888168289519 0 -0.16171791749774381 0.097249262196068775 0 -0.16372231175516949 0.08442819848465731 0 -0.16171791749774381 0.097249262196068775 0 -0.15093626356447659 0.087069345181943508 0 -0.16372231175516949 0.08442819848465731 0 -0.1756345505012066 0.070889783495268699 0 -0.15518952671466241 0.069788713381716036 0 -0.1756345505012066 0.070889783495268699 0 -0.15518952671466241 0.069788713381716036 0 -0.16223695238926561 0.052594200190125132 0 -0.1756345505012066 0.070889783495268699 0 -0.19053419445951161 0.052610770621845292 0 -0.19612483249420401 0.068091746174319415 0 -0.1756345505012066 0.070889783495268699 0 -0.18871947576181089 0.093673214670465021 0 -0.19612483249420401 0.068091746174319415 0 -0.1756345505012066 0.070889783495268699 0 -0.1751333004977583 0.097143888168289519 0 -0.1756345505012066 0.070889783495268699 0 -0.1751333004977583 0.097143888168289519 0 -0.18871947576181089 0.093673214670465021 0 -0.18131411902941769 0.11925468316661041 0 -0.18871947576181089 0.093673214670465021 0 -0.1751333004977583 0.097143888168289519 0 -0.18131411902941769 0.11925468316661041 0 -0.18871947576181089 0.093673214670465021 0 -0.1751333004977583 0.097143888168289519 0 -0.17463205049430791 0.1233979928413103 0 -0.18131411902941769 0.11925468316661041 0 -0.17463205049430791 0.1233979928413103 0 -0.19892457962824481 0.1205653340059829 0 -0.17463205049430791 0.1233979928413103 0 -0.19892457962824481 0.1205653340059829 0 -0.18530606321329801 0.12949084902847491 0 -0.1751333004977583 0.097143888168289519 0 -0.18131411902941769 0.11925468316661041 0 -0.17463205049430791 0.1233979928413103 0 -0.17463205049430791 0.1233979928413103 0 -0.19892457962824481 0.1205653340059829 0 -0.1751333004977583 0.097143888168289519 0 -0.17463205049430791 0.1233979928413103 0 -0.165591889364022 0.1100935584672583 0 -0.17463205049430791 0.1233979928413103 0 -0.1598554046101329 0.12512104095579701 0 -0.17463205049430791 0.1233979928413103 0 -0.16396547557359309 0.1179523604009539 0 -0.1598554046101329 0.12512104095579701 0 -0.17463205049430791 0.1233979928413103 0 -0.165591889364022 0.1100935584672583 0 -0.16396547557359309 0.1179523604009539 0 -0.165591889364022 0.1100935584672583 0 -0.16396547557359309 0.1179523604009539 0 -0.1557825578259103 0.11319684933944919 0 -0.16396547557359309 0.1179523604009539 0 -0.1557825578259103 0.11319684933944919 0 -0.1598554046101329 0.12512104095579701 0 -0.1751333004977583 0.097143888168289519 0 -0.165591889364022 0.1100935584672583 0 -0.16171791749774381 0.097249262196068775 0 -0.165591889364022 0.1100935584672583 0 -0.1513048045227823 0.10252569531319269 0 -0.1557825578259103 0.11319684933944919 0 -0.165591889364022 0.1100935584672583 0 -0.16171791749774381 0.097249262196068775 0 -0.1513048045227823 0.10252569531319269 0 -0.1513048045227823 0.10252569531319269 0 -0.1355182161913136 0.10914070680675041 0 -0.13964798444238999 0.092855372928561969 0 -0.16171791749774381 0.097249262196068775 0 -0.1513048045227823 0.10252569531319269 0 -0.15093626356447659 0.087069345181943508 0 -0.1513048045227823 0.10252569531319269 0 -0.1557825578259103 0.11319684933944919 0 -0.1355182161913136 0.10914070680675041 0 -0.1513048045227823 0.10252569531319269 0 -0.13964798444238999 0.092855372928561969 0 -0.15093626356447659 0.087069345181943508 0 -0.1557825578259103 0.11319684933944919 0 -0.1355182161913136 0.10914070680675041 0 -0.1598554046101329 0.12512104095579701 0 -0.1355182161913136 0.10914070680675041 0 -0.1598554046101329 0.12512104095579701 0 -0.14280445220814469 0.1192500300409249 0 -0.1598554046101329 0.12512104095579701 0 -0.13922952195075211 0.12752614618091959 0 -0.14280445220814469 0.1192500300409249 0 -0.1355182161913136 0.10914070680675041 0 -0.1598554046101329 0.12512104095579701 0 -0.13074244959953979 0.11946175785799951 0 -0.1355182161913136 0.10914070680675041 0 -0.123743476780604 0.10140915347104661 0 -0.14280445220814469 0.1192500300409249 0 -0.13074244959953979 0.11946175785799951 0 -0.13922952195075211 0.12752614618091959 0 -0.14280445220814469 0.1192500300409249 0 -0.1355182161913136 0.10914070680675041 0 -0.14280445220814469 0.1192500300409249 0 -0.13074244959953979 0.11946175785799951 0 -0.1355182161913136 0.10914070680675041 0 -0.1355182161913136 0.10914070680675041 0 -0.12576525993317081 0.095608920700106598 0 -0.13964798444238999 0.092855372928561969 0 -0.1355182161913136 0.10914070680675041 0 -0.12576525993317081 0.095608920700106598 0 -0.1355182161913136 0.10914070680675041 0 -0.12576525993317081 0.095608920700106598 0 -0.123743476780604 0.10140915347104661 0 -0.1355182161913136 0.10914070680675041 0 -0.123743476780604 0.10140915347104661 0 -0.12576525993317081 0.095608920700106598 0 -0.13964798444238999 0.092855372928561969 0 -0.13471537800020611 0.069932196640817734 0 -0.12576525993317081 0.095608920700106598 0 -0.13471537800020611 0.069932196640817734 0 -0.1158200249735767 0.081810356583590621 0 -0.12576525993317081 0.095608920700106598 0 -0.13471537800020611 0.069932196640817734 0 -0.13964798444238999 0.092855372928561969 0 -0.15093626356447659 0.087069345181943508 0 -0.13471537800020611 0.069932196640817734 0 -0.15093626356447659 0.087069345181943508 0 -0.15518952671466241 0.069788713381716036 0 -0.13471537800020611 0.069932196640817734 0 -0.13471537800020611 0.069932196640817734 0 -0.12657932631233151 0.049909814768299969 0 -0.1143187324205953 0.061132814960732959 0 -0.13471537800020611 0.069932196640817734 0 -0.14366549606724091 0.044255472581528732 0 -0.13471537800020611 0.069932196640817734 0 -0.12657932631233151 0.049909814768299969 0 -0.14366549606724091 0.044255472581528732 0 -0.12657932631233151 0.049909814768299969 0 -0.1284208098020175 0.033179877632891097 0 -0.14366549606724091 0.044255472581528732 0 -0.1284208098020175 0.033179877632891097 0 -0.14366549606724091 0.044255472581528732 0 -0.1467564914265658 0.025061264112791169 0 -0.14366549606724091 0.044255472581528732 0 -0.16223695238926561 0.052594200190125132 0 -0.1605593881585633 0.033401352669864208 0 -0.14366549606724091 0.044255472581528732 0 -0.1467564914265658 0.025061264112791169 0 -0.1605593881585633 0.033401352669864208 0 -0.15518952671466241 0.069788713381716036 0 -0.13471537800020611 0.069932196640817734 0 -0.14366549606724091 0.044255472581528732 0 -0.15518952671466241 0.069788713381716036 0 -0.14366549606724091 0.044255472581528732 0 -0.16223695238926561 0.052594200190125132 0 -0.13137048688310951 -0.003337023478303953 0 -0.13460564055411489 0.01723703355858653 0 -0.11131614731463491 0.019777731715017489 0 -0.13137048688310951 -0.003337023478303953 0 -0.13460564055411489 0.01723703355858653 0 -0.1433170204333889 0.0042533116210359059 0 -0.13137048688310951 -0.003337023478303953 0 -0.1433170204333889 0.0042533116210359059 0 -0.1284208098020175 0.033179877632891097 0 -0.13460564055411489 0.01723703355858653 0 -0.1467564914265658 0.025061264112791169 0 -0.13460564055411489 0.01723703355858653 0 -0.1467564914265658 0.025061264112791169 0 -0.15542372099760421 0.0119454102405231 0 -0.1467564914265658 0.025061264112791169 0 -0.15542372099760421 0.0119454102405231 0 -0.1605593881585633 0.033401352669864208 0 -0.13460564055411489 0.01723703355858653 0 -0.15542372099760421 0.0119454102405231 0 -0.1433170204333889 0.0042533116210359059 0 -0.15542372099760421 0.0119454102405231 0 -0.1433170204333889 0.0042533116210359059 0 -0.1564869492866878 -0.00059129627401754796 0 -0.15542372099760421 0.0119454102405231 0 -0.1433170204333889 0.0042533116210359059 0 -0.15542372099760421 0.0119454102405231 0 -0.17947695511209899 0.027227843959349921 0 -0.17208342559322409 0.0058404778805985873 0 -0.1564869492866878 -0.00059129627401754796 0 -0.15542372099760421 0.0119454102405231 0 -0.17208342559322409 0.0058404778805985873 0 -0.15542372099760421 0.0119454102405231 0 -0.17947695511209899 0.027227843959349921 0 -0.1605593881585633 0.033401352669864208 0 -0.15542372099760421 0.0119454102405231 0 -0.17947695511209899 0.027227843959349921 0 -0.18418091461086311 -0.0067458590849352237 0 -0.17208342559322409 0.0058404778805985873 0 -0.19246094727398991 0.01350162855121731 0 -0.17947695511209899 0.027227843959349921 0 -0.17208342559322409 0.0058404778805985873 0 -0.19246094727398991 0.01350162855121731 0 -0.1756345505012066 0.070889783495268699 0 -0.16223695238926561 0.052594200190125132 0 -0.17613580050465499 0.044635678822247941 0 -0.16223695238926561 0.052594200190125132 0 -0.1605593881585633 0.033401352669864208 0 -0.17613580050465499 0.044635678822247941 0 -0.17947695511209899 0.027227843959349921 0 -0.17613580050465499 0.044635678822247941 0 -0.19053419445951161 0.052610770621845292 0 -0.17947695511209899 0.027227843959349921 0 -0.1605593881585633 0.033401352669864208 0 -0.17613580050465499 0.044635678822247941 0 -0.1756345505012066 0.070889783495268699 0 -0.17613580050465499 0.044635678822247941 0 -0.1756345505012066 0.070889783495268699 0 -0.17613580050465499 0.044635678822247941 0 -0.19053419445951161 0.052610770621845292 0 -0.20353018922659619 0.042510277678173593 0 -0.19612483249420401 0.068091746174319415 0 -0.19053419445951161 0.052610770621845292 0 -0.20353018922659619 0.042510277678173593 0 -0.19612483249420401 0.068091746174319415 0 -0.17947695511209899 0.027227843959349921 0 -0.20353018922659619 0.042510277678173593 0 -0.17947695511209899 0.027227843959349921 0 -0.19053419445951161 0.052610770621845292 0 -0.20353018922659619 0.042510277678173593 0 -0.20353018922659619 0.042510277678173593 0 -0.21955159654467851 0.052689619643397433 0 -0.22113039192623851 0.032431486205985689 0 -0.20353018922659619 0.042510277678173593 0 -0.2127216369241372 0.066942535097736622 0 -0.19612483249420401 0.068091746174319415 0 -0.20353018922659619 0.042510277678173593 0 -0.21955159654467851 0.052689619643397433 0 -0.20353018922659619 0.042510277678173593 0 -0.21955159654467851 0.052689619643397433 0 -0.2127216369241372 0.066942535097736622 0 -0.2008908429601583 -0.001101000049535744 0 -0.19246094727398991 0.01350162855121731 0 -0.21117588750041991 0.016098560242972841 0 -0.18418091461086311 -0.0067458590849352237 0 -0.2008908429601583 -0.001101000049535744 0 -0.19246094727398991 0.01350162855121731 0 -0.17947695511209899 0.027227843959349921 0 -0.20353018922659619 0.042510277678173593 0 -0.19246094727398991 0.01350162855121731 0 -0.20353018922659619 0.042510277678173593 0 -0.19246094727398991 0.01350162855121731 0 -0.21117588750041991 0.016098560242972841 0 -0.20353018922659619 0.042510277678173593 0 -0.21117588750041991 0.016098560242972841 0 -0.22113039192623851 0.032431486205985689 0 -0.20353018922659619 0.042510277678173593 0 -0.21117588750041991 0.016098560242972841 0 -0.21882158577424271 -0.0103131571922281 0 -0.21117588750041991 0.016098560242972841 0 -0.2008908429601583 -0.001101000049535744 0 -0.21882158577424271 -0.0103131571922281 0 -0.21117588750041991 0.016098560242972841 0 -0.21882158577424271 -0.0103131571922281 0 -0.21117588750041991 0.016098560242972841 0 -0.23546354233931949 0.0078270751002715265 0 -0.23546354233931949 0.0078270751002715265 0 -0.22113039192623851 0.032431486205985689 0 -0.24192231969137759 0.032530148466345048 0 -0.21117588750041991 0.016098560242972841 0 -0.23546354233931949 0.0078270751002715265 0 -0.22113039192623851 0.032431486205985689 0 -0.26249405175029211 0.007662734938978108 0 -0.23546354233931949 0.0078270751002715265 0 -0.24192231969137759 0.032530148466345048 0 -0.21955159654467851 0.052689619643397433 0 -0.235573003862763 0.062868961608618018 0 -0.21955159654467851 0.052689619643397433 0 -0.235573003862763 0.062868961608618018 0 -0.2127216369241372 0.066942535097736622 0 -0.21955159654467851 0.052689619643397433 0 -0.24450296286368231 0.049373315754277197 0 -0.235573003862763 0.062868961608618018 0 -0.21955159654467851 0.052689619643397433 0 -0.22113039192623851 0.032431486205985689 0 -0.24192231969137759 0.032530148466345048 0 -0.21955159654467851 0.052689619643397433 0 -0.24192231969137759 0.032530148466345048 0 -0.24450296286368231 0.049373315754277197 0 -0.2559826395353394 0.061597363551489349 0 -0.24450296286368231 0.049373315754277197 0 -0.235573003862763 0.062868961608618018 0 -0.2559826395353394 0.061597363551489349 0 -0.235573003862763 0.062868961608618018 0 -0.24672703352553629 0.080158677613093823 0 -0.235573003862763 0.062868961608618018 0 -0.24672703352553629 0.080158677613093823 0 -0.2291931736768115 0.079240865998811236 0 -0.24672703352553629 0.080158677613093823 0 -0.2291931736768115 0.079240865998811236 0 -0.23621836434907981 0.095400964388867249 0 -0.25734245126200062 0.1014160866788785 0 -0.24672703352553629 0.080158677613093823 0 -0.23621836434907981 0.095400964388867249 0 -0.2291931736768115 0.079240865998811236 0 -0.21482055865464289 0.083254774020096164 0 -0.2224133943648228 0.095863443882093446 0 -0.2291931736768115 0.079240865998811236 0 -0.2224133943648228 0.095863443882093446 0 -0.23621836434907981 0.095400964388867249 0 -0.235573003862763 0.062868961608618018 0 -0.2291931736768115 0.079240865998811236 0 -0.2127216369241372 0.066942535097736622 0 -0.2291931736768115 0.079240865998811236 0 -0.2127216369241372 0.066942535097736622 0 -0.21482055865464289 0.083254774020096164 0 -0.2127216369241372 0.066942535097736622 0 -0.21482055865464289 0.083254774020096164 0 -0.203099952488771 0.082051867707200909 0 -0.2127216369241372 0.066942535097736622 0 -0.203099952488771 0.082051867707200909 0 -0.19612483249420401 0.068091746174319415 0 -0.21482055865464289 0.083254774020096164 0 -0.203099952488771 0.082051867707200909 0 -0.20375886312158339 0.098403164090322431 0 -0.21482055865464289 0.083254774020096164 0 -0.20375886312158339 0.098403164090322431 0 -0.2224133943648228 0.095863443882093446 0 -0.203099952488771 0.082051867707200909 0 -0.18871947576181089 0.093673214670465021 0 -0.19612483249420401 0.068091746174319415 0 -0.203099952488771 0.082051867707200909 0 -0.18871947576181089 0.093673214670465021 0 -0.20375886312158339 0.098403164090322431 0 -0.18871947576181089 0.093673214670465021 0 -0.19612483249420401 0.068091746174319415 0 -0.18131411902941769 0.11925468316661041 0 -0.19892457962824481 0.1205653340059829 0 -0.19516396372389291 0.10855896077987801 0 -0.19892457962824481 0.1205653340059829 0 -0.19516396372389291 0.10855896077987801 0 -0.2064149638336307 0.1103678524700213 0 -0.18131411902941769 0.11925468316661041 0 -0.18871947576181089 0.093673214670465021 0 -0.19516396372389291 0.10855896077987801 0 -0.18871947576181089 0.093673214670465021 0 -0.19516396372389291 0.10855896077987801 0 -0.20375886312158339 0.098403164090322431 0 -0.19516396372389291 0.10855896077987801 0 -0.20375886312158339 0.098403164090322431 0 -0.2064149638336307 0.1103678524700213 0 -0.20375886312158339 0.098403164090322431 0 -0.21522430961498251 0.1066047727861448 0 -0.2064149638336307 0.1103678524700213 0 -0.20375886312158339 0.098403164090322431 0 -0.21522430961498251 0.1066047727861448 0 -0.2224133943648228 0.095863443882093446 0 -0.19892457962824481 0.1205653340059829 0 -0.2064149638336307 0.1103678524700213 0 -0.22321710876218179 0.117732675170656 0 -0.19892457962824481 0.1205653340059829 0 -0.22321710876218179 0.117732675170656 0 -0.21198243415042209 0.1273270768851994 0 -0.19892457962824481 0.1205653340059829 0 -0.22321710876218179 0.117732675170656 0 -0.21522430961498251 0.1066047727861448 0 -0.2064149638336307 0.1103678524700213 0 -0.22321710876218179 0.117732675170656 0 -0.22321710876218179 0.117732675170656 0 -0.22699489982736379 0.11729216141517949 0 -0.22321710876218179 0.117732675170656 0 -0.22699489982736379 0.11729216141517949 0 -0.22407622611686431 0.1086811689817279 0 -0.21522430961498251 0.1066047727861448 0 -0.22321710876218179 0.117732675170656 0 -0.21522430961498251 0.1066047727861448 0 -0.22321710876218179 0.117732675170656 0 -0.22407622611686431 0.1086811689817279 0 -0.22699489982736379 0.11729216141517949 0 -0.22407622611686431 0.1086811689817279 0 -0.23779668997176759 0.1099640720218579 0 -0.21522430961498251 0.1066047727861448 0 -0.2224133943648228 0.095863443882093446 0 -0.22407622611686431 0.1086811689817279 0 -0.22407622611686431 0.1086811689817279 0 -0.23621836434907981 0.095400964388867249 0 -0.23779668997176759 0.1099640720218579 0 -0.2224133943648228 0.095863443882093446 0 -0.22407622611686431 0.1086811689817279 0 -0.23621836434907981 0.095400964388867249 0 -0.25734245126200062 0.1014160866788785 0 -0.23621836434907981 0.095400964388867249 0 -0.23779668997176759 0.1099640720218579 0 -0.25734245126200062 0.1014160866788785 0 -0.23779668997176759 0.1099640720218579 0 -0.24895710550971339 0.12165530893482571 0 -0.2385801137665676 0.122701518390659 0 -0.23779668997176759 0.1099640720218579 0 -0.24895710550971339 0.12165530893482571 0 -0.22699489982736379 0.11729216141517949 0 -0.2385801137665676 0.122701518390659 0 -0.23779668997176759 0.1099640720218579 0 -0.22699489982736379 0.11729216141517949 0 -0.2385801137665676 0.122701518390659 0 -0.2405717597574257 0.1418945311907728 0 -0.2385801137665676 0.122701518390659 0 -0.24895710550971339 0.12165530893482571 0 -0.2405717597574257 0.1418945311907728 0 -0.25608290515330878 0.14176455504424121 0 -0.24895710550971339 0.12165530893482571 0 -0.2405717597574257 0.1418945311907728 0 -0.24895710550971339 0.12165530893482571 0 -0.2405717597574257 0.1418945311907728 0 -0.22321710876218179 0.117732675170656 0 -0.22354757195218369 0.13155214617265881 0 -0.2405717597574257 0.1418945311907728 0 -0.22321710876218179 0.117732675170656 0 -0.22699489982736379 0.11729216141517949 0 -0.2405717597574257 0.1418945311907728 0 -0.22321710876218179 0.117732675170656 0 -0.2405717597574257 0.1418945311907728 0 -0.22354757195218369 0.13155214617265881 0 -0.22866128532361621 0.14153149423513051 0 -0.2405717597574257 0.1418945311907728 0 -0.21878746546912231 0.1392010645796998 0 -0.22354757195218369 0.13155214617265881 0 -0.22866128532361621 0.14153149423513051 0 -0.21878746546912231 0.1392010645796998 0 -0.22354757195218369 0.13155214617265881 0 -0.2159650745918322 0.13357921232561451 0 -0.22321710876218179 0.117732675170656 0 -0.22354757195218369 0.13155214617265881 0 -0.21198243415042209 0.1273270768851994 0 -0.22866128532361621 0.14153149423513051 0 -0.2405717597574257 0.1418945311907728 0 -0.23379856030635021 0.15824260950785349 0 -0.2220979066771098 0.14976549412664819 0 -0.22866128532361621 0.14153149423513051 0 -0.23379856030635021 0.15824260950785349 0 -0.2220979066771098 0.14976549412664819 0 -0.23379856030635021 0.15824260950785349 0 -0.21909321543322929 0.1606009590281276 0 -0.21878746546912231 0.1392010645796998 0 -0.2220979066771098 0.14976549412664819 0 -0.22866128532361621 0.14153149423513051 0 -0.25072842261960387 0.15603505327837411 0 -0.2405717597574257 0.1418945311907728 0 -0.23379856030635021 0.15824260950785349 0 -0.2405717597574257 0.1418945311907728 0 -0.23379856030635021 0.15824260950785349 0 -0.25072842261960387 0.15603505327837411 0 -0.25608290515330878 0.14176455504424121 0 -0.2405717597574257 0.1418945311907728 0 -0.25072842261960387 0.15603505327837411 0 -0.2405717597574257 0.1418945311907728 0 -0.24346313069296871 0.16633892637512099 0 -0.22702536085527411 0.17459068782493389 0 -0.23379856030635021 0.15824260950785349 0 -0.25072842261960387 0.15603505327837411 0 -0.24346313069296871 0.16633892637512099 0 -0.23379856030635021 0.15824260950785349 0 -0.24593749817207319 0.17922101447869401 0 -0.22702536085527411 0.17459068782493389 0 -0.23531355475386351 0.19206411553567329 0 -0.24346313069296871 0.16633892637512099 0 -0.24593749817207319 0.17922101447869401 0 -0.22702536085527411 0.17459068782493389 0 -0.22702536085527411 0.17459068782493389 0 -0.23531355475386351 0.19206411553567329 0 -0.21668486691279551 0.1896349297876268 0 -0.22702536085527411 0.17459068782493389 0 -0.21909321543322929 0.1606009590281276 0 -0.21078083849551829 0.1734645188772713 0 -0.22702536085527411 0.17459068782493389 0 -0.23379856030635021 0.15824260950785349 0 -0.22702536085527411 0.17459068782493389 0 -0.23379856030635021 0.15824260950785349 0 -0.21909321543322929 0.1606009590281276 0 -0.21909321543322929 0.1606009590281276 0 -0.20917883787537819 0.16210322782447459 0 -0.21014900685323101 0.14925134328242939 0 -0.21909321543322929 0.1606009590281276 0 -0.20917883787537819 0.16210322782447459 0 -0.21078083849551829 0.1734645188772713 0 -0.20917883787537819 0.16210322782447459 0 -0.21078083849551829 0.1734645188772713 0 -0.19690649474481761 0.16930016240990661 0 -0.22702536085527411 0.17459068782493389 0 -0.21078083849551829 0.1734645188772713 0 -0.21668486691279551 0.1896349297876268 0 -0.21078083849551829 0.1734645188772713 0 -0.21668486691279551 0.1896349297876268 0 -0.19675568901559279 0.189567439062066 0 -0.21078083849551829 0.1734645188772713 0 -0.19690649474481761 0.16930016240990661 0 -0.19675568901559279 0.189567439062066 0 -0.19690649474481761 0.16930016240990661 0 -0.19675568901559279 0.189567439062066 0 -0.1806498087268969 0.1809583004820513 0 -0.20917883787537819 0.16210322782447459 0 -0.20149615309500679 0.15718250099910261 0 -0.19690649474481761 0.16930016240990661 0 -0.20149615309500679 0.15718250099910261 0 -0.19690649474481761 0.16930016240990661 0 -0.1900737238031488 0.15648625425656729 0 -0.19690649474481761 0.16930016240990661 0 -0.1900737238031488 0.15648625425656729 0 -0.18329050548046091 0.16641049957591181 0 -0.1900737238031488 0.15648625425656729 0 -0.1892816596668532 0.14729824464464031 0 -0.18348409084234379 0.15060627553684849 0 -0.1900737238031488 0.15648625425656729 0 -0.19814782504055481 0.14911065488519101 0 -0.1892816596668532 0.14729824464464031 0 -0.20149615309500679 0.15718250099910261 0 -0.1900737238031488 0.15648625425656729 0 -0.19814782504055481 0.14911065488519101 0 -0.19814782504055481 0.14911065488519101 0 -0.2022681758196824 0.14167303138421811 0 -0.1943649823155553 0.141902467696427 0 -0.19814782504055481 0.14911065488519101 0 -0.1943649823155553 0.141902467696427 0 -0.1892816596668532 0.14729824464464031 0 -0.1943649823155553 0.141902467696427 0 -0.1892816596668532 0.14729824464464031 0 -0.18843187665971381 0.14117764216521481 0 -0.1943649823155553 0.141902467696427 0 -0.18843187665971381 0.14117764216521481 0 -0.1909929067815555 0.135001194222511 0 -0.18843187665971381 0.14117764216521481 0 -0.1909929067815555 0.135001194222511 0 -0.18421136551585299 0.13733957154214979 0 -0.19892457962824481 0.1205653340059829 0 -0.1909929067815555 0.135001194222511 0 -0.18530606321329801 0.12949084902847491 0 -0.19892457962824481 0.1205653340059829 0 -0.1909929067815555 0.135001194222511 0 -0.20124287374027899 0.13384974139548031 0 -0.2022681758196824 0.14167303138421811 0 -0.1943649823155553 0.141902467696427 0 -0.20124287374027899 0.13384974139548031 0 -0.1943649823155553 0.141902467696427 0 -0.1909929067815555 0.135001194222511 0 -0.20124287374027899 0.13384974139548031 0 -0.2022681758196824 0.14167303138421811 0 -0.20124287374027899 0.13384974139548031 0 -0.20954282679560091 0.1362365616649002 0 -0.20124287374027899 0.13384974139548031 0 -0.20954282679560091 0.1362365616649002 0 -0.21198243415042209 0.1273270768851994 0 -0.19892457962824481 0.1205653340059829 0 -0.20124287374027899 0.13384974139548031 0 -0.21198243415042209 0.1273270768851994 0 -0.22354757195218369 0.13155214617265881 0 -0.21198243415042209 0.1273270768851994 0 -0.2159650745918322 0.13357921232561451 0 -0.20954282679560091 0.1362365616649002 0 -0.21198243415042209 0.1273270768851994 0 -0.2159650745918322 0.13357921232561451 0 -0.21878746546912231 0.1392010645796998 0 -0.20954282679560091 0.1362365616649002 0 -0.2159650745918322 0.13357921232561451 0 -0.21878746546912231 0.1392010645796998 0 -0.2220979066771098 0.14976549412664819 0 -0.21014900685323101 0.14925134328242939 0 -0.21878746546912231 0.1392010645796998 0 -0.20954282679560091 0.1362365616649002 0 -0.21014900685323101 0.14925134328242939 0 -0.2220979066771098 0.14976549412664819 0 -0.21909321543322929 0.1606009590281276 0 -0.21014900685323101 0.14925134328242939 0 -0.20149615309500679 0.15718250099910261 0 -0.19814782504055481 0.14911065488519101 0 -0.21014900685323101 0.14925134328242939 0 -0.20917883787537819 0.16210322782447459 0 -0.20149615309500679 0.15718250099910261 0 -0.21014900685323101 0.14925134328242939 0 -0.19814782504055481 0.14911065488519101 0 -0.2022681758196824 0.14167303138421811 0 -0.21014900685323101 0.14925134328242939 0 -0.2022681758196824 0.14167303138421811 0 -0.20954282679560091 0.1362365616649002 0 -0.21014900685323101 0.14925134328242939 0 -0.2254770662958033 0.23770261769940551 0 -0.2355501434136231 0.2478522206023164 0 -0.23301571208005251 0.22631711136445781 0 -0.2254770662958033 0.23770261769940551 0 -0.21946187770755399 0.2272335662722752 0 -0.2144294763495698 0.23954399660221651 0 -0.22222104444170529 0.2467327462878163 0 -0.2254770662958033 0.23770261769940551 0 -0.2144294763495698 0.23954399660221651 0 -0.22222104444170529 0.2467327462878163 0 -0.2254770662958033 0.23770261769940551 0 -0.2355501434136231 0.2478522206023164 0 -0.25210514226647263 0.23555423440704959 0 -0.2355501434136231 0.2478522206023164 0 -0.2466801300010773 0.2452604621424746 0 -0.2355501434136231 0.2478522206023164 0 -0.248734035528067 0.22266264303674471 0 -0.25210514226647263 0.23555423440704959 0 -0.2355501434136231 0.2478522206023164 0 -0.248734035528067 0.22266264303674471 0 -0.23310158204141429 0.25640081827561029 0 -0.2355501434136231 0.2478522206023164 0 -0.2466801300010773 0.2452604621424746 0 -0.25210514226647263 0.23555423440704959 0 -0.2466801300010773 0.2452604621424746 0 -0.25054816238852479 0.24059870715785611 0 -0.25210514226647263 0.23555423440704959 0 -0.2466801300010773 0.2452604621424746 0 -0.25272816581491458 0.21503132644266379 0 -0.23589780562791721 0.22466705357138941 0 -0.2355501434136231 0.2478522206023164 0 -0.23589780562791721 0.22466705357138941 0 -0.23301571208005251 0.22631711136445781 0 -0.2355501434136231 0.2478522206023164 0 -0.248734035528067 0.22266264303674471 0 -0.23589780562791721 0.22466705357138941 0 -0.25272816581491458 0.21503132644266379 0 -0.248734035528067 0.22266264303674471 0 -0.23589780562791721 0.22466705357138941 0 -0.248734035528067 0.22266264303674471 0 -0.23589780562791721 0.22466705357138941 0 -0.23589780562791721 0.22466705357138941 0 -0.23301571208005251 0.22631711136445781 0 -0.23589780562791721 0.22466705357138941 0 -0.21946187770755399 0.2272335662722752 0 -0.225888155969557 0.21631124094479351 0 -0.23589780562791721 0.22466705357138941 0 -0.23301571208005251 0.22631711136445781 0 -0.21946187770755399 0.2272335662722752 0 -0.23589780562791721 0.22466705357138941 0 -0.21946187770755399 0.2272335662722752 0 -0.2254770662958033 0.23770261769940551 0 -0.23301571208005251 0.22631711136445781 0 -0.21946187770755399 0.2272335662722752 0 -0.21946187770755399 0.2272335662722752 0 -0.225888155969557 0.21631124094479351 0 -0.2147498456923036 0.21679580952784941 0 -0.225888155969557 0.21631124094479351 0 -0.2163983660951504 0.20664118688365379 0 -0.2147498456923036 0.21679580952784941 0 -0.225888155969557 0.21631124094479351 0 -0.22900898315534271 0.20498679461036609 0 -0.2163983660951504 0.20664118688365379 0 -0.225888155969557 0.21631124094479351 0 -0.22900898315534271 0.20498679461036609 0 -0.23632785610705401 0.21457891752941979 0 -0.23589780562791721 0.22466705357138941 0 -0.225888155969557 0.21631124094479351 0 -0.23632785610705401 0.21457891752941979 0 -0.25272816581491458 0.21503132644266379 0 -0.23632785610705401 0.21457891752941979 0 -0.24165148627456459 0.20791054123727601 0 -0.25272816581491458 0.21503132644266379 0 -0.23589780562791721 0.22466705357138941 0 -0.23632785610705401 0.21457891752941979 0 -0.25462413856064708 0.2114088186030785 0 -0.24165148627456459 0.20791054123727601 0 -0.23531355475386351 0.19206411553567329 0 -0.25272816581491458 0.21503132644266379 0 -0.25462413856064708 0.2114088186030785 0 -0.24165148627456459 0.20791054123727601 0 -0.22900898315534271 0.20498679461036609 0 -0.23632785610705401 0.21457891752941979 0 -0.24165148627456459 0.20791054123727601 0 -0.25193880530206408 0.19370481573741441 0 -0.24593749817207319 0.17922101447869401 0 -0.23531355475386351 0.19206411553567329 0 -0.25462413856064708 0.2114088186030785 0 -0.23531355475386351 0.19206411553567329 0 -0.25193880530206408 0.19370481573741441 0 -0.25462413856064708 0.2114088186030785 0 -0.23531355475386351 0.19206411553567329 0 -0.22900898315534271 0.20498679461036609 0 -0.24165148627456459 0.20791054123727601 0 -0.23531355475386351 0.19206411553567329 0 -0.22900898315534271 0.20498679461036609 0 -0.21668486691279551 0.1896349297876268 0 -0.2163983660951504 0.20664118688365379 0 -0.22900898315534271 0.20498679461036609 0 -0.23531355475386351 0.19206411553567329 0 -0.21668486691279551 0.1896349297876268 0 -0.21668486691279551 0.1896349297876268 0 -0.20588600075920099 0.20051631774142969 0 -0.2163983660951504 0.20664118688365379 0 -0.21668486691279551 0.1896349297876268 0 -0.20588600075920099 0.20051631774142969 0 -0.19675568901559279 0.189567439062066 0 -0.20588600075920099 0.20051631774142969 0 -0.19675568901559279 0.189567439062066 0 -0.1872373767624223 0.2114249087681892 0 -0.20588600075920099 0.20051631774142969 0 -0.203925412238775 0.2130566048024192 0 -0.1872373767624223 0.2114249087681892 0 -0.203925412238775 0.2130566048024192 0 -0.20302594978719091 0.22980007897316179 0 -0.1872373767624223 0.2114249087681892 0 -0.20588600075920099 0.20051631774142969 0 -0.203925412238775 0.2130566048024192 0 -0.2163983660951504 0.20664118688365379 0 -0.203925412238775 0.2130566048024192 0 -0.2163983660951504 0.20664118688365379 0 -0.2147498456923036 0.21679580952784941 0 -0.21946187770755399 0.2272335662722752 0 -0.20302594978719091 0.22980007897316179 0 -0.2144294763495698 0.23954399660221651 0 -0.21946187770755399 0.2272335662722752 0 -0.20302594978719091 0.22980007897316179 0 -0.21946187770755399 0.2272335662722752 0 -0.2147498456923036 0.21679580952784941 0 -0.20302594978719091 0.22980007897316179 0 -0.203925412238775 0.2130566048024192 0 -0.2147498456923036 0.21679580952784941 0 -0.20302594978719091 0.22980007897316179 0 -0.20302594978719091 0.22980007897316179 0 -0.1861179612628448 0.23220845709977719 0 -0.1872373767624223 0.2114249087681892 0 -0.18859670902218051 0.25052543551881717 0 -0.20132404028626799 0.2438270423260239 0 -0.1861179612628448 0.23220845709977719 0 -0.20302594978719091 0.22980007897316179 0 -0.20132404028626799 0.2438270423260239 0 -0.1861179612628448 0.23220845709977719 0 -0.21371201764358261 0.25214650866738469 0 -0.20132404028626799 0.2438270423260239 0 -0.2144294763495698 0.23954399660221651 0 -0.20302594978719091 0.22980007897316179 0 -0.20132404028626799 0.2438270423260239 0 -0.2144294763495698 0.23954399660221651 0 -0.21371201764358261 0.25214650866738469 0 -0.22222104444170529 0.2467327462878163 0 -0.2144294763495698 0.23954399660221651 0 -0.1613020889038615 0.23837444865205379 0 -0.1765110772481347 0.2431385849621667 0 -0.17254032084098081 0.22750047358122369 0 -0.1593990608277665 0.26226189644582071 0 -0.1613020889038615 0.23837444865205379 0 -0.1765110772481347 0.2431385849621667 0 -0.18859670902218051 0.25052543551881717 0 -0.1765110772481347 0.2431385849621667 0 -0.1861179612628448 0.23220845709977719 0 -0.17254032084098081 0.22750047358122369 0 -0.1861179612628448 0.23220845709977719 0 -0.1872373767624223 0.2114249087681892 0 -0.1765110772481347 0.2431385849621667 0 -0.17254032084098081 0.22750047358122369 0 -0.1861179612628448 0.23220845709977719 0 -0.1613020889038615 0.23837444865205379 0 -0.17254032084098081 0.22750047358122369 0 -0.16320511697995649 0.2144870008582867 0 -0.1613020889038615 0.23837444865205379 0 -0.16320511697995649 0.2144870008582867 0 -0.1529468832891846 0.22419885760078639 0 -0.1613020889038615 0.23837444865205379 0 -0.16320511697995649 0.2144870008582867 0 -0.16320511697995649 0.2144870008582867 0 -0.1872373767624223 0.2114249087681892 0 -0.17633970375998559 0.20030682361007979 0 -0.17254032084098081 0.22750047358122369 0 -0.16320511697995649 0.2144870008582867 0 -0.1872373767624223 0.2114249087681892 0 -0.19675568901559279 0.189567439062066 0 -0.17633970375998559 0.20030682361007979 0 -0.1806498087268969 0.1809583004820513 0 -0.19675568901559279 0.189567439062066 0 -0.1872373767624223 0.2114249087681892 0 -0.17633970375998559 0.20030682361007979 0 -0.17633970375998559 0.20030682361007979 0 -0.16510814505605159 0.19059955306451951 0 -0.1806498087268969 0.1809583004820513 0 -0.16320511697995649 0.2144870008582867 0 -0.16510814505605159 0.19059955306451951 0 -0.16320511697995649 0.2144870008582867 0 -0.17633970375998559 0.20030682361007979 0 -0.16510814505605159 0.19059955306451951 0 -0.16320511697995649 0.2144870008582867 0 -0.16510814505605159 0.19059955306451951 0 -0.15189646247486119 0.19678216421774269 0 -0.15189646247486119 0.19678216421774269 0 -0.1348313290251755 0.19391948141146001 0 -0.14981517013628179 0.1764661855652461 0 -0.15189646247486119 0.19678216421774269 0 -0.1348313290251755 0.19391948141146001 0 -0.1465225511768404 0.20843860018920141 0 -0.16510814505605159 0.19059955306451951 0 -0.15189646247486119 0.19678216421774269 0 -0.14981517013628179 0.1764661855652461 0 -0.1348313290251755 0.19391948141146001 0 -0.1252468427212147 0.2168953735999099 0 -0.1203089118816133 0.20055052938219861 0 -0.1348313290251755 0.19391948141146001 0 -0.1252468427212147 0.2168953735999099 0 -0.1465225511768404 0.20843860018920141 0 -0.16320511697995649 0.2144870008582867 0 -0.1465225511768404 0.20843860018920141 0 -0.1529468832891846 0.22419885760078639 0 -0.16320511697995649 0.2144870008582867 0 -0.15189646247486119 0.19678216421774269 0 -0.1465225511768404 0.20843860018920141 0 -0.1465225511768404 0.20843860018920141 0 -0.14075777609607981 0.2354953807036036 0 -0.1465225511768404 0.20843860018920141 0 -0.1529468832891846 0.22419885760078639 0 -0.14075777609607981 0.2354953807036036 0 -0.1613020889038615 0.23837444865205379 0 -0.1529468832891846 0.22419885760078639 0 -0.14075777609607981 0.2354953807036036 0 -0.1252468427212147 0.2168953735999099 0 -0.1465225511768404 0.20843860018920141 0 -0.14075777609607981 0.2354953807036036 0 -0.1252468427212147 0.2168953735999099 0 -0.14075777609607981 0.2354953807036036 0 -0.11832329044822951 0.24304604882281969 0 -0.1349930010153193 0.26255216121800568 0 -0.14075777609607981 0.2354953807036036 0 -0.1349930010153193 0.26255216121800568 0 -0.14075777609607981 0.2354953807036036 0 -0.11832329044822951 0.24304604882281969 0 -0.1349930010153193 0.26255216121800568 0 -0.14075777609607981 0.2354953807036036 0 -0.14911298171075679 0.24967097175487091 0 -0.1613020889038615 0.23837444865205379 0 -0.14075777609607981 0.2354953807036036 0 -0.14911298171075679 0.24967097175487091 0 -0.1662144153725649 0.14970975453020571 0 -0.1667765488875127 0.13812225091292091 0 -0.17427879965612819 0.14190030589397651 0 -0.1662144153725649 0.14970975453020571 0 -0.15453424001036289 0.15945434353378279 0 -0.15202557664741981 0.14720865995561999 0 -0.1662144153725649 0.14970975453020571 0 -0.15911751616331751 0.1391979048316449 0 -0.15202557664741981 0.14720865995561999 0 -0.1662144153725649 0.14970975453020571 0 -0.15911751616331751 0.1391979048316449 0 -0.1667765488875127 0.13812225091292091 0 -0.15911751616331751 0.1391979048316449 0 -0.1598554046101329 0.12512104095579701 0 -0.1667765488875127 0.13812225091292091 0 -0.15911751616331751 0.1391979048316449 0 -0.1598554046101329 0.12512104095579701 0 -0.1500033633973421 0.13584755301834109 0 -0.1598554046101329 0.12512104095579701 0 -0.1667765488875127 0.13812225091292091 0 -0.1744166086354216 0.1346822483529781 0 -0.17463205049430791 0.1233979928413103 0 -0.1598554046101329 0.12512104095579701 0 -0.1744166086354216 0.1346822483529781 0 -0.1598554046101329 0.12512104095579701 0 -0.1744166086354216 0.1346822483529781 0 -0.1667765488875127 0.13812225091292091 0 -0.1744166086354216 0.1346822483529781 0 -0.17427879965612819 0.14190030589397651 0 -0.1744166086354216 0.1346822483529781 0 -0.17427879965612819 0.14190030589397651 0 -0.1744166086354216 0.1346822483529781 0 -0.17777111929803571 0.13688489396563699 0 -0.17427879965612819 0.14190030589397651 0 -0.1744166086354216 0.1346822483529781 0 -0.17777111929803571 0.13688489396563699 0 -0.1744166086354216 0.1346822483529781 0 -0.17777111929803571 0.13688489396563699 0 -0.1798721579770142 0.13261044405125519 0 -0.17777111929803571 0.13688489396563699 0 -0.17908323016457489 0.14155253666455231 0 -0.17427879965612819 0.14190030589397651 0 -0.17463205049430791 0.1233979928413103 0 -0.1744166086354216 0.1346822483529781 0 -0.1798721579770142 0.13261044405125519 0 -0.17463205049430791 0.1233979928413103 0 -0.1744166086354216 0.1346822483529781 0 -0.17463205049430791 0.1233979928413103 0 -0.18530606321329801 0.12949084902847491 0 -0.1798721579770142 0.13261044405125519 0 -0.1909929067815555 0.135001194222511 0 -0.18530606321329801 0.12949084902847491 0 -0.18421136551585299 0.13733957154214979 0 -0.18530606321329801 0.12949084902847491 0 -0.1798721579770142 0.13261044405125519 0 -0.18421136551585299 0.13733957154214979 0 -0.17777111929803571 0.13688489396563699 0 -0.18421136551585299 0.13733957154214979 0 -0.17908323016457489 0.14155253666455231 0 -0.17777111929803571 0.13688489396563699 0 -0.1798721579770142 0.13261044405125519 0 -0.18421136551585299 0.13733957154214979 0 -0.1892816596668532 0.14729824464464031 0 -0.18843187665971381 0.14117764216521481 0 -0.183308469018752 0.14434673272034601 0 -0.18843187665971381 0.14117764216521481 0 -0.18421136551585299 0.13733957154214979 0 -0.183308469018752 0.14434673272034601 0 -0.1892816596668532 0.14729824464464031 0 -0.183308469018752 0.14434673272034601 0 -0.18348409084234379 0.15060627553684849 0 -0.183308469018752 0.14434673272034601 0 -0.1769770860414964 0.14813931566199959 0 -0.18348409084234379 0.15060627553684849 0 -0.183308469018752 0.14434673272034601 0 -0.17908323016457489 0.14155253666455231 0 -0.1769770860414964 0.14813931566199959 0 -0.18421136551585299 0.13733957154214979 0 -0.183308469018752 0.14434673272034601 0 -0.17908323016457489 0.14155253666455231 0 -0.1662144153725649 0.14970975453020571 0 -0.1769770860414964 0.14813931566199959 0 -0.17427879965612819 0.14190030589397651 0 -0.17908323016457489 0.14155253666455231 0 -0.1769770860414964 0.14813931566199959 0 -0.17427879965612819 0.14190030589397651 0 -0.1662144153725649 0.14970975453020571 0 -0.1769770860414964 0.14813931566199959 0 -0.17777951568146841 0.15676083040068911 0 -0.1769770860414964 0.14813931566199959 0 -0.18348409084234379 0.15060627553684849 0 -0.17777951568146841 0.15676083040068911 0 -0.1900737238031488 0.15648625425656729 0 -0.18348409084234379 0.15060627553684849 0 -0.17777951568146841 0.15676083040068911 0 -0.18329050548046091 0.16641049957591181 0 -0.1806498087268969 0.1809583004820513 0 -0.16701117313214661 0.16671210527075239 0 -0.18329050548046091 0.16641049957591181 0 -0.17777951568146841 0.15676083040068911 0 -0.16701117313214661 0.16671210527075239 0 -0.1900737238031488 0.15648625425656729 0 -0.18329050548046091 0.16641049957591181 0 -0.17777951568146841 0.15676083040068911 0 -0.19690649474481761 0.16930016240990661 0 -0.18329050548046091 0.16641049957591181 0 -0.1806498087268969 0.1809583004820513 0 -0.16510814505605159 0.19059955306451951 0 -0.16701117313214661 0.16671210527075239 0 -0.16510814505605159 0.19059955306451951 0 -0.1806498087268969 0.1809583004820513 0 -0.16701117313214661 0.16671210527075239 0 -0.16510814505605159 0.19059955306451951 0 -0.16701117313214661 0.16671210527075239 0 -0.14981517013628179 0.1764661855652461 0 -0.1662144153725649 0.14970975453020571 0 -0.16701117313214661 0.16671210527075239 0 -0.15453424001036289 0.15945434353378279 0 -0.1662144153725649 0.14970975453020571 0 -0.17777951568146841 0.15676083040068911 0 -0.16701117313214661 0.16671210527075239 0 -0.16701117313214661 0.16671210527075239 0 -0.15453424001036289 0.15945434353378279 0 -0.14981517013628179 0.1764661855652461 0 -0.14981517013628179 0.1764661855652461 0 -0.13268914273538329 0.1750509562650924 0 -0.1400456084615111 0.15909886324928099 0 -0.15453424001036289 0.15945434353378279 0 -0.14981517013628179 0.1764661855652461 0 -0.1400456084615111 0.15909886324928099 0 -0.1348313290251755 0.19391948141146001 0 -0.13268914273538329 0.1750509562650924 0 -0.1144809389531023 0.1869767666301351 0 -0.1348313290251755 0.19391948141146001 0 -0.14981517013628179 0.1764661855652461 0 -0.13268914273538329 0.1750509562650924 0 -0.1400456084615111 0.15909886324928099 0 -0.12711493411718411 0.1494661060528254 0 -0.1194513481457689 0.1635609988765839 0 -0.13268914273538329 0.1750509562650924 0 -0.1400456084615111 0.15909886324928099 0 -0.1194513481457689 0.1635609988765839 0 -0.1400456084615111 0.15909886324928099 0 -0.12711493411718411 0.1494661060528254 0 -0.1393467656979451 0.14225431360183649 0 -0.12711493411718411 0.1494661060528254 0 -0.1393467656979451 0.14225431360183649 0 -0.12653041952395039 0.1354161737842513 0 -0.1400456084615111 0.15909886324928099 0 -0.1393467656979451 0.14225431360183649 0 -0.15202557664741981 0.14720865995561999 0 -0.1393467656979451 0.14225431360183649 0 -0.15202557664741981 0.14720865995561999 0 -0.1500033633973421 0.13584755301834109 0 -0.15911751616331751 0.1391979048316449 0 -0.15202557664741981 0.14720865995561999 0 -0.1500033633973421 0.13584755301834109 0 -0.15453424001036289 0.15945434353378279 0 -0.1400456084615111 0.15909886324928099 0 -0.15202557664741981 0.14720865995561999 0 -0.1598554046101329 0.12512104095579701 0 -0.1500033633973421 0.13584755301834109 0 -0.13922952195075211 0.12752614618091959 0 -0.1598554046101329 0.12512104095579701 0 -0.13922952195075211 0.12752614618091959 0 -0.1393467656979451 0.14225431360183649 0 -0.1500033633973421 0.13584755301834109 0 -0.13922952195075211 0.12752614618091959 0 -0.13074244959953979 0.11946175785799951 0 -0.13922952195075211 0.12752614618091959 0 -0.12653041952395039 0.1354161737842513 0 -0.1393467656979451 0.14225431360183649 0 -0.13922952195075211 0.12752614618091959 0 -0.12653041952395039 0.1354161737842513 0 -0.12653041952395039 0.1354161737842513 0 -0.11549744085296181 0.12506595749432459 0 -0.1072514049253199 0.14872276151760261 0 -0.13074244959953979 0.11946175785799951 0 -0.12653041952395039 0.1354161737842513 0 -0.11549744085296181 0.12506595749432459 0 -0.11549744085296181 0.12506595749432459 0 -0.1072514049253199 0.14872276151760261 0 -0.11549744085296181 0.12506595749432459 0 -0.097351596905396909 0.1366011738647028 0 -0.095157466154961498 0.1222738246889692 0 -0.11549744085296181 0.12506595749432459 0 -0.097351596905396909 0.1366011738647028 0 -0.1072514049253199 0.14872276151760261 0 -0.097351596905396909 0.1366011738647028 0 -0.1072514049253199 0.14872276151760261 0 -0.095429287301162569 0.1538271060288352 0 -0.12711493411718411 0.1494661060528254 0 -0.12653041952395039 0.1354161737842513 0 -0.1072514049253199 0.14872276151760261 0 -0.12711493411718411 0.1494661060528254 0 -0.1072514049253199 0.14872276151760261 0 -0.1194513481457689 0.1635609988765839 0 -0.1194513481457689 0.1635609988765839 0 -0.1144809389531023 0.1869767666301351 0 -0.099005368997678006 0.1723795655408806 0 -0.13268914273538329 0.1750509562650924 0 -0.1194513481457689 0.1635609988765839 0 -0.1144809389531023 0.1869767666301351 0 -0.1144809389531023 0.1869767666301351 0 -0.099005368997678006 0.1723795655408806 0 -0.0907593330700361 0.19603636956415871 0 -0.099005368997678006 0.1723795655408806 0 -0.0907593330700361 0.19603636956415871 0 -0.1072514049253199 0.14872276151760261 0 -0.1194513481457689 0.1635609988765839 0 -0.099005368997678006 0.1723795655408806 0 -0.1072514049253199 0.14872276151760261 0 -0.095429287301162569 0.1538271060288352 0 -0.099005368997678006 0.1723795655408806 0 -0.1072514049253199 0.14872276151760261 0 -0.099005368997678006 0.1723795655408806 0 -0.095429287301162569 0.1538271060288352 0 -0.099005368997678006 0.1723795655408806 0 -0.089264976304947813 0.16305913715607981 0 -0.089264976304947813 0.16305913715607981 0 -0.078726297129264447 0.1568051313220773 0 -0.070728802668765189 0.16298784849958539 0 -0.099005368997678006 0.1723795655408806 0 -0.089264976304947813 0.16305913715607981 0 -0.083173158014857834 0.1819778711413477 0 -0.089264976304947813 0.16305913715607981 0 -0.083173158014857834 0.1819778711413477 0 -0.06435517074193417 0.179531982830265 0 -0.099005368997678006 0.1723795655408806 0 -0.083173158014857834 0.1819778711413477 0 -0.0907593330700361 0.19603636956415871 0 -0.083173158014857834 0.1819778711413477 0 -0.06435517074193417 0.179531982830265 0 -0.072480940959693013 0.1988823006153542 0 -0.089264976304947813 0.16305913715607981 0 -0.06435517074193417 0.179531982830265 0 -0.070728802668765189 0.16298784849958539 0 -0.089264976304947813 0.16305913715607981 0 -0.06435517074193417 0.179531982830265 0 -0.06435517074193417 0.179531982830265 0 -0.070728802668765189 0.16298784849958539 0 -0.060817304647522517 0.16063211997463811 0 -0.078726297129264447 0.1568051313220773 0 -0.070728802668765189 0.16298784849958539 0 -0.070638320170874583 0.15280064756773359 0 -0.070728802668765189 0.16298784849958539 0 -0.070638320170874583 0.15280064756773359 0 -0.060817304647522517 0.16063211997463811 0 -0.070638320170874583 0.15280064756773359 0 -0.06050925962069742 0.14933122419088271 0 -0.060817304647522517 0.16063211997463811 0 -0.078726297129264447 0.1568051313220773 0 -0.070638320170874583 0.15280064756773359 0 -0.084273089372470245 0.14837289206491031 0 -0.070638320170874583 0.15280064756773359 0 -0.073986689617270868 0.1403986132245284 0 -0.084273089372470245 0.14837289206491031 0 -0.073986689617270868 0.1403986132245284 0 -0.060395274942560528 0.13416549391068189 0 -0.06050925962069742 0.14933122419088271 0 -0.070638320170874583 0.15280064756773359 0 -0.073986689617270868 0.1403986132245284 0 -0.06050925962069742 0.14933122419088271 0 -0.073986689617270868 0.1403986132245284 0 -0.079964733767734122 0.12668506296934109 0 -0.060395274942560528 0.13416549391068189 0 -0.060395274942560528 0.13416549391068189 0 -0.068008023874607193 0.1194813826226566 0 -0.073986689617270868 0.1403986132245284 0 -0.085757333202322553 0.1342092020786384 0 -0.079964733767734122 0.12668506296934109 0 -0.097351596905396909 0.1366011738647028 0 -0.085757333202322553 0.1342092020786384 0 -0.095157466154961498 0.1222738246889692 0 -0.085757333202322553 0.1342092020786384 0 -0.079964733767734122 0.12668506296934109 0 -0.095157466154961498 0.1222738246889692 0 -0.097351596905396909 0.1366011738647028 0 -0.085757333202322553 0.1342092020786384 0 -0.084273089372470245 0.14837289206491031 0 -0.097351596905396909 0.1366011738647028 0 -0.095429287301162569 0.1538271060288352 0 -0.084273089372470245 0.14837289206491031 0 -0.095429287301162569 0.1538271060288352 0 -0.089264976304947813 0.16305913715607981 0 -0.084273089372470245 0.14837289206491031 0 -0.089264976304947813 0.16305913715607981 0 -0.078726297129264447 0.1568051313220773 0 -0.084273089372470245 0.14837289206491031 0 -0.073986689617270868 0.1403986132245284 0 -0.085757333202322553 0.1342092020786384 0 -0.084273089372470245 0.14837289206491031 0 -0.097135213821017974 0.2450179218164267 0 -0.11832329044822951 0.24304604882281969 0 -0.10188732904743091 0.22416775388930879 0 -0.1252468427212147 0.2168953735999099 0 -0.11832329044822951 0.24304604882281969 0 -0.10188732904743091 0.22416775388930879 0 -0.10188732904743091 0.22416775388930879 0 -0.10553645135762139 0.20639637139721009 0 -0.085647611720234704 0.211582202570961 0 -0.10553645135762139 0.20639637139721009 0 -0.0907593330700361 0.19603636956415871 0 -0.085647611720234704 0.211582202570961 0 -0.1252468427212147 0.2168953735999099 0 -0.10553645135762139 0.20639637139721009 0 -0.1203089118816133 0.20055052938219861 0 -0.1252468427212147 0.2168953735999099 0 -0.10188732904743091 0.22416775388930879 0 -0.10553645135762139 0.20639637139721009 0 -0.1144809389531023 0.1869767666301351 0 -0.10553645135762139 0.20639637139721009 0 -0.1203089118816133 0.20055052938219861 0 -0.1348313290251755 0.19391948141146001 0 -0.1144809389531023 0.1869767666301351 0 -0.1203089118816133 0.20055052938219861 0 -0.1144809389531023 0.1869767666301351 0 -0.10553645135762139 0.20639637139721009 0 -0.0907593330700361 0.19603636956415871 0 -0.083173158014857834 0.1819778711413477 0 -0.0907593330700361 0.19603636956415871 0 -0.072480940959693013 0.1988823006153542 0 -0.0907593330700361 0.19603636956415871 0 -0.072480940959693013 0.1988823006153542 0 -0.085647611720234704 0.211582202570961 0 -0.06435517074193417 0.179531982830265 0 -0.072480940959693013 0.1988823006153542 0 -0.057501641022342467 0.1963435114306189 0 -0.065516926835851183 0.21659017637723951 0 -0.085647611720234704 0.211582202570961 0 -0.078837631547527487 0.22646261886489361 0 -0.072480940959693013 0.1988823006153542 0 -0.065516926835851183 0.21659017637723951 0 -0.085647611720234704 0.211582202570961 0 -0.072480940959693013 0.1988823006153542 0 -0.065516926835851183 0.21659017637723951 0 -0.056774781747103042 0.20807563334730969 0 -0.097135213821017974 0.2450179218164267 0 -0.10188732904743091 0.22416775388930879 0 -0.078837631547527487 0.22646261886489361 0 -0.10188732904743091 0.22416775388930879 0 -0.078837631547527487 0.22646261886489361 0 -0.10188732904743091 0.22416775388930879 0 -0.085647611720234704 0.211582202570961 0 -0.078837631547527487 0.22646261886489361 0 -0.078837631547527487 0.22646261886489361 0 -0.055787934047623812 0.22875748384047651 0 -0.078837631547527487 0.22646261886489361 0 -0.074704152181801681 0.24701770632021169 0 -0.055787934047623812 0.22875748384047651 0 -0.065516926835851183 0.21659017637723951 0 -0.078837631547527487 0.22646261886489361 0 -0.055787934047623812 0.22875748384047651 0 -0.074704152181801681 0.24701770632021169 0 -0.055787934047623812 0.22875748384047651 0 -0.074704152181801681 0.24701770632021169 0 -0.057747386715908428 0.24463041023760571 0 -0.055787934047623812 0.22875748384047651 0 -0.097135213821017974 0.2450179218164267 0 -0.078837631547527487 0.22646261886489361 0 -0.074704152181801681 0.24701770632021169 0 -0.03189830216395443 0.24568919817845219 0 -0.04135776092400012 0.23809779795821551 0 -0.030614146685572802 0.23126382662090891 0 -0.04135776092400012 0.23809779795821551 0 -0.046594812073733123 0.24823599275617891 0 -0.049952252460554 0.2397627017524232 0 -0.03189830216395443 0.24568919817845219 0 -0.04135776092400012 0.23809779795821551 0 -0.046594812073733123 0.24823599275617891 0 -0.046594812073733123 0.24823599275617891 0 -0.057747386715908428 0.24463041023760571 0 -0.049952252460554 0.2397627017524232 0 -0.057747386715908428 0.24463041023760571 0 -0.049952252460554 0.2397627017524232 0 -0.055787934047623812 0.22875748384047651 0 -0.04135776092400012 0.23809779795821551 0 -0.049952252460554 0.2397627017524232 0 -0.055787934047623812 0.22875748384047651 0 -0.055787934047623812 0.22875748384047651 0 -0.052323738254648429 0.22541342291643321 0 -0.065516926835851183 0.21659017637723951 0 -0.055787934047623812 0.22875748384047651 0 -0.054616056031908368 0.21893633417385969 0 -0.055787934047623812 0.22875748384047651 0 -0.052323738254648429 0.22541342291643321 0 -0.042225130782071622 0.22351742659662871 0 -0.054616056031908368 0.21893633417385969 0 -0.052323738254648429 0.22541342291643321 0 -0.049046602241481829 0.2206752111693363 0 -0.052323738254648429 0.22541342291643321 0 -0.049046602241481829 0.2206752111693363 0 -0.042225130782071622 0.22351742659662871 0 -0.055787934047623812 0.22875748384047651 0 -0.054616056031908368 0.21893633417385969 0 -0.052323738254648429 0.22541342291643321 0 -0.055787934047623812 0.22875748384047651 0 -0.042225130782071622 0.22351742659662871 0 -0.030614146685572802 0.23126382662090891 0 -0.055787934047623812 0.22875748384047651 0 -0.030614146685572802 0.23126382662090891 0 -0.049046602241481829 0.2206752111693363 0 -0.042225130782071622 0.22351742659662871 0 -0.047021483897298919 0.2148336609904237 0 -0.04135776092400012 0.23809779795821551 0 -0.055787934047623812 0.22875748384047651 0 -0.030614146685572802 0.23126382662090891 0 -0.042225130782071622 0.22351742659662871 0 -0.035706106933987618 0.212040288753787 0 -0.024813853389476559 0.2211714782904188 0 -0.042225130782071622 0.22351742659662871 0 -0.024813853389476559 0.2211714782904188 0 -0.030614146685572802 0.23126382662090891 0 -0.035706106933987618 0.212040288753787 0 -0.047940973094851513 0.204892605264445 0 -0.039445365178920423 0.19600482850445031 0 -0.035706106933987618 0.212040288753787 0 -0.047021483897298919 0.2148336609904237 0 -0.047940973094851513 0.204892605264445 0 -0.042225130782071622 0.22351742659662871 0 -0.035706106933987618 0.212040288753787 0 -0.047021483897298919 0.2148336609904237 0 -0.054616056031908368 0.21893633417385969 0 -0.049046602241481829 0.2206752111693363 0 -0.047021483897298919 0.2148336609904237 0 -0.054616056031908368 0.21893633417385969 0 -0.047021483897298919 0.2148336609904237 0 -0.056774781747103042 0.20807563334730969 0 -0.065516926835851183 0.21659017637723951 0 -0.054616056031908368 0.21893633417385969 0 -0.056774781747103042 0.20807563334730969 0 -0.047021483897298919 0.2148336609904237 0 -0.056774781747103042 0.20807563334730969 0 -0.047940973094851513 0.204892605264445 0 -0.047940973094851513 0.204892605264445 0 -0.057501641022342467 0.1963435114306189 0 -0.039445365178920423 0.19600482850445031 0 -0.06435517074193417 0.179531982830265 0 -0.039445365178920423 0.19600482850445031 0 -0.072480940959693013 0.1988823006153542 0 -0.056774781747103042 0.20807563334730969 0 -0.057501641022342467 0.1963435114306189 0 -0.056774781747103042 0.20807563334730969 0 -0.047940973094851513 0.204892605264445 0 -0.057501641022342467 0.1963435114306189 0 -0.06435517074193417 0.179531982830265 0 -0.057501641022342467 0.1963435114306189 0 -0.039445365178920423 0.19600482850445031 0 -0.039445365178920423 0.19600482850445031 0 -0.027727343604313569 0.197178151178412 0 -0.038616654050395688 0.17617393208916859 0 -0.039445365178920423 0.19600482850445031 0 -0.027727343604313569 0.197178151178412 0 -0.014535559615906669 0.2124776741786355 0 -0.027727343604313569 0.197178151178412 0 -0.010915521324717001 0.1993315760592379 0 -0.014535559615906669 0.2124776741786355 0 -0.027727343604313569 0.197178151178412 0 -0.010915521324717001 0.1993315760592379 0 -0.020104729349334449 0.1840085448946619 0 -0.027727343604313569 0.197178151178412 0 -0.028750072776026619 0.18228756371234331 0 -0.020104729349334449 0.1840085448946619 0 -0.010915521324717001 0.1993315760592379 0 -0.0058150648891281392 0.18464487058732859 0 0.0047479160901643591 0.19966970600779571 0 -0.010915521324717001 0.1993315760592379 0 -0.020104729349334449 0.1840085448946619 0 -0.0058150648891281392 0.18464487058732859 0 -0.010915521324717001 0.1993315760592379 0 -0.001618838316679704 0.21186515805952549 0 -0.014535559615906669 0.2124776741786355 0 -0.010915521324717001 0.1993315760592379 0 -0.001618838316679704 0.21186515805952549 0 0.0047479160901643591 0.19966970600779571 0 -0.001618838316679704 0.21186515805952549 0 -0.010819744977475119 0.2201826338773481 0 0.0022205822065663882 0.22338098429998751 0 -0.001618838316679704 0.21186515805952549 0 -0.014535559615906669 0.2124776741786355 0 -0.010819744977475119 0.2201826338773481 0 -0.039445365178920423 0.19600482850445031 0 -0.014535559615906669 0.2124776741786355 0 -0.035706106933987618 0.212040288753787 0 -0.039445365178920423 0.19600482850445031 0 -0.014535559615906669 0.2124776741786355 0 -0.014535559615906669 0.2124776741786355 0 -0.024813853389476559 0.2211714782904188 0 -0.010819744977475119 0.2201826338773481 0 -0.035706106933987618 0.212040288753787 0 -0.014535559615906669 0.2124776741786355 0 -0.024813853389476559 0.2211714782904188 0 -0.030614146685572802 0.23126382662090891 0 -0.0054403593235216562 0.23377016940133941 0 -0.030614146685572802 0.23126382662090891 0 -0.0054403593235216562 0.23377016940133941 0 -0.01514813330815701 0.23061359466582701 0 -0.024813853389476559 0.2211714782904188 0 -0.030614146685572802 0.23126382662090891 0 -0.01514813330815701 0.23061359466582701 0 -0.024813853389476559 0.2211714782904188 0 -0.010819744977475119 0.2201826338773481 0 -0.01514813330815701 0.23061359466582701 0 -0.010819744977475119 0.2201826338773481 0 -0.01514813330815701 0.23061359466582701 0 0.0022205822065663882 0.22338098429998751 0 -0.01514813330815701 0.23061359466582701 0 0.0022205822065663882 0.22338098429998751 0 -0.0054403593235216562 0.23377016940133941 0 -0.01514813330815701 0.23061359466582701 0 0.0022205822065663882 0.22338098429998751 0 -0.004361582131907446 0.25012675423618741 0 -0.0054403593235216562 0.23377016940133941 0 0.0051881906427589239 0.2429023142665572 0 -0.004361582131907446 0.25012675423618741 0 -0.0054403593235216562 0.23377016940133941 0 -0.018506566158488919 0.2431339505957798 0 -0.020565667716041462 0.25572736355358933 0 -0.004361582131907446 0.25012675423618741 0 -0.018506566158488919 0.2431339505957798 0 -0.030614146685572802 0.23126382662090891 0 -0.0054403593235216562 0.23377016940133941 0 -0.018506566158488919 0.2431339505957798 0 -0.03189830216395443 0.24568919817845219 0 -0.030614146685572802 0.23126382662090891 0 -0.018506566158488919 0.2431339505957798 0 -0.020565667716041462 0.25572736355358933 0 -0.03189830216395443 0.24568919817845219 0 -0.018506566158488919 0.2431339505957798 0 -0.042460363287522958 0.14347988613362259 0 -0.044473419521311869 0.15297756029890641 0 -0.037891307588098999 0.15301779907060481 0 -0.044473419521311869 0.15297756029890641 0 -0.037891307588098999 0.15301779907060481 0 -0.031636506627965313 0.16150224911057051 0 -0.042460363287522958 0.14347988613362259 0 -0.035174347344809967 0.15001976644272921 0 -0.037891307588098999 0.15301779907060481 0 -0.035174347344809967 0.15001976644272921 0 -0.037891307588098999 0.15301779907060481 0 -0.033404653207921721 0.15507918068198209 0 -0.035174347344809967 0.15001976644272921 0 -0.033404653207921721 0.15507918068198209 0 -0.02776282729533102 0.15476173176141739 0 -0.035174347344809967 0.15001976644272921 0 -0.034180114506779158 0.14292432320853909 0 -0.02883591677782232 0.14796437992771719 0 -0.042460363287522958 0.14347988613362259 0 -0.035174347344809967 0.15001976644272921 0 -0.034180114506779158 0.14292432320853909 0 -0.042460363287522958 0.14347988613362259 0 -0.034180114506779158 0.14292432320853909 0 -0.038211226953362397 0.13781437243294631 0 -0.034180114506779158 0.14292432320853909 0 -0.032488323731578138 0.13717556183428281 0 -0.038211226953362397 0.13781437243294631 0 -0.034180114506779158 0.14292432320853909 0 -0.032488323731578138 0.13717556183428281 0 -0.027483842170251089 0.14162756103877569 0 -0.032488323731578138 0.13717556183428281 0 -0.035266368379565052 0.13009707587939279 0 -0.02667969692195489 0.13460984520473249 0 -0.032488323731578138 0.13717556183428281 0 -0.038211226953362397 0.13781437243294631 0 -0.035266368379565052 0.13009707587939279 0 -0.035266368379565052 0.13009707587939279 0 -0.046331318124510253 0.13174141938699169 0 -0.041763705598505362 0.11912362676530031 0 -0.038211226953362397 0.13781437243294631 0 -0.035266368379565052 0.13009707587939279 0 -0.046331318124510253 0.13174141938699169 0 -0.042460363287522958 0.14347988613362259 0 -0.038211226953362397 0.13781437243294631 0 -0.046331318124510253 0.13174141938699169 0 -0.042460363287522958 0.14347988613362259 0 -0.046331318124510253 0.13174141938699169 0 -0.060395274942560528 0.13416549391068189 0 -0.046331318124510253 0.13174141938699169 0 -0.060395274942560528 0.13416549391068189 0 -0.057376161549244957 0.12328487032798489 0 -0.060395274942560528 0.13416549391068189 0 -0.057376161549244957 0.12328487032798489 0 -0.068008023874607193 0.1194813826226566 0 -0.044473419521311869 0.15297756029890641 0 -0.060395274942560528 0.13416549391068189 0 -0.049505964496477838 0.1551697129999251 0 -0.060395274942560528 0.13416549391068189 0 -0.049505964496477838 0.1551697129999251 0 -0.060395274942560528 0.13416549391068189 0 -0.049505964496477838 0.1551697129999251 0 -0.06050925962069742 0.14933122419088271 0 -0.042460363287522958 0.14347988613362259 0 -0.044473419521311869 0.15297756029890641 0 -0.060395274942560528 0.13416549391068189 0 -0.044473419521311869 0.15297756029890641 0 -0.060395274942560528 0.13416549391068189 0 -0.06050925962069742 0.14933122419088271 0 -0.055951783244603238 0.15683636846341581 0 -0.060817304647522517 0.16063211997463811 0 -0.049505964496477838 0.1551697129999251 0 -0.06050925962069742 0.14933122419088271 0 -0.055951783244603238 0.15683636846341581 0 -0.06435517074193417 0.179531982830265 0 -0.060817304647522517 0.16063211997463811 0 -0.054190933413391887 0.1696376128955723 0 -0.055951783244603238 0.15683636846341581 0 -0.060817304647522517 0.16063211997463811 0 -0.051816527970478227 0.163689949284544 0 -0.060817304647522517 0.16063211997463811 0 -0.054190933413391887 0.1696376128955723 0 -0.051816527970478227 0.163689949284544 0 -0.054190933413391887 0.1696376128955723 0 -0.051816527970478227 0.163689949284544 0 -0.038616654050395688 0.17617393208916859 0 -0.049505964496477838 0.1551697129999251 0 -0.055951783244603238 0.15683636846341581 0 -0.051816527970478227 0.163689949284544 0 -0.06435517074193417 0.179531982830265 0 -0.039445365178920423 0.19600482850445031 0 -0.038616654050395688 0.17617393208916859 0 -0.06435517074193417 0.179531982830265 0 -0.054190933413391887 0.1696376128955723 0 -0.038616654050395688 0.17617393208916859 0 -0.027727343604313569 0.197178151178412 0 -0.038616654050395688 0.17617393208916859 0 -0.027727343604313569 0.197178151178412 0 -0.038616654050395688 0.17617393208916859 0 -0.028750072776026619 0.18228756371234331 0 -0.038616654050395688 0.17617393208916859 0 -0.028551564100062751 0.1717896266871306 0 -0.028750072776026619 0.18228756371234331 0 -0.044473419521311869 0.15297756029890641 0 -0.028551564100062751 0.1717896266871306 0 -0.049505964496477838 0.1551697129999251 0 -0.051816527970478227 0.163689949284544 0 -0.038616654050395688 0.17617393208916859 0 -0.044473419521311869 0.15297756029890641 0 -0.031636506627965313 0.16150224911057051 0 -0.028551564100062751 0.1717896266871306 0 -0.049505964496477838 0.1551697129999251 0 -0.038616654050395688 0.17617393208916859 0 -0.044473419521311869 0.15297756029890641 0 -0.049505964496477838 0.1551697129999251 0 -0.038616654050395688 0.17617393208916859 0 -0.044473419521311869 0.15297756029890641 0 -0.038616654050395688 0.17617393208916859 0 -0.028551564100062751 0.1717896266871306 0 -0.037891307588098999 0.15301779907060481 0 -0.033404653207921721 0.15507918068198209 0 -0.031636506627965313 0.16150224911057051 0 -0.031636506627965313 0.16150224911057051 0 -0.02253447650115362 0.1626338424728738 0 -0.02776282729533102 0.15476173176141739 0 -0.033404653207921721 0.15507918068198209 0 -0.031636506627965313 0.16150224911057051 0 -0.02776282729533102 0.15476173176141739 0 -0.031636506627965313 0.16150224911057051 0 -0.028551564100062751 0.1717896266871306 0 -0.02253447650115362 0.1626338424728738 0 -0.028551564100062751 0.1717896266871306 0 -0.02253447650115362 0.1626338424728738 0 -0.01498566762474032 0.1721399223420339 0 -0.02253447650115362 0.1626338424728738 0 -0.01498566762474032 0.1721399223420339 0 -0.012046897657486009 0.15973393686910059 0 -0.02253447650115362 0.1626338424728738 0 -0.012046897657486009 0.15973393686910059 0 -0.01974455104335017 0.1550417818637245 0 -0.02253447650115362 0.1626338424728738 0 -0.01974455104335017 0.1550417818637245 0 -0.02776282729533102 0.15476173176141739 0 -0.028551564100062751 0.1717896266871306 0 -0.028750072776026619 0.18228756371234331 0 -0.020104729349334449 0.1840085448946619 0 -0.028551564100062751 0.1717896266871306 0 -0.020104729349334449 0.1840085448946619 0 -0.01498566762474032 0.1721399223420339 0 -0.020104729349334449 0.1840085448946619 0 -0.01498566762474032 0.1721399223420339 0 -0.0058150648891281392 0.18464487058732859 0 -0.01498566762474032 0.1721399223420339 0 -0.0058150648891281392 0.18464487058732859 0 9.8439874396488518e-06 0.16909653965514321 0 -0.01498566762474032 0.1721399223420339 0 -0.012046897657486009 0.15973393686910059 0 9.8439874396488518e-06 0.16909653965514321 0 -0.012046897657486009 0.15973393686910059 0 -0.001399927819642065 0.15853034608675531 0 -0.0067216127360385028 0.15176017281181059 0 -0.012046897657486009 0.15973393686910059 0 -0.001399927819642065 0.15853034608675531 0 9.8439874396488518e-06 0.16909653965514321 0 -0.0067216127360385028 0.15176017281181059 0 -0.001932496299644968 0.1459540675981712 0 0.002037105597096525 0.15151695060409001 0 -0.001399927819642065 0.15853034608675531 0 -0.0067216127360385028 0.15176017281181059 0 0.002037105597096525 0.15151695060409001 0 -0.001932496299644968 0.1459540675981712 0 -0.0047871023855838284 0.14117591745817429 0 0.000228448927285114 0.14012311706009631 0 -0.0067216127360385028 0.15176017281181059 0 -0.001932496299644968 0.1459540675981712 0 -0.0088873299160877918 0.1454187600715697 0 -0.001932496299644968 0.1459540675981712 0 -0.0047871023855838284 0.14117591745817429 0 -0.0088873299160877918 0.1454187600715697 0 -0.0047871023855838284 0.14117591745817429 0 -0.0088873299160877918 0.1454187600715697 0 -0.010460643721398131 0.13913610184510419 0 -0.0088873299160877918 0.1454187600715697 0 -0.015535574841907601 0.14368344141407929 0 -0.010460643721398131 0.13913610184510419 0 -0.0088873299160877918 0.1454187600715697 0 -0.015535574841907601 0.14368344141407929 0 -0.014413369338275051 0.15020994658701309 0 -0.012046897657486009 0.15973393686910059 0 -0.014413369338275051 0.15020994658701309 0 -0.01974455104335017 0.1550417818637245 0 -0.012046897657486009 0.15973393686910059 0 -0.0067216127360385028 0.15176017281181059 0 -0.014413369338275051 0.15020994658701309 0 -0.0067216127360385028 0.15176017281181059 0 -0.0088873299160877918 0.1454187600715697 0 -0.014413369338275051 0.15020994658701309 0 -0.01974455104335017 0.1550417818637245 0 -0.021965184424505169 0.1478694516282176 0 -0.02776282729533102 0.15476173176141739 0 -0.014413369338275051 0.15020994658701309 0 -0.01974455104335017 0.1550417818637245 0 -0.021965184424505169 0.1478694516282176 0 -0.015535574841907601 0.14368344141407929 0 -0.014413369338275051 0.15020994658701309 0 -0.021965184424505169 0.1478694516282176 0 -0.015535574841907601 0.14368344141407929 0 -0.02085887518683055 0.14051112573817109 0 -0.01572570720539903 0.1386245228663322 0 -0.015535574841907601 0.14368344141407929 0 -0.021965184424505169 0.1478694516282176 0 -0.02085887518683055 0.14051112573817109 0 -0.021965184424505169 0.1478694516282176 0 -0.027483842170251089 0.14162756103877569 0 -0.02085887518683055 0.14051112573817109 0 -0.021965184424505169 0.1478694516282176 0 -0.027483842170251089 0.14162756103877569 0 -0.02883591677782232 0.14796437992771719 0 -0.034180114506779158 0.14292432320853909 0 -0.027483842170251089 0.14162756103877569 0 -0.02883591677782232 0.14796437992771719 0 -0.035174347344809967 0.15001976644272921 0 -0.02883591677782232 0.14796437992771719 0 -0.02776282729533102 0.15476173176141739 0 -0.021965184424505169 0.1478694516282176 0 -0.02883591677782232 0.14796437992771719 0 -0.02776282729533102 0.15476173176141739 0 -0.035266368379565052 0.13009707587939279 0 -0.02498016711913827 0.1241785180753891 0 -0.033110622576494379 0.1214386067867833 0 -0.02667969692195489 0.13460984520473249 0 -0.019000604944366228 0.13406922866238341 0 -0.02498016711913827 0.1241785180753891 0 -0.035266368379565052 0.13009707587939279 0 -0.02667969692195489 0.13460984520473249 0 -0.02498016711913827 0.1241785180753891 0 -0.032488323731578138 0.13717556183428281 0 -0.027483842170251089 0.14162756103877569 0 -0.02667969692195489 0.13460984520473249 0 -0.027483842170251089 0.14162756103877569 0 -0.02667969692195489 0.13460984520473249 0 -0.02085887518683055 0.14051112573817109 0 -0.02667969692195489 0.13460984520473249 0 -0.02085887518683055 0.14051112573817109 0 -0.019000604944366228 0.13406922866238341 0 -0.02085887518683055 0.14051112573817109 0 -0.01572570720539903 0.1386245228663322 0 -0.019000604944366228 0.13406922866238341 0 -0.019000604944366228 0.13406922866238341 0 -0.013108962008021981 0.1259178359004969 0 -0.02498016711913827 0.1241785180753891 0 -0.019000604944366228 0.13406922866238341 0 -0.013108962008021981 0.1259178359004969 0 -0.011245417678365909 0.1339710152718474 0 -0.013108962008021981 0.1259178359004969 0 -0.011245417678365909 0.1339710152718474 0 -0.0043823690024683438 0.12942386948176529 0 -0.015535574841907601 0.14368344141407929 0 -0.01572570720539903 0.1386245228663322 0 -0.010460643721398131 0.13913610184510419 0 -0.01572570720539903 0.1386245228663322 0 -0.011245417678365909 0.1339710152718474 0 -0.010460643721398131 0.13913610184510419 0 -0.01572570720539903 0.1386245228663322 0 -0.019000604944366228 0.13406922866238341 0 -0.011245417678365909 0.1339710152718474 0 -0.011245417678365909 0.1339710152718474 0 -0.010460643721398131 0.13913610184510419 0 -0.0049074646713017818 0.13634897063783119 0 -0.0047871023855838284 0.14117591745817429 0 -0.010460643721398131 0.13913610184510419 0 -0.0049074646713017818 0.13634897063783119 0 -0.011245417678365909 0.1339710152718474 0 -0.0049074646713017818 0.13634897063783119 0 -0.0043823690024683438 0.12942386948176529 0 -0.0049074646713017818 0.13634897063783119 0 -0.0043823690024683438 0.12942386948176529 0 0.0012022958327204049 0.13426380270999949 0 -0.0047871023855838284 0.14117591745817429 0 -0.0049074646713017818 0.13634897063783119 0 0.000228448927285114 0.14012311706009631 0 -0.0049074646713017818 0.13634897063783119 0 0.000228448927285114 0.14012311706009631 0 0.0012022958327204049 0.13426380270999949 0 -0.0043823690024683438 0.12942386948176529 0 -0.0015382865690094869 0.1195819360983075 0 0.0028297340199113529 0.12737786763030409 0 -0.0043823690024683438 0.12942386948176529 0 0.0028297340199113529 0.12737786763030409 0 0.0012022958327204049 0.13426380270999949 0 -0.013108962008021981 0.1259178359004969 0 -0.0015382865690094869 0.1195819360983075 0 -0.018013141318310021 0.1118215823196331 0 -0.0015382865690094869 0.1195819360983075 0 -0.0093267163156350585 0.10220622611456499 0 -0.018013141318310021 0.1118215823196331 0 -0.0015382865690094869 0.1195819360983075 0 -0.0093267163156350585 0.10220622611456499 0 0.0088418889268726004 0.1125261115153213 0 -0.013108962008021981 0.1259178359004969 0 -0.0043823690024683438 0.12942386948176529 0 -0.0015382865690094869 0.1195819360983075 0 -0.0093267163156350585 0.10220622611456499 0 -0.028384651446471159 0.094232735224306696 0 -0.028384651446471159 0.094232735224306696 0 -0.030432249208768851 0.112355206427051 0 -0.018013141318310021 0.1118215823196331 0 -0.0093267163156350585 0.10220622611456499 0 -0.028384651446471159 0.094232735224306696 0 -0.018013141318310021 0.1118215823196331 0 -0.030432249208768851 0.112355206427051 0 -0.02498016711913827 0.1241785180753891 0 -0.018013141318310021 0.1118215823196331 0 -0.030432249208768851 0.112355206427051 0 -0.02498016711913827 0.1241785180753891 0 -0.033110622576494379 0.1214386067867833 0 -0.013108962008021981 0.1259178359004969 0 -0.02498016711913827 0.1241785180753891 0 -0.018013141318310021 0.1118215823196331 0 -0.019815605255134251 0.077564307382831099 0 -0.01123722517146284 0.061714947321965113 0 0.0078113760670387236 0.068869370431613411 0 -0.019815605255134251 0.077564307382831099 0 0.0078113760670387236 0.068869370431613411 0 -0.0022168413230157229 0.085736250976024914 0 -0.019815605255134251 0.077564307382831099 0 0.0078113760670387236 0.068869370431613411 0 -0.0093267163156350585 0.10220622611456499 0 -0.0022168413230157229 0.085736250976024914 0 -0.019815605255134251 0.077564307382831099 0 -0.0093267163156350585 0.10220622611456499 0 -0.028384651446471159 0.094232735224306696 0 -0.019815605255134251 0.077564307382831099 0 -0.019815605255134251 0.077564307382831099 0 -0.02897814582929455 0.062873885781940531 0 -0.01123722517146284 0.061714947321965113 0 -0.019815605255134251 0.077564307382831099 0 -0.02897814582929455 0.062873885781940531 0 -0.037351726516990362 0.072256576054196331 0 -0.037351726516990362 0.072256576054196331 0 -0.04744258657730735 0.086259244334048468 0 -0.048521472395479701 0.069705355416953899 0 -0.042000822527735973 0.064880087355207783 0 -0.037351726516990362 0.072256576054196331 0 -0.048521472395479701 0.069705355416953899 0 -0.042000822527735973 0.064880087355207783 0 -0.048521472395479701 0.069705355416953899 0 -0.048543751051203898 0.057697742817346243 0 -0.02897814582929455 0.062873885781940531 0 -0.042000822527735973 0.064880087355207783 0 -0.037351726516990362 0.072256576054196331 0 -0.028384651446471159 0.094232735224306696 0 -0.048484368781985768 0.092953390863835139 0 -0.04744258657730735 0.086259244334048468 0 -0.019815605255134251 0.077564307382831099 0 -0.037351726516990362 0.072256576054196331 0 -0.04744258657730735 0.086259244334048468 0 -0.019815605255134251 0.077564307382831099 0 -0.04744258657730735 0.086259244334048468 0 -0.028384651446471159 0.094232735224306696 0 -0.04744258657730735 0.086259244334048468 0 -0.028384651446471159 0.094232735224306696 0 -0.019815605255134251 0.077564307382831099 0 -0.04744258657730735 0.086259244334048468 0 -0.04744258657730735 0.086259244334048468 0 -0.056352896539992578 0.082531333895216066 0 -0.048521472395479701 0.069705355416953899 0 -0.04744258657730735 0.086259244334048468 0 -0.055667229109567583 0.088847755450422561 0 -0.048484368781985768 0.092953390863835139 0 -0.04744258657730735 0.086259244334048468 0 -0.055667229109567583 0.088847755450422561 0 -0.055667229109567583 0.088847755450422561 0 -0.056352896539992578 0.082531333895216066 0 -0.055667229109567583 0.088847755450422561 0 -0.056352896539992578 0.082531333895216066 0 -0.068535421204038979 0.084669133357873919 0 -0.04744258657730735 0.086259244334048468 0 -0.055667229109567583 0.088847755450422561 0 -0.056352896539992578 0.082531333895216066 0 -0.04744258657730735 0.086259244334048468 0 -0.056352896539992578 0.082531333895216066 0 -0.056352896539992578 0.082531333895216066 0 -0.048521472395479701 0.069705355416953899 0 -0.059557339835071388 0.053011753697425897 0 -0.056352896539992578 0.082531333895216066 0 -0.065455038900646412 0.063135680861219914 0 -0.059557339835071388 0.053011753697425897 0 -0.056352896539992578 0.082531333895216066 0 -0.059557339835071388 0.053011753697425897 0 -0.041763705598505362 0.11912362676530031 0 -0.040355805924582322 0.10811297036328291 0 -0.053061720868948711 0.1128498994681193 0 -0.030432249208768851 0.112355206427051 0 -0.041763705598505362 0.11912362676530031 0 -0.033110622576494379 0.1214386067867833 0 -0.035266368379565052 0.13009707587939279 0 -0.041763705598505362 0.11912362676530031 0 -0.033110622576494379 0.1214386067867833 0 -0.030432249208768851 0.112355206427051 0 -0.041763705598505362 0.11912362676530031 0 -0.040355805924582322 0.10811297036328291 0 -0.028384651446471159 0.094232735224306696 0 -0.040355805924582322 0.10811297036328291 0 -0.047601570349403252 0.1001146928854318 0 -0.028384651446471159 0.094232735224306696 0 -0.048484368781985768 0.092953390863835139 0 -0.047601570349403252 0.1001146928854318 0 -0.028384651446471159 0.094232735224306696 0 -0.030432249208768851 0.112355206427051 0 -0.040355805924582322 0.10811297036328291 0 -0.055667229109567583 0.088847755450422561 0 -0.047601570349403252 0.1001146928854318 0 -0.053061720868948711 0.1128498994681193 0 -0.055667229109567583 0.088847755450422561 0 -0.053061720868948711 0.1128498994681193 0 -0.040355805924582322 0.10811297036328291 0 -0.047601570349403252 0.1001146928854318 0 -0.053061720868948711 0.1128498994681193 0 -0.055667229109567583 0.088847755450422561 0 -0.061317563763440802 0.10299561175118491 0 -0.053061720868948711 0.1128498994681193 0 -0.048484368781985768 0.092953390863835139 0 -0.055667229109567583 0.088847755450422561 0 -0.047601570349403252 0.1001146928854318 0 -0.055667229109567583 0.088847755450422561 0 -0.061317563763440802 0.10299561175118491 0 -0.06797342141030252 0.10030920148610591 0 -0.061317563763440802 0.10299561175118491 0 -0.053061720868948711 0.1128498994681193 0 -0.066574353573826517 0.1091611438734031 0 -0.046331318124510253 0.13174141938699169 0 -0.041763705598505362 0.11912362676530031 0 -0.057376161549244957 0.12328487032798489 0 -0.041763705598505362 0.11912362676530031 0 -0.053061720868948711 0.1128498994681193 0 -0.057376161549244957 0.12328487032798489 0 -0.053061720868948711 0.1128498994681193 0 -0.057376161549244957 0.12328487032798489 0 -0.068008023874607193 0.1194813826226566 0 -0.060395274942560528 0.13416549391068189 0 -0.068008023874607193 0.1194813826226566 0 -0.077957056184904241 0.1134158145620357 0 -0.060395274942560528 0.13416549391068189 0 -0.077957056184904241 0.1134158145620357 0 -0.079964733767734122 0.12668506296934109 0 -0.060395274942560528 0.13416549391068189 0 -0.077957056184904241 0.1134158145620357 0 -0.053061720868948711 0.1128498994681193 0 -0.068008023874607193 0.1194813826226566 0 -0.066574353573826517 0.1091611438734031 0 -0.068008023874607193 0.1194813826226566 0 -0.075620772806654399 0.1047972713346316 0 -0.066574353573826517 0.1091611438734031 0 -0.068008023874607193 0.1194813826226566 0 -0.077957056184904241 0.1134158145620357 0 -0.075620772806654399 0.1047972713346316 0 -0.068008023874607193 0.1194813826226566 0 -0.075620772806654399 0.1047972713346316 0 -0.079964733767734122 0.12668506296934109 0 -0.077957056184904241 0.1134158145620357 0 -0.086534582504385088 0.1156474293511931 0 -0.077957056184904241 0.1134158145620357 0 -0.086534582504385088 0.1156474293511931 0 -0.083947310206231279 0.1074935535689709 0 -0.086534582504385088 0.1156474293511931 0 -0.095157466154961498 0.1222738246889692 0 -0.093760682860616423 0.1071519620079809 0 -0.086534582504385088 0.1156474293511931 0 -0.083947310206231279 0.1074935535689709 0 -0.093760682860616423 0.1071519620079809 0 -0.079964733767734122 0.12668506296934109 0 -0.086534582504385088 0.1156474293511931 0 -0.095157466154961498 0.1222738246889692 0 -0.084868150004751591 0.098297010781769723 0 -0.085645907343274513 0.087820148674278453 0 -0.093949525724613639 0.096173232947952741 0 -0.084868150004751591 0.098297010781769723 0 -0.093760682860616423 0.1071519620079809 0 -0.093949525724613639 0.096173232947952741 0 -0.083947310206231279 0.1074935535689709 0 -0.084868150004751591 0.098297010781769723 0 -0.093760682860616423 0.1071519620079809 0 -0.083947310206231279 0.1074935535689709 0 -0.084868150004751591 0.098297010781769723 0 -0.075620772806654399 0.1047972713346316 0 -0.077957056184904241 0.1134158145620357 0 -0.083947310206231279 0.1074935535689709 0 -0.075620772806654399 0.1047972713346316 0 -0.084868150004751591 0.098297010781769723 0 -0.07416284546680918 0.094668811910581629 0 -0.075620772806654399 0.1047972713346316 0 -0.07416284546680918 0.094668811910581629 0 -0.075620772806654399 0.1047972713346316 0 -0.06797342141030252 0.10030920148610591 0 -0.055667229109567583 0.088847755450422561 0 -0.07416284546680918 0.094668811910581629 0 -0.06797342141030252 0.10030920148610591 0 -0.075620772806654399 0.1047972713346316 0 -0.066574353573826517 0.1091611438734031 0 -0.06797342141030252 0.10030920148610591 0 -0.061317563763440802 0.10299561175118491 0 -0.066574353573826517 0.1091611438734031 0 -0.06797342141030252 0.10030920148610591 0 -0.055667229109567583 0.088847755450422561 0 -0.07416284546680918 0.094668811910581629 0 -0.055667229109567583 0.088847755450422561 0 -0.07416284546680918 0.094668811910581629 0 -0.068535421204038979 0.084669133357873919 0 -0.056352896539992578 0.082531333895216066 0 -0.068535421204038979 0.084669133357873919 0 -0.079954973421325709 0.072656657351692189 0 -0.068535421204038979 0.084669133357873919 0 -0.077074786858862099 0.084953687823606544 0 -0.079954973421325709 0.072656657351692189 0 -0.07416284546680918 0.094668811910581629 0 -0.068535421204038979 0.084669133357873919 0 -0.077074786858862099 0.084953687823606544 0 -0.056352896539992578 0.082531333895216066 0 -0.079954973421325709 0.072656657351692189 0 -0.056352896539992578 0.082531333895216066 0 -0.065455038900646412 0.063135680861219914 0 -0.079954973421325709 0.072656657351692189 0 -0.065455038900646412 0.063135680861219914 0 -0.079954973421325709 0.072656657351692189 0 -0.065455038900646412 0.063135680861219914 0 -0.079954973421325709 0.072656657351692189 0 -0.076524839145482512 0.060394734624827362 0 -0.079954973421325709 0.072656657351692189 0 -0.093524594780215381 0.066979376389898315 0 -0.098442440583084309 0.07567796336267002 0 -0.079954973421325709 0.072656657351692189 0 -0.087851637875022454 0.059069255740853588 0 -0.076524839145482512 0.060394734624827362 0 -0.079954973421325709 0.072656657351692189 0 -0.093524594780215381 0.066979376389898315 0 -0.079954973421325709 0.072656657351692189 0 -0.093524594780215381 0.066979376389898315 0 -0.087851637875022454 0.059069255740853588 0 -0.079954973421325709 0.072656657351692189 0 -0.085645907343274513 0.087820148674278453 0 -0.1018492251009645 0.087032905411369765 0 -0.079954973421325709 0.072656657351692189 0 -0.1018492251009645 0.087032905411369765 0 -0.079954973421325709 0.072656657351692189 0 -0.1018492251009645 0.087032905411369765 0 -0.098442440583084309 0.07567796336267002 0 -0.084868150004751591 0.098297010781769723 0 -0.07416284546680918 0.094668811910581629 0 -0.085645907343274513 0.087820148674278453 0 -0.07416284546680918 0.094668811910581629 0 -0.077074786858862099 0.084953687823606544 0 -0.085645907343274513 0.087820148674278453 0 -0.077074786858862099 0.084953687823606544 0 -0.079954973421325709 0.072656657351692189 0 -0.085645907343274513 0.087820148674278453 0 -0.085645907343274513 0.087820148674278453 0 -0.1018492251009645 0.087032905411369765 0 -0.093949525724613639 0.096173232947952741 0 -0.1018492251009645 0.087032905411369765 0 -0.098442440583084309 0.07567796336267002 0 -0.1104905068726369 0.082990227197258584 0 -0.093524594780215381 0.066979376389898315 0 -0.106392902740279 0.068730650463131246 0 -0.095695867018895209 0.061386095523021718 0 -0.093524594780215381 0.066979376389898315 0 -0.098442440583084309 0.07567796336267002 0 -0.106392902740279 0.068730650463131246 0 -0.098442440583084309 0.07567796336267002 0 -0.106392902740279 0.068730650463131246 0 -0.1104905068726369 0.082990227197258584 0 -0.106392902740279 0.068730650463131246 0 -0.1143187324205953 0.061132814960732959 0 -0.1040003188276042 0.06051796656090451 0 -0.13471537800020611 0.069932196640817734 0 -0.1158200249735767 0.081810356583590621 0 -0.1143187324205953 0.061132814960732959 0 -0.1158200249735767 0.081810356583590621 0 -0.1143187324205953 0.061132814960732959 0 -0.106392902740279 0.068730650463131246 0 -0.1158200249735767 0.081810356583590621 0 -0.1143187324205953 0.061132814960732959 0 -0.106392902740279 0.068730650463131246 0 -0.1104905068726369 0.082990227197258584 0 -0.1158200249735767 0.081810356583590621 0 -0.106392902740279 0.068730650463131246 0 -0.1158200249735767 0.081810356583590621 0 -0.1104905068726369 0.082990227197258584 0 -0.1158200249735767 0.081810356583590621 0 -0.123743476780604 0.10140915347104661 0 -0.12576525993317081 0.095608920700106598 0 -0.1158200249735767 0.081810356583590621 0 -0.123743476780604 0.10140915347104661 0 -0.1018492251009645 0.087032905411369765 0 -0.1104905068726369 0.082990227197258584 0 -0.123743476780604 0.10140915347104661 0 -0.12576525993317081 0.095608920700106598 0 -0.1158200249735767 0.081810356583590621 0 -0.1018492251009645 0.087032905411369765 0 -0.123743476780604 0.10140915347104661 0 -0.10362366331346121 0.1005641378643648 0 -0.123743476780604 0.10140915347104661 0 -0.1048537663643479 0.1137288284916211 0 -0.10362366331346121 0.1005641378643648 0 -0.1018492251009645 0.087032905411369765 0 -0.123743476780604 0.10140915347104661 0 -0.12576525993317081 0.095608920700106598 0 -0.123743476780604 0.10140915347104661 0 -0.13074244959953979 0.11946175785799951 0 -0.11549744085296181 0.12506595749432459 0 -0.123743476780604 0.10140915347104661 0 -0.11549744085296181 0.12506595749432459 0 -0.123743476780604 0.10140915347104661 0 -0.1048537663643479 0.1137288284916211 0 -0.11549744085296181 0.12506595749432459 0 -0.123743476780604 0.10140915347104661 0 -0.11549744085296181 0.12506595749432459 0 -0.1048537663643479 0.1137288284916211 0 -0.095157466154961498 0.1222738246889692 0 -0.1048537663643479 0.1137288284916211 0 -0.095157466154961498 0.1222738246889692 0 -0.093760682860616423 0.1071519620079809 0 -0.1048537663643479 0.1137288284916211 0 -0.093760682860616423 0.1071519620079809 0 -0.10362366331346121 0.1005641378643648 0 -0.093760682860616423 0.1071519620079809 0 -0.093949525724613639 0.096173232947952741 0 -0.10362366331346121 0.1005641378643648 0 -0.1018492251009645 0.087032905411369765 0 -0.093949525724613639 0.096173232947952741 0 -0.10362366331346121 0.1005641378643648 0 -0.098111174817663571 0.029299933210101211 0 -0.11131614731463491 0.019777731715017489 0 -0.093270919285344131 0.021002023320940321 0 -0.099902477996615974 0.0097047614334804834 0 -0.11131614731463491 0.019777731715017489 0 -0.093270919285344131 0.021002023320940321 0 -0.098111174817663571 0.029299933210101211 0 -0.11131614731463491 0.019777731715017489 0 -0.1037154685123088 0.036850908914803658 0 -0.11131614731463491 0.019777731715017489 0 -0.1037154685123088 0.036850908914803658 0 -0.099902477996615974 0.0097047614334804834 0 -0.1099986790197032 0.001632030897992919 0 -0.11131614731463491 0.019777731715017489 0 -0.097318817554363779 -0.0057286893867275063 0 -0.099902477996615974 0.0097047614334804834 0 -0.087524390624848222 0.006688577221896419 0 -0.097318817554363779 -0.0057286893867275063 0 -0.099902477996615974 0.0097047614334804834 0 -0.1099986790197032 0.001632030897992919 0 -0.1236122261121546 -0.0078425818954372464 0 -0.13137048688310951 -0.003337023478303953 0 -0.11131614731463491 0.019777731715017489 0 -0.1099986790197032 0.001632030897992919 0 -0.11131614731463491 0.019777731715017489 0 -0.1236122261121546 -0.0078425818954372464 0 -0.1099986790197032 0.001632030897992919 0 -0.11131614731463491 0.019777731715017489 0 -0.1236122261121546 -0.0078425818954372464 0 -0.11131614731463491 0.019777731715017489 0 -0.1284208098020175 0.033179877632891097 0 -0.13460564055411489 0.01723703355858653 0 -0.11131614731463491 0.019777731715017489 0 -0.11131614731463491 0.019777731715017489 0 -0.1128174398676144 0.040455273337875242 0 -0.1284208098020175 0.033179877632891097 0 -0.11131614731463491 0.019777731715017489 0 -0.1128174398676144 0.040455273337875242 0 -0.12657932631233151 0.049909814768299969 0 -0.1284208098020175 0.033179877632891097 0 -0.1128174398676144 0.040455273337875242 0 -0.12657932631233151 0.049909814768299969 0 -0.1128174398676144 0.040455273337875242 0 -0.1143187324205953 0.061132814960732959 0 -0.1128174398676144 0.040455273337875242 0 -0.1143187324205953 0.061132814960732959 0 -0.1082223027228006 0.050485275180462093 0 -0.1128174398676144 0.040455273337875242 0 -0.1143187324205953 0.061132814960732959 0 -0.1143187324205953 0.061132814960732959 0 -0.10610639822075781 0.055771586811031351 0 -0.1082223027228006 0.050485275180462093 0 -0.1025152677102278 0.050750948389364392 0 -0.096114789709981496 0.053924086114589299 0 -0.1037154685123088 0.036850908914803658 0 -0.106392902740279 0.068730650463131246 0 -0.1040003188276042 0.06051796656090451 0 -0.096965780506980889 0.055650944342672051 0 -0.106392902740279 0.068730650463131246 0 -0.096965780506980889 0.055650944342672051 0 -0.1143187324205953 0.061132814960732959 0 -0.1040003188276042 0.06051796656090451 0 -0.10610639822075781 0.055771586811031351 0 -0.1040003188276042 0.06051796656090451 0 -0.10610639822075781 0.055771586811031351 0 -0.1014753694225613 0.055970928963692809 0 -0.10610639822075781 0.055771586811031351 0 -0.1025152677102278 0.050750948389364392 0 -0.1014753694225613 0.055970928963692809 0 -0.10610639822075781 0.055771586811031351 0 -0.1082223027228006 0.050485275180462093 0 -0.1025152677102278 0.050750948389364392 0 -0.1082223027228006 0.050485275180462093 0 -0.1025152677102278 0.050750948389364392 0 -0.1067356553623631 0.044178634216678392 0 -0.096408734094846682 0.047028599374544268 0 -0.094016665615900177 0.045027451179461733 0 -0.091788012541196298 0.052311951289322388 0 -0.096114789709981496 0.053924086114589299 0 -0.093744419191978248 0.056500250678553403 0 -0.091788012541196298 0.052311951289322388 0 -0.096408734094846682 0.047028599374544268 0 -0.096114789709981496 0.053924086114589299 0 -0.091788012541196298 0.052311951289322388 0 -0.096114789709981496 0.053924086114589299 0 -0.099124967027144822 0.054450492792824511 0 -0.096965780506980889 0.055650944342672051 0 -0.1025152677102278 0.050750948389364392 0 -0.096114789709981496 0.053924086114589299 0 -0.099124967027144822 0.054450492792824511 0 -0.1025152677102278 0.050750948389364392 0 -0.099124967027144822 0.054450492792824511 0 -0.1014753694225613 0.055970928963692809 0 -0.106392902740279 0.068730650463131246 0 -0.096965780506980889 0.055650944342672051 0 -0.095695867018895209 0.061386095523021718 0 -0.1040003188276042 0.06051796656090451 0 -0.1014753694225613 0.055970928963692809 0 -0.096965780506980889 0.055650944342672051 0 -0.099124967027144822 0.054450492792824511 0 -0.1014753694225613 0.055970928963692809 0 -0.096965780506980889 0.055650944342672051 0 -0.096965780506980889 0.055650944342672051 0 -0.095695867018895209 0.061386095523021718 0 -0.093744419191978248 0.056500250678553403 0 -0.096114789709981496 0.053924086114589299 0 -0.096965780506980889 0.055650944342672051 0 -0.093744419191978248 0.056500250678553403 0 -0.096408734094846682 0.047028599374544268 0 -0.096114789709981496 0.053924086114589299 0 -0.1037154685123088 0.036850908914803658 0 -0.11131614731463491 0.019777731715017489 0 -0.1128174398676144 0.040455273337875242 0 -0.1037154685123088 0.036850908914803658 0 -0.096114789709981496 0.053924086114589299 0 -0.1037154685123088 0.036850908914803658 0 -0.1128174398676144 0.040455273337875242 0 -0.1037154685123088 0.036850908914803658 0 -0.1067356553623631 0.044178634216678392 0 -0.1128174398676144 0.040455273337875242 0 -0.1082223027228006 0.050485275180462093 0 -0.1067356553623631 0.044178634216678392 0 -0.1025152677102278 0.050750948389364392 0 -0.1037154685123088 0.036850908914803658 0 -0.1067356553623631 0.044178634216678392 0 -0.096408734094846682 0.047028599374544268 0 -0.1037154685123088 0.036850908914803658 0 -0.094016665615900177 0.045027451179461733 0 -0.1037154685123088 0.036850908914803658 0 -0.094016665615900177 0.045027451179461733 0 -0.094491571965461013 0.037104767562455593 0 -0.098111174817663571 0.029299933210101211 0 -0.1037154685123088 0.036850908914803658 0 -0.094491571965461013 0.037104767562455593 0 -0.098111174817663571 0.029299933210101211 0 -0.094491571965461013 0.037104767562455593 0 -0.087647185425064736 0.031842659612238623 0 -0.087647185425064736 0.031842659612238623 0 -0.089854685869044451 0.040908764775179712 0 -0.081629424010395357 0.041419166804349421 0 -0.094491571965461013 0.037104767562455593 0 -0.087647185425064736 0.031842659612238623 0 -0.089854685869044451 0.040908764775179712 0 -0.089854685869044451 0.040908764775179712 0 -0.081629424010395357 0.041419166804349421 0 -0.086707275669269182 0.049908642651155542 0 -0.094016665615900177 0.045027451179461733 0 -0.089854685869044451 0.040908764775179712 0 -0.086707275669269182 0.049908642651155542 0 -0.094016665615900177 0.045027451179461733 0 -0.094491571965461013 0.037104767562455593 0 -0.089854685869044451 0.040908764775179712 0 -0.087647185425064736 0.031842659612238623 0 -0.081629424010395357 0.041419166804349421 0 -0.076164181077954182 0.032009494226678391 0 -0.095695867018895209 0.061386095523021718 0 -0.087851637875022454 0.059069255740853588 0 -0.093744419191978248 0.056500250678553403 0 -0.093524594780215381 0.066979376389898315 0 -0.095695867018895209 0.061386095523021718 0 -0.087851637875022454 0.059069255740853588 0 -0.087851637875022454 0.059069255740853588 0 -0.093744419191978248 0.056500250678553403 0 -0.091788012541196298 0.052311951289322388 0 -0.087851637875022454 0.059069255740853588 0 -0.091788012541196298 0.052311951289322388 0 -0.086707275669269182 0.049908642651155542 0 -0.094016665615900177 0.045027451179461733 0 -0.091788012541196298 0.052311951289322388 0 -0.086707275669269182 0.049908642651155542 0 -0.086707275669269182 0.049908642651155542 0 -0.081818850965788142 0.055238295402956307 0 -0.077896340682555187 0.050949615115596543 0 -0.081629424010395357 0.041419166804349421 0 -0.086707275669269182 0.049908642651155542 0 -0.077896340682555187 0.050949615115596543 0 -0.087851637875022454 0.059069255740853588 0 -0.086707275669269182 0.049908642651155542 0 -0.081818850965788142 0.055238295402956307 0 -0.081818850965788142 0.055238295402956307 0 -0.076524839145482512 0.060394734624827362 0 -0.077896340682555187 0.050949615115596543 0 -0.087851637875022454 0.059069255740853588 0 -0.081818850965788142 0.055238295402956307 0 -0.076524839145482512 0.060394734624827362 0 -0.076524839145482512 0.060394734624827362 0 -0.077896340682555187 0.050949615115596543 0 -0.069328576095109715 0.053744354209428961 0 -0.065455038900646412 0.063135680861219914 0 -0.076524839145482512 0.060394734624827362 0 -0.069328576095109715 0.053744354209428961 0 -0.077896340682555187 0.050949615115596543 0 -0.069328576095109715 0.053744354209428961 0 -0.071506875338484571 0.042895824445247768 0 -0.069328576095109715 0.053744354209428961 0 -0.071506875338484571 0.042895824445247768 0 -0.059557339835071388 0.053011753697425897 0 -0.065455038900646412 0.063135680861219914 0 -0.069328576095109715 0.053744354209428961 0 -0.059557339835071388 0.053011753697425897 0 -0.076164181077954182 0.032009494226678391 0 -0.071506875338484571 0.042895824445247768 0 -0.062761783130148519 0.02349217349963555 0 -0.071506875338484571 0.042895824445247768 0 -0.062761783130148519 0.02349217349963555 0 -0.059557339835071388 0.053011753697425897 0 -0.081629424010395357 0.041419166804349421 0 -0.076164181077954182 0.032009494226678391 0 -0.071506875338484571 0.042895824445247768 0 -0.081629424010395357 0.041419166804349421 0 -0.077896340682555187 0.050949615115596543 0 -0.071506875338484571 0.042895824445247768 0 -0.076164181077954182 0.032009494226678391 0 -0.062761783130148519 0.02349217349963555 0 -0.078304733749917463 0.018406078267593839 0 -0.087647185425064736 0.031842659612238623 0 -0.076164181077954182 0.032009494226678391 0 -0.078304733749917463 0.018406078267593839 0 -0.098111174817663571 0.029299933210101211 0 -0.087647185425064736 0.031842659612238623 0 -0.093270919285344131 0.021002023320940321 0 -0.087647185425064736 0.031842659612238623 0 -0.078304733749917463 0.018406078267593839 0 -0.093270919285344131 0.021002023320940321 0 -0.099902477996615974 0.0097047614334804834 0 -0.093270919285344131 0.021002023320940321 0 -0.087524390624848222 0.006688577221896419 0 -0.078304733749917463 0.018406078267593839 0 -0.093270919285344131 0.021002023320940321 0 -0.087524390624848222 0.006688577221896419 0 -0.065966226425225663 -0.0060274066981548767 0 -0.062761783130148519 0.02349217349963555 0 -0.078304733749917463 0.018406078267593839 0 -0.065966226425225663 -0.0060274066981548767 0 -0.078304733749917463 0.018406078267593839 0 -0.087524390624848222 0.006688577221896419 0 -0.065966226425225663 -0.0060274066981548767 0 -0.062761783130148519 0.02349217349963555 0 -0.065966226425225663 -0.0060274066981548767 0 -0.062761783130148519 0.02349217349963555 0 -0.041285176168578859 0.002941795093874656 0 -0.062761783130148519 0.02349217349963555 0 -0.036272784281526353 0.030700192342145501 0 -0.041285176168578859 0.002941795093874656 0 -0.036272784281526353 0.030700192342145501 0 -0.041285176168578859 0.002941795093874656 0 -0.01693898921702304 0.0117618500821222 0 -0.048521472395479701 0.069705355416953899 0 -0.048543751051203898 0.057697742817346243 0 -0.059557339835071388 0.053011753697425897 0 -0.048543751051203898 0.057697742817346243 0 -0.059557339835071388 0.053011753697425897 0 -0.04189961413571635 0.0481337511233643 0 -0.062761783130148519 0.02349217349963555 0 -0.059557339835071388 0.053011753697425897 0 -0.062761783130148519 0.02349217349963555 0 -0.036272784281526353 0.030700192342145501 0 -0.04189961413571635 0.0481337511233643 0 -0.062761783130148519 0.02349217349963555 0 -0.059557339835071388 0.053011753697425897 0 -0.04189961413571635 0.0481337511233643 0 -0.036272784281526353 0.030700192342145501 0 -0.04189961413571635 0.0481337511233643 0 -0.022255981323007819 0.049811798938199467 0 -0.042000822527735973 0.064880087355207783 0 -0.048543751051203898 0.057697742817346243 0 -0.04189961413571635 0.0481337511233643 0 -0.02897814582929455 0.062873885781940531 0 -0.042000822527735973 0.064880087355207783 0 -0.04189961413571635 0.0481337511233643 0 -0.02897814582929455 0.062873885781940531 0 -0.022255981323007819 0.049811798938199467 0 -0.01123722517146284 0.061714947321965113 0 -0.02897814582929455 0.062873885781940531 0 -0.04189961413571635 0.0481337511233643 0 -0.022255981323007819 0.049811798938199467 0 -0.036272784281526353 0.030700192342145501 0 -0.022255981323007819 0.049811798938199467 0 -0.01438021634244922 0.03170234610626791 0 -0.01438021634244922 0.03170234610626791 0 0.0022615025708572051 0.02103125876278546 0 0.0031430691038015031 0.043008717564808917 0 -0.022255981323007819 0.049811798938199467 0 -0.01438021634244922 0.03170234610626791 0 0.0031430691038015031 0.043008717564808917 0 -0.022255981323007819 0.049811798938199467 0 -0.01123722517146284 0.061714947321965113 0 0.0031430691038015031 0.043008717564808917 0 -0.01123722517146284 0.061714947321965113 0 0.0031430691038015031 0.043008717564808917 0 0.0078113760670387236 0.068869370431613411 0 -0.018090432812363919 -0.0051789454257338127 0 -0.041285176168578859 0.002941795093874656 0 -0.01693898921702304 0.0117618500821222 0 -0.036272784281526353 0.030700192342145501 0 -0.01693898921702304 0.0117618500821222 0 -0.036272784281526353 0.030700192342145501 0 -0.01438021634244922 0.03170234610626791 0 -0.01693898921702304 0.0117618500821222 0 -0.01438021634244922 0.03170234610626791 0 -0.01693898921702304 0.0117618500821222 0 0.0022615025708572051 0.02103125876278546 0 -0.01693898921702304 0.0117618500821222 0 0.002394805847480138 -0.0071764921779012506 0 -0.01693898921702304 0.0117618500821222 0 0.0022615025708572051 0.02103125876278546 0 0.002394805847480138 -0.0071764921779012506 0 0.0022615025708572051 0.02103125876278546 0 0.01988593924933146 0.01021281285273932 0 0.002394805847480138 -0.0071764921779012506 0 0.01988593924933146 0.01021281285273932 0 0.018044735406519189 -0.0027914786915071068 0 0.002394805847480138 -0.0071764921779012506 0 0.01988593924933146 0.01021281285273932 0 0.002394805847480138 -0.0071764921779012506 0 0.0022615025708572051 0.02103125876278546 0 0.01988593924933146 0.01021281285273932 0 0.01967507988536589 0.033248318378640847 0 0.01988593924933146 0.01021281285273932 0 0.037377072651182792 0.027602117883379889 0 0.01988593924933146 0.01021281285273932 0 0.01967507988536589 0.033248318378640847 0 0.037377072651182792 0.027602117883379889 0 0.01988593924933146 0.01021281285273932 0 0.035622497167505339 0.0063925700628825917 0 0.018044735406519189 -0.0027914786915071068 0 0.01988593924933146 0.01021281285273932 0 0.035622497167505339 0.0063925700628825917 0 0.037377072651182792 0.027602117883379889 0 0.0031430691038015031 0.043008717564808917 0 0.019783223174817739 0.050872415177661792 0 0.0078113760670387236 0.068869370431613411 0 0.0031430691038015031 0.043008717564808917 0 0.0078113760670387236 0.068869370431613411 0 0.0031430691038015031 0.043008717564808917 0 0.01967507988536589 0.033248318378640847 0 0.019783223174817739 0.050872415177661792 0 0.0022615025708572051 0.02103125876278546 0 0.0031430691038015031 0.043008717564808917 0 0.01967507988536589 0.033248318378640847 0 0.01967507988536589 0.033248318378640847 0 0.019783223174817739 0.050872415177661792 0 0.035662389103733989 0.047481221614176811 0 0.01967507988536589 0.033248318378640847 0 0.035662389103733989 0.047481221614176811 0 0.037377072651182792 0.027602117883379889 0 0.019783223174817739 0.050872415177661792 0 0.035662389103733989 0.047481221614176811 0 0.032141493454138102 0.060275729162332752 0 0.019783223174817739 0.050872415177661792 0 0.021142096610139102 0.064673842397447556 0 0.0078113760670387236 0.068869370431613411 0 0.019783223174817739 0.050872415177661792 0 0.032141493454138102 0.060275729162332752 0 0.021142096610139102 0.064673842397447556 0 0.035662389103733989 0.047481221614176811 0 0.032141493454138102 0.060275729162332752 0 0.049290572992936238 0.066355209737614357 0 0.035662389103733989 0.047481221614176811 0 0.054868206053034503 0.044991422914020113 0 0.049290572992936238 0.066355209737614357 0 0.054868206053034503 0.044991422914020113 0 0.037377072651182792 0.027602117883379889 0 0.035662389103733989 0.047481221614176811 0 0.054868206053034503 0.044991422914020113 0 0.037377072651182792 0.027602117883379889 0 0.054868206053034503 0.044991422914020113 0 0.037377072651182792 0.027602117883379889 0 0.059466454908930037 0.027378932586910581 0 0.054868206053034503 0.044991422914020113 0 0.059466454908930037 0.027378932586910581 0 0.054868206053034503 0.044991422914020113 0 0.049290572992936238 0.066355209737614357 0 0.054868206053034503 0.044991422914020113 0 0.067806688972275458 0.057854581689803772 0 0.049290572992936238 0.066355209737614357 0 0.054868206053034503 0.044991422914020113 0 0.067806688972275458 0.057854581689803772 0 0.035622497167505339 0.0063925700628825917 0 0.048661329883321183 0.016868832195515299 0 0.04884534130661923 0.0054823796607835363 0 0.035622497167505339 0.0063925700628825917 0 0.04884534130661923 0.0054823796607835363 0 0.045210290485040869 -0.0034719151203993228 0 0.035622497167505339 0.0063925700628825917 0 0.037377072651182792 0.027602117883379889 0 0.048661329883321183 0.016868832195515299 0 0.037377072651182792 0.027602117883379889 0 0.048661329883321183 0.016868832195515299 0 0.059466454908930037 0.027378932586910581 0 0.048661329883321183 0.016868832195515299 0 0.059466454908930037 0.027378932586910581 0 0.059551554903704583 0.012329945274186901 0 0.048661329883321183 0.016868832195515299 0 0.059551554903704583 0.012329945274186901 0 0.04884534130661923 0.0054823796607835363 0 0.04884534130661923 0.0054823796607835363 0 0.058196269712748661 -0.0010094984802769141 0 0.045210290485040869 -0.0034719151203993228 0 0.059551554903704583 0.012329945274186901 0 0.04884534130661923 0.0054823796607835363 0 0.058196269712748661 -0.0010094984802769141 0 0.059551554903704583 0.012329945274186901 0 0.070381517258247442 0.0054324954822656396 0 0.058196269712748661 -0.0010094984802769141 0 0.059551554903704583 0.012329945274186901 0 0.070381517258247442 0.0054324954822656396 0 0.071076364355982968 0.019572888861291889 0 0.070381517258247442 0.0054324954822656396 0 0.083131704911828669 0.010948624559543209 0 0.071076364355982968 0.019572888861291889 0 0.083131704911828669 0.010948624559543209 0 0.096167504599054904 0.0042442054759202954 0 0.09879577097810871 0.02017555683513389 0 0.070381517258247442 0.0054324954822656396 0 0.083131704911828669 0.010948624559543209 0 0.081717153665888317 -0.0025063239881197622 0 0.083131704911828669 0.010948624559543209 0 0.096167504599054904 0.0042442054759202954 0 0.081717153665888317 -0.0025063239881197622 0 0.083131704911828669 0.010948624559543209 0 0.084020254894405358 0.02481244236443322 0 0.09879577097810871 0.02017555683513389 0 0.084020254894405358 0.02481244236443322 0 0.089449236229465365 0.03685286092118592 0 0.09879577097810871 0.02017555683513389 0 0.083131704911828669 0.010948624559543209 0 0.084020254894405358 0.02481244236443322 0 0.071076364355982968 0.019572888861291889 0 0.084020254894405358 0.02481244236443322 0 0.071076364355982968 0.019572888861291889 0 0.073196751006103261 0.040000434485980937 0 0.059466454908930037 0.027378932586910581 0 0.071076364355982968 0.019572888861291889 0 0.073196751006103261 0.040000434485980937 0 0.059466454908930037 0.027378932586910581 0 0.059551554903704583 0.012329945274186901 0 0.071076364355982968 0.019572888861291889 0 0.054868206053034503 0.044991422914020113 0 0.059466454908930037 0.027378932586910581 0 0.073196751006103261 0.040000434485980937 0 0.073196751006103261 0.040000434485980937 0 0.067806688972275458 0.057854581689803772 0 0.092977810154944648 0.053070117425326267 0 0.054868206053034503 0.044991422914020113 0 0.073196751006103261 0.040000434485980937 0 0.067806688972275458 0.057854581689803772 0 0.092977810154944648 0.053070117425326267 0 0.080745171891517087 0.070717740465586792 0 0.067806688972275458 0.057854581689803772 0 0.092977810154944648 0.053070117425326267 0 0.080745171891517087 0.070717740465586792 0 0.084020254894405358 0.02481244236443322 0 0.073196751006103261 0.040000434485980937 0 0.089449236229465365 0.03685286092118592 0 0.073196751006103261 0.040000434485980937 0 0.092977810154944648 0.053070117425326267 0 0.089449236229465365 0.03685286092118592 0 0.092977810154944648 0.053070117425326267 0 0.10521044841837041 0.035422494385064417 0 0.092977810154944648 0.053070117425326267 0 0.089449236229465365 0.03685286092118592 0 0.10521044841837041 0.035422494385064417 0 0.092977810154944648 0.053070117425326267 0 0.1133392402374467 0.053204142399891047 0 0.1035655079248483 0.069632380985197889 0 0.092977810154944648 0.053070117425326267 0 0.10521044841837041 0.035422494385064417 0 0.1133392402374467 0.053204142399891047 0 0.1133392402374467 0.053204142399891047 0 0.1220245952479405 0.07004619687739172 0 0.13318341665519781 0.054736537254868822 0 0.1133392402374467 0.053204142399891047 0 0.12506256882025399 0.035699134337412737 0 0.13318341665519781 0.054736537254868822 0 0.10521044841837041 0.035422494385064417 0 0.1133392402374467 0.053204142399891047 0 0.12506256882025399 0.035699134337412737 0 0.10521044841837041 0.035422494385064417 0 0.11744308668179609 0.017774871344802521 0 0.12506256882025399 0.035699134337412737 0 0.10521044841837041 0.035422494385064417 0 0.11744308668179609 0.017774871344802521 0 0.10847276501169199 0.0092252325767439008 0 0.12681727907172599 0.0028609529651058472 0 0.11158832231026521 -0.002538519333972472 0 0.11744308668179609 0.017774871344802521 0 0.10847276501169199 0.0092252325767439008 0 0.12681727907172599 0.0028609529651058472 0 0.10847276501169199 0.0092252325767439008 0 0.096167504599054904 0.0042442054759202954 0 0.09879577097810871 0.02017555683513389 0 0.10847276501169199 0.0092252325767439008 0 0.096167504599054904 0.0042442054759202954 0 0.11158832231026521 -0.002538519333972472 0 0.10521044841837041 0.035422494385064417 0 0.11744308668179609 0.017774871344802521 0 0.09879577097810871 0.02017555683513389 0 0.089449236229465365 0.03685286092118592 0 0.10521044841837041 0.035422494385064417 0 0.09879577097810871 0.02017555683513389 0 0.11744308668179609 0.017774871344802521 0 0.10847276501169199 0.0092252325767439008 0 0.09879577097810871 0.02017555683513389 0 0.10882650996042049 0.098635597023528671 0 0.099321881767187231 0.10979448526446239 0 0.11057203073837581 0.10974959828000851 0 0.10882650996042049 0.098635597023528671 0 0.099321881767187231 0.10979448526446239 0 0.093532106097527157 0.097201512098380446 0 0.099321881767187231 0.10979448526446239 0 0.10718004060487731 0.1186919078288297 0 0.094925170845575335 0.12812185349131111 0 0.099321881767187231 0.10979448526446239 0 0.10718004060487731 0.1186919078288297 0 0.11057203073837581 0.10974959828000851 0 0.10718004060487731 0.1186919078288297 0 0.11057203073837581 0.10974959828000851 0 0.11923934643535521 0.1171320194813406 0 0.11923934643535521 0.1171320194813406 0 0.11184177323789279 0.12866158262702601 0 0.12877089149896251 0.12628235461406201 0 0.11057203073837581 0.10974959828000851 0 0.11923934643535521 0.1171320194813406 0 0.1204523462490521 0.10350528248164099 0 0.10718004060487731 0.1186919078288297 0 0.11923934643535521 0.1171320194813406 0 0.11184177323789279 0.12866158262702601 0 0.11923934643535521 0.1171320194813406 0 0.1204523462490521 0.10350528248164099 0 0.13278919984088661 0.11230677671938701 0 0.10882650996042049 0.098635597023528671 0 0.1204523462490521 0.10350528248164099 0 0.1175203890912727 0.086079419998433368 0 0.1204523462490521 0.10350528248164099 0 0.1175203890912727 0.086079419998433368 0 0.13376660142800201 0.097128283387147629 0 0.10882650996042049 0.098635597023528671 0 0.11057203073837581 0.10974959828000851 0 0.1204523462490521 0.10350528248164099 0 0.1175203890912727 0.086079419998433368 0 0.1220245952479405 0.07004619687739172 0 0.1035655079248483 0.069632380985197889 0 0.1133392402374467 0.053204142399891047 0 0.1220245952479405 0.07004619687739172 0 0.1035655079248483 0.069632380985197889 0 0.1175203890912727 0.086079419998433368 0 0.1035655079248483 0.069632380985197889 0 0.094785840925968687 0.084676668744557898 0 0.10882650996042049 0.098635597023528671 0 0.1175203890912727 0.086079419998433368 0 0.094785840925968687 0.084676668744557898 0 0.10882650996042049 0.098635597023528671 0 0.094785840925968687 0.084676668744557898 0 0.10882650996042049 0.098635597023528671 0 0.094785840925968687 0.084676668744557898 0 0.093532106097527157 0.097201512098380446 0 0.094785840925968687 0.084676668744557898 0 0.083309168386930019 0.090214104788044758 0 0.093532106097527157 0.097201512098380446 0 0.094785840925968687 0.084676668744557898 0 0.083309168386930019 0.090214104788044758 0 0.080745171891517087 0.070717740465586792 0 0.092977810154944648 0.053070117425326267 0 0.1035655079248483 0.069632380985197889 0 0.080745171891517087 0.070717740465586792 0 0.1035655079248483 0.069632380985197889 0 0.094785840925968687 0.084676668744557898 0 0.080745171891517087 0.070717740465586792 0 0.094785840925968687 0.084676668744557898 0 0.080745171891517087 0.070717740465586792 0 0.067806688972275458 0.057854581689803772 0 0.080745171891517087 0.070717740465586792 0 0.06101355018332804 0.07564509050647375 0 0.067806688972275458 0.057854581689803772 0 0.080745171891517087 0.070717740465586792 0 0.080745171891517087 0.070717740465586792 0 0.063512377127071362 0.095578924078155048 0 0.083309168386930019 0.090214104788044758 0 0.080745171891517087 0.070717740465586792 0 0.063512377127071362 0.095578924078155048 0 0.080745171891517087 0.070717740465586792 0 0.063512377127071362 0.095578924078155048 0 0.06101355018332804 0.07564509050647375 0 0.083309168386930019 0.090214104788044758 0 0.063512377127071362 0.095578924078155048 0 0.081417129447129324 0.1026867046713085 0 0.063512377127071362 0.095578924078155048 0 0.081417129447129324 0.1026867046713085 0 0.063512377127071362 0.095578924078155048 0 0.081417129447129324 0.1026867046713085 0 0.067817743154455989 0.1135840018968045 0 0.099321881767187231 0.10979448526446239 0 0.081417129447129324 0.1026867046713085 0 0.093532106097527157 0.097201512098380446 0 0.099321881767187231 0.10979448526446239 0 0.081417129447129324 0.1026867046713085 0 0.083309168386930019 0.090214104788044758 0 0.081417129447129324 0.1026867046713085 0 0.093532106097527157 0.097201512098380446 0 0.099321881767187231 0.10979448526446239 0 0.081417129447129324 0.1026867046713085 0 0.08262403040743542 0.1174427642681065 0 0.099321881767187231 0.10979448526446239 0 0.08262403040743542 0.1174427642681065 0 0.094925170845575335 0.12812185349131111 0 0.067817743154455989 0.1135840018968045 0 0.056785074219297037 0.123962922715022 0 0.069638226822829233 0.13302677601664631 0 0.08262403040743542 0.1174427642681065 0 0.067817743154455989 0.1135840018968045 0 0.069638226822829233 0.13302677601664631 0 0.081417129447129324 0.1026867046713085 0 0.08262403040743542 0.1174427642681065 0 0.067817743154455989 0.1135840018968045 0 0.067817743154455989 0.1135840018968045 0 0.056785074219297037 0.123962922715022 0 0.051472524226887043 0.11294842204475181 0 0.056785074219297037 0.123962922715022 0 0.051472524226887043 0.11294842204475181 0 0.045358146108277778 0.122235841909611 0 0.063512377127071362 0.095578924078155048 0 0.067817743154455989 0.1135840018968045 0 0.051472524226887043 0.11294842204475181 0 0.063512377127071362 0.095578924078155048 0 0.04894346805059932 0.099918275759685315 0 0.043712939932840048 0.087718996561209156 0 0.063512377127071362 0.095578924078155048 0 0.051472524226887043 0.11294842204475181 0 0.04894346805059932 0.099918275759685315 0 0.063512377127071362 0.095578924078155048 0 0.051472524226887043 0.11294842204475181 0 0.038417021745327531 0.1080037420749501 0 0.043712939932840048 0.087718996561209156 0 0.028330160343379221 0.096092512071592709 0 0.051472524226887043 0.11294842204475181 0 0.04894346805059932 0.099918275759685315 0 0.038417021745327531 0.1080037420749501 0 0.04894346805059932 0.099918275759685315 0 0.038417021745327531 0.1080037420749501 0 0.043712939932840048 0.087718996561209156 0 0.038417021745327531 0.1080037420749501 0 0.043712939932840048 0.087718996561209156 0 0.038417021745327531 0.1080037420749501 0 0.028403759718925791 0.1183090902513565 0 0.03312110355781811 0.12828848758869171 0 0.038417021745327531 0.1080037420749501 0 0.03312110355781811 0.12828848758869171 0 0.038417021745327531 0.1080037420749501 0 0.045358146108277778 0.122235841909611 0 0.03312110355781811 0.12828848758869171 0 0.051472524226887043 0.11294842204475181 0 0.038417021745327531 0.1080037420749501 0 0.045358146108277778 0.122235841909611 0 0.06101355018332804 0.07564509050647375 0 0.049290572992936238 0.066355209737614357 0 0.043712939932840048 0.087718996561209156 0 0.067806688972275458 0.057854581689803772 0 0.06101355018332804 0.07564509050647375 0 0.049290572992936238 0.066355209737614357 0 0.063512377127071362 0.095578924078155048 0 0.06101355018332804 0.07564509050647375 0 0.043712939932840048 0.087718996561209156 0 0.063512377127071362 0.095578924078155048 0 0.043712939932840048 0.087718996561209156 0 0.043712939932840048 0.087718996561209156 0 0.034829185389063419 0.071995956884763276 0 0.02079066235970875 0.078619372239532512 0 0.043712939932840048 0.087718996561209156 0 0.02079066235970875 0.078619372239532512 0 0.032141493454138102 0.060275729162332752 0 0.049290572992936238 0.066355209737614357 0 0.034829185389063419 0.071995956884763276 0 0.049290572992936238 0.066355209737614357 0 0.043712939932840048 0.087718996561209156 0 0.049290572992936238 0.066355209737614357 0 0.043712939932840048 0.087718996561209156 0 0.034829185389063419 0.071995956884763276 0 0.032141493454138102 0.060275729162332752 0 0.034829185389063419 0.071995956884763276 0 0.021142096610139102 0.064673842397447556 0 0.034829185389063419 0.071995956884763276 0 0.021142096610139102 0.064673842397447556 0 0.02079066235970875 0.078619372239532512 0 0.021142096610139102 0.064673842397447556 0 0.02079066235970875 0.078619372239532512 0 0.0078113760670387236 0.068869370431613411 0 0.043712939932840048 0.087718996561209156 0 0.02079066235970875 0.078619372239532512 0 0.028330160343379221 0.096092512071592709 0 0.02079066235970875 0.078619372239532512 0 0.028330160343379221 0.096092512071592709 0 0.013121597576430799 0.098285986815611973 0 -0.0022168413230157229 0.085736250976024914 0 0.0078113760670387236 0.068869370431613411 0 0.013121597576430799 0.098285986815611973 0 0.02079066235970875 0.078619372239532512 0 0.0078113760670387236 0.068869370431613411 0 0.013121597576430799 0.098285986815611973 0 0.0078113760670387236 0.068869370431613411 0 0.013121597576430799 0.098285986815611973 0 0.021142096610139102 0.064673842397447556 0 0.0078113760670387236 0.068869370431613411 0 0.013121597576430799 0.098285986815611973 0 0.018955942675363529 0.12769885014017149 0 0.018915766464259819 0.12208814763948179 0 0.025608580102588829 0.10783446266666021 0 0.013121597576430799 0.098285986815611973 0 0.018915766464259819 0.12208814763948179 0 0.013121597576430799 0.098285986815611973 0 0.018955942675363529 0.12769885014017149 0 0.018915766464259819 0.12208814763948179 0 0.018955942675363529 0.12769885014017149 0 0.028403759718925791 0.1183090902513565 0 0.025756287217072099 0.1254558848223972 0 0.03312110355781811 0.12828848758869171 0 0.018915766464259819 0.12208814763948179 0 0.028403759718925791 0.1183090902513565 0 0.025756287217072099 0.1254558848223972 0 0.038417021745327531 0.1080037420749501 0 0.028403759718925791 0.1183090902513565 0 0.025608580102588829 0.10783446266666021 0 0.018915766464259819 0.12208814763948179 0 0.028403759718925791 0.1183090902513565 0 0.025608580102588829 0.10783446266666021 0 0.038417021745327531 0.1080037420749501 0 0.025608580102588829 0.10783446266666021 0 0.028330160343379221 0.096092512071592709 0 0.025608580102588829 0.10783446266666021 0 0.028330160343379221 0.096092512071592709 0 0.013121597576430799 0.098285986815611973 0 -0.0093267163156350585 0.10220622611456499 0 -0.0022168413230157229 0.085736250976024914 0 0.013121597576430799 0.098285986815611973 0 -0.0093267163156350585 0.10220622611456499 0 0.013121597576430799 0.098285986815611973 0 0.0088418889268726004 0.1125261115153213 0 -0.0015382865690094869 0.1195819360983075 0 0.0088418889268726004 0.1125261115153213 0 0.0068357907514690393 0.1194307534492897 0 0.013121597576430799 0.098285986815611973 0 0.0088418889268726004 0.1125261115153213 0 0.018955942675363529 0.12769885014017149 0 0.01159030187937234 0.123800118292041 0 0.0068357907514690393 0.1194307534492897 0 0.0093864348306887096 0.12963523465885829 0 0.0088418889268726004 0.1125261115153213 0 0.01159030187937234 0.123800118292041 0 0.0068357907514690393 0.1194307534492897 0 0.0088418889268726004 0.1125261115153213 0 0.01159030187937234 0.123800118292041 0 0.018955942675363529 0.12769885014017149 0 -0.0015382865690094869 0.1195819360983075 0 0.0068357907514690393 0.1194307534492897 0 0.0028297340199113529 0.12737786763030409 0 0.0068357907514690393 0.1194307534492897 0 0.0028297340199113529 0.12737786763030409 0 0.0093864348306887096 0.12963523465885829 0 0.0028297340199113529 0.12737786763030409 0 0.0012022958327204049 0.13426380270999949 0 0.0063902301850321547 0.13414384741273511 0 0.0028297340199113529 0.12737786763030409 0 0.0063902301850321547 0.13414384741273511 0 0.0093864348306887096 0.12963523465885829 0 0.000228448927285114 0.14012311706009631 0 0.0012022958327204049 0.13426380270999949 0 0.0046739851119457828 0.13844047711548191 0 0.0012022958327204049 0.13426380270999949 0 0.0063902301850321547 0.13414384741273511 0 0.0046739851119457828 0.13844047711548191 0 0.0063902301850321547 0.13414384741273511 0 0.0046739851119457828 0.13844047711548191 0 0.0087417741184536643 0.13987837293796551 0 0.0063902301850321547 0.13414384741273511 0 0.0087417741184536643 0.13987837293796551 0 0.01188448664637911 0.13630481734698929 0 0.0087417741184536643 0.13987837293796551 0 0.01188448664637911 0.13630481734698929 0 0.01238480926519909 0.14086949425419931 0 0.0063902301850321547 0.13414384741273511 0 0.01188448664637911 0.13630481734698929 0 0.0093864348306887096 0.12963523465885829 0 0.01538181754864224 0.13462442671806851 0 0.01188448664637911 0.13630481734698929 0 0.01363814740762942 0.13063558522106289 0 0.01538181754864224 0.13462442671806851 0 0.01188448664637911 0.13630481734698929 0 0.014424460637306021 0.13832412831929569 0 0.01188448664637911 0.13630481734698929 0 0.014424460637306021 0.13832412831929569 0 0.01238480926519909 0.14086949425419931 0 0.014424460637306021 0.13832412831929569 0 0.01238480926519909 0.14086949425419931 0 0.015363480448823189 0.14129096320990631 0 0.01159030187937234 0.123800118292041 0 0.0093864348306887096 0.12963523465885829 0 0.01363814740762942 0.13063558522106289 0 0.01188448664637911 0.13630481734698929 0 0.0093864348306887096 0.12963523465885829 0 0.01363814740762942 0.13063558522106289 0 0.01159030187937234 0.123800118292041 0 0.01363814740762942 0.13063558522106289 0 0.018955942675363529 0.12769885014017149 0 0.018915766464259819 0.12208814763948179 0 0.018955942675363529 0.12769885014017149 0 0.022387711081268351 0.13069146168119281 0 0.025814451866404291 0.1323851931955756 0 0.019064338777337181 0.1428366210673169 0 0.044351282800083193 0.13793169854198151 0 0.018915766464259819 0.12208814763948179 0 0.022387711081268351 0.13069146168119281 0 0.025756287217072099 0.1254558848223972 0 0.01538181754864224 0.13462442671806851 0 0.01363814740762942 0.13063558522106289 0 0.018955942675363529 0.12769885014017149 0 0.022387711081268351 0.13069146168119281 0 0.025814451866404291 0.1323851931955756 0 0.019064338777337181 0.1428366210673169 0 0.01538181754864224 0.13462442671806851 0 0.018955942675363529 0.12769885014017149 0 0.01710770927748647 0.13853094006731531 0 0.018955942675363529 0.12769885014017149 0 0.01710770927748647 0.13853094006731531 0 0.019064338777337181 0.1428366210673169 0 0.018955942675363529 0.12769885014017149 0 0.019064338777337181 0.1428366210673169 0 0.018955942675363529 0.12769885014017149 0 0.022387711081268351 0.13069146168119281 0 0.019064338777337181 0.1428366210673169 0 0.01538181754864224 0.13462442671806851 0 0.014424460637306021 0.13832412831929569 0 0.01710770927748647 0.13853094006731531 0 0.014424460637306021 0.13832412831929569 0 0.01710770927748647 0.13853094006731531 0 0.015363480448823189 0.14129096320990631 0 0.01710770927748647 0.13853094006731531 0 0.017202595513394939 0.14154074390788901 0 0.015363480448823189 0.14129096320990631 0 0.025756287217072099 0.1254558848223972 0 0.025814451866404291 0.1323851931955756 0 0.03312110355781811 0.12828848758869171 0 0.022387711081268351 0.13069146168119281 0 0.025756287217072099 0.1254558848223972 0 0.025814451866404291 0.1323851931955756 0 0.019064338777337181 0.1428366210673169 0 0.01923932509198778 0.16727387202292701 0 0.034840635627581551 0.15270641195697809 0 0.019064338777337181 0.1428366210673169 0 0.01923932509198778 0.16727387202292701 0 0.01710770927748647 0.13853094006731531 0 0.019064338777337181 0.1428366210673169 0 0.017202595513394939 0.14154074390788901 0 0.019064338777337181 0.1428366210673169 0 0.017214352546369539 0.14319546392027949 0 0.017202595513394939 0.14154074390788901 0 0.019064338777337181 0.1428366210673169 0 0.017214352546369539 0.14319546392027949 0 0.017214352546369539 0.14319546392027949 0 0.017202595513394939 0.14154074390788901 0 0.015363480448823189 0.14129096320990631 0 0.019064338777337181 0.1428366210673169 0 0.010573304973877311 0.14810099588445341 0 0.0097219217107780143 0.1605441304936322 0 0.019064338777337181 0.1428366210673169 0 0.017214352546369539 0.14319546392027949 0 0.010573304973877311 0.14810099588445341 0 0.017214352546369539 0.14319546392027949 0 0.015363480448823189 0.14129096320990631 0 0.01311844662929992 0.14341517628664141 0 0.01238480926519909 0.14086949425419931 0 0.015363480448823189 0.14129096320990631 0 0.01311844662929992 0.14341517628664141 0 0.01238480926519909 0.14086949425419931 0 0.01311844662929992 0.14341517628664141 0 0.010056285912230499 0.14361896416436881 0 0.017214352546369539 0.14319546392027949 0 0.01311844662929992 0.14341517628664141 0 0.010573304973877311 0.14810099588445341 0 0.010573304973877311 0.14810099588445341 0 0.010056285912230499 0.14361896416436881 0 0.0052711451322874966 0.14430649706712931 0 0.01311844662929992 0.14341517628664141 0 0.010573304973877311 0.14810099588445341 0 0.010056285912230499 0.14361896416436881 0 0.0087417741184536643 0.13987837293796551 0 0.010056285912230499 0.14361896416436881 0 0.0052711451322874966 0.14430649706712931 0 0.0087417741184536643 0.13987837293796551 0 0.01238480926519909 0.14086949425419931 0 0.010056285912230499 0.14361896416436881 0 0.010573304973877311 0.14810099588445341 0 0.0052711451322874966 0.14430649706712931 0 0.002037105597096525 0.15151695060409001 0 0.0046739851119457828 0.13844047711548191 0 0.0087417741184536643 0.13987837293796551 0 0.0052711451322874966 0.14430649706712931 0 -0.001932496299644968 0.1459540675981712 0 0.0052711451322874966 0.14430649706712931 0 0.002037105597096525 0.15151695060409001 0 -0.001932496299644968 0.1459540675981712 0 0.000228448927285114 0.14012311706009631 0 0.0052711451322874966 0.14430649706712931 0 0.000228448927285114 0.14012311706009631 0 0.0046739851119457828 0.13844047711548191 0 0.0052711451322874966 0.14430649706712931 0 0.010573304973877311 0.14810099588445341 0 0.002037105597096525 0.15151695060409001 0 0.0097219217107780143 0.1605441304936322 0 -0.001399927819642065 0.15853034608675531 0 9.8439874396488518e-06 0.16909653965514321 0 0.0097219217107780143 0.1605441304936322 0 9.8439874396488518e-06 0.16909653965514321 0 0.0097219217107780143 0.1605441304936322 0 0.01923932509198778 0.16727387202292701 0 -0.001399927819642065 0.15853034608675531 0 0.002037105597096525 0.15151695060409001 0 0.0097219217107780143 0.1605441304936322 0 0.0075192663374202447 0.1824792222503463 0 0.01923932509198778 0.16727387202292701 0 0.019414311406637581 0.19171112297853721 0 9.8439874396488518e-06 0.16909653965514321 0 0.0075192663374202447 0.1824792222503463 0 0.01923932509198778 0.16727387202292701 0 -0.0058150648891281392 0.18464487058732859 0 9.8439874396488518e-06 0.16909653965514321 0 0.0075192663374202447 0.1824792222503463 0 0.01923932509198778 0.16727387202292701 0 0.019414311406637581 0.19171112297853721 0 0.01923932509198778 0.16727387202292701 0 0.041253151311174942 0.18351428487242299 0 0.019414311406637581 0.19171112297853721 0 0.019064338777337181 0.1428366210673169 0 0.0097219217107780143 0.1605441304936322 0 0.01923932509198778 0.16727387202292701 0 0.01923932509198778 0.16727387202292701 0 0.045192968381937218 0.16506141320240761 0 0.034840635627581551 0.15270641195697809 0 0.01923932509198778 0.16727387202292701 0 0.045192968381937218 0.16506141320240761 0 0.041253151311174942 0.18351428487242299 0 0.041253151311174942 0.18351428487242299 0 0.056495320393279057 0.1758938039325593 0 0.06399941055398814 0.19765529411200519 0 0.045192968381937218 0.16506141320240761 0 0.041253151311174942 0.18351428487242299 0 0.056495320393279057 0.1758938039325593 0 0.045192968381937218 0.16506141320240761 0 0.058418108920392182 0.16045602069262471 0 0.053913444208845418 0.15009958673064799 0 0.045192968381937218 0.16506141320240761 0 0.056495320393279057 0.1758938039325593 0 0.058418108920392182 0.16045602069262471 0 0.058418108920392182 0.16045602069262471 0 0.053913444208845418 0.15009958673064799 0 0.071039442700249214 0.1514151999732502 0 0.053913444208845418 0.15009958673064799 0 0.044351282800083193 0.13793169854198151 0 0.069638226822829233 0.13302677601664631 0 0.044351282800083193 0.13793169854198151 0 0.069638226822829233 0.13302677601664631 0 0.056785074219297037 0.123962922715022 0 0.045358146108277778 0.122235841909611 0 0.044351282800083193 0.13793169854198151 0 0.056785074219297037 0.123962922715022 0 0.044351282800083193 0.13793169854198151 0 0.069638226822829233 0.13302677601664631 0 0.025814451866404291 0.1323851931955756 0 0.044351282800083193 0.13793169854198151 0 0.03312110355781811 0.12828848758869171 0 0.045358146108277778 0.122235841909611 0 0.044351282800083193 0.13793169854198151 0 0.03312110355781811 0.12828848758869171 0 0.019064338777337181 0.1428366210673169 0 0.044351282800083193 0.13793169854198151 0 0.053913444208845418 0.15009958673064799 0 0.044351282800083193 0.13793169854198151 0 0.034840635627581551 0.15270641195697809 0 0.045192968381937218 0.16506141320240761 0 0.053913444208845418 0.15009958673064799 0 0.034840635627581551 0.15270641195697809 0 0.019064338777337181 0.1428366210673169 0 0.044351282800083193 0.13793169854198151 0 0.034840635627581551 0.15270641195697809 0 0.019733428038529611 0.23627651218177001 0 0.032395297456559217 0.24990448186487541 0 0.01992807415890703 0.26345930130890138 0 0.019733428038529611 0.23627651218177001 0 0.01992807415890703 0.26345930130890138 0 0.019733428038529611 0.23627651218177001 0 0.032900500049065431 0.23758744706011731 0 0.032395297456559217 0.24990448186487541 0 0.019733428038529611 0.23627651218177001 0 0.032900500049065431 0.23758744706011731 0 -0.0054403593235216562 0.23377016940133941 0 0.019733428038529611 0.23627651218177001 0 -0.0054403593235216562 0.23377016940133941 0 0.019733428038529611 0.23627651218177001 0 0.0051881906427589239 0.2429023142665572 0 0.019733428038529611 0.23627651218177001 0 0.0051881906427589239 0.2429023142665572 0 0.0108212759879371 0.25143582124693198 0 -0.004361582131907446 0.25012675423618741 0 0.0051881906427589239 0.2429023142665572 0 0.0108212759879371 0.25143582124693198 0 -0.0054403593235216562 0.23377016940133941 0 0.019733428038529611 0.23627651218177001 0 0.0022205822065663882 0.22338098429998751 0 0.0022205822065663882 0.22338098429998751 0 0.019589297721289551 0.2161483739341474 0 0.019733428038529611 0.23627651218177001 0 0.0022205822065663882 0.22338098429998751 0 0.019589297721289551 0.2161483739341474 0 0.019733428038529611 0.23627651218177001 0 0.019589297721289551 0.2161483739341474 0 0.034101449494264802 0.22244897456428839 0 0.019733428038529611 0.23627651218177001 0 0.019589297721289551 0.2161483739341474 0 0.019733428038529611 0.23627651218177001 0 0.034101449494264802 0.22244897456428839 0 0.032900500049065431 0.23758744706011731 0 0.019589297721289551 0.2161483739341474 0 0.019414311406637581 0.19171112297853721 0 0.041794354137638927 0.20690183402307669 0 0.019589297721289551 0.2161483739341474 0 0.041794354137638927 0.20690183402307669 0 0.019589297721289551 0.2161483739341474 0 0.019414311406637581 0.19171112297853721 0 -0.001618838316679704 0.21186515805952549 0 0.0022205822065663882 0.22338098429998751 0 0.019589297721289551 0.2161483739341474 0 -0.001618838316679704 0.21186515805952549 0 0.019589297721289551 0.2161483739341474 0 0.0047479160901643591 0.19966970600779571 0 0.0075192663374202447 0.1824792222503463 0 0.0047479160901643591 0.19966970600779571 0 0.019414311406637581 0.19171112297853721 0 0.019589297721289551 0.2161483739341474 0 0.0047479160901643591 0.19966970600779571 0 0.019414311406637581 0.19171112297853721 0 -0.0058150648891281392 0.18464487058732859 0 0.0075192663374202447 0.1824792222503463 0 0.0047479160901643591 0.19966970600779571 0 0.041253151311174942 0.18351428487242299 0 0.019414311406637581 0.19171112297853721 0 0.041794354137638927 0.20690183402307669 0 0.041253151311174942 0.18351428487242299 0 0.041794354137638927 0.20690183402307669 0 0.06399941055398814 0.19765529411200519 0 0.041794354137638927 0.20690183402307669 0 0.06399941055398814 0.19765529411200519 0 0.061093413050727782 0.21440081318481749 0 0.041794354137638927 0.20690183402307669 0 0.06399941055398814 0.19765529411200519 0 0.061093413050727782 0.21440081318481749 0 0.041794354137638927 0.20690183402307669 0 0.049967951794046297 0.22590254710105601 0 0.019589297721289551 0.2161483739341474 0 0.041794354137638927 0.20690183402307669 0 0.034101449494264802 0.22244897456428839 0 0.041794354137638927 0.20690183402307669 0 0.034101449494264802 0.22244897456428839 0 0.049967951794046297 0.22590254710105601 0 0.034101449494264802 0.22244897456428839 0 0.049967951794046297 0.22590254710105601 0 0.032900500049065431 0.23758744706011731 0 0.049967951794046297 0.22590254710105601 0 0.049298807743375681 0.24401567068345059 0 0.070152213389441304 0.23042254488525729 0 0.061093413050727782 0.21440081318481749 0 0.049967951794046297 0.22590254710105601 0 0.070152213389441304 0.23042254488525729 0 0.049298807743375681 0.24401567068345059 0 0.032900500049065431 0.23758744706011731 0 0.032395297456559217 0.24990448186487541 0 0.049967951794046297 0.22590254710105601 0 0.049298807743375681 0.24401567068345059 0 0.032900500049065431 0.23758744706011731 0 0.081494970558903312 0.2413152449973858 0 0.068539877812152941 0.25484826761588569 0 0.094153496178737847 0.25278652485753728 0 0.081494970558903312 0.2413152449973858 0 0.092408256837057293 0.22639029288367121 0 0.094153496178737847 0.25278652485753728 0 0.081494970558903312 0.2413152449973858 0 0.070152213389441304 0.23042254488525729 0 0.068539877812152941 0.25484826761588569 0 0.049298807743375681 0.24401567068345059 0 0.070152213389441304 0.23042254488525729 0 0.068539877812152941 0.25484826761588569 0 0.070152213389441304 0.23042254488525729 0 0.079553135378524209 0.21112184580269211 0 0.081494970558903312 0.2413152449973858 0 0.070152213389441304 0.23042254488525729 0 0.092408256837057293 0.22639029288367121 0 0.070152213389441304 0.23042254488525729 0 0.092408256837057293 0.22639029288367121 0 0.079553135378524209 0.21112184580269211 0 0.092408256837057293 0.22639029288367121 0 0.090685729118578778 0.2092827598877062 0 0.079553135378524209 0.21112184580269211 0 0.090685729118578778 0.2092827598877062 0 0.079553135378524209 0.21112184580269211 0 0.088954057367607559 0.19182114672012679 0 0.061093413050727782 0.21440081318481749 0 0.070152213389441304 0.23042254488525729 0 0.079553135378524209 0.21112184580269211 0 0.061093413050727782 0.21440081318481749 0 0.079553135378524209 0.21112184580269211 0 0.06399941055398814 0.19765529411200519 0 0.079553135378524209 0.21112184580269211 0 0.06399941055398814 0.19765529411200519 0 0.086204466970337151 0.18840875420093359 0 0.06399941055398814 0.19765529411200519 0 0.086204466970337151 0.18840875420093359 0 0.079553135378524209 0.21112184580269211 0 0.088954057367607559 0.19182114672012679 0 0.079553135378524209 0.21112184580269211 0 0.086204466970337151 0.18840875420093359 0 0.088954057367607559 0.19182114672012679 0 0.088954057367607559 0.19182114672012679 0 0.091738629482519291 0.1861042405989983 0 0.086204466970337151 0.18840875420093359 0 0.088954057367607559 0.19182114672012679 0 0.091738629482519291 0.1861042405989983 0 0.086204466970337151 0.18840875420093359 0 0.088954057367607559 0.19182114672012679 0 0.10188013338443321 0.1945805347119858 0 0.1223034951297057 0.2015047654836217 0 0.1018274668911264 0.2077977541443348 0 0.090685729118578778 0.2092827598877062 0 0.088954057367607559 0.19182114672012679 0 0.1018274668911264 0.2077977541443348 0 0.088954057367607559 0.19182114672012679 0 0.10188013338443321 0.1945805347119858 0 0.1018274668911264 0.2077977541443348 0 0.088954057367607559 0.19182114672012679 0 0.1018274668911264 0.2077977541443348 0 0.088954057367607559 0.19182114672012679 0 0.10188013338443321 0.1945805347119858 0 0.091738629482519291 0.1861042405989983 0 0.10188013338443321 0.1945805347119858 0 0.1223034951297057 0.2015047654836217 0 0.1143056367611561 0.17670697857169981 0 0.1223034951297057 0.2015047654836217 0 0.1018274668911264 0.2077977541443348 0 0.11470087641464451 0.22377436156854341 0 0.1223034951297057 0.2015047654836217 0 0.11470087641464451 0.22377436156854341 0 0.12985428442346111 0.22473904082679019 0 0.092408256837057293 0.22639029288367121 0 0.090685729118578778 0.2092827598877062 0 0.1018274668911264 0.2077977541443348 0 0.1018274668911264 0.2077977541443348 0 0.11470087641464451 0.22377436156854341 0 0.092408256837057293 0.22639029288367121 0 0.11470087641464451 0.22377436156854341 0 0.1077236677954151 0.23904346403323151 0 0.092408256837057293 0.22639029288367121 0 0.1018274668911264 0.2077977541443348 0 0.11470087641464451 0.22377436156854341 0 0.11470087641464451 0.22377436156854341 0 0.12757428593816261 0.239750968992752 0 0.11470087641464451 0.22377436156854341 0 0.1077236677954151 0.23904346403323151 0 0.12757428593816261 0.239750968992752 0 0.11470087641464451 0.22377436156854341 0 0.12757428593816261 0.239750968992752 0 0.12985428442346111 0.22473904082679019 0 0.1077236677954151 0.23904346403323151 0 0.12757428593816261 0.239750968992752 0 0.1197671145453226 0.2507247820991888 0 0.1077236677954151 0.23904346403323151 0 0.1197671145453226 0.2507247820991888 0 0.094153496178737847 0.25278652485753728 0 0.092408256837057293 0.22639029288367121 0 0.1077236677954151 0.23904346403323151 0 0.094153496178737847 0.25278652485753728 0 0.089241880289002096 0.14489141207420311 0 0.071039442700249214 0.1514151999732502 0 0.087740544640930687 0.16123122417456451 0 0.08262403040743542 0.1174427642681065 0 0.069638226822829233 0.13302677601664631 0 0.094925170845575335 0.12812185349131111 0 0.069638226822829233 0.13302677601664631 0 0.094925170845575335 0.12812185349131111 0 0.089241880289002096 0.14489141207420311 0 0.069638226822829233 0.13302677601664631 0 0.094925170845575335 0.12812185349131111 0 0.053913444208845418 0.15009958673064799 0 0.069638226822829233 0.13302677601664631 0 0.071039442700249214 0.1514151999732502 0 0.089241880289002096 0.14489141207420311 0 0.069638226822829233 0.13302677601664631 0 0.071039442700249214 0.1514151999732502 0 0.058418108920392182 0.16045602069262471 0 0.071039442700249214 0.1514151999732502 0 0.073612962798902823 0.17278200678333611 0 0.071039442700249214 0.1514151999732502 0 0.073612962798902823 0.17278200678333611 0 0.087740544640930687 0.16123122417456451 0 0.056495320393279057 0.1758938039325593 0 0.058418108920392182 0.16045602069262471 0 0.073612962798902823 0.17278200678333611 0 0.06399941055398814 0.19765529411200519 0 0.086204466970337151 0.18840875420093359 0 0.073612962798902823 0.17278200678333611 0 0.056495320393279057 0.1758938039325593 0 0.06399941055398814 0.19765529411200519 0 0.073612962798902823 0.17278200678333611 0 0.086204466970337151 0.18840875420093359 0 0.073612962798902823 0.17278200678333611 0 0.086204466970337151 0.18840875420093359 0 0.073612962798902823 0.17278200678333611 0 0.087615468279621078 0.1760345128920231 0 0.087615468279621078 0.1760345128920231 0 0.091738629482519291 0.1861042405989983 0 0.098780737505415703 0.17164633870228399 0 0.086204466970337151 0.18840875420093359 0 0.087615468279621078 0.1760345128920231 0 0.091738629482519291 0.1861042405989983 0 0.086204466970337151 0.18840875420093359 0 0.091738629482519291 0.1861042405989983 0 0.073612962798902823 0.17278200678333611 0 0.087615468279621078 0.1760345128920231 0 0.087740544640930687 0.16123122417456451 0 0.087615468279621078 0.1760345128920231 0 0.087740544640930687 0.16123122417456451 0 0.098780737505415703 0.17164633870228399 0 0.087740544640930687 0.16123122417456451 0 0.098780737505415703 0.17164633870228399 0 0.10582284552831139 0.15718843680556929 0 0.098780737505415703 0.17164633870228399 0 0.1143056367611561 0.17670697857169981 0 0.11439408025226031 0.1643128731168863 0 0.098780737505415703 0.17164633870228399 0 0.10582284552831139 0.15718843680556929 0 0.11439408025226031 0.1643128731168863 0 0.098780737505415703 0.17164633870228399 0 0.10582284552831139 0.15718843680556929 0 0.091738629482519291 0.1861042405989983 0 0.1143056367611561 0.17670697857169981 0 0.10188013338443321 0.1945805347119858 0 0.091738629482519291 0.1861042405989983 0 0.1143056367611561 0.17670697857169981 0 0.091738629482519291 0.1861042405989983 0 0.098780737505415703 0.17164633870228399 0 0.1143056367611561 0.17670697857169981 0 0.091738629482519291 0.1861042405989983 0 0.098780737505415703 0.17164633870228399 0 0.1223034951297057 0.2015047654836217 0 0.1143056367611561 0.17670697857169981 0 0.12984245568560021 0.18336402612102581 0 0.10582284552831139 0.15718843680556929 0 0.11439408025226031 0.1643128731168863 0 0.118827144549028 0.15045938834785799 0 0.1143056367611561 0.17670697857169981 0 0.11439408025226031 0.1643128731168863 0 0.1269873440417035 0.1621457976822499 0 0.11439408025226031 0.1643128731168863 0 0.118827144549028 0.15045938834785799 0 0.1269873440417035 0.1621457976822499 0 0.10582284552831139 0.15718843680556929 0 0.118827144549028 0.15045938834785799 0 0.1060715668831175 0.14085190817348309 0 0.118827144549028 0.15045938834785799 0 0.1060715668831175 0.14085190817348309 0 0.12165438094055341 0.1382202250837688 0 0.089241880289002096 0.14489141207420311 0 0.10582284552831139 0.15718843680556929 0 0.1060715668831175 0.14085190817348309 0 0.089241880289002096 0.14489141207420311 0 0.087740544640930687 0.16123122417456451 0 0.10582284552831139 0.15718843680556929 0 0.1060715668831175 0.14085190817348309 0 0.094925170845575335 0.12812185349131111 0 0.11184177323789279 0.12866158262702601 0 0.10718004060487731 0.1186919078288297 0 0.094925170845575335 0.12812185349131111 0 0.11184177323789279 0.12866158262702601 0 0.089241880289002096 0.14489141207420311 0 0.1060715668831175 0.14085190817348309 0 0.094925170845575335 0.12812185349131111 0 0.11184177323789279 0.12866158262702601 0 0.12165438094055341 0.1382202250837688 0 0.12877089149896251 0.12628235461406201 0 0.1060715668831175 0.14085190817348309 0 0.11184177323789279 0.12866158262702601 0 0.12165438094055341 0.1382202250837688 0 0.12877089149896251 0.12628235461406201 0 0.13720160688724839 0.13964518263404729 0 0.14559099576285081 0.1211645137464301 0 0.12165438094055341 0.1382202250837688 0 0.13720160688724839 0.13964518263404729 0 0.12165438094055341 0.1382202250837688 0 0.12877089149896251 0.12628235461406201 0 0.13720160688724839 0.13964518263404729 0 0.13720160688724839 0.13964518263404729 0 0.15632661280319129 0.13068902382275449 0 0.14559099576285081 0.1211645137464301 0 0.13720160688724839 0.13964518263404729 0 0.14559099576285081 0.1211645137464301 0 0.13720160688724839 0.13964518263404729 0 0.15632661280319129 0.13068902382275449 0 0.16429194695006341 0.14212810690262639 0 0.13720160688724839 0.13964518263404729 0 0.16429194695006341 0.14212810690262639 0 0.13720160688724839 0.13964518263404729 0 0.14941591407077959 0.14904867938194569 0 0.13673045112737631 0.1565089734740045 0 0.13720160688724839 0.13964518263404729 0 0.14941591407077959 0.14904867938194569 0 0.16429194695006341 0.14212810690262639 0 0.14941591407077959 0.14904867938194569 0 0.13673045112737631 0.1565089734740045 0 0.15943965131843141 0.15791245451710681 0 0.118827144549028 0.15045938834785799 0 0.13720160688724839 0.13964518263404729 0 0.1269873440417035 0.1621457976822499 0 0.13720160688724839 0.13964518263404729 0 0.1269873440417035 0.1621457976822499 0 0.13720160688724839 0.13964518263404729 0 0.1269873440417035 0.1621457976822499 0 0.13673045112737631 0.1565089734740045 0 0.118827144549028 0.15045938834785799 0 0.12165438094055341 0.1382202250837688 0 0.13720160688724839 0.13964518263404729 0 0.1143056367611561 0.17670697857169981 0 0.1269873440417035 0.1621457976822499 0 0.1368726440397933 0.1673097165444021 0 0.1269873440417035 0.1621457976822499 0 0.1368726440397933 0.1673097165444021 0 0.13673045112737631 0.1565089734740045 0 0.1143056367611561 0.17670697857169981 0 0.1368726440397933 0.1673097165444021 0 0.12984245568560021 0.18336402612102581 0 0.1143056367611561 0.17670697857169981 0 0.1368726440397933 0.1673097165444021 0 0.1368726440397933 0.1673097165444021 0 0.12984245568560021 0.18336402612102581 0 0.14395995749662011 0.19046676877908139 0 0.1368726440397933 0.1673097165444021 0 0.1557014301669345 0.17418450516490519 0 0.14395995749662011 0.19046676877908139 0 0.13673045112737631 0.1565089734740045 0 0.15943965131843141 0.15791245451710681 0 0.1368726440397933 0.1673097165444021 0 0.15943965131843141 0.15791245451710681 0 0.1368726440397933 0.1673097165444021 0 0.1557014301669345 0.17418450516490519 0 0.15943965131843141 0.15791245451710681 0 0.1368726440397933 0.1673097165444021 0 0.13673045112737631 0.1565089734740045 0 0.15943965131843141 0.15791245451710681 0 0.1557014301669345 0.17418450516490519 0 0.15943965131843141 0.15791245451710681 0 0.16838221510295989 0.1692040805085635 0 0.15943965131843141 0.15791245451710681 0 0.16838221510295989 0.1692040805085635 0 0.17970147406593759 0.15916468197935521 0 0.15943965131843141 0.15791245451710681 0 0.17970147406593759 0.15916468197935521 0 0.1557014301669345 0.17418450516490519 0 0.16985268287686869 0.18602950547537461 0 0.14395995749662011 0.19046676877908139 0 0.1557014301669345 0.17418450516490519 0 0.16838221510295989 0.1692040805085635 0 0.16985268287686869 0.18602950547537461 0 0.16985268287686869 0.18602950547537461 0 0.17776577537378679 0.1717491724038096 0 0.19009851561998109 0.17546705170333859 0 0.16985268287686869 0.18602950547537461 0 0.1921007491770006 0.19413511782623061 0 0.19009851561998109 0.17546705170333859 0 0.16838221510295989 0.1692040805085635 0 0.16985268287686869 0.18602950547537461 0 0.17776577537378679 0.1717491724038096 0 0.17776577537378679 0.1717491724038096 0 0.17970147406593759 0.15916468197935521 0 0.19009851561998109 0.17546705170333859 0 0.16838221510295989 0.1692040805085635 0 0.17776577537378679 0.1717491724038096 0 0.17970147406593759 0.15916468197935521 0 0.17970147406593759 0.15916468197935521 0 0.17541096916565421 0.151261742844153 0 0.19138228701287849 0.14461103117120311 0 0.17541096916565421 0.151261742844153 0 0.19138228701287849 0.14461103117120311 0 0.17541096916565421 0.151261742844153 0 0.16429194695006341 0.14212810690262639 0 0.19138228701287849 0.14461103117120311 0 0.16429194695006341 0.14212810690262639 0 0.19138228701287849 0.14461103117120311 0 0.1826996939178501 0.134395064982826 0 0.17014020092281509 0.1303647164313487 0 0.16429194695006341 0.14212810690262639 0 0.1826996939178501 0.134395064982826 0 0.16429194695006341 0.14212810690262639 0 0.19138228701287849 0.14461103117120311 0 0.1826996939178501 0.134395064982826 0 0.19400001601888209 0.1301444430180784 0 0.18282874988353909 0.12176719670840121 0 0.1826996939178501 0.134395064982826 0 0.17014020092281509 0.1303647164313487 0 0.18282874988353909 0.12176719670840121 0 0.17014020092281509 0.1303647164313487 0 0.15632661280319129 0.13068902382275449 0 0.1644083134929788 0.12014259939932 0 0.17014020092281509 0.1303647164313487 0 0.15632661280319129 0.13068902382275449 0 0.16429194695006341 0.14212810690262639 0 0.14941591407077959 0.14904867938194569 0 0.15943965131843141 0.15791245451710681 0 0.16429194695006341 0.14212810690262639 0 0.15943965131843141 0.15791245451710681 0 0.17970147406593759 0.15916468197935521 0 0.17541096916565421 0.151261742844153 0 0.15943965131843141 0.15791245451710681 0 0.17541096916565421 0.151261742844153 0 0.15943965131843141 0.15791245451710681 0 0.17541096916565421 0.151261742844153 0 0.16429194695006341 0.14212810690262639 0 0.15269041899089261 0.24018887904249059 0 0.1453807329119074 0.24866303934084041 0 0.15466915334416509 0.25190660019890743 0 0.15269041899089261 0.24018887904249059 0 0.1453807329119074 0.24866303934084041 0 0.14060451702156199 0.2357308345711725 0 0.1453807329119074 0.24866303934084041 0 0.12757428593816261 0.239750968992752 0 0.14060451702156199 0.2357308345711725 0 0.1453807329119074 0.24866303934084041 0 0.1197671145453226 0.2507247820991888 0 0.1453807329119074 0.24866303934084041 0 0.12757428593816261 0.239750968992752 0 0.1197671145453226 0.2507247820991888 0 0.14060451702156199 0.2357308345711725 0 0.12985428442346111 0.22473904082679019 0 0.14752286284338639 0.22531224465298941 0 0.12985428442346111 0.22473904082679019 0 0.14752286284338639 0.22531224465298941 0 0.1398831682024731 0.2101323370399282 0 0.12757428593816261 0.239750968992752 0 0.14060451702156199 0.2357308345711725 0 0.12985428442346111 0.22473904082679019 0 0.15269041899089261 0.24018887904249059 0 0.14752286284338639 0.22531224465298941 0 0.16513181717874489 0.22933158445530699 0 0.14752286284338639 0.22531224465298941 0 0.155775241119192 0.20863886545715829 0 0.16513181717874489 0.22933158445530699 0 0.15269041899089261 0.24018887904249059 0 0.14060451702156199 0.2357308345711725 0 0.14752286284338639 0.22531224465298941 0 0.14752286284338639 0.22531224465298941 0 0.155775241119192 0.20863886545715829 0 0.1398831682024731 0.2101323370399282 0 0.1223034951297057 0.2015047654836217 0 0.12985428442346111 0.22473904082679019 0 0.1398831682024731 0.2101323370399282 0 0.1223034951297057 0.2015047654836217 0 0.12984245568560021 0.18336402612102581 0 0.14395995749662011 0.19046676877908139 0 0.1223034951297057 0.2015047654836217 0 0.1398831682024731 0.2101323370399282 0 0.14395995749662011 0.19046676877908139 0 0.155775241119192 0.20863886545715829 0 0.1398831682024731 0.2101323370399282 0 0.14395995749662011 0.19046676877908139 0 0.16985268287686869 0.18602950547537461 0 0.155775241119192 0.20863886545715829 0 0.17615578699577941 0.211297655888005 0 0.16985268287686869 0.18602950547537461 0 0.155775241119192 0.20863886545715829 0 0.14395995749662011 0.19046676877908139 0 0.16985268287686869 0.18602950547537461 0 0.17615578699577941 0.211297655888005 0 0.1921007491770006 0.19413511782623061 0 0.155775241119192 0.20863886545715829 0 0.17615578699577941 0.211297655888005 0 0.16513181717874489 0.22933158445530699 0 0.17615578699577941 0.211297655888005 0 0.1832321526603185 0.22988712241990911 0 0.19922996910836269 0.2206298732412626 0 0.17615578699577941 0.211297655888005 0 0.16513181717874489 0.22933158445530699 0 0.1832321526603185 0.22988712241990911 0 0.1832321526603185 0.22988712241990911 0 0.17921266192405369 0.24485401564359771 0 0.19643052809465181 0.2433224828713732 0 0.16513181717874489 0.22933158445530699 0 0.1832321526603185 0.22988712241990911 0 0.17921266192405369 0.24485401564359771 0 0.17921266192405369 0.24485401564359771 0 0.19643052809465181 0.2433224828713732 0 0.18608903078984079 0.25995697105729071 0 0.17921266192405369 0.24485401564359771 0 0.1648484701696567 0.24744362212440471 0 0.17332134199895571 0.25758983019522791 0 0.15269041899089261 0.24018887904249059 0 0.16513181717874489 0.22933158445530699 0 0.1648484701696567 0.24744362212440471 0 0.16513181717874489 0.22933158445530699 0 0.17921266192405369 0.24485401564359771 0 0.1648484701696567 0.24744362212440471 0 0.15269041899089261 0.24018887904249059 0 0.1648484701696567 0.24744362212440471 0 0.15466915334416509 0.25190660019890743 0 0.21227379049082179 0.2367256787841478 0 0.19643052809465181 0.2433224828713732 0 0.21668623523937189 0.25273648673926968 0 0.21227379049082179 0.2367256787841478 0 0.19643052809465181 0.2433224828713732 0 0.19922996910836269 0.2206298732412626 0 0.1832321526603185 0.22988712241990911 0 0.19643052809465181 0.2433224828713732 0 0.19922996910836269 0.2206298732412626 0 0.21227379049082179 0.2367256787841478 0 0.19922996910836269 0.2206298732412626 0 0.219709047837161 0.22243828454522341 0 0.19922996910836269 0.2206298732412626 0 0.21843520523288221 0.2053181895842969 0 0.1921007491770006 0.19413511782623061 0 0.19922996910836269 0.2206298732412626 0 0.21843520523288221 0.2053181895842969 0 0.219709047837161 0.22243828454522341 0 0.17615578699577941 0.211297655888005 0 0.19922996910836269 0.2206298732412626 0 0.1921007491770006 0.19413511782623061 0 0.21843520523288221 0.2053181895842969 0 0.1921007491770006 0.19413511782623061 0 0.21508853132578909 0.18630480878971589 0 0.21843520523288221 0.2053181895842969 0 0.1921007491770006 0.19413511782623061 0 0.21843520523288221 0.2053181895842969 0 0.23255597692269961 0.1986700960591046 0 0.21508853132578909 0.18630480878971589 0 0.23255597692269961 0.1986700960591046 0 0.21508853132578909 0.18630480878971589 0 0.23658713197922801 0.1849604865578777 0 0.23255597692269961 0.1986700960591046 0 0.24443808169503289 0.19165573435540739 0 0.23658713197922801 0.1849604865578777 0 0.24443808169503289 0.19165573435540739 0 0.2445919001722652 0.2027793092260104 0 0.25672659357731442 0.18931439154619459 0 0.23255597692269961 0.1986700960591046 0 0.24443808169503289 0.19165573435540739 0 0.2445919001722652 0.2027793092260104 0 0.2445919001722652 0.2027793092260104 0 0.2447696612887639 0.21650126134236319 0 0.26045320274891359 0.2075872277184421 0 0.23255597692269961 0.1986700960591046 0 0.2445919001722652 0.2027793092260104 0 0.2447696612887639 0.21650126134236319 0 0.21843520523288221 0.2053181895842969 0 0.2447696612887639 0.21650126134236319 0 0.21843520523288221 0.2053181895842969 0 0.2447696612887639 0.21650126134236319 0 0.2325803478497725 0.22060216126394189 0 0.21843520523288221 0.2053181895842969 0 0.219709047837161 0.22243828454522341 0 0.2325803478497725 0.22060216126394189 0 0.21843520523288221 0.2053181895842969 0 0.23255597692269961 0.1986700960591046 0 0.2447696612887639 0.21650126134236319 0 0.219709047837161 0.22243828454522341 0 0.2325803478497725 0.22060216126394189 0 0.2358022310961575 0.23066856374322481 0 0.21227379049082179 0.2367256787841478 0 0.219709047837161 0.22243828454522341 0 0.2358022310961575 0.23066856374322481 0 0.2325803478497725 0.22060216126394189 0 0.24210869832250451 0.2249280049623063 0 0.2358022310961575 0.23066856374322481 0 0.2447696612887639 0.21650126134236319 0 0.2325803478497725 0.22060216126394189 0 0.24210869832250451 0.2249280049623063 0 0.2447696612887639 0.21650126134236319 0 0.24210869832250451 0.2249280049623063 0 0.24965972363503919 0.22122943443424911 0 0.24210869832250451 0.2249280049623063 0 0.24965972363503919 0.22122943443424911 0 0.2477315277427897 0.2356386040277525 0 0.24210869832250451 0.2249280049623063 0 0.2358022310961575 0.23066856374322481 0 0.2477315277427897 0.2356386040277525 0 0.2477315277427897 0.2356386040277525 0 0.24791323415382371 0.2458877298954085 0 0.23190300684591059 0.2469757189771403 0 0.2358022310961575 0.23066856374322481 0 0.2477315277427897 0.2356386040277525 0 0.23190300684591059 0.2469757189771403 0 0.21227379049082179 0.2367256787841478 0 0.23190300684591059 0.2469757189771403 0 0.21227379049082179 0.2367256787841478 0 0.23190300684591059 0.2469757189771403 0 0.21668623523937189 0.25273648673926968 0 0.21227379049082179 0.2367256787841478 0 0.2358022310961575 0.23066856374322481 0 0.23190300684591059 0.2469757189771403 0 0.20748271977021249 0.138902265540051 0 0.1939758213121906 0.1435310420930529 0 0.2197013820994709 0.14720657512863261 0 0.19138228701287849 0.14461103117120311 0 0.19996329681344399 0.160416909441601 0 0.2197013820994709 0.14720657512863261 0 0.19138228701287849 0.14461103117120311 0 0.2197013820994709 0.14720657512863261 0 0.2166933327952508 0.13146831334115849 0 0.20748271977021249 0.138902265540051 0 0.2197013820994709 0.14720657512863261 0 0.2166933327952508 0.13146831334115849 0 0.20603233854846789 0.12643210165642249 0 0.20748271977021249 0.138902265540051 0 0.20603233854846789 0.12643210165642249 0 0.20748271977021249 0.138902265540051 0 0.1992161984030385 0.13597632749908109 0 0.20748271977021249 0.138902265540051 0 0.1992161984030385 0.13597632749908109 0 0.1939758213121906 0.1435310420930529 0 0.20603233854846789 0.12643210165642249 0 0.1992161984030385 0.13597632749908109 0 0.19400001601888209 0.1301444430180784 0 0.20603233854846789 0.12643210165642249 0 0.19400001601888209 0.1301444430180784 0 0.19603586944622961 0.11914225126713909 0 0.1826996939178501 0.134395064982826 0 0.19400001601888209 0.1301444430180784 0 0.19225480333296779 0.137731581752848 0 0.1826996939178501 0.134395064982826 0 0.19225480333296779 0.137731581752848 0 0.19138228701287849 0.14461103117120311 0 0.1992161984030385 0.13597632749908109 0 0.19225480333296779 0.137731581752848 0 0.1939758213121906 0.1435310420930529 0 0.1992161984030385 0.13597632749908109 0 0.19400001601888209 0.1301444430180784 0 0.19225480333296779 0.137731581752848 0 0.17970147406593759 0.15916468197935521 0 0.19138228701287849 0.14461103117120311 0 0.19996329681344399 0.160416909441601 0 0.19138228701287849 0.14461103117120311 0 0.1939758213121906 0.1435310420930529 0 0.2197013820994709 0.14720657512863261 0 0.19225480333296779 0.137731581752848 0 0.19138228701287849 0.14461103117120311 0 0.1939758213121906 0.1435310420930529 0 0.19138228701287849 0.14461103117120311 0 0.1939758213121906 0.1435310420930529 0 0.17970147406593759 0.15916468197935521 0 0.19996329681344399 0.160416909441601 0 0.19009851561998109 0.17546705170333859 0 0.19996329681344399 0.160416909441601 0 0.19009851561998109 0.17546705170333859 0 0.20950303158443601 0.17060862998040069 0 0.17970147406593759 0.15916468197935521 0 0.19996329681344399 0.160416909441601 0 0.1921007491770006 0.19413511782623061 0 0.19009851561998109 0.17546705170333859 0 0.21508853132578909 0.18630480878971589 0 0.19009851561998109 0.17546705170333859 0 0.21508853132578909 0.18630480878971589 0 0.20950303158443601 0.17060862998040069 0 0.21508853132578909 0.18630480878971589 0 0.20950303158443601 0.17060862998040069 0 0.2262564526410854 0.1725101510884221 0 0.19996329681344399 0.160416909441601 0 0.22022511956095039 0.16166913690384679 0 0.2197013820994709 0.14720657512863261 0 0.19996329681344399 0.160416909441601 0 0.22022511956095039 0.16166913690384679 0 0.20950303158443601 0.17060862998040069 0 0.22022511956095039 0.16166913690384679 0 0.2262564526410854 0.1725101510884221 0 0.19996329681344399 0.160416909441601 0 0.20950303158443601 0.17060862998040069 0 0.22022511956095039 0.16166913690384679 0 0.22022511956095039 0.16166913690384679 0 0.23219216216083469 0.16070882341124321 0 0.2197013820994709 0.14720657512863261 0 0.23219216216083469 0.16070882341124321 0 0.2262564526410854 0.1725101510884221 0 0.24394273923527451 0.1708090208874482 0 0.22022511956095039 0.16166913690384679 0 0.23219216216083469 0.16070882341124321 0 0.2262564526410854 0.1725101510884221 0 0.21508853132578909 0.18630480878971589 0 0.2262564526410854 0.1725101510884221 0 0.23658713197922801 0.1849604865578777 0 0.2262564526410854 0.1725101510884221 0 0.23658713197922801 0.1849604865578777 0 0.24394273923527451 0.1708090208874482 0 0.23658713197922801 0.1849604865578777 0 0.24394273923527451 0.1708090208874482 0 0.25069145747160237 0.17986975870422739 0 0.24443808169503289 0.19165573435540739 0 0.23658713197922801 0.1849604865578777 0 0.25069145747160237 0.17986975870422739 0 0.23219216216083469 0.16070882341124321 0 0.24394273923527451 0.1708090208874482 0 0.24802047718606329 0.14980211908606039 0 0.24802047718606329 0.14980211908606039 0 0.2197013820994709 0.14720657512863261 0 0.23748423865396681 0.1372069433891186 0 0.24802047718606329 0.14980211908606039 0 0.23748423865396681 0.1372069433891186 0 0.23219216216083469 0.16070882341124321 0 0.24802047718606329 0.14980211908606039 0 0.2197013820994709 0.14720657512863261 0 0.24802047718606329 0.14980211908606039 0 0.2197013820994709 0.14720657512863261 0 0.2166933327952508 0.13146831334115849 0 0.23748423865396681 0.1372069433891186 0 0.2269480001218708 0.1246117676921763 0 0.2166933327952508 0.13146831334115849 0 0.2197013820994709 0.14720657512863261 0 0.23748423865396681 0.1372069433891186 0 0.23748423865396681 0.1372069433891186 0 0.2269480001218708 0.1246117676921763 0 0.23748423865396681 0.1372069433891186 0 0.23787758618680691 0.12376630322824581 0 0.2269480001218708 0.1246117676921763 0 0.24802047718606329 0.14980211908606039 0 0.23748423865396681 0.1372069433891186 0 0.25370366287882878 0.1241816415692342 0 0.23748423865396681 0.1372069433891186 0 0.23787758618680691 0.12376630322824581 0 0.25370366287882878 0.1241816415692342 0 0.24537668551697431 0.097277083683747018 0 0.23337444309256139 0.1090648602624541 0 0.25370366287882878 0.1241816415692342 0 0.24537668551697431 0.097277083683747018 0 0.25370366287882878 0.1241816415692342 0 0.23787758618680691 0.12376630322824581 0 0.23337444309256139 0.1090648602624541 0 0.25370366287882878 0.1241816415692342 0 0.24537668551697431 0.097277083683747018 0 0.23337444309256139 0.1090648602624541 0 0.22484289426170589 0.086614640480542404 0 0.23337444309256139 0.1090648602624541 0 0.21826071202707401 0.1016769895838342 0 0.22484289426170589 0.086614640480542404 0 0.23337444309256139 0.1090648602624541 0 0.21899261390952071 0.1157063141952675 0 0.21826071202707401 0.1016769895838342 0 0.2166933327952508 0.13146831334115849 0 0.2269480001218708 0.1246117676921763 0 0.21899261390952071 0.1157063141952675 0 0.23787758618680691 0.12376630322824581 0 0.23337444309256139 0.1090648602624541 0 0.2269480001218708 0.1246117676921763 0 0.23337444309256139 0.1090648602624541 0 0.2269480001218708 0.1246117676921763 0 0.21899261390952071 0.1157063141952675 0 0.20603233854846789 0.12643210165642249 0 0.21899261390952071 0.1157063141952675 0 0.20619401079708341 0.1103047766005421 0 0.2166933327952508 0.13146831334115849 0 0.20603233854846789 0.12643210165642249 0 0.21899261390952071 0.1157063141952675 0 0.20619401079708341 0.1103047766005421 0 0.20469956129863859 0.094216075576966402 0 0.21826071202707401 0.1016769895838342 0 0.21899261390952071 0.1157063141952675 0 0.20619401079708341 0.1103047766005421 0 0.21826071202707401 0.1016769895838342 0 0.20469956129863859 0.094216075576966402 0 0.21826071202707401 0.1016769895838342 0 0.22484289426170589 0.086614640480542404 0 0.20469956129863859 0.094216075576966402 0 0.1920226837756919 0.1062731432897658 0 0.18562998291260069 0.083724599791867624 0 0.20619401079708341 0.1103047766005421 0 0.20469956129863859 0.094216075576966402 0 0.1920226837756919 0.1062731432897658 0 0.1920226837756919 0.1062731432897658 0 0.19603586944622961 0.11914225126713909 0 0.18282874988353909 0.12176719670840121 0 0.20603233854846789 0.12643210165642249 0 0.20619401079708341 0.1103047766005421 0 0.19603586944622961 0.11914225126713909 0 0.19400001601888209 0.1301444430180784 0 0.19603586944622961 0.11914225126713909 0 0.18282874988353909 0.12176719670840121 0 0.20619401079708341 0.1103047766005421 0 0.1920226837756919 0.1062731432897658 0 0.19603586944622961 0.11914225126713909 0 0.19477888427106471 0.068028226971776184 0 0.20783404156105389 0.078077887697304768 0 0.18562998291260069 0.083724599791867624 0 0.20469956129863859 0.094216075576966402 0 0.20783404156105389 0.078077887697304768 0 0.18562998291260069 0.083724599791867624 0 0.20469956129863859 0.094216075576966402 0 0.20783404156105389 0.078077887697304768 0 0.22484289426170589 0.086614640480542404 0 0.20783404156105389 0.078077887697304768 0 0.2213202312424721 0.066581526905057059 0 0.20805697342917059 0.059178341543759817 0 0.20783404156105389 0.078077887697304768 0 0.2213202312424721 0.066581526905057059 0 0.22484289426170589 0.086614640480542404 0 0.19477888427106471 0.068028226971776184 0 0.20783404156105389 0.078077887697304768 0 0.20805697342917059 0.059178341543759817 0 0.2213202312424721 0.066581526905057059 0 0.23704970815511969 0.070372525798259866 0 0.2300545306497668 0.055557326715756347 0 0.2213202312424721 0.066581526905057059 0 0.22484289426170589 0.086614640480542404 0 0.23704970815511969 0.070372525798259866 0 0.24537668551697431 0.097277083683747018 0 0.22484289426170589 0.086614640480542404 0 0.23704970815511969 0.070372525798259866 0 0.24537668551697431 0.097277083683747018 0 0.23704970815511969 0.070372525798259866 0 0.25923100858263742 0.079351551944828513 0 0.24537668551697431 0.097277083683747018 0 0.23704970815511969 0.070372525798259866 0 0.23704970815511969 0.070372525798259866 0 0.24612717135886061 0.053158967820149818 0 0.25923100858263742 0.079351551944828513 0 0.23704970815511969 0.070372525798259866 0 0.24612717135886061 0.053158967820149818 0 0.2300545306497668 0.055557326715756347 0 0.24612717135886061 0.053158967820149818 0 0.22874243829254329 0.043439904086905012 0 0.2300545306497668 0.055557326715756347 0 0.24612717135886061 0.053158967820149818 0 0.24915942417082321 0.043562136642382059 0 0.25194780840825542 0.047502886957762752 0 0.24612717135886061 0.053158967820149818 0 0.2330233341350838 0.026966383695471149 0 0.24915942417082321 0.043562136642382059 0 0.24442705739527931 0.034620488068712277 0 0.25585841565974538 0.042233258010133973 0 0.24442705739527931 0.034620488068712277 0 0.2489069739425 0.021637400389674748 0 0.25585841565974538 0.042233258010133973 0 0.24612717135886061 0.053158967820149818 0 0.24442705739527931 0.034620488068712277 0 0.2330233341350838 0.026966383695471149 0 0.24612717135886061 0.053158967820149818 0 0.24915942417082321 0.043562136642382059 0 0.24442705739527931 0.034620488068712277 0 0.24612717135886061 0.053158967820149818 0 0.22874243829254329 0.043439904086905012 0 0.2330233341350838 0.026966383695471149 0 0.22874243829254329 0.043439904086905012 0 0.2330233341350838 0.026966383695471149 0 0.21578861999574539 0.032179983081358873 0 0.22874243829254329 0.043439904086905012 0 0.21871853532325961 0.049336859121788867 0 0.21578861999574539 0.032179983081358873 0 0.22874243829254329 0.043439904086905012 0 0.2300545306497668 0.055557326715756347 0 0.21871853532325961 0.049336859121788867 0 0.2213202312424721 0.066581526905057059 0 0.2300545306497668 0.055557326715756347 0 0.21871853532325961 0.049336859121788867 0 0.2489069739425 0.021637400389674748 0 0.2403210271001277 -0.0038011986657945939 0 0.2489069739425 0.021637400389674748 0 0.25900523844679291 0.0090906536209348996 0 0.2403210271001277 -0.0038011986657945939 0 0.23441323542690259 0.011205599980234709 0 0.2489069739425 0.021637400389674748 0 0.2403210271001277 -0.0038011986657945939 0 0.23441323542690259 0.011205599980234709 0 0.24019265022494121 0.023607468033523541 0 0.2330233341350838 0.026966383695471149 0 0.23441323542690259 0.011205599980234709 0 0.2489069739425 0.021637400389674748 0 0.23441323542690259 0.011205599980234709 0 0.2489069739425 0.021637400389674748 0 0.24019265022494121 0.023607468033523541 0 0.24442705739527931 0.034620488068712277 0 0.2489069739425 0.021637400389674748 0 0.24019265022494121 0.023607468033523541 0 0.24442705739527931 0.034620488068712277 0 0.24019265022494121 0.023607468033523541 0 0.2330233341350838 0.026966383695471149 0 0.2330233341350838 0.026966383695471149 0 0.2171386306806895 0.017395263111216398 0 0.21578861999574539 0.032179983081358873 0 0.23441323542690259 0.011205599980234709 0 0.2330233341350838 0.026966383695471149 0 0.21991949691130641 0.00077379957079282309 0 0.2330233341350838 0.026966383695471149 0 0.21991949691130641 0.00077379957079282309 0 0.2171386306806895 0.017395263111216398 0 0.2330233341350838 0.026966383695471149 0 0.21991949691130641 0.00077379957079282309 0 0.23441323542690259 0.011205599980234709 0 0.21991949691130641 0.00077379957079282309 0 0.2403210271001277 -0.0038011986657945939 0 0.23441323542690259 0.011205599980234709 0 0.21991949691130641 0.00077379957079282309 0 0.21991949691130641 0.00077379957079282309 0 0.21233724185039379 0.0083260795074358591 0 0.2171386306806895 0.017395263111216398 0 0.1913914811785945 0.0015479160267864781 0 0.21709144706251299 -0.0012616760615819459 0 0.21233724185039379 0.0083260795074358591 0 0.1913914811785945 0.0015479160267864781 0 0.21709144706251299 -0.0012616760615819459 0 0.21991949691130641 0.00077379957079282309 0 0.21233724185039379 0.0083260795074358591 0 0.21709144706251299 -0.0012616760615819459 0 0.21233724185039379 0.0083260795074358591 0 0.20462446051091829 0.018730069701022731 0 0.2171386306806895 0.017395263111216398 0 0.20462446051091829 0.018730069701022731 0 0.21578861999574539 0.032179983081358873 0 0.19600975553610309 0.033109727657073172 0 0.20462446051091829 0.018730069701022731 0 0.2171386306806895 0.017395263111216398 0 0.21578861999574539 0.032179983081358873 0 0.20462446051091829 0.018730069701022731 0 0.18949896143577891 0.016667400663256809 0 0.19600975553610309 0.033109727657073172 0 0.18949896143577891 0.016667400663256809 0 0.19600975553610309 0.033109727657073172 0 0.17707217964719771 0.025267716345226881 0 0.20462446051091829 0.018730069701022731 0 0.18949896143577891 0.016667400663256809 0 0.1913914811785945 0.0015479160267864781 0 0.21233724185039379 0.0083260795074358591 0 0.20462446051091829 0.018730069701022731 0 0.1913914811785945 0.0015479160267864781 0 0.2213202312424721 0.066581526905057059 0 0.20805697342917059 0.059178341543759817 0 0.21871853532325961 0.049336859121788867 0 0.20805697342917059 0.059178341543759817 0 0.2071731341036451 0.043988411023532258 0 0.1951942265281848 0.052365244609145413 0 0.20805697342917059 0.059178341543759817 0 0.21871853532325961 0.049336859121788867 0 0.2071731341036451 0.043988411023532258 0 0.21578861999574539 0.032179983081358873 0 0.2071731341036451 0.043988411023532258 0 0.19600975553610309 0.033109727657073172 0 0.21871853532325961 0.049336859121788867 0 0.21578861999574539 0.032179983081358873 0 0.2071731341036451 0.043988411023532258 0 0.19600975553610309 0.033109727657073172 0 0.1951942265281848 0.052365244609145413 0 0.18205947828297289 0.04260924739081328 0 0.2071731341036451 0.043988411023532258 0 0.19600975553610309 0.033109727657073172 0 0.1951942265281848 0.052365244609145413 0 0.19477888427106471 0.068028226971776184 0 0.20805697342917059 0.059178341543759817 0 0.1951942265281848 0.052365244609145413 0 0.19477888427106471 0.068028226971776184 0 0.1951942265281848 0.052365244609145413 0 0.1764837945120816 0.061910742511003793 0 0.1951942265281848 0.052365244609145413 0 0.1764837945120816 0.061910742511003793 0 0.18205947828297289 0.04260924739081328 0 0.1764837945120816 0.061910742511003793 0 0.18205947828297289 0.04260924739081328 0 0.16553743519129729 0.040392805831617133 0 0.18205947828297289 0.04260924739081328 0 0.16553743519129729 0.040392805831617133 0 0.17707217964719771 0.025267716345226881 0 0.19600975553610309 0.033109727657073172 0 0.18205947828297289 0.04260924739081328 0 0.17707217964719771 0.025267716345226881 0 0.16553743519129729 0.040392805831617133 0 0.1613139894326964 0.024121653580078981 0 0.1482006011997502 0.031747138067586222 0 0.1764837945120816 0.061910742511003793 0 0.16553743519129729 0.040392805831617133 0 0.15002216982279071 0.058334232048501217 0 0.177795833794237 0.0058736288592868176 0 0.17707217964719771 0.025267716345226881 0 0.16471785852727919 0.01090484445761932 0 0.18949896143577891 0.016667400663256809 0 0.1913914811785945 0.0015479160267864781 0 0.177795833794237 0.0058736288592868176 0 0.18949896143577891 0.016667400663256809 0 0.177795833794237 0.0058736288592868176 0 0.17707217964719771 0.025267716345226881 0 0.16553743519129729 0.040392805831617133 0 0.17707217964719771 0.025267716345226881 0 0.1613139894326964 0.024121653580078981 0 0.17707217964719771 0.025267716345226881 0 0.1613139894326964 0.024121653580078981 0 0.16471785852727919 0.01090484445761932 0 0.1613139894326964 0.024121653580078981 0 0.16471785852727919 0.01090484445761932 0 0.1510418725979574 0.012295763198345371 0 0.16471785852727919 0.01090484445761932 0 0.15628357420278671 0.003810722324721363 0 0.1510418725979574 0.012295763198345371 0 0.16471785852727919 0.01090484445761932 0 0.15628357420278671 0.003810722324721363 0 0.16638725000284621 -0.0041024332455818144 0 0.177795833794237 0.0058736288592868176 0 0.16471785852727919 0.01090484445761932 0 0.16638725000284621 -0.0041024332455818144 0 0.15628357420278671 0.003810722324721363 0 0.1463790325767105 0.0051600440866713393 0 0.1510418725979574 0.012295763198345371 0 0.15628357420278671 0.003810722324721363 0 0.1463790325767105 0.0051600440866713393 0 0.15462421245165581 -0.0058893527151400796 0 0.1463790325767105 0.0051600440866713393 0 0.1510418725979574 0.012295763198345371 0 0.1613139894326964 0.024121653580078981 0 0.1510418725979574 0.012295763198345371 0 0.1482006011997502 0.031747138067586222 0 0.1463790325767105 0.0051600440866713393 0 0.1482006011997502 0.031747138067586222 0 0.1463790325767105 0.0051600440866713393 0 0.1510418725979574 0.012295763198345371 0 0.1482006011997502 0.031747138067586222 0 0.1463790325767105 0.0051600440866713393 0 0.13437116548480091 0.018926778797625429 0 0.1482006011997502 0.031747138067586222 0 0.11744308668179609 0.017774871344802521 0 0.13437116548480091 0.018926778797625429 0 0.12506256882025399 0.035699134337412737 0 0.13437116548480091 0.018926778797625429 0 0.1482006011997502 0.031747138067586222 0 0.12506256882025399 0.035699134337412737 0 0.11744308668179609 0.017774871344802521 0 0.13437116548480091 0.018926778797625429 0 0.12681727907172599 0.0028609529651058472 0 0.1463790325767105 0.0051600440866713393 0 0.13437116548480091 0.018926778797625429 0 0.12681727907172599 0.0028609529651058472 0 0.15002216982279071 0.058334232048501217 0 0.1482006011997502 0.031747138067586222 0 0.13318341665519781 0.054736537254868822 0 0.16553743519129729 0.040392805831617133 0 0.15002216982279071 0.058334232048501217 0 0.1482006011997502 0.031747138067586222 0 0.15002216982279071 0.058334232048501217 0 0.1482006011997502 0.031747138067586222 0 0.1482006011997502 0.031747138067586222 0 0.12506256882025399 0.035699134337412737 0 0.13318341665519781 0.054736537254868822 0 0.1220245952479405 0.07004619687739172 0 0.13318341665519781 0.054736537254868822 0 0.140451324603005 0.079388379798429956 0 0.15002216982279071 0.058334232048501217 0 0.13318341665519781 0.054736537254868822 0 0.140451324603005 0.079388379798429956 0 0.15002216982279071 0.058334232048501217 0 0.140451324603005 0.079388379798429956 0 0.16236977351405571 0.08420317597119574 0 0.140451324603005 0.079388379798429956 0 0.13376660142800201 0.097128283387147629 0 0.1539803846384532 0.10268384485881291 0 0.140451324603005 0.079388379798429956 0 0.1539803846384532 0.10268384485881291 0 0.16236977351405571 0.08420317597119574 0 0.1175203890912727 0.086079419998433368 0 0.140451324603005 0.079388379798429956 0 0.13376660142800201 0.097128283387147629 0 0.1175203890912727 0.086079419998433368 0 0.1220245952479405 0.07004619687739172 0 0.140451324603005 0.079388379798429956 0 0.13376660142800201 0.097128283387147629 0 0.13278919984088661 0.11230677671938701 0 0.1539803846384532 0.10268384485881291 0 0.1204523462490521 0.10350528248164099 0 0.13376660142800201 0.097128283387147629 0 0.13278919984088661 0.11230677671938701 0 0.12877089149896251 0.12628235461406201 0 0.13278919984088661 0.11230677671938701 0 0.14559099576285081 0.1211645137464301 0 0.11923934643535521 0.1171320194813406 0 0.12877089149896251 0.12628235461406201 0 0.13278919984088661 0.11230677671938701 0 0.14559099576285081 0.1211645137464301 0 0.1539803846384532 0.10268384485881291 0 0.15632661280319129 0.13068902382275449 0 0.14559099576285081 0.1211645137464301 0 0.1644083134929788 0.12014259939932 0 0.13278919984088661 0.11230677671938701 0 0.14559099576285081 0.1211645137464301 0 0.1539803846384532 0.10268384485881291 0 0.14559099576285081 0.1211645137464301 0 0.1539803846384532 0.10268384485881291 0 0.1644083134929788 0.12014259939932 0 0.1539803846384532 0.10268384485881291 0 0.1644083134929788 0.12014259939932 0 0.1735399813695532 0.1031324266698939 0 0.1539803846384532 0.10268384485881291 0 0.1735399813695532 0.1031324266698939 0 0.16236977351405571 0.08420317597119574 0 0.1644083134929788 0.12014259939932 0 0.18282874988353909 0.12176719670840121 0 0.1735399813695532 0.1031324266698939 0 0.17014020092281509 0.1303647164313487 0 0.1644083134929788 0.12014259939932 0 0.18282874988353909 0.12176719670840121 0 0.1920226837756919 0.1062731432897658 0 0.18282874988353909 0.12176719670840121 0 0.1735399813695532 0.1031324266698939 0 0.1920226837756919 0.1062731432897658 0 0.1735399813695532 0.1031324266698939 0 0.18562998291260069 0.083724599791867624 0 0.1735399813695532 0.1031324266698939 0 0.18562998291260069 0.083724599791867624 0 0.16236977351405571 0.08420317597119574 0 0.1764837945120816 0.061910742511003793 0 0.18562998291260069 0.083724599791867624 0 0.16236977351405571 0.08420317597119574 0 0.19477888427106471 0.068028226971776184 0 0.1764837945120816 0.061910742511003793 0 0.18562998291260069 0.083724599791867624 0 0.1764837945120816 0.061910742511003793 0 0.15002216982279071 0.058334232048501217 0 0.16236977351405571 0.08420317597119574 0 0.1539803846384532 0.10268384485881291 0 0.16236977351405571 0.08420317597119574 0 0.1048222847563673 0.4786668097115272 0 0.091479988498646442 0.48354315307299939 0 0.09327677099031946 0.46903920507515112 0 0.1048222847563673 0.4786668097115272 0 0.10316008329641591 0.49260778903299252 0 0.092978519966910561 0.49654355170423659 0 0.1048222847563673 0.4786668097115272 0 0.092978519966910561 0.49654355170423659 0 0.1048222847563673 0.4786668097115272 0 0.091479988498646442 0.48354315307299939 0 0.092978519966910561 0.49654355170423659 0 0.10316008329641591 0.49260778903299252 0 0.10312521592474901 0.5 0 0.092978519966910561 0.49654355170423659 0 0.10316008329641591 0.49260778903299252 0 0.10312521592474901 0.5 0 0.1137569863567818 0.48891352741171218 0 0.1048222847563673 0.4786668097115272 0 0.10316008329641591 0.49260778903299252 0 0.1137569863567818 0.48891352741171218 0 0.1048222847563673 0.4786668097115272 0 0.10316008329641591 0.49260778903299252 0 0.1137569863567818 0.48891352741171218 0 0.12567845600013469 0.47929569400969452 0 0.1306299125622308 0.5 0 0.10312521592474901 0.5 0 0.1137569863567818 0.48891352741171218 0 0.1306299125622308 0.5 0 0.1048222847563673 0.4786668097115272 0 0.11648320602364499 0.46106604807885698 0 0.12567845600013469 0.47929569400969452 0 0.1048222847563673 0.4786668097115272 0 0.1137569863567818 0.48891352741171218 0 0.12567845600013469 0.47929569400969452 0 0.1048222847563673 0.4786668097115272 0 0.11648320602364499 0.46106604807885698 0 0.1048222847563673 0.4786668097115272 0 0.11648320602364499 0.46106604807885698 0 0.1073203574995146 0.45771532982499841 0 0.1119099515656637 0.4541769576285038 0 0.11648320602364499 0.46106604807885698 0 0.1073203574995146 0.45771532982499841 0 0.1119099515656637 0.4541769576285038 0 0.11648320602364499 0.46106604807885698 0 0.128144127290927 0.44346528644618949 0 0.1119099515656637 0.4541769576285038 0 0.1098184302426566 0.43676384993846878 0 0.128144127290927 0.44346528644618949 0 0.1119099515656637 0.4541769576285038 0 0.1073203574995146 0.45771532982499841 0 0.1098184302426566 0.43676384993846878 0 0.11648320602364499 0.46106604807885698 0 0.128144127290927 0.44346528644618949 0 0.1119099515656637 0.4541769576285038 0 0.1098184302426566 0.43676384993846878 0 0.1007171253458153 0.44820701469258212 0 0.1073203574995146 0.45771532982499841 0 0.1098184302426566 0.43676384993846878 0 0.1073203574995146 0.45771532982499841 0 0.1098184302426566 0.43676384993846878 0 0.1007171253458153 0.44820701469258212 0 0.097642268156116166 0.44157878137516282 0 0.1098184302426566 0.43676384993846878 0 0.097642268156116166 0.44157878137516282 0 0.1020591419526216 0.43422428691783338 0 0.1098184302426566 0.43676384993846878 0 0.097642268156116166 0.44157878137516282 0 0.1098184302426566 0.43676384993846878 0 0.09475968248970798 0.44694335582238792 0 0.1007171253458153 0.44820701469258212 0 0.092889002414179245 0.45276651635374332 0 0.1007171253458153 0.44820701469258212 0 0.096868601935243229 0.45789063626048049 0 0.092889002414179245 0.45276651635374332 0 0.09475968248970798 0.44694335582238792 0 0.1007171253458153 0.44820701469258212 0 0.097642268156116166 0.44157878137516282 0 0.09475968248970798 0.44694335582238792 0 0.097642268156116166 0.44157878137516282 0 0.088987703810336438 0.44500113512203671 0 0.1007171253458153 0.44820701469258212 0 0.097642268156116166 0.44157878137516282 0 0.1048222847563673 0.4786668097115272 0 0.1073203574995146 0.45771532982499841 0 0.09327677099031946 0.46903920507515112 0 0.1048222847563673 0.4786668097115272 0 0.1073203574995146 0.45771532982499841 0 0.1007171253458153 0.44820701469258212 0 0.1073203574995146 0.45771532982499841 0 0.096868601935243229 0.45789063626048049 0 0.1073203574995146 0.45771532982499841 0 0.096868601935243229 0.45789063626048049 0 0.09327677099031946 0.46903920507515112 0 0.090139753426387581 0.46172511535592747 0 0.079256630923375745 0.46616111205340521 0 0.09327677099031946 0.46903920507515112 0 0.096868601935243229 0.45789063626048049 0 0.090139753426387581 0.46172511535592747 0 0.09327677099031946 0.46903920507515112 0 0.090139753426387581 0.46172511535592747 0 0.092889002414179245 0.45276651635374332 0 0.081384578054001289 0.45283886102268139 0 0.096868601935243229 0.45789063626048049 0 0.090139753426387581 0.46172511535592747 0 0.092889002414179245 0.45276651635374332 0 0.090139753426387581 0.46172511535592747 0 0.079256630923375745 0.46616111205340521 0 0.081384578054001289 0.45283886102268139 0 0.088987703810336438 0.44500113512203671 0 0.082419728037930629 0.44071508101891732 0 0.08961571608665983 0.43565438773200948 0 0.097642268156116166 0.44157878137516282 0 0.088987703810336438 0.44500113512203671 0 0.097642268156116166 0.44157878137516282 0 0.088987703810336438 0.44500113512203671 0 0.08961571608665983 0.43565438773200948 0 0.088987703810336438 0.44500113512203671 0 0.092889002414179245 0.45276651635374332 0 0.081384578054001289 0.45283886102268139 0 0.09475968248970798 0.44694335582238792 0 0.088987703810336438 0.44500113512203671 0 0.092889002414179245 0.45276651635374332 0 0.088987703810336438 0.44500113512203671 0 0.081384578054001289 0.45283886102268139 0 0.082419728037930629 0.44071508101891732 0 0.067599685253138281 0.45287595272104653 0 0.081892131328371143 0.4314429342789402 0 0.067599685253138281 0.45287595272104653 0 0.066001473138610989 0.43632828312433408 0 0.081892131328371143 0.4314429342789402 0 0.082419728037930629 0.44071508101891732 0 0.067599685253138281 0.45287595272104653 0 0.081892131328371143 0.4314429342789402 0 0.081384578054001289 0.45283886102268139 0 0.082419728037930629 0.44071508101891732 0 0.067599685253138281 0.45287595272104653 0 0.079256630923375745 0.46616111205340521 0 0.067599685253138281 0.45287595272104653 0 0.069001794002684108 0.47224329730437981 0 0.067599685253138281 0.45287595272104653 0 0.069001794002684108 0.47224329730437981 0 0.053307239177905349 0.47430897116315313 0 0.079256630923375745 0.46616111205340521 0 0.081384578054001289 0.45283886102268139 0 0.067599685253138281 0.45287595272104653 0 0.069001794002684108 0.47224329730437981 0 0.079794243665170225 0.47979706117662119 0 0.065051170993830898 0.48807338940767292 0 0.079256630923375745 0.46616111205340521 0 0.069001794002684108 0.47224329730437981 0 0.079794243665170225 0.47979706117662119 0 0.079256630923375745 0.46616111205340521 0 0.079794243665170225 0.47979706117662119 0 0.09327677099031946 0.46903920507515112 0 0.079794243665170225 0.47979706117662119 0 0.091479988498646442 0.48354315307299939 0 0.09327677099031946 0.46903920507515112 0 0.092978519966910561 0.49654355170423659 0 0.084553660660575528 0.49009386622585083 0 0.075620519287267318 0.5 0 0.10312521592474901 0.5 0 0.092978519966910561 0.49654355170423659 0 0.075620519287267318 0.5 0 0.091479988498646442 0.48354315307299939 0 0.092978519966910561 0.49654355170423659 0 0.084553660660575528 0.49009386622585083 0 0.079794243665170225 0.47979706117662119 0 0.091479988498646442 0.48354315307299939 0 0.084553660660575528 0.49009386622585083 0 0.079794243665170225 0.47979706117662119 0 0.084553660660575528 0.49009386622585083 0 0.065051170993830898 0.48807338940767292 0 0.065051170993830898 0.48807338940767292 0 0.075620519287267318 0.5 0 0.048115822649785527 0.5 0 0.084553660660575528 0.49009386622585083 0 0.065051170993830898 0.48807338940767292 0 0.075620519287267318 0.5 0 0.065051170993830898 0.48807338940767292 0 0.048115822649785527 0.5 0 0.053307239177905349 0.47430897116315313 0 0.069001794002684108 0.47224329730437981 0 0.065051170993830898 0.48807338940767292 0 0.053307239177905349 0.47430897116315313 0 0.053307239177905349 0.47430897116315313 0 0.036467756559221701 0.47774208688151631 0 0.038707058205945111 0.46145460703462421 0 0.036467756559221701 0.47774208688151631 0 0.024551868698660679 0.47115282030446087 0 0.038707058205945111 0.46145460703462421 0 0.053307239177905349 0.47430897116315313 0 0.036467756559221701 0.47774208688151631 0 0.039014793102672522 0.49574198960525939 0 0.053307239177905349 0.47430897116315313 0 0.039014793102672522 0.49574198960525939 0 0.048115822649785527 0.5 0 0.053307239177905349 0.47430897116315313 0 0.039014793102672522 0.49574198960525939 0 0.048115822649785527 0.5 0 0.039014793102672522 0.49574198960525939 0 0.020611126012303801 0.5 0 0.036467756559221701 0.47774208688151631 0 0.039014793102672522 0.49574198960525939 0 0.026757823610924832 0.48605204630008392 0 0.039014793102672522 0.49574198960525939 0 0.020611126012303801 0.5 0 0.026757823610924832 0.48605204630008392 0 0.020611126012303801 0.5 0 0.026757823610924832 0.48605204630008392 0 0.01184792134048173 0.48364435332619582 0 0.036467756559221701 0.47774208688151631 0 0.026757823610924832 0.48605204630008392 0 0.024551868698660679 0.47115282030446087 0 0.024551868698660679 0.47115282030446087 0 0.01184792134048173 0.48364435332619582 0 0.0113986727330041 0.46548394976725249 0 0.026757823610924832 0.48605204630008392 0 0.024551868698660679 0.47115282030446087 0 0.01184792134048173 0.48364435332619582 0 -0.003089566724048357 0.47326761514296101 0 0.01184792134048173 0.48364435332619582 0 0.0113986727330041 0.46548394976725249 0 -0.0068935706251778139 0.5 0 -0.003089566724048357 0.47326761514296101 0 0.01184792134048173 0.48364435332619582 0 -0.0068935706251778139 0.5 0 0.020611126012303801 0.5 0 0.01184792134048173 0.48364435332619582 0 -0.0072392309157056894 0.43649428994281841 0 0.0026031304198410629 0.45131346537392758 0 0.017959463550051329 0.43401198815683267 0 0.0026031304198410629 0.45131346537392758 0 0.021372524407465811 0.45253342051953771 0 0.017959463550051329 0.43401198815683267 0 0.0026031304198410629 0.45131346537392758 0 0.0113986727330041 0.46548394976725249 0 0.021372524407465811 0.45253342051953771 0 -0.003089566724048357 0.47326761514296101 0 0.0026031304198410629 0.45131346537392758 0 0.0113986727330041 0.46548394976725249 0 0.024551868698660679 0.47115282030446087 0 0.0113986727330041 0.46548394976725249 0 0.021372524407465811 0.45253342051953771 0 0.024551868698660679 0.47115282030446087 0 0.021372524407465811 0.45253342051953771 0 0.038707058205945111 0.46145460703462421 0 0.021372524407465811 0.45253342051953771 0 0.037958531274121507 0.44366308696102769 0 0.017959463550051329 0.43401198815683267 0 0.037958531274121507 0.44366308696102769 0 0.05227214254911447 0.45021359508833869 0 0.050058868244965561 0.43265066952584708 0 0.021372524407465811 0.45253342051953771 0 0.037958531274121507 0.44366308696102769 0 0.038707058205945111 0.46145460703462421 0 0.037958531274121507 0.44366308696102769 0 0.038707058205945111 0.46145460703462421 0 0.05227214254911447 0.45021359508833869 0 0.067599685253138281 0.45287595272104653 0 0.053307239177905349 0.47430897116315313 0 0.053307239177905349 0.47430897116315313 0 0.038707058205945111 0.46145460703462421 0 0.05227214254911447 0.45021359508833869 0 0.067599685253138281 0.45287595272104653 0 0.053307239177905349 0.47430897116315313 0 0.05227214254911447 0.45021359508833869 0 0.05227214254911447 0.45021359508833869 0 0.050058868244965561 0.43265066952584708 0 0.066001473138610989 0.43632828312433408 0 0.067599685253138281 0.45287595272104653 0 0.05227214254911447 0.45021359508833869 0 0.066001473138610989 0.43632828312433408 0 0.050058868244965561 0.43265066952584708 0 0.068804754243522781 0.41994166461739918 0 0.066001473138610989 0.43632828312433408 0 0.050058868244965561 0.43265066952584708 0 0.048852687291388877 0.41459777654824598 0 0.068804754243522781 0.41994166461739918 0 0.048852687291388877 0.41459777654824598 0 0.061313779414970418 0.39987885693449271 0 0.068804754243522781 0.41994166461739918 0 0.048852687291388877 0.41459777654824598 0 0.068804754243522781 0.41994166461739918 0 0.048852687291388877 0.41459777654824598 0 0.036746034139956453 0.42683548193420928 0 0.028900620339254991 0.40925388847909272 0 0.048852687291388877 0.41459777654824598 0 0.028900620339254991 0.40925388847909272 0 0.048852687291388877 0.41459777654824598 0 0.028900620339254991 0.40925388847909272 0 0.042007131815748507 0.39655655075565333 0 0.050058868244965561 0.43265066952584708 0 0.048852687291388877 0.41459777654824598 0 0.036746034139956453 0.42683548193420928 0 0.037958531274121507 0.44366308696102769 0 0.050058868244965561 0.43265066952584708 0 0.036746034139956453 0.42683548193420928 0 0.037958531274121507 0.44366308696102769 0 0.036746034139956453 0.42683548193420928 0 0.017959463550051329 0.43401198815683267 0 0.036746034139956453 0.42683548193420928 0 0.017959463550051329 0.43401198815683267 0 0.028900620339254991 0.40925388847909272 0 0.017959463550051329 0.43401198815683267 0 0.028900620339254991 0.40925388847909272 0 0.0059488009041311612 0.41735624870114602 0 0.028900620339254991 0.40925388847909272 0 0.0059488009041311612 0.41735624870114602 0 0.0058412231562265226 0.39891749499975832 0 -0.0081246324890641812 0.40805065625530412 0 0.0059488009041311612 0.41735624870114602 0 0.0058412231562265226 0.39891749499975832 0 -0.0072392309157056894 0.43649428994281841 0 0.017959463550051329 0.43401198815683267 0 0.0059488009041311612 0.41735624870114602 0 -0.0036227877329230301 0.37947700469323042 0 0.0058412231562265226 0.39891749499975832 0 0.017841208666312069 0.37762534579018298 0 0.028900620339254991 0.40925388847909272 0 0.0058412231562265226 0.39891749499975832 0 0.024450360446550148 0.39274026509825583 0 0.024450360446550148 0.39274026509825583 0 0.017841208666312069 0.37762534579018298 0 0.035089121590226528 0.38253825820529852 0 0.0058412231562265226 0.39891749499975832 0 0.024450360446550148 0.39274026509825583 0 0.017841208666312069 0.37762534579018298 0 0.035089121590226528 0.38253825820529852 0 0.042007131815748507 0.39655655075565333 0 0.051605655867250001 0.38149668432143541 0 0.035089121590226528 0.38253825820529852 0 0.051605655867250001 0.38149668432143541 0 0.039541251155271878 0.36427244506096468 0 0.024450360446550148 0.39274026509825583 0 0.035089121590226528 0.38253825820529852 0 0.042007131815748507 0.39655655075565333 0 0.028900620339254991 0.40925388847909272 0 0.024450360446550148 0.39274026509825583 0 0.042007131815748507 0.39655655075565333 0 0.048852687291388877 0.41459777654824598 0 0.042007131815748507 0.39655655075565333 0 0.061313779414970418 0.39987885693449271 0 0.042007131815748507 0.39655655075565333 0 0.061313779414970418 0.39987885693449271 0 0.051605655867250001 0.38149668432143541 0 0.051605655867250001 0.38149668432143541 0 0.071205150989249344 0.38459031979425368 0 0.062117748859898458 0.36500130546073062 0 0.061313779414970418 0.39987885693449271 0 0.051605655867250001 0.38149668432143541 0 0.071205150989249344 0.38459031979425368 0 0.071205150989249344 0.38459031979425368 0 0.082619379705498486 0.3760424233717975 0 0.075022727430642186 0.36942391052545742 0 0.082619379705498486 0.3760424233717975 0 0.089989672908486834 0.38531380646189939 0 0.096111415589441723 0.36906918257109511 0 0.071205150989249344 0.38459031979425368 0 0.082619379705498486 0.3760424233717975 0 0.089989672908486834 0.38531380646189939 0 0.071205150989249344 0.38459031979425368 0 0.089989672908486834 0.38531380646189939 0 0.080292553118600216 0.40417933412777668 0 0.089989672908486834 0.38531380646189939 0 0.080292553118600216 0.40417933412777668 0 0.098794269534858231 0.4008464147916751 0 0.071205150989249344 0.38459031979425368 0 0.080292553118600216 0.40417933412777668 0 0.061313779414970418 0.39987885693449271 0 0.071205150989249344 0.38459031979425368 0 0.080292553118600216 0.40417933412777668 0 0.061313779414970418 0.39987885693449271 0 0.080292553118600216 0.40417933412777668 0 0.068804754243522781 0.41994166461739918 0 0.068804754243522781 0.41994166461739918 0 0.066001473138610989 0.43632828312433408 0 0.081892131328371143 0.4314429342789402 0 0.068804754243522781 0.41994166461739918 0 0.088756821195656727 0.42528555268655249 0 0.089379955247950782 0.42376834846129979 0 0.068804754243522781 0.41994166461739918 0 0.081892131328371143 0.4314429342789402 0 0.088756821195656727 0.42528555268655249 0 0.068804754243522781 0.41994166461739918 0 0.088756821195656727 0.42528555268655249 0 0.097642268156116166 0.44157878137516282 0 0.090272059233259302 0.42569138845737808 0 0.08961571608665983 0.43565438773200948 0 0.082419728037930629 0.44071508101891732 0 0.088756821195656727 0.42528555268655249 0 0.082419728037930629 0.44071508101891732 0 0.081892131328371143 0.4314429342789402 0 0.088756821195656727 0.42528555268655249 0 0.088756821195656727 0.42528555268655249 0 0.090272059233259302 0.42569138845737808 0 0.08961571608665983 0.43565438773200948 0 0.089379955247950782 0.42376834846129979 0 0.090272059233259302 0.42569138845737808 0 0.100849049247472 0.42323949502706593 0 0.088756821195656727 0.42528555268655249 0 0.089379955247950782 0.42376834846129979 0 0.090272059233259302 0.42569138845737808 0 0.088756821195656727 0.42528555268655249 0 0.090272059233259302 0.42569138845737808 0 0.089379955247950782 0.42376834846129979 0 0.090272059233259302 0.42569138845737808 0 0.088756821195656727 0.42528555268655249 0 0.089379955247950782 0.42376834846129979 0 0.082419728037930629 0.44071508101891732 0 0.088756821195656727 0.42528555268655249 0 0.08961571608665983 0.43565438773200948 0 0.080292553118600216 0.40417933412777668 0 0.089379955247950782 0.42376834846129979 0 0.080292553118600216 0.40417933412777668 0 0.068804754243522781 0.41994166461739918 0 0.089379955247950782 0.42376834846129979 0 0.080292553118600216 0.40417933412777668 0 0.089379955247950782 0.42376834846129979 0 0.098794269534858231 0.4008464147916751 0 0.089379955247950782 0.42376834846129979 0 0.10179294521624289 0.41380452076605601 0 0.098794269534858231 0.4008464147916751 0 0.089379955247950782 0.42376834846129979 0 0.098794269534858231 0.4008464147916751 0 0.10179294521624289 0.41380452076605601 0 0.1107041231999616 0.42933549212480232 0 0.10945635351086461 0.40362998662342647 0 0.089379955247950782 0.42376834846129979 0 0.10179294521624289 0.41380452076605601 0 0.100849049247472 0.42323949502706593 0 0.097642268156116166 0.44157878137516282 0 0.090272059233259302 0.42569138845737808 0 0.1020591419526216 0.43422428691783338 0 0.090272059233259302 0.42569138845737808 0 0.1020591419526216 0.43422428691783338 0 0.1093682320879097 0.430806037006286 0 0.090272059233259302 0.42569138845737808 0 0.1093682320879097 0.430806037006286 0 0.090272059233259302 0.42569138845737808 0 0.100849049247472 0.42323949502706593 0 0.1093682320879097 0.430806037006286 0 0.097642268156116166 0.44157878137516282 0 0.090272059233259302 0.42569138845737808 0 0.100849049247472 0.42323949502706593 0 0.1093682320879097 0.430806037006286 0 0.1107041231999616 0.42933549212480232 0 0.10179294521624289 0.41380452076605601 0 0.100849049247472 0.42323949502706593 0 0.1107041231999616 0.42933549212480232 0 0.1020591419526216 0.43422428691783338 0 0.1093682320879097 0.430806037006286 0 0.1103398931765668 0.43239031029619718 0 0.1020591419526216 0.43422428691783338 0 0.1098184302426566 0.43676384993846878 0 0.1103398931765668 0.43239031029619718 0 0.1020591419526216 0.43422428691783338 0 0.1103398931765668 0.43239031029619718 0 0.1103398931765668 0.43239031029619718 0 0.1206950902667107 0.42206632785564402 0 0.13429496844172059 0.42708486797366702 0 0.1098184302426566 0.43676384993846878 0 0.1103398931765668 0.43239031029619718 0 0.13429496844172059 0.42708486797366702 0 0.1098184302426566 0.43676384993846878 0 0.13429496844172059 0.42708486797366702 0 0.128144127290927 0.44346528644618949 0 0.1103398931765668 0.43239031029619718 0 0.13429496844172059 0.42708486797366702 0 0.1098184302426566 0.43676384993846878 0 0.13429496844172059 0.42708486797366702 0 0.1098184302426566 0.43676384993846878 0 0.1103398931765668 0.43239031029619718 0 0.1093682320879097 0.430806037006286 0 0.1103398931765668 0.43239031029619718 0 0.1107041231999616 0.42933549212480232 0 0.1103398931765668 0.43239031029619718 0 0.1107041231999616 0.42933549212480232 0 0.1103398931765668 0.43239031029619718 0 0.1107041231999616 0.42933549212480232 0 0.1206950902667107 0.42206632785564402 0 0.1107041231999616 0.42933549212480232 0 0.10945635351086461 0.40362998662342647 0 0.1107041231999616 0.42933549212480232 0 0.1127079119913361 0.41252960019287183 0 0.10945635351086461 0.40362998662342647 0 0.1107041231999616 0.42933549212480232 0 0.1206950902667107 0.42206632785564402 0 0.1127079119913361 0.41252960019287183 0 0.1107041231999616 0.42933549212480232 0 0.1127079119913361 0.41252960019287183 0 0.1127079119913361 0.41252960019287183 0 0.11966152561727041 0.40521647558469348 0 0.10945635351086461 0.40362998662342647 0 0.1206950902667107 0.42206632785564402 0 0.1127079119913361 0.41252960019287183 0 0.1238244133614653 0.41259348140785829 0 0.1127079119913361 0.41252960019287183 0 0.1238244133614653 0.41259348140785829 0 0.11966152561727041 0.40521647558469348 0 0.10945635351086461 0.40362998662342647 0 0.12302526621810631 0.39483339242702431 0 0.1082085838217669 0.37792448112205068 0 0.11966152561727041 0.40521647558469348 0 0.12302526621810631 0.39483339242702431 0 0.1317921164680903 0.40545952647836342 0 0.11966152561727041 0.40521647558469348 0 0.10945635351086461 0.40362998662342647 0 0.12302526621810631 0.39483339242702431 0 0.12302526621810631 0.39483339242702431 0 0.1082085838217669 0.37792448112205068 0 0.12936302614305781 0.3806702380723882 0 0.1082085838217669 0.37792448112205068 0 0.1269429757455281 0.3700741961410311 0 0.12936302614305781 0.3806702380723882 0 0.089989672908486834 0.38531380646189939 0 0.1082085838217669 0.37792448112205068 0 0.098794269534858231 0.4008464147916751 0 0.089989672908486834 0.38531380646189939 0 0.1082085838217669 0.37792448112205068 0 0.096111415589441723 0.36906918257109511 0 0.1082085838217669 0.37792448112205068 0 0.098794269534858231 0.4008464147916751 0 0.10945635351086461 0.40362998662342647 0 0.1082085838217669 0.37792448112205068 0 0.098794269534858231 0.4008464147916751 0 0.10945635351086461 0.40362998662342647 0 0.1082085838217669 0.37792448112205068 0 0.10179294521624289 0.41380452076605601 0 0.10945635351086461 0.40362998662342647 0 0.098794269534858231 0.4008464147916751 0 0.1071786794515654 0.3567072543489932 0 0.10614877508136331 0.33549002757593549 0 0.1071786794515654 0.3567072543489932 0 0.113306419652784 0.34577619835524942 0 0.10614877508136331 0.33549002757593549 0 0.1071786794515654 0.3567072543489932 0 0.095546341163152998 0.34721348103654748 0 0.10614877508136331 0.33549002757593549 0 0.1071786794515654 0.3567072543489932 0 0.095546341163152998 0.34721348103654748 0 0.095306363846323322 0.35760506086541671 0 0.1082085838217669 0.37792448112205068 0 0.1071786794515654 0.3567072543489932 0 0.096111415589441723 0.36906918257109511 0 0.1082085838217669 0.37792448112205068 0 0.1071786794515654 0.3567072543489932 0 0.1071786794515654 0.3567072543489932 0 0.095306363846323322 0.35760506086541671 0 0.096111415589441723 0.36906918257109511 0 0.1082085838217669 0.37792448112205068 0 0.1071786794515654 0.3567072543489932 0 0.1164276567709608 0.35791271614101089 0 0.1082085838217669 0.37792448112205068 0 0.1207019799918789 0.36117572882690419 0 0.1269429757455281 0.3700741961410311 0 0.1082085838217669 0.37792448112205068 0 0.1207019799918789 0.36117572882690419 0 0.1164276567709608 0.35791271614101089 0 0.1082085838217669 0.37792448112205068 0 0.1164276567709608 0.35791271614101089 0 0.1207019799918789 0.36117572882690419 0 0.12020614592151201 0.35183052892485178 0 0.1164276567709608 0.35791271614101089 0 0.1207019799918789 0.36117572882690419 0 0.12020614592151201 0.35183052892485178 0 0.1327104347709552 0.34833671648866182 0 0.1071786794515654 0.3567072543489932 0 0.1164276567709608 0.35791271614101089 0 0.1142797254492055 0.35305667444252631 0 0.1071786794515654 0.3567072543489932 0 0.1142797254492055 0.35305667444252631 0 0.113306419652784 0.34577619835524942 0 0.12020614592151201 0.35183052892485178 0 0.1164276567709608 0.35791271614101089 0 0.1142797254492055 0.35305667444252631 0 0.12020614592151201 0.35183052892485178 0 0.1142797254492055 0.35305667444252631 0 0.113306419652784 0.34577619835524942 0 0.12020614592151201 0.35183052892485178 0 0.113306419652784 0.34577619835524942 0 0.12565642337597641 0.34531162420386119 0 0.113306419652784 0.34577619835524942 0 0.10614877508136331 0.33549002757593549 0 0.12728204636342119 0.33264440370185788 0 0.113306419652784 0.34577619835524942 0 0.12728204636342119 0.33264440370185788 0 0.12565642337597641 0.34531162420386119 0 0.1046413786221535 0.32421374287331212 0 0.10614877508136331 0.33549002757593549 0 0.12728204636342119 0.33264440370185788 0 0.1046413786221535 0.32421374287331212 0 0.12728204636342119 0.33264440370185788 0 0.1167242617350734 0.31677866348064548 0 0.1046413786221535 0.32421374287331212 0 0.12728204636342119 0.33264440370185788 0 0.1167242617350734 0.31677866348064548 0 0.1046413786221535 0.32421374287331212 0 0.1046413786221535 0.32421374287331212 0 0.077692308094581719 0.31417877058986282 0 0.103629968386694 0.31192557858664272 0 0.1167242617350734 0.31677866348064548 0 0.1046413786221535 0.32421374287331212 0 0.103629968386694 0.31192557858664272 0 0.1046413786221535 0.32421374287331212 0 0.08294133613319174 0.33756664360252769 0 0.1046413786221535 0.32421374287331212 0 0.10614877508136331 0.33549002757593549 0 0.08294133613319174 0.33756664360252769 0 0.095546341163152998 0.34721348103654748 0 0.10614877508136331 0.33549002757593549 0 0.08294133613319174 0.33756664360252769 0 0.1046413786221535 0.32421374287331212 0 0.077692308094581719 0.31417877058986282 0 0.1046413786221535 0.32421374287331212 0 0.08294133613319174 0.33756664360252769 0 0.077692308094581719 0.31417877058986282 0 0.077692308094581719 0.31417877058986282 0 0.067976715374811009 0.32361441744144559 0 0.058789612577710128 0.31476722793512929 0 0.08294133613319174 0.33756664360252769 0 0.077692308094581719 0.31417877058986282 0 0.067976715374811009 0.32361441744144559 0 0.08294133613319174 0.33756664360252769 0 0.067976715374811009 0.32361441744144559 0 0.060135280265193262 0.33376627043538171 0 0.08294133613319174 0.33756664360252769 0 0.061241293644231747 0.35091954433174621 0 0.060135280265193262 0.33376627043538171 0 0.08294133613319174 0.33756664360252769 0 0.061241293644231747 0.35091954433174621 0 0.08294133613319174 0.33756664360252769 0 0.074215767858206258 0.35718016320722129 0 0.061241293644231747 0.35091954433174621 0 0.074215767858206258 0.35718016320722129 0 0.062117748859898458 0.36500130546073062 0 0.061241293644231747 0.35091954433174621 0 0.08294133613319174 0.33756664360252769 0 0.074215767858206258 0.35718016320722129 0 0.086887140600208246 0.35260595290123381 0 0.074215767858206258 0.35718016320722129 0 0.086887140600208246 0.35260595290123381 0 0.085272644414092907 0.36373677956425621 0 0.095546341163152998 0.34721348103654748 0 0.095306363846323322 0.35760506086541671 0 0.086887140600208246 0.35260595290123381 0 0.095306363846323322 0.35760506086541671 0 0.086887140600208246 0.35260595290123381 0 0.085272644414092907 0.36373677956425621 0 0.095546341163152998 0.34721348103654748 0 0.08294133613319174 0.33756664360252769 0 0.086887140600208246 0.35260595290123381 0 0.082619379705498486 0.3760424233717975 0 0.096111415589441723 0.36906918257109511 0 0.085272644414092907 0.36373677956425621 0 0.095306363846323322 0.35760506086541671 0 0.096111415589441723 0.36906918257109511 0 0.085272644414092907 0.36373677956425621 0 0.074215767858206258 0.35718016320722129 0 0.085272644414092907 0.36373677956425621 0 0.075022727430642186 0.36942391052545742 0 0.082619379705498486 0.3760424233717975 0 0.085272644414092907 0.36373677956425621 0 0.075022727430642186 0.36942391052545742 0 0.071205150989249344 0.38459031979425368 0 0.075022727430642186 0.36942391052545742 0 0.062117748859898458 0.36500130546073062 0 0.071205150989249344 0.38459031979425368 0 0.062117748859898458 0.36500130546073062 0 0.074215767858206258 0.35718016320722129 0 0.075022727430642186 0.36942391052545742 0 0.062117748859898458 0.36500130546073062 0 0.062117748859898458 0.36500130546073062 0 0.061241293644231747 0.35091954433174621 0 0.039541251155271878 0.36427244506096468 0 0.051605655867250001 0.38149668432143541 0 0.062117748859898458 0.36500130546073062 0 0.039541251155271878 0.36427244506096468 0 0.061241293644231747 0.35091954433174621 0 0.039541251155271878 0.36427244506096468 0 0.061241293644231747 0.35091954433174621 0 0.044784474582475392 0.34869393697364293 0 0.052607857505341568 0.34198871306916279 0 0.061241293644231747 0.35091954433174621 0 0.044784474582475392 0.34869393697364293 0 0.039541251155271878 0.36427244506096468 0 0.044784474582475392 0.34869393697364293 0 0.039541251155271878 0.36427244506096468 0 0.023969970644136189 0.34780247639640383 0 0.017841208666312069 0.37762534579018298 0 0.039541251155271878 0.36427244506096468 0 0.022364176625033282 0.36301365865426333 0 0.017841208666312069 0.37762534579018298 0 0.035089121590226528 0.38253825820529852 0 0.039541251155271878 0.36427244506096468 0 0.017841208666312069 0.37762534579018298 0 0.039541251155271878 0.36427244506096468 0 0.017841208666312069 0.37762534579018298 0 0.022364176625033282 0.36301365865426333 0 0.0070688581490178301 0.36290469613376197 0 0.022364176625033282 0.36301365865426333 0 0.023969970644136189 0.34780247639640383 0 0.0070688581490178301 0.36290469613376197 0 0.039541251155271878 0.36427244506096468 0 0.022364176625033282 0.36301365865426333 0 0.023969970644136189 0.34780247639640383 0 0.023969970644136189 0.34780247639640383 0 0.0070688581490178301 0.36290469613376197 0 0.010160838263171251 0.33572436441868259 0 -0.0072621374188671052 0.34147004492185079 0 0.0070688581490178301 0.36290469613376197 0 0.010160838263171251 0.33572436441868259 0 -0.0036227877329230301 0.37947700469323042 0 0.017841208666312069 0.37762534579018298 0 0.0070688581490178301 0.36290469613376197 0 -0.00017254440855824261 0.32560037032276101 0 0.010160838263171251 0.33572436441868259 0 0.020336227673690289 0.32045890090113183 0 -0.0025045175740335168 0.31031314766219981 0 -0.00017254440855824261 0.32560037032276101 0 0.020336227673690289 0.32045890090113183 0 -0.0072621374188671052 0.34147004492185079 0 -0.00017254440855824261 0.32560037032276101 0 0.010160838263171251 0.33572436441868259 0 0.023969970644136189 0.34780247639640383 0 0.010160838263171251 0.33572436441868259 0 0.020336227673690289 0.32045890090113183 0 0.023969970644136189 0.34780247639640383 0 0.020336227673690289 0.32045890090113183 0 0.041998086792626607 0.33406523967628299 0 0.04333949094528719 0.3160267531553359 0 0.041998086792626607 0.33406523967628299 0 0.052729264779742331 0.32427979797466039 0 0.020336227673690289 0.32045890090113183 0 0.04333949094528719 0.3160267531553359 0 0.041998086792626607 0.33406523967628299 0 0.044784474582475392 0.34869393697364293 0 0.023969970644136189 0.34780247639640383 0 0.041998086792626607 0.33406523967628299 0 0.044784474582475392 0.34869393697364293 0 0.041998086792626607 0.33406523967628299 0 0.052607857505341568 0.34198871306916279 0 0.061241293644231747 0.35091954433174621 0 0.052607857505341568 0.34198871306916279 0 0.060135280265193262 0.33376627043538171 0 0.041998086792626607 0.33406523967628299 0 0.060135280265193262 0.33376627043538171 0 0.052729264779742331 0.32427979797466039 0 0.041998086792626607 0.33406523967628299 0 0.052607857505341568 0.34198871306916279 0 0.060135280265193262 0.33376627043538171 0 0.04333949094528719 0.3160267531553359 0 0.052729264779742331 0.32427979797466039 0 0.058789612577710128 0.31476722793512929 0 0.067976715374811009 0.32361441744144559 0 0.052729264779742331 0.32427979797466039 0 0.058789612577710128 0.31476722793512929 0 0.067976715374811009 0.32361441744144559 0 0.060135280265193262 0.33376627043538171 0 0.052729264779742331 0.32427979797466039 0 0.058789612577710128 0.31476722793512929 0 0.050743237567011198 0.30414379830640997 0 0.077692308094581719 0.31417877058986282 0 0.058789612577710128 0.31476722793512929 0 0.050743237567011198 0.30414379830640997 0 0.04333949094528719 0.3160267531553359 0 0.058789612577710128 0.31476722793512929 0 0.050743237567011198 0.30414379830640997 0 0.050743237567011198 0.30414379830640997 0 0.057014991513141711 0.27962034081982778 0 0.068251428351683213 0.29416468787043332 0 0.050743237567011198 0.30414379830640997 0 0.035335655862959579 0.28380154980765537 0 0.057014991513141711 0.27962034081982778 0 0.050743237567011198 0.30414379830640997 0 0.035335655862959579 0.28380154980765537 0 0.050743237567011198 0.30414379830640997 0 0.035335655862959579 0.28380154980765537 0 0.035440516280943121 0.29844555413839979 0 0.020336227673690289 0.32045890090113183 0 0.04333949094528719 0.3160267531553359 0 0.035440516280943121 0.29844555413839979 0 0.04333949094528719 0.3160267531553359 0 0.050743237567011198 0.30414379830640997 0 0.035440516280943121 0.29844555413839979 0 0.050743237567011198 0.30414379830640997 0 0.035440516280943121 0.29844555413839979 0 0.020336227673690289 0.32045890090113183 0 0.035440516280943121 0.29844555413839979 0 0.020137794994874249 0.2927473099703915 0 0.020336227673690289 0.32045890090113183 0 0.020137794994874249 0.2927473099703915 0 0.020336227673690289 0.32045890090113183 0 0.020137794994874249 0.2927473099703915 0 0.010209922096268529 0.3014659822355169 0 0.035335655862959579 0.28380154980765537 0 0.035440516280943121 0.29844555413839979 0 0.020137794994874249 0.2927473099703915 0 0.035440516280943121 0.29844555413839979 0 0.020137794994874249 0.2927473099703915 0 0.020137794994874249 0.2927473099703915 0 0.014388475155295941 0.29060644707198668 0 0.01992807415890703 0.26345930130890138 0 0.020137794994874249 0.2927473099703915 0 0.014388475155295941 0.29060644707198668 0 0.020137794994874249 0.2927473099703915 0 0.014388475155295941 0.29060644707198668 0 0.010209922096268529 0.3014659822355169 0 -0.001308369768482999 0.29320410557187471 0 0.014388475155295941 0.29060644707198668 0 0.010209922096268529 0.3014659822355169 0 -0.001308369768482999 0.29320410557187471 0 0.014388475155295941 0.29060644707198668 0 0.0042686616650212863 0.27440264234540929 0 -0.0025045175740335168 0.31031314766219981 0 0.020336227673690289 0.32045890090113183 0 0.010209922096268529 0.3014659822355169 0 -0.0025045175740335168 0.31031314766219981 0 -0.001308369768482999 0.29320410557187471 0 0.010209922096268529 0.3014659822355169 0 0.0108212759879371 0.25143582124693198 0 0.0045166499774289158 0.26107549289106269 0 0.01992807415890703 0.26345930130890138 0 0.0108212759879371 0.25143582124693198 0 0.01992807415890703 0.26345930130890138 0 -0.004361582131907446 0.25012675423618741 0 0.0108212759879371 0.25143582124693198 0 0.0045166499774289158 0.26107549289106269 0 -0.0080731797928139601 0.26595294531788349 0 0.0045166499774289158 0.26107549289106269 0 0.0042686616650212863 0.27440264234540929 0 0.014388475155295941 0.29060644707198668 0 0.0042686616650212863 0.27440264234540929 0 0.01992807415890703 0.26345930130890138 0 0.0045166499774289158 0.26107549289106269 0 0.0042686616650212863 0.27440264234540929 0 0.01992807415890703 0.26345930130890138 0 0.020137794994874249 0.2927473099703915 0 0.01992807415890703 0.26345930130890138 0 0.035335655862959579 0.28380154980765537 0 0.020137794994874249 0.2927473099703915 0 0.01992807415890703 0.26345930130890138 0 0.035335655862959579 0.28380154980765537 0 0.01992807415890703 0.26345930130890138 0 0.019733428038529611 0.23627651218177001 0 0.0108212759879371 0.25143582124693198 0 0.01992807415890703 0.26345930130890138 0 0.032395297456559217 0.24990448186487541 0 0.01992807415890703 0.26345930130890138 0 0.043558334625058162 0.26267399305688549 0 0.049298807743375681 0.24401567068345059 0 0.032395297456559217 0.24990448186487541 0 0.043558334625058162 0.26267399305688549 0 0.035335655862959579 0.28380154980765537 0 0.01992807415890703 0.26345930130890138 0 0.043558334625058162 0.26267399305688549 0 0.035335655862959579 0.28380154980765537 0 0.043558334625058162 0.26267399305688549 0 0.057014991513141711 0.27962034081982778 0 0.043558334625058162 0.26267399305688549 0 0.057014991513141711 0.27962034081982778 0 0.068539877812152941 0.25484826761588569 0 0.049298807743375681 0.24401567068345059 0 0.043558334625058162 0.26267399305688549 0 0.068539877812152941 0.25484826761588569 0 0.068539877812152941 0.25484826761588569 0 0.094153496178737847 0.25278652485753728 0 0.068539877812152941 0.25484826761588569 0 0.094153496178737847 0.25278652485753728 0 0.094570315268327418 0.27155612350054997 0 0.076756394676448791 0.2775889904003081 0 0.087579642181032397 0.29054902922906578 0 0.094570315268327418 0.27155612350054997 0 0.068539877812152941 0.25484826761588569 0 0.076756394676448791 0.2775889904003081 0 0.094570315268327418 0.27155612350054997 0 0.057014991513141711 0.27962034081982778 0 0.068539877812152941 0.25484826761588569 0 0.076756394676448791 0.2775889904003081 0 0.076756394676448791 0.2775889904003081 0 0.068251428351683213 0.29416468787043332 0 0.087579642181032397 0.29054902922906578 0 0.057014991513141711 0.27962034081982778 0 0.076756394676448791 0.2775889904003081 0 0.068251428351683213 0.29416468787043332 0 0.077692308094581719 0.31417877058986282 0 0.050743237567011198 0.30414379830640997 0 0.068251428351683213 0.29416468787043332 0 0.077692308094581719 0.31417877058986282 0 0.050743237567011198 0.30414379830640997 0 0.077692308094581719 0.31417877058986282 0 0.068251428351683213 0.29416468787043332 0 0.087579642181032397 0.29054902922906578 0 0.077692308094581719 0.31417877058986282 0 0.087579642181032397 0.29054902922906578 0 0.1000908984509512 0.30112340397666981 0 0.087579642181032397 0.29054902922906578 0 0.1081165082442021 0.28468219903657133 0 0.1000908984509512 0.30112340397666981 0 0.1081165082442021 0.28468219903657133 0 0.1000908984509512 0.30112340397666981 0 0.1144297267004354 0.30168664743999352 0 0.087579642181032397 0.29054902922906578 0 0.1081165082442021 0.28468219903657133 0 0.094570315268327418 0.27155612350054997 0 0.077692308094581719 0.31417877058986282 0 0.1000908984509512 0.30112340397666981 0 0.103629968386694 0.31192557858664272 0 0.1000908984509512 0.30112340397666981 0 0.103629968386694 0.31192557858664272 0 0.1144297267004354 0.30168664743999352 0 0.1167242617350734 0.31677866348064548 0 0.1144297267004354 0.30168664743999352 0 0.13022117462186741 0.30154725623692402 0 0.1167242617350734 0.31677866348064548 0 0.103629968386694 0.31192557858664272 0 0.1144297267004354 0.30168664743999352 0 0.1081165082442021 0.28468219903657133 0 0.1144297267004354 0.30168664743999352 0 0.12390947864198219 0.28542069115612873 0 0.1144297267004354 0.30168664743999352 0 0.12390947864198219 0.28542069115612873 0 0.13022117462186741 0.30154725623692402 0 0.112671388523889 0.26641905049976811 0 0.123100174820058 0.26168293397560438 0 0.12910128816626559 0.2715879755468264 0 0.1081165082442021 0.28468219903657133 0 0.12390947864198219 0.28542069115612873 0 0.112671388523889 0.26641905049976811 0 0.12390947864198219 0.28542069115612873 0 0.112671388523889 0.26641905049976811 0 0.12910128816626559 0.2715879755468264 0 0.112671388523889 0.26641905049976811 0 0.123100174820058 0.26168293397560438 0 0.1197671145453226 0.2507247820991888 0 0.112671388523889 0.26641905049976811 0 0.1197671145453226 0.2507247820991888 0 0.094153496178737847 0.25278652485753728 0 0.112671388523889 0.26641905049976811 0 0.094153496178737847 0.25278652485753728 0 0.094570315268327418 0.27155612350054997 0 0.1197671145453226 0.2507247820991888 0 0.094153496178737847 0.25278652485753728 0 0.1081165082442021 0.28468219903657133 0 0.112671388523889 0.26641905049976811 0 0.094570315268327418 0.27155612350054997 0 0.1484138213405074 0.25936399499983281 0 0.14891678559523411 0.28660101817668943 0 0.16201232330786131 0.26387346548696822 0 0.1484138213405074 0.25936399499983281 0 0.1401857002278207 0.2693725498640136 0 0.14891678559523411 0.28660101817668943 0 0.1484138213405074 0.25936399499983281 0 0.14891678559523411 0.28660101817668943 0 0.15466915334416509 0.25190660019890743 0 0.1484138213405074 0.25936399499983281 0 0.16201232330786131 0.26387346548696822 0 0.1453807329119074 0.24866303934084041 0 0.15466915334416509 0.25190660019890743 0 0.1484138213405074 0.25936399499983281 0 0.1453807329119074 0.24866303934084041 0 0.1484138213405074 0.25936399499983281 0 0.13431090580927579 0.25993721073270593 0 0.1484138213405074 0.25936399499983281 0 0.13431090580927579 0.25993721073270593 0 0.1401857002278207 0.2693725498640136 0 0.1453807329119074 0.24866303934084041 0 0.1197671145453226 0.2507247820991888 0 0.13431090580927579 0.25993721073270593 0 0.123100174820058 0.26168293397560438 0 0.1197671145453226 0.2507247820991888 0 0.13431090580927579 0.25993721073270593 0 0.123100174820058 0.26168293397560438 0 0.13431090580927579 0.25993721073270593 0 0.12910128816626559 0.2715879755468264 0 0.12910128816626559 0.2715879755468264 0 0.1401857002278207 0.2693725498640136 0 0.14891678559523411 0.28660101817668943 0 0.12390947864198219 0.28542069115612873 0 0.12910128816626559 0.2715879755468264 0 0.14891678559523411 0.28660101817668943 0 0.13431090580927579 0.25993721073270593 0 0.12910128816626559 0.2715879755468264 0 0.1401857002278207 0.2693725498640136 0 0.12390947864198219 0.28542069115612873 0 0.13022117462186741 0.30154725623692402 0 0.14891678559523411 0.28660101817668943 0 0.13022117462186741 0.30154725623692402 0 0.1494197498499607 0.31383804135354598 0 0.13362732087883861 0.31825791726589631 0 0.1167242617350734 0.31677866348064548 0 0.13022117462186741 0.30154725623692402 0 0.13362732087883861 0.31825791726589631 0 0.14891678559523411 0.28660101817668943 0 0.16502192730860321 0.29833672799327199 0 0.1494197498499607 0.31383804135354598 0 0.14891678559523411 0.28660101817668943 0 0.1494197498499607 0.31383804135354598 0 0.13022117462186741 0.30154725623692402 0 0.14891678559523411 0.28660101817668943 0 0.1494197498499607 0.31383804135354598 0 0.14891678559523411 0.28660101817668943 0 0.16502192730860321 0.29833672799327199 0 0.17258825255407231 0.27567175281796641 0 0.16502192730860321 0.29833672799327199 0 0.17750724151807151 0.31691505049664243 0 0.1494197498499607 0.31383804135354598 0 0.16502192730860321 0.29833672799327199 0 0.18306544781706219 0.29535972807124689 0 0.17750724151807151 0.31691505049664243 0 0.18306544781706219 0.29535972807124689 0 0.19825331032735899 0.30649929221888439 0 0.17750724151807151 0.31691505049664243 0 0.16502192730860321 0.29833672799327199 0 0.18306544781706219 0.29535972807124689 0 0.17258825255407231 0.27567175281796641 0 0.18306544781706219 0.29535972807124689 0 0.17258825255407231 0.27567175281796641 0 0.19225514168233229 0.27637801024750158 0 0.17258825255407231 0.27567175281796641 0 0.18608903078984079 0.25995697105729071 0 0.19225514168233229 0.27637801024750158 0 0.17258825255407231 0.27567175281796641 0 0.16201232330786131 0.26387346548696822 0 0.17332134199895571 0.25758983019522791 0 0.14891678559523411 0.28660101817668943 0 0.17258825255407231 0.27567175281796641 0 0.16201232330786131 0.26387346548696822 0 0.1648484701696567 0.24744362212440471 0 0.15466915334416509 0.25190660019890743 0 0.16201232330786131 0.26387346548696822 0 0.1648484701696567 0.24744362212440471 0 0.16201232330786131 0.26387346548696822 0 0.17332134199895571 0.25758983019522791 0 0.17921266192405369 0.24485401564359771 0 0.17332134199895571 0.25758983019522791 0 0.18608903078984079 0.25995697105729071 0 0.17258825255407231 0.27567175281796641 0 0.17332134199895571 0.25758983019522791 0 0.18608903078984079 0.25995697105729071 0 0.19643052809465181 0.2433224828713732 0 0.18608903078984079 0.25995697105729071 0 0.20272625848497891 0.26192573456807738 0 0.18608903078984079 0.25995697105729071 0 0.20272625848497891 0.26192573456807738 0 0.19225514168233229 0.27637801024750158 0 0.19225514168233229 0.27637801024750158 0 0.20931999553351249 0.2747097540570328 0 0.20479240245397259 0.28930189362021808 0 0.20272625848497891 0.26192573456807738 0 0.19225514168233229 0.27637801024750158 0 0.20931999553351249 0.2747097540570328 0 0.20272625848497891 0.26192573456807738 0 0.20931999553351249 0.2747097540570328 0 0.22276706595432569 0.26722786124429282 0 0.19643052809465181 0.2433224828713732 0 0.20272625848497891 0.26192573456807738 0 0.21668623523937189 0.25273648673926968 0 0.20272625848497891 0.26192573456807738 0 0.21668623523937189 0.25273648673926968 0 0.22276706595432569 0.26722786124429282 0 0.23190300684591059 0.2469757189771403 0 0.21668623523937189 0.25273648673926968 0 0.2340167615655426 0.26024144399058702 0 0.21668623523937189 0.25273648673926968 0 0.2340167615655426 0.26024144399058702 0 0.22276706595432569 0.26722786124429282 0 0.20931999553351249 0.2747097540570328 0 0.22276706595432569 0.26722786124429282 0 0.23407023324957901 0.28358253799766081 0 0.22276706595432569 0.26722786124429282 0 0.2428012282252888 0.27040414858390061 0 0.23407023324957901 0.28358253799766081 0 0.2340167615655426 0.26024144399058702 0 0.22276706595432569 0.26722786124429282 0 0.2428012282252888 0.27040414858390061 0 0.2428012282252888 0.27040414858390061 0 0.23407023324957901 0.28358253799766081 0 0.25491758893057909 0.27951005592881761 0 0.2428012282252888 0.27040414858390061 0 0.23407023324957901 0.28358253799766081 0 0.2428012282252888 0.27040414858390061 0 0.25153222320099622 0.25722575917013901 0 0.25536006440587672 0.26878811273571068 0 0.2428012282252888 0.27040414858390061 0 0.25153222320099622 0.25722575917013901 0 0.2340167615655426 0.26024144399058702 0 0.2428012282252888 0.27040414858390061 0 0.25153222320099622 0.25722575917013901 0 0.24791323415382371 0.2458877298954085 0 0.23190300684591059 0.2469757189771403 0 0.25153222320099622 0.25722575917013901 0 0.23190300684591059 0.2469757189771403 0 0.2340167615655426 0.26024144399058702 0 0.25153222320099622 0.25722575917013901 0 0.23190300684591059 0.2469757189771403 0 0.25153222320099622 0.25722575917013901 0 0.24543399627141721 0.29887735901603257 0 0.2199905643657564 0.30483410896799212 0 0.2412863906095909 0.31706614216088019 0 0.24543399627141721 0.29887735901603257 0 0.2412863906095909 0.31706614216088019 0 0.26071219069447599 0.31197788889560879 0 0.24543399627141721 0.29887735901603257 0 0.23407023324957901 0.28358253799766081 0 0.25491758893057909 0.27951005592881761 0 0.23407023324957901 0.28358253799766081 0 0.25491758893057909 0.27951005592881761 0 0.23407023324957901 0.28358253799766081 0 0.2199905643657564 0.30483410896799212 0 0.20479240245397259 0.28930189362021808 0 0.24543399627141721 0.29887735901603257 0 0.23407023324957901 0.28358253799766081 0 0.2199905643657564 0.30483410896799212 0 0.23407023324957901 0.28358253799766081 0 0.20479240245397259 0.28930189362021808 0 0.23407023324957901 0.28358253799766081 0 0.2199905643657564 0.30483410896799212 0 0.2199905643657564 0.30483410896799212 0 0.19825331032735899 0.30649929221888439 0 0.20591089548193209 0.32608567993832238 0 0.2199905643657564 0.30483410896799212 0 0.20479240245397259 0.28930189362021808 0 0.19825331032735899 0.30649929221888439 0 0.20931999553351249 0.2747097540570328 0 0.23407023324957901 0.28358253799766081 0 0.20479240245397259 0.28930189362021808 0 0.18306544781706219 0.29535972807124689 0 0.19225514168233229 0.27637801024750158 0 0.20479240245397259 0.28930189362021808 0 0.18306544781706219 0.29535972807124689 0 0.20479240245397259 0.28930189362021808 0 0.19825331032735899 0.30649929221888439 0 0.19825331032735899 0.30649929221888439 0 0.20591089548193209 0.32608567993832238 0 0.17750724151807151 0.31691505049664243 0 0.20591089548193209 0.32608567993832238 0 0.1834453935528689 0.33477958080273051 0 0.17750724151807151 0.31691505049664243 0 0.20591089548193209 0.32608567993832238 0 0.1918312265981009 0.34733725090864831 0 0.1834453935528689 0.33477958080273051 0 0.20591089548193209 0.32608567993832238 0 0.1918312265981009 0.34733725090864831 0 0.2120062173118393 0.34341212619813682 0 0.20591089548193209 0.32608567993832238 0 0.2241124479696345 0.32285479690430968 0 0.2120062173118393 0.34341212619813682 0 0.20591089548193209 0.32608567993832238 0 0.1918312265981009 0.34733725090864831 0 0.2199905643657564 0.30483410896799212 0 0.20591089548193209 0.32608567993832238 0 0.2199905643657564 0.30483410896799212 0 0.20591089548193209 0.32608567993832238 0 0.2241124479696345 0.32285479690430968 0 0.2199905643657564 0.30483410896799212 0 0.2241124479696345 0.32285479690430968 0 0.2412863906095909 0.31706614216088019 0 0.2241124479696345 0.32285479690430968 0 0.23218120802557979 0.3394870014876365 0 0.2412863906095909 0.31706614216088019 0 0.2120062173118393 0.34341212619813682 0 0.2241124479696345 0.32285479690430968 0 0.23218120802557979 0.3394870014876365 0 0.2120062173118393 0.34341212619813682 0 0.23218120802557979 0.3394870014876365 0 0.23218120802557979 0.3394870014876365 0 0.2412863906095909 0.31706614216088019 0 0.25235619873932041 0.33556187677713623 0 0.23218120802557979 0.3394870014876365 0 0.25235619873932041 0.33556187677713623 0 0.23218120802557979 0.3394870014876365 0 0.2438273554430464 0.34812574592335249 0 0.25235619873932041 0.33556187677713623 0 0.2412863906095909 0.31706614216088019 0 0.25496362040665271 0.32267745764425643 0 0.25235619873932041 0.33556187677713623 0 0.2444030594993066 0.36261468031945582 0 0.22630598985240971 0.37543582988375418 0 0.247713784970646 0.38075050805242922 0 0.2444030594993066 0.36261468031945582 0 0.22630598985240971 0.37543582988375418 0 0.2444030594993066 0.36261468031945582 0 0.247713784970646 0.38075050805242922 0 0.25490457918629872 0.37507349251653871 0 0.2444030594993066 0.36261468031945582 0 0.2438273554430464 0.34812574592335249 0 0.25711451900508148 0.35258648987221092 0 0.23218120802557979 0.3394870014876365 0 0.2438273554430464 0.34812574592335249 0 0.2288636426087374 0.35578594420060722 0 0.2444030594993066 0.36261468031945582 0 0.2438273554430464 0.34812574592335249 0 0.2288636426087374 0.35578594420060722 0 0.2120062173118393 0.34341212619813682 0 0.23218120802557979 0.3394870014876365 0 0.2288636426087374 0.35578594420060722 0 0.2444030594993066 0.36261468031945582 0 0.2288636426087374 0.35578594420060722 0 0.22630598985240971 0.37543582988375418 0 0.2288636426087374 0.35578594420060722 0 0.21324276167256731 0.36206450472990792 0 0.22630598985240971 0.37543582988375418 0 0.21324276167256731 0.36206450472990792 0 0.19654986060048771 0.37047802484019998 0 0.20820892020551271 0.38825697944805271 0 0.2120062173118393 0.34341212619813682 0 0.2288636426087374 0.35578594420060722 0 0.21324276167256731 0.36206450472990792 0 0.2120062173118393 0.34341212619813682 0 0.21324276167256731 0.36206450472990792 0 0.1918312265981009 0.34733725090864831 0 0.2120062173118393 0.34341212619813682 0 0.1918312265981009 0.34733725090864831 0 0.1918312265981009 0.34733725090864831 0 0.19654986060048771 0.37047802484019998 0 0.1753588575145448 0.37220031576602253 0 0.21324276167256731 0.36206450472990792 0 0.1918312265981009 0.34733725090864831 0 0.19654986060048771 0.37047802484019998 0 0.1918312265981009 0.34733725090864831 0 0.1753588575145448 0.37220031576602253 0 0.1731188016947007 0.36781558424519839 0 0.1753588575145448 0.37220031576602253 0 0.1802318714797885 0.35236122573149797 0 0.1731188016947007 0.36781558424519839 0 0.167364966647951 0.35975083588178058 0 0.1802318714797885 0.35236122573149797 0 0.1731188016947007 0.36781558424519839 0 0.1753588575145448 0.37220031576602253 0 0.1731188016947007 0.36781558424519839 0 0.1753588575145448 0.37220031576602253 0 0.16523354001105911 0.37409983959611109 0 0.1731188016947007 0.36781558424519839 0 0.16523354001105911 0.37409983959611109 0 0.1662459251842697 0.36710584608423269 0 0.167364966647951 0.35975083588178058 0 0.15926639238336801 0.36675712461384091 0 0.15018796347142391 0.35543911342959528 0 0.167364966647951 0.35975083588178058 0 0.1662459251842697 0.36710584608423269 0 0.15926639238336801 0.36675712461384091 0 0.1731188016947007 0.36781558424519839 0 0.167364966647951 0.35975083588178058 0 0.1662459251842697 0.36710584608423269 0 0.16523354001105911 0.37409983959611109 0 0.15926639238336801 0.36675712461384091 0 0.15062115634747231 0.37889780715207888 0 0.16523354001105911 0.37409983959611109 0 0.1662459251842697 0.36710584608423269 0 0.15926639238336801 0.36675712461384091 0 0.1753506460241005 0.35054361342806389 0 0.14992271410468949 0.34107506453040248 0 0.167364966647951 0.35975083588178058 0 0.1753506460241005 0.35054361342806389 0 0.15018796347142391 0.35543911342959528 0 0.1753506460241005 0.35054361342806389 0 0.14992271410468949 0.34107506453040248 0 0.15018796347142391 0.35543911342959528 0 0.1753506460241005 0.35054361342806389 0 0.15018796347142391 0.35543911342959528 0 0.1918312265981009 0.34733725090864831 0 0.1753506460241005 0.35054361342806389 0 0.1918312265981009 0.34733725090864831 0 0.1753506460241005 0.35054361342806389 0 0.1834453935528689 0.33477958080273051 0 0.1918312265981009 0.34733725090864831 0 0.1753506460241005 0.35054361342806389 0 0.1802318714797885 0.35236122573149797 0 0.1918312265981009 0.34733725090864831 0 0.1753588575145448 0.37220031576602253 0 0.1802318714797885 0.35236122573149797 0 0.1753506460241005 0.35054361342806389 0 0.1802318714797885 0.35236122573149797 0 0.167364966647951 0.35975083588178058 0 0.1753506460241005 0.35054361342806389 0 0.1802318714797885 0.35236122573149797 0 0.1753506460241005 0.35054361342806389 0 0.1834453935528689 0.33477958080273051 0 0.1666269581421321 0.33301630924197367 0 0.1834453935528689 0.33477958080273051 0 0.17750724151807151 0.31691505049664243 0 0.1666269581421321 0.33301630924197367 0 0.17750724151807151 0.31691505049664243 0 0.1666269581421321 0.33301630924197367 0 0.1494197498499607 0.31383804135354598 0 0.1753506460241005 0.35054361342806389 0 0.1666269581421321 0.33301630924197367 0 0.14992271410468949 0.34107506453040248 0 0.1666269581421321 0.33301630924197367 0 0.14992271410468949 0.34107506453040248 0 0.1494197498499607 0.31383804135354598 0 0.14992271410468949 0.34107506453040248 0 0.1494197498499607 0.31383804135354598 0 0.14992271410468949 0.34107506453040248 0 0.1494197498499607 0.31383804135354598 0 0.13362732087883861 0.31825791726589631 0 0.1167242617350734 0.31677866348064548 0 0.13362732087883861 0.31825791726589631 0 0.12728204636342119 0.33264440370185788 0 0.14992271410468949 0.34107506453040248 0 0.13362732087883861 0.31825791726589631 0 0.12728204636342119 0.33264440370185788 0 0.14992271410468949 0.34107506453040248 0 0.12728204636342119 0.33264440370185788 0 0.1327104347709552 0.34833671648866182 0 0.14992271410468949 0.34107506453040248 0 0.12728204636342119 0.33264440370185788 0 0.12728204636342119 0.33264440370185788 0 0.12565642337597641 0.34531162420386119 0 0.1327104347709552 0.34833671648866182 0 0.1207019799918789 0.36117572882690419 0 0.1327104347709552 0.34833671648866182 0 0.15018796347142391 0.35543911342959528 0 0.12020614592151201 0.35183052892485178 0 0.12565642337597641 0.34531162420386119 0 0.1327104347709552 0.34833671648866182 0 0.1207019799918789 0.36117572882690419 0 0.15018796347142391 0.35543911342959528 0 0.1207019799918789 0.36117572882690419 0 0.13593835547877689 0.36822566204290602 0 0.15018796347142391 0.35543911342959528 0 0.1207019799918789 0.36117572882690419 0 0.1269429757455281 0.3700741961410311 0 0.13593835547877689 0.36822566204290602 0 0.1269429757455281 0.3700741961410311 0 0.13593835547877689 0.36822566204290602 0 0.12936302614305781 0.3806702380723882 0 0.13593835547877689 0.36822566204290602 0 0.15018796347142391 0.35543911342959528 0 0.15062115634747231 0.37889780715207888 0 0.15018796347142391 0.35543911342959528 0 0.15062115634747231 0.37889780715207888 0 0.15926639238336801 0.36675712461384091 0 0.15018796347142391 0.35543911342959528 0 0.15062115634747231 0.37889780715207888 0 0.14992271410468949 0.34107506453040248 0 0.1327104347709552 0.34833671648866182 0 0.15018796347142391 0.35543911342959528 0 0.14992271410468949 0.34107506453040248 0 0.15018796347142391 0.35543911342959528 0 0.14138495384440489 0.39322107909200571 0 0.1317921164680903 0.40545952647836342 0 0.15222999220591241 0.40711056306127658 0 0.14138495384440489 0.39322107909200571 0 0.15222999220591241 0.40711056306127658 0 0.16379442486022849 0.38965543941364961 0 0.14138495384440489 0.39322107909200571 0 0.15062115634747231 0.37889780715207888 0 0.16379442486022849 0.38965543941364961 0 0.13593835547877689 0.36822566204290602 0 0.15062115634747231 0.37889780715207888 0 0.12936302614305781 0.3806702380723882 0 0.14138495384440489 0.39322107909200571 0 0.15062115634747231 0.37889780715207888 0 0.12936302614305781 0.3806702380723882 0 0.12302526621810631 0.39483339242702431 0 0.14138495384440489 0.39322107909200571 0 0.12936302614305781 0.3806702380723882 0 0.12302526621810631 0.39483339242702431 0 0.14138495384440489 0.39322107909200571 0 0.1317921164680903 0.40545952647836342 0 0.1238244133614653 0.41259348140785829 0 0.11966152561727041 0.40521647558469348 0 0.1317921164680903 0.40545952647836342 0 0.1238244133614653 0.41259348140785829 0 0.1317921164680903 0.40545952647836342 0 0.13391702338258271 0.41648007558095218 0 0.1317921164680903 0.40545952647836342 0 0.13391702338258271 0.41648007558095218 0 0.15222999220591241 0.40711056306127658 0 0.1206950902667107 0.42206632785564402 0 0.1238244133614653 0.41259348140785829 0 0.13391702338258271 0.41648007558095218 0 0.14066555955159241 0.42456568670890099 0 0.128144127290927 0.44346528644618949 0 0.13429496844172059 0.42708486797366702 0 0.14066555955159241 0.42456568670890099 0 0.128144127290927 0.44346528644618949 0 0.14066555955159241 0.42456568670890099 0 0.1468621194973313 0.4432032004000479 0 0.128144127290927 0.44346528644618949 0 0.1206950902667107 0.42206632785564402 0 0.13391702338258271 0.41648007558095218 0 0.13429496844172059 0.42708486797366702 0 0.13391702338258271 0.41648007558095218 0 0.13429496844172059 0.42708486797366702 0 0.14066555955159241 0.42456568670890099 0 0.13429496844172059 0.42708486797366702 0 0.14066555955159241 0.42456568670890099 0 0.14066555955159241 0.42456568670890099 0 0.16808955766080291 0.41960022257260449 0 0.15915405200730839 0.43380743940711708 0 0.14066555955159241 0.42456568670890099 0 0.16808955766080291 0.41960022257260449 0 0.14066555955159241 0.42456568670890099 0 0.15915405200730839 0.43380743940711708 0 0.1468621194973313 0.4432032004000479 0 0.14066555955159241 0.42456568670890099 0 0.15222999220591241 0.40711056306127658 0 0.14066555955159241 0.42456568670890099 0 0.15222999220591241 0.40711056306127658 0 0.16201542307939579 0.41612311438285787 0 0.14066555955159241 0.42456568670890099 0 0.16201542307939579 0.41612311438285787 0 0.13391702338258271 0.41648007558095218 0 0.14066555955159241 0.42456568670890099 0 0.15222999220591241 0.40711056306127658 0 0.16201542307939579 0.41612311438285787 0 0.16941052998224071 0.40948279892878392 0 0.18336528660720119 0.40768054205682042 0 0.16808955766080291 0.41960022257260449 0 0.16201542307939579 0.41612311438285787 0 0.18336528660720119 0.40768054205682042 0 0.14066555955159241 0.42456568670890099 0 0.16808955766080291 0.41960022257260449 0 0.16201542307939579 0.41612311438285787 0 0.15222999220591241 0.40711056306127658 0 0.16201542307939579 0.41612311438285787 0 0.1623232745498161 0.40583988766108697 0 0.16201542307939579 0.41612311438285787 0 0.16941052998224071 0.40948279892878392 0 0.1623232745498161 0.40583988766108697 0 0.16808955766080291 0.41960022257260449 0 0.15915405200730839 0.43380743940711708 0 0.1766721112776041 0.43405941705504181 0 0.18398920852212189 0.42222731617319992 0 0.1766721112776041 0.43405941705504181 0 0.19310721835761019 0.42992761007563862 0 0.16808955766080291 0.41960022257260449 0 0.18398920852212189 0.42222731617319992 0 0.1766721112776041 0.43405941705504181 0 0.1766721112776041 0.43405941705504181 0 0.19310721835761019 0.42992761007563862 0 0.189468296445607 0.44161966517716561 0 0.16808955766080291 0.41960022257260449 0 0.18398920852212189 0.42222731617319992 0 0.19637406676339619 0.41333592033168631 0 0.16201542307939579 0.41612311438285787 0 0.18336528660720119 0.40768054205682042 0 0.16808955766080291 0.41960022257260449 0 0.19637406676339619 0.41333592033168631 0 0.16808955766080291 0.41960022257260449 0 0.18336528660720119 0.40768054205682042 0 0.19637406676339619 0.41333592033168631 0 0.16941052998224071 0.40948279892878392 0 0.18336528660720119 0.40768054205682042 0 0.18177969473327391 0.40698117398671069 0 0.16941052998224071 0.40948279892878392 0 0.18177969473327391 0.40698117398671069 0 0.17544170441619431 0.40324048585703531 0 0.17550339911694879 0.39641485139935639 0 0.16379442486022849 0.38965543941364961 0 0.18273535403657959 0.38663922238918558 0 0.18177969473327391 0.40698117398671069 0 0.18171278421578699 0.39924093208501849 0 0.19011185055861429 0.40107812901234902 0 0.18336528660720119 0.40768054205682042 0 0.18177969473327391 0.40698117398671069 0 0.19011185055861429 0.40107812901234902 0 0.18177969473327391 0.40698117398671069 0 0.19011185055861429 0.40107812901234902 0 0.18171278421578699 0.39924093208501849 0 0.17550339911694879 0.39641485139935639 0 0.18273535403657959 0.38663922238918558 0 0.18171278421578699 0.39924093208501849 0 0.18273535403657959 0.38663922238918558 0 0.19011185055861429 0.40107812901234902 0 0.18273535403657959 0.38663922238918558 0 0.19011185055861429 0.40107812901234902 0 0.18177969473327391 0.40698117398671069 0 0.18171278421578699 0.39924093208501849 0 0.17544170441619431 0.40324048585703531 0 0.18171278421578699 0.39924093208501849 0 0.17550339911694879 0.39641485139935639 0 0.17544170441619431 0.40324048585703531 0 0.17550339911694879 0.39641485139935639 0 0.17544170441619431 0.40324048585703531 0 0.1689722959232661 0.40169126431279728 0 0.16941052998224071 0.40948279892878392 0 0.17544170441619431 0.40324048585703531 0 0.1689722959232661 0.40169126431279728 0 0.1689722959232661 0.40169126431279728 0 0.1623232745498161 0.40583988766108697 0 0.16379442486022849 0.38965543941364961 0 0.15222999220591241 0.40711056306127658 0 0.1623232745498161 0.40583988766108697 0 0.16379442486022849 0.38965543941364961 0 0.15222999220591241 0.40711056306127658 0 0.16379442486022849 0.38965543941364961 0 0.16941052998224071 0.40948279892878392 0 0.1689722959232661 0.40169126431279728 0 0.1623232745498161 0.40583988766108697 0 0.17550339911694879 0.39641485139935639 0 0.1689722959232661 0.40169126431279728 0 0.16379442486022849 0.38965543941364961 0 0.1753588575145448 0.37220031576602253 0 0.16523354001105911 0.37409983959611109 0 0.16379442486022849 0.38965543941364961 0 0.1753588575145448 0.37220031576602253 0 0.16379442486022849 0.38965543941364961 0 0.16523354001105911 0.37409983959611109 0 0.15062115634747231 0.37889780715207888 0 0.16379442486022849 0.38965543941364961 0 0.1753588575145448 0.37220031576602253 0 0.18273535403657959 0.38663922238918558 0 0.1753588575145448 0.37220031576602253 0 0.16379442486022849 0.38965543941364961 0 0.18273535403657959 0.38663922238918558 0 0.19654986060048771 0.37047802484019998 0 0.1753588575145448 0.37220031576602253 0 0.18273535403657959 0.38663922238918558 0 0.19654986060048771 0.37047802484019998 0 0.18273535403657959 0.38663922238918558 0 0.20820892020551271 0.38825697944805271 0 0.19011185055861429 0.40107812901234902 0 0.20820892020551271 0.38825697944805271 0 0.19011185055861429 0.40107812901234902 0 0.20429538739721931 0.40183734425620671 0 0.20820892020551271 0.38825697944805271 0 0.18273535403657959 0.38663922238918558 0 0.19011185055861429 0.40107812901234902 0 0.20820892020551271 0.38825697944805271 0 0.19011185055861429 0.40107812901234902 0 0.20429538739721931 0.40183734425620671 0 0.19637406676339619 0.41333592033168631 0 0.20429538739721931 0.40183734425620671 0 0.20820892020551271 0.38825697944805271 0 0.2202735525657262 0.39552406566479109 0 0.20429538739721931 0.40183734425620671 0 0.2202735525657262 0.39552406566479109 0 0.2145024493426794 0.40932094283274068 0 0.21324276167256731 0.36206450472990792 0 0.20820892020551271 0.38825697944805271 0 0.22630598985240971 0.37543582988375418 0 0.20820892020551271 0.38825697944805271 0 0.22630598985240971 0.37543582988375418 0 0.20820892020551271 0.38825697944805271 0 0.22630598985240971 0.37543582988375418 0 0.2202735525657262 0.39552406566479109 0 0.22630598985240971 0.37543582988375418 0 0.2319341774640927 0.38940141535347877 0 0.2202735525657262 0.39552406566479109 0 0.2202735525657262 0.39552406566479109 0 0.23263083192196299 0.40530596533379709 0 0.2145024493426794 0.40932094283274068 0 0.2319341774640927 0.38940141535347877 0 0.2202735525657262 0.39552406566479109 0 0.23263083192196299 0.40530596533379709 0 0.2386671862694576 0.40396906576347452 0 0.24985329529781791 0.39990667252734718 0 0.247713784970646 0.38075050805242922 0 0.2319341774640927 0.38940141535347877 0 0.23263083192196299 0.40530596533379709 0 0.247713784970646 0.38075050805242922 0 0.23263083192196299 0.40530596533379709 0 0.247713784970646 0.38075050805242922 0 0.23263083192196299 0.40530596533379709 0 0.2386671862694576 0.40396906576347452 0 0.247713784970646 0.38075050805242922 0 0.23263083192196299 0.40530596533379709 0 0.2386671862694576 0.40396906576347452 0 0.23263083192196299 0.40530596533379709 0 0.2386671862694576 0.40396906576347452 0 0.23835521004243199 0.40923349084829558 0 0.2386671862694576 0.40396906576347452 0 0.24985329529781791 0.39990667252734718 0 0.23835521004243199 0.40923349084829558 0 0.22630598985240971 0.37543582988375418 0 0.2319341774640927 0.38940141535347877 0 0.247713784970646 0.38075050805242922 0 0.2385665307870003 0.42747740564887549 0 0.25702987725108101 0.42925349536772212 0 0.2385665307870003 0.42747740564887549 0 0.2488221034234695 0.4223051763495565 0 0.25702987725108101 0.42925349536772212 0 0.2385665307870003 0.42747740564887549 0 0.2448364132796593 0.44231000148378752 0 0.25702987725108101 0.42925349536772212 0 0.2385665307870003 0.42747740564887549 0 0.2406669044851476 0.42214558790778223 0 0.2368791315523423 0.42061341875551328 0 0.2385665307870003 0.42747740564887549 0 0.2406669044851476 0.42214558790778223 0 0.2488221034234695 0.4223051763495565 0 0.24985329529781791 0.39990667252734718 0 0.2383998521777784 0.41818635087718381 0 0.24985329529781791 0.39990667252734718 0 0.23835521004243199 0.40923349084829558 0 0.2383998521777784 0.41818635087718381 0 0.24985329529781791 0.39990667252734718 0 0.2383998521777784 0.41818635087718381 0 0.25380059083303341 0.40846212201461762 0 0.2406669044851476 0.42214558790778223 0 0.2488221034234695 0.4223051763495565 0 0.2383998521777784 0.41818635087718381 0 0.23835521004243199 0.40923349084829558 0 0.2350244704201927 0.41211241555610317 0 0.2383998521777784 0.41818635087718381 0 0.23263083192196299 0.40530596533379709 0 0.23835521004243199 0.40923349084829558 0 0.2350244704201927 0.41211241555610317 0 0.2406669044851476 0.42214558790778223 0 0.2383998521777784 0.41818635087718381 0 0.2368791315523423 0.42061341875551328 0 0.2350244704201927 0.41211241555610317 0 0.2383998521777784 0.41818635087718381 0 0.23071198753859651 0.41572385516513549 0 0.2383998521777784 0.41818635087718381 0 0.2368791315523423 0.42061341875551328 0 0.2383998521777784 0.41818635087718381 0 0.2368791315523423 0.42061341875551328 0 0.22312475613875049 0.42078211493492951 0 0.23263083192196299 0.40530596533379709 0 0.2145024493426794 0.40932094283274068 0 0.23263083192196299 0.40530596533379709 0 0.22312475613875049 0.42078211493492951 0 0.2145024493426794 0.40932094283274068 0 0.2383998521777784 0.41818635087718381 0 0.22312475613875049 0.42078211493492951 0 0.2383998521777784 0.41818635087718381 0 0.23071198753859651 0.41572385516513549 0 0.22312475613875049 0.42078211493492951 0 0.23263083192196299 0.40530596533379709 0 0.2350244704201927 0.41211241555610317 0 0.23071198753859651 0.41572385516513549 0 0.23263083192196299 0.40530596533379709 0 0.23071198753859651 0.41572385516513549 0 0.22312475613875049 0.42078211493492951 0 0.23263083192196299 0.40530596533379709 0 0.22312475613875049 0.42078211493492951 0 0.2385665307870003 0.42747740564887549 0 0.2201031843229195 0.42570131593002969 0 0.2201031843229195 0.42570131593002969 0 0.21059740683120351 0.44117697990449289 0 0.23005064234993169 0.44460645584696262 0 0.2385665307870003 0.42747740564887549 0 0.22312475613875049 0.42078211493492951 0 0.2201031843229195 0.42570131593002969 0 0.22312475613875049 0.42078211493492951 0 0.2201031843229195 0.42570131593002969 0 0.2385665307870003 0.42747740564887549 0 0.2201031843229195 0.42570131593002969 0 0.23005064234993169 0.44460645584696262 0 0.2385665307870003 0.42747740564887549 0 0.2368791315523423 0.42061341875551328 0 0.22312475613875049 0.42078211493492951 0 0.22312475613875049 0.42078211493492951 0 0.2201031843229195 0.42570131593002969 0 0.20354836167302259 0.42410881749736329 0 0.20096476004407141 0.4356284052502909 0 0.202011140198494 0.4243700442839049 0 0.21059740683120351 0.44117697990449289 0 0.20354836167302259 0.42410881749736329 0 0.202011140198494 0.4243700442839049 0 0.21059740683120351 0.44117697990449289 0 0.2201031843229195 0.42570131593002969 0 0.21059740683120351 0.44117697990449289 0 0.2201031843229195 0.42570131593002969 0 0.20354836167302259 0.42410881749736329 0 0.21059740683120351 0.44117697990449289 0 0.2201031843229195 0.42570131593002969 0 0.20354836167302259 0.42410881749736329 0 0.202011140198494 0.4243700442839049 0 0.21059740683120351 0.44117697990449289 0 0.22312475613875049 0.42078211493492951 0 0.20354836167302259 0.42410881749736329 0 0.2145024493426794 0.40932094283274068 0 0.19637406676339619 0.41333592033168631 0 0.22312475613875049 0.42078211493492951 0 0.20354836167302259 0.42410881749736329 0 0.2145024493426794 0.40932094283274068 0 0.20429538739721931 0.40183734425620671 0 0.2145024493426794 0.40932094283274068 0 0.19637406676339619 0.41333592033168631 0 0.20354836167302259 0.42410881749736329 0 0.2145024493426794 0.40932094283274068 0 0.19637406676339619 0.41333592033168631 0 0.18398920852212189 0.42222731617319992 0 0.19637406676339619 0.41333592033168631 0 0.202011140198494 0.4243700442839049 0 0.20354836167302259 0.42410881749736329 0 0.19637406676339619 0.41333592033168631 0 0.202011140198494 0.4243700442839049 0 0.19637406676339619 0.41333592033168631 0 0.202011140198494 0.4243700442839049 0 0.19011185055861429 0.40107812901234902 0 0.19637406676339619 0.41333592033168631 0 0.18336528660720119 0.40768054205682042 0 0.19011185055861429 0.40107812901234902 0 0.19637406676339619 0.41333592033168631 0 0.18398920852212189 0.42222731617319992 0 0.202011140198494 0.4243700442839049 0 0.19310721835761019 0.42992761007563862 0 0.18398920852212189 0.42222731617319992 0 0.202011140198494 0.4243700442839049 0 0.20096476004407141 0.4356284052502909 0 0.19931207414017729 0.42860996549168562 0 0.19310721835761019 0.42992761007563862 0 0.19931207414017729 0.42860996549168562 0 0.202011140198494 0.4243700442839049 0 0.19310721835761019 0.42992761007563862 0 0.20096476004407141 0.4356284052502909 0 0.19931207414017729 0.42860996549168562 0 0.202011140198494 0.4243700442839049 0 0.20354836167302259 0.42410881749736329 0 0.202011140198494 0.4243700442839049 0 0.20096476004407141 0.4356284052502909 0 0.19310721835761019 0.42992761007563862 0 0.189468296445607 0.44161966517716561 0 0.189468296445607 0.44161966517716561 0 0.19808345402660399 0.44429013419941671 0 0.18816718916202771 0.45764189265325561 0 0.19808345402660399 0.44429013419941671 0 0.18816718916202771 0.45764189265325561 0 0.20509446468425149 0.45013591920339668 0 0.20096476004407141 0.4356284052502909 0 0.189468296445607 0.44161966517716561 0 0.19808345402660399 0.44429013419941671 0 0.18816718916202771 0.45764189265325561 0 0.2005182123172754 0.46504183791057307 0 0.20509446468425149 0.45013591920339668 0 0.18816718916202771 0.45764189265325561 0 0.2005182123172754 0.46504183791057307 0 0.18719455148605621 0.47613314112345201 0 0.2103116034304838 0.4602104470792151 0 0.21059740683120351 0.44117697990449289 0 0.22229140550900001 0.46406705440744211 0 0.2103116034304838 0.4602104470792151 0 0.22229140550900001 0.46406705440744211 0 0.21058997783642669 0.48154513501692131 0 0.2005182123172754 0.46504183791057307 0 0.2103116034304838 0.4602104470792151 0 0.20509446468425149 0.45013591920339668 0 0.21059740683120351 0.44117697990449289 0 0.22229140550900001 0.46406705440744211 0 0.2103116034304838 0.4602104470792151 0 0.21059740683120351 0.44117697990449289 0 0.20509446468425149 0.45013591920339668 0 0.20096476004407141 0.4356284052502909 0 0.19808345402660399 0.44429013419941671 0 0.21059740683120351 0.44117697990449289 0 0.19808345402660399 0.44429013419941671 0 0.21059740683120351 0.44117697990449289 0 0.20509446468425149 0.45013591920339668 0 0.21059740683120351 0.44117697990449289 0 0.20509446468425149 0.45013591920339668 0 0.21059740683120351 0.44117697990449289 0 0.23005064234993169 0.44460645584696262 0 0.22229140550900001 0.46406705440744211 0 0.23005064234993169 0.44460645584696262 0 0.22229140550900001 0.46406705440744211 0 0.24184120684035099 0.4581976946154846 0 0.22229140550900001 0.46406705440744211 0 0.24184120684035099 0.4581976946154846 0 0.24193409961780649 0.47367643658526698 0 0.24184120684035099 0.4581976946154846 0 0.2448364132796593 0.44231000148378752 0 0.25709847220363119 0.45283566357848187 0 0.23005064234993169 0.44460645584696262 0 0.24184120684035099 0.4581976946154846 0 0.2448364132796593 0.44231000148378752 0 0.2385665307870003 0.42747740564887549 0 0.23005064234993169 0.44460645584696262 0 0.2448364132796593 0.44231000148378752 0 0.24064869911215761 0.50000000000000244 0 0.24324303354975521 0.48909866857844392 0 0.2572356621087325 0.50000000000000155 0 0.24324303354975521 0.48909866857844392 0 0.2339854041867972 0.48695712891039089 0 0.24064869911215761 0.50000000000000244 0 0.24324303354975521 0.48909866857844392 0 0.2339854041867972 0.48695712891039089 0 0.24064869911215761 0.50000000000000244 0 0.2339854041867972 0.48695712891039089 0 0.24184120684035099 0.4581976946154846 0 0.24193409961780649 0.47367643658526698 0 0.25716706715618193 0.47641783178924169 0 0.24324303354975521 0.48909866857844392 0 0.24193409961780649 0.47367643658526698 0 0.25716706715618193 0.47641783178924169 0 0.24324303354975521 0.48909866857844392 0 0.24193409961780649 0.47367643658526698 0 0.2339854041867972 0.48695712891039089 0 0.22229140550900001 0.46406705440744211 0 0.24193409961780649 0.47367643658526698 0 0.2339854041867972 0.48695712891039089 0 0.22229140550900001 0.46406705440744211 0 0.2339854041867972 0.48695712891039089 0 0.22229140550900001 0.46406705440744211 0 0.2339854041867972 0.48695712891039089 0 0.21058997783642669 0.48154513501692131 0 0.2339854041867972 0.48695712891039089 0 0.21058997783642669 0.48154513501692131 0 0.2339854041867972 0.48695712891039089 0 0.21314400247467591 0.5 0 0.21058997783642669 0.48154513501692131 0 0.24064869911215761 0.50000000000000244 0 0.2339854041867972 0.48695712891039089 0 0.21314400247467591 0.5 0 0.21314400247467591 0.5 0 0.21058997783642669 0.48154513501692131 0 0.19841687033665559 0.48922266484742172 0 0.2005182123172754 0.46504183791057307 0 0.2103116034304838 0.4602104470792151 0 0.21058997783642669 0.48154513501692131 0 0.21058997783642669 0.48154513501692131 0 0.18719455148605621 0.47613314112345201 0 0.21058997783642669 0.48154513501692131 0 0.19841687033665559 0.48922266484742172 0 0.18719455148605621 0.47613314112345201 0 0.2005182123172754 0.46504183791057307 0 0.21058997783642669 0.48154513501692131 0 0.18719455148605621 0.47613314112345201 0 0.21314400247467591 0.5 0 0.19841687033665559 0.48922266484742172 0 0.18563930583719421 0.5 0 0.19841687033665559 0.48922266484742172 0 0.18563930583719421 0.5 0 0.18719455148605621 0.47613314112345201 0 0.18563930583719421 0.5 0 0.17133697046385701 0.48683307990629038 0 0.18719455148605621 0.47613314112345201 0 0.17133697046385701 0.48683307990629038 0 0.15813460919971251 0.5 0 0.1479106042039405 0.48283460682922269 0 0.18563930583719421 0.5 0 0.17133697046385701 0.48683307990629038 0 0.15813460919971251 0.5 0 0.17133697046385701 0.48683307990629038 0 0.16379912513568581 0.47072114722998237 0 0.1479106042039405 0.48283460682922269 0 0.17133697046385701 0.48683307990629038 0 0.16379912513568581 0.47072114722998237 0 0.18719455148605621 0.47613314112345201 0 0.16379912513568581 0.47072114722998237 0 0.18719455148605621 0.47613314112345201 0 0.18816718916202771 0.45764189265325561 0 0.16379912513568581 0.47072114722998237 0 0.18719455148605621 0.47613314112345201 0 0.18816718916202771 0.45764189265325561 0 0.16379912513568581 0.47072114722998237 0 0.1764896290127039 0.45007039086196288 0 0.1766721112776041 0.43405941705504181 0 0.1764896290127039 0.45007039086196288 0 0.16434142304259489 0.44630983219436898 0 0.189468296445607 0.44161966517716561 0 0.18816718916202771 0.45764189265325561 0 0.1764896290127039 0.45007039086196288 0 0.1766721112776041 0.43405941705504181 0 0.189468296445607 0.44161966517716561 0 0.1764896290127039 0.45007039086196288 0 0.15915405200730839 0.43380743940711708 0 0.1766721112776041 0.43405941705504181 0 0.16434142304259489 0.44630983219436898 0 0.15915405200730839 0.43380743940711708 0 0.16434142304259489 0.44630983219436898 0 0.1468621194973313 0.4432032004000479 0 0.16379912513568581 0.47072114722998237 0 0.1764896290127039 0.45007039086196288 0 0.16434142304259489 0.44630983219436898 0 0.16379912513568581 0.47072114722998237 0 0.16434142304259489 0.44630983219436898 0 0.15386760244336481 0.45613183796281243 0 0.16379912513568581 0.47072114722998237 0 0.15386760244336481 0.45613183796281243 0 0.14046774209784721 0.46429317202685039 0 0.15386760244336481 0.45613183796281243 0 0.1468621194973313 0.4432032004000479 0 0.14046774209784721 0.46429317202685039 0 0.16434142304259489 0.44630983219436898 0 0.15386760244336481 0.45613183796281243 0 0.1468621194973313 0.4432032004000479 0 0.1468621194973313 0.4432032004000479 0 0.128144127290927 0.44346528644618949 0 0.14046774209784721 0.46429317202685039 0 0.11648320602364499 0.46106604807885698 0 0.128144127290927 0.44346528644618949 0 0.14046774209784721 0.46429317202685039 0 0.11648320602364499 0.46106604807885698 0 0.14046774209784721 0.46429317202685039 0 0.12567845600013469 0.47929569400969452 0 0.14046774209784721 0.46429317202685039 0 0.12567845600013469 0.47929569400969452 0 0.1479106042039405 0.48283460682922269 0 0.12567845600013469 0.47929569400969452 0 0.1306299125622308 0.5 0 0.1479106042039405 0.48283460682922269 0 0.15813460919971251 0.5 0 0.1306299125622308 0.5 0 0.1479106042039405 0.48283460682922269 0 0.16379912513568581 0.47072114722998237 0 0.14046774209784721 0.46429317202685039 0 0.1479106042039405 0.48283460682922269 0 0.34528538451660062 0.47773379418631268 0 0.36004097027348331 0.48461391470660581 0 0.33995603526071178 0.48633656933393699 0 0.3490806650621458 0.46922782941321262 0 0.36004097027348331 0.48461391470660581 0 0.36717500093372668 0.46757054210475929 0 0.3490806650621458 0.46922782941321262 0 0.36004097027348331 0.48461391470660581 0 0.3490806650621458 0.46922782941321262 0 0.34528538451660062 0.47773379418631268 0 0.36004097027348331 0.48461391470660581 0 0.34701069105550569 0.5 0 0.36004097027348331 0.48461391470660581 0 0.33995603526071178 0.48633656933393699 0 0.34701069105550569 0.5 0 0.36004097027348331 0.48461391470660581 0 0.37100127548482031 0.49999999999999922 0 0.36004097027348331 0.48461391470660581 0 0.37100127548482031 0.49999999999999922 0 0.37501723488010369 0.48021086780116401 0 0.36004097027348331 0.48461391470660581 0 0.37100127548482031 0.49999999999999922 0 0.36004097027348331 0.48461391470660581 0 0.36717500093372668 0.46757054210475929 0 0.37501723488010369 0.48021086780116401 0 0.37143629651032872 0.45720686114999193 0 0.36367632925015653 0.45252291112370391 0 0.35567836915472589 0.45678778088016703 0 0.36415499449082389 0.46121224231392488 0 0.37143629651032872 0.45720686114999193 0 0.38198070339643708 0.45705904394289942 0 0.36415499449082389 0.46121224231392488 0 0.37143629651032872 0.45720686114999193 0 0.35567836915472589 0.45678778088016703 0 0.36415499449082389 0.46121224231392488 0 0.36717500093372668 0.46757054210475929 0 0.38198070339643708 0.45705904394289942 0 0.36415499449082389 0.46121224231392488 0 0.38198070339643708 0.45705904394289942 0 0.3490806650621458 0.46922782941321262 0 0.36415499449082389 0.46121224231392488 0 0.36717500093372668 0.46757054210475929 0 0.37143629651032872 0.45720686114999193 0 0.35567836915472589 0.45678778088016703 0 0.37143629651032872 0.45720686114999193 0 0.36657482697318761 0.446748226791508 0 0.38198070339643708 0.45705904394289942 0 0.36657482697318761 0.446748226791508 0 0.37193014631584848 0.42999924720615068 0 0.38198070339643708 0.45705904394289942 0 0.37143629651032872 0.45720686114999193 0 0.36367632925015653 0.45252291112370391 0 0.36657482697318761 0.446748226791508 0 0.36367632925015653 0.45252291112370391 0 0.36657482697318761 0.446748226791508 0 0.3562845012834378 0.4482926986491193 0 0.34808057550305938 0.44600590612250468 0 0.35567836915472589 0.45678778088016703 0 0.33992044179912329 0.45636870061034079 0 0.36657482697318761 0.446748226791508 0 0.3562845012834378 0.4482926986491193 0 0.35414098508291708 0.43540859867718368 0 0.3562845012834378 0.4482926986491193 0 0.34808057550305938 0.44600590612250468 0 0.35414098508291708 0.43540859867718368 0 0.36367632925015653 0.45252291112370391 0 0.3562845012834378 0.4482926986491193 0 0.35567836915472589 0.45678778088016703 0 0.3562845012834378 0.4482926986491193 0 0.34808057550305938 0.44600590612250468 0 0.35567836915472589 0.45678778088016703 0 0.34808057550305938 0.44600590612250468 0 0.33961570140635172 0.4362099185178574 0 0.35414098508291708 0.43540859867718368 0 0.35567836915472589 0.45678778088016703 0 0.34632928558521042 0.46536544068494828 0 0.33992044179912329 0.45636870061034079 0 0.35567836915472589 0.45678778088016703 0 0.33992044179912329 0.45636870061034079 0 0.3490806650621458 0.46922782941321262 0 0.36415499449082389 0.46121224231392488 0 0.34632928558521042 0.46536544068494828 0 0.3490806650621458 0.46922782941321262 0 0.36717500093372668 0.46757054210475929 0 0.36415499449082389 0.46121224231392488 0 0.35567836915472589 0.45678778088016703 0 0.34632928558521042 0.46536544068494828 0 0.36415499449082389 0.46121224231392488 0 0.34632928558521042 0.46536544068494828 0 0.3490806650621458 0.46922782941321262 0 0.34632928558521042 0.46536544068494828 0 0.3490806650621458 0.46922782941321262 0 0.34632928558521042 0.46536544068494828 0 0.32696081697792789 0.47125381941113659 0 0.34632928558521042 0.46536544068494828 0 0.32521862645877231 0.47028399711148339 0 0.34632928558521042 0.46536544068494828 0 0.33992044179912329 0.45636870061034079 0 0.32521862645877231 0.47028399711148339 0 0.34632928558521042 0.46536544068494828 0 0.33992044179912329 0.45636870061034079 0 0.34808057550305938 0.44600590612250468 0 0.3323541236552271 0.44574709709892307 0 0.33961570140635172 0.4362099185178574 0 0.33992044179912329 0.45636870061034079 0 0.3323541236552271 0.44574709709892307 0 0.32253421818534123 0.44684829148095362 0 0.34808057550305938 0.44600590612250468 0 0.33992044179912329 0.45636870061034079 0 0.3323541236552271 0.44574709709892307 0 0.33992044179912329 0.45636870061034079 0 0.3323541236552271 0.44574709709892307 0 0.3323541236552271 0.44574709709892307 0 0.32610359684421192 0.43678193879044119 0 0.33961570140635172 0.4362099185178574 0 0.33992044179912329 0.45636870061034079 0 0.32253421818534123 0.44684829148095362 0 0.3152464127007425 0.45571249763777588 0 0.32253421818534123 0.44684829148095362 0 0.3152464127007425 0.45571249763777588 0 0.31209623941360759 0.43776564917250638 0 0.3152464127007425 0.45571249763777588 0 0.31209623941360759 0.43776564917250638 0 0.3323541236552271 0.44574709709892307 0 0.32253421818534123 0.44684829148095362 0 0.32610359684421192 0.43678193879044119 0 0.32253421818534123 0.44684829148095362 0 0.31209623941360759 0.43776564917250638 0 0.32610359684421192 0.43678193879044119 0 0.33992044179912329 0.45636870061034079 0 0.3152464127007425 0.45571249763777588 0 0.32521862645877231 0.47028399711148339 0 0.3152464127007425 0.45571249763777588 0 0.31913325966346701 0.47785624881888772 0 0.32521862645877231 0.47028399711148339 0 0.33992044179912329 0.45636870061034079 0 0.3152464127007425 0.45571249763777588 0 0.3152464127007425 0.45571249763777588 0 0.31913325966346701 0.47785624881888772 0 0.30420975952634299 0.46947331586472302 0 0.3152464127007425 0.45571249763777588 0 0.31913325966346701 0.47785624881888772 0 0.31913325966346701 0.47785624881888772 0 0.32591742888426312 0.47548348654552591 0 0.329001796240801 0.48161473987402198 0 0.32591742888426312 0.47548348654552591 0 0.32927264508034731 0.47640862751209928 0 0.329001796240801 0.48161473987402198 0 0.31913325966346701 0.47785624881888772 0 0.32591742888426312 0.47548348654552591 0 0.32521862645877231 0.47028399711148339 0 0.32591742888426312 0.47548348654552591 0 0.32696081697792789 0.47125381941113659 0 0.32927264508034731 0.47640862751209928 0 0.32591742888426312 0.47548348654552591 0 0.32521862645877231 0.47028399711148339 0 0.32696081697792789 0.47125381941113659 0 0.3490806650621458 0.46922782941321262 0 0.32696081697792789 0.47125381941113659 0 0.33647616413196407 0.47630837646213342 0 0.34632928558521042 0.46536544068494828 0 0.32521862645877231 0.47028399711148339 0 0.32696081697792789 0.47125381941113659 0 0.32696081697792789 0.47125381941113659 0 0.32927264508034731 0.47640862751209928 0 0.33647616413196407 0.47630837646213342 0 0.3490806650621458 0.46922782941321262 0 0.32696081697792789 0.47125381941113659 0 0.32927264508034731 0.47640862751209928 0 0.329001796240801 0.48161473987402198 0 0.33647616413196407 0.47630837646213342 0 0.329001796240801 0.48161473987402198 0 0.33647616413196407 0.47630837646213342 0 0.33995603526071178 0.48633656933393699 0 0.34528538451660062 0.47773379418631268 0 0.33647616413196407 0.47630837646213342 0 0.33995603526071178 0.48633656933393699 0 0.3490806650621458 0.46922782941321262 0 0.34528538451660062 0.47773379418631268 0 0.33647616413196407 0.47630837646213342 0 0.329001796240801 0.48161473987402198 0 0.33995603526071178 0.48633656933393699 0 0.32302010662619118 0.49999999999999961 0 0.34701069105550569 0.5 0 0.33995603526071178 0.48633656933393699 0 0.32302010662619118 0.49999999999999961 0 0.31913325966346701 0.47785624881888772 0 0.32302010662619118 0.49999999999999961 0 0.30499869470741492 0.48476163660817662 0 0.31913325966346701 0.47785624881888772 0 0.329001796240801 0.48161473987402198 0 0.32302010662619118 0.49999999999999961 0 0.31913325966346701 0.47785624881888772 0 0.32302010662619118 0.49999999999999961 0 0.30109195845370501 0.5 0 0.30499869470741492 0.48476163660817662 0 0.28958375731165181 0.48005255167767952 0 0.32302010662619118 0.49999999999999961 0 0.30109195845370501 0.5 0 0.30499869470741492 0.48476163660817662 0 0.31913325966346701 0.47785624881888772 0 0.30499869470741492 0.48476163660817662 0 0.30420975952634299 0.46947331586472302 0 0.30499869470741492 0.48476163660817662 0 0.30420975952634299 0.46947331586472302 0 0.28958375731165181 0.48005255167767952 0 0.30109195845370501 0.5 0 0.28958375731165181 0.48005255167767952 0 0.27916381028121873 0.5 0 0.27916381028121873 0.5 0 0.27240166341444522 0.48425749185169831 0 0.2572356621087325 0.50000000000000155 0 0.28958375731165181 0.48005255167767952 0 0.27916381028121873 0.5 0 0.27240166341444522 0.48425749185169831 0 0.27240166341444522 0.48425749185169831 0 0.25716706715618193 0.47641783178924169 0 0.27345808637904001 0.4661952126215072 0 0.28958375731165181 0.48005255167767952 0 0.27240166341444522 0.48425749185169831 0 0.27345808637904001 0.4661952126215072 0 0.25716706715618193 0.47641783178924169 0 0.2572356621087325 0.50000000000000155 0 0.24324303354975521 0.48909866857844392 0 0.25716706715618193 0.47641783178924169 0 0.2572356621087325 0.50000000000000155 0 0.27240166341444522 0.48425749185169831 0 0.25716706715618193 0.47641783178924169 0 0.2572356621087325 0.50000000000000155 0 0.25709847220363119 0.45283566357848187 0 0.25702987725108101 0.42925349536772212 0 0.25709847220363119 0.45283566357848187 0 0.25702987725108101 0.42925349536772212 0 0.25836746492245471 0.43174768403659147 0 0.25709847220363119 0.45283566357848187 0 0.2660695066302855 0.43871015010979147 0 0.25836746492245471 0.43174768403659147 0 0.2448364132796593 0.44231000148378752 0 0.25709847220363119 0.45283566357848187 0 0.25702987725108101 0.42925349536772212 0 0.25716706715618193 0.47641783178924169 0 0.25709847220363119 0.45283566357848187 0 0.25716706715618193 0.47641783178924169 0 0.25709847220363119 0.45283566357848187 0 0.27345808637904001 0.4661952126215072 0 0.24184120684035099 0.4581976946154846 0 0.25716706715618193 0.47641783178924169 0 0.25709847220363119 0.45283566357848187 0 0.27345808637904001 0.4661952126215072 0 0.27379346358837398 0.44854793932786308 0 0.29070409459995628 0.45505979750407899 0 0.25709847220363119 0.45283566357848187 0 0.27345808637904001 0.4661952126215072 0 0.27379346358837398 0.44854793932786308 0 0.25709847220363119 0.45283566357848187 0 0.27379346358837398 0.44854793932786308 0 0.2660695066302855 0.43871015010979147 0 0.27379346358837398 0.44854793932786308 0 0.2660695066302855 0.43871015010979147 0 0.27312045032292342 0.43870088492299869 0 0.27379346358837398 0.44854793932786308 0 0.27312045032292342 0.43870088492299869 0 0.28291697042830632 0.43588410089467061 0 0.27379346358837398 0.44854793932786308 0 0.29070409459995628 0.45505979750407899 0 0.28291697042830632 0.43588410089467061 0 0.29070409459995628 0.45505979750407899 0 0.29777872383227422 0.43475991775429229 0 0.28291697042830632 0.43588410089467061 0 0.28958375731165181 0.48005255167767952 0 0.27345808637904001 0.4661952126215072 0 0.29070409459995628 0.45505979750407899 0 0.30420975952634299 0.46947331586472302 0 0.28958375731165181 0.48005255167767952 0 0.29070409459995628 0.45505979750407899 0 0.3152464127007425 0.45571249763777588 0 0.30420975952634299 0.46947331586472302 0 0.29070409459995628 0.45505979750407899 0 0.3152464127007425 0.45571249763777588 0 0.29070409459995628 0.45505979750407899 0 0.3152464127007425 0.45571249763777588 0 0.29070409459995628 0.45505979750407899 0 0.31209623941360759 0.43776564917250638 0 0.29070409459995628 0.45505979750407899 0 0.31209623941360759 0.43776564917250638 0 0.29777872383227422 0.43475991775429229 0 0.29777872383227422 0.43475991775429229 0 0.28982240375417168 0.42299913491174501 0 0.31495791781995791 0.41600820478279921 0 0.31209623941360759 0.43776564917250638 0 0.29777872383227422 0.43475991775429229 0 0.31495791781995791 0.41600820478279921 0 0.28982240375417168 0.42299913491174501 0 0.31495791781995791 0.41600820478279921 0 0.28950248352475311 0.4095022566254774 0 0.28982240375417168 0.42299913491174501 0 0.31495791781995791 0.41600820478279921 0 0.28950248352475311 0.4095022566254774 0 0.29925209770985872 0.40107025153885512 0 0.31495791781995791 0.41600820478279921 0 0.28950248352475311 0.4095022566254774 0 0.28982240375417168 0.42299913491174501 0 0.27496603255160451 0.42014298348928741 0 0.29777872383227422 0.43475991775429229 0 0.28982240375417168 0.42299913491174501 0 0.28291697042830632 0.43588410089467061 0 0.28982240375417168 0.42299913491174501 0 0.26935029905594432 0.43043866375212297 0 0.26468688968838561 0.42999006504069143 0 0.27312045032292342 0.43870088492299869 0 0.28291697042830632 0.43588410089467061 0 0.26935029905594432 0.43043866375212297 0 0.28982240375417168 0.42299913491174501 0 0.26468688968838561 0.42999006504069143 0 0.28982240375417168 0.42299913491174501 0 0.28291697042830632 0.43588410089467061 0 0.26935029905594432 0.43043866375212297 0 0.28982240375417168 0.42299913491174501 0 0.27496603255160451 0.42014298348928741 0 0.26468688968838561 0.42999006504069143 0 0.2660695066302855 0.43871015010979147 0 0.26935029905594432 0.43043866375212297 0 0.26468688968838561 0.42999006504069143 0 0.2660695066302855 0.43871015010979147 0 0.27312045032292342 0.43870088492299869 0 0.26935029905594432 0.43043866375212297 0 0.26935029905594432 0.43043866375212297 0 0.26468688968838561 0.42999006504069143 0 0.27496603255160451 0.42014298348928741 0 0.26468688968838561 0.42999006504069143 0 0.2651281327625446 0.42188031555685962 0 0.28950248352475311 0.4095022566254774 0 0.26395116785126571 0.41384430375133069 0 0.28950248352475311 0.4095022566254774 0 0.27496603255160451 0.42014298348928741 0 0.26395116785126571 0.41384430375133069 0 0.28950248352475311 0.4095022566254774 0 0.26395116785126571 0.41384430375133069 0 0.27343145984221179 0.40601604463393609 0 0.26395116785126571 0.41384430375133069 0 0.26299804800527138 0.40191116090260848 0 0.27343145984221179 0.40601604463393609 0 0.27496603255160451 0.42014298348928741 0 0.26395116785126571 0.41384430375133069 0 0.2651281327625446 0.42188031555685962 0 0.26395116785126571 0.41384430375133069 0 0.25700903327720531 0.4220875730974884 0 0.2651281327625446 0.42188031555685962 0 0.2383998521777784 0.41818635087718381 0 0.26395116785126571 0.41384430375133069 0 0.25380059083303341 0.40846212201461762 0 0.2488221034234695 0.4223051763495565 0 0.2383998521777784 0.41818635087718381 0 0.26395116785126571 0.41384430375133069 0 0.2383998521777784 0.41818635087718381 0 0.26395116785126571 0.41384430375133069 0 0.26395116785126571 0.41384430375133069 0 0.25380059083303341 0.40846212201461762 0 0.26299804800527138 0.40191116090260848 0 0.2488221034234695 0.4223051763495565 0 0.26395116785126571 0.41384430375133069 0 0.25700903327720531 0.4220875730974884 0 0.2488221034234695 0.4223051763495565 0 0.25700903327720531 0.4220875730974884 0 0.25702987725108101 0.42925349536772212 0 0.25700903327720531 0.4220875730974884 0 0.25702987725108101 0.42925349536772212 0 0.25836746492245471 0.43174768403659147 0 0.26468688968838561 0.42999006504069143 0 0.25702987725108101 0.42925349536772212 0 0.25836746492245471 0.43174768403659147 0 0.26468688968838561 0.42999006504069143 0 0.2660695066302855 0.43871015010979147 0 0.25836746492245471 0.43174768403659147 0 0.26468688968838561 0.42999006504069143 0 0.25702987725108101 0.42925349536772212 0 0.26468688968838561 0.42999006504069143 0 0.2651281327625446 0.42188031555685962 0 0.25700903327720531 0.4220875730974884 0 0.25702987725108101 0.42925349536772212 0 0.2651281327625446 0.42188031555685962 0 0.25702987725108101 0.42925349536772212 0 0.26468688968838561 0.42999006504069143 0 0.24985329529781791 0.39990667252734718 0 0.247713784970646 0.38075050805242922 0 0.26130673841785779 0.38162699417751078 0 0.26130673841785779 0.38162699417751078 0 0.25751014003425049 0.39127202551525408 0 0.26130673841785779 0.38162699417751078 0 0.25751014003425049 0.39127202551525408 0 0.26555566989124457 0.39385691981445009 0 0.247713784970646 0.38075050805242922 0 0.26130673841785779 0.38162699417751078 0 0.25490457918629872 0.37507349251653871 0 0.24985329529781791 0.39990667252734718 0 0.26130673841785779 0.38162699417751078 0 0.24985329529781791 0.39990667252734718 0 0.26130673841785779 0.38162699417751078 0 0.25751014003425049 0.39127202551525408 0 0.24985329529781791 0.39990667252734718 0 0.25751014003425049 0.39127202551525408 0 0.26299804800527138 0.40191116090260848 0 0.24985329529781791 0.39990667252734718 0 0.25380059083303341 0.40846212201461762 0 0.26299804800527138 0.40191116090260848 0 0.25751014003425049 0.39127202551525408 0 0.26299804800527138 0.40191116090260848 0 0.26555566989124457 0.39385691981445009 0 0.26555566989124457 0.39385691981445009 0 0.27430006382294309 0.39784586166294189 0 0.27120134665021761 0.38756895009831732 0 0.26299804800527138 0.40191116090260848 0 0.26555566989124457 0.39385691981445009 0 0.27430006382294309 0.39784586166294189 0 0.26299804800527138 0.40191116090260848 0 0.27343145984221179 0.40601604463393609 0 0.27430006382294309 0.39784586166294189 0 0.27343145984221179 0.40601604463393609 0 0.28106797903805247 0.40257602375425933 0 0.27430006382294309 0.39784586166294189 0 0.28106797903805247 0.40257602375425933 0 0.27430006382294309 0.39784586166294189 0 0.28703790896230208 0.39693993209468148 0 0.27430006382294309 0.39784586166294189 0 0.27993136792368678 0.39059144184020128 0 0.27120134665021761 0.38756895009831732 0 0.27430006382294309 0.39784586166294189 0 0.27993136792368678 0.39059144184020128 0 0.28703790896230208 0.39693993209468148 0 0.27993136792368678 0.39059144184020128 0 0.27120134665021761 0.38756895009831732 0 0.27779903165459169 0.3822920493098666 0 0.26130673841785779 0.38162699417751078 0 0.26555566989124457 0.39385691981445009 0 0.27120134665021761 0.38756895009831732 0 0.27120134665021761 0.38756895009831732 0 0.27107463499663109 0.37851234507980008 0 0.27779903165459169 0.3822920493098666 0 0.26130673841785779 0.38162699417751078 0 0.27120134665021761 0.38756895009831732 0 0.27107463499663109 0.37851234507980008 0 0.27107463499663109 0.37851234507980008 0 0.27779903165459169 0.3822920493098666 0 0.2766490591355068 0.37433388147839908 0 0.27779903165459169 0.3822920493098666 0 0.28390095120816711 0.37562544504190132 0 0.2766490591355068 0.37433388147839908 0 0.28390095120816711 0.37562544504190132 0 0.28652318226166418 0.38492160690775928 0 0.29373006398809498 0.37700175091789651 0 0.27779903165459169 0.3822920493098666 0 0.28390095120816711 0.37562544504190132 0 0.28652318226166418 0.38492160690775928 0 0.27993136792368678 0.39059144184020128 0 0.27779903165459169 0.3822920493098666 0 0.28652318226166418 0.38492160690775928 0 0.28652318226166418 0.38492160690775928 0 0.29667622102462171 0.38885955313607279 0 0.28703790896230208 0.39693993209468148 0 0.28652318226166418 0.38492160690775928 0 0.29667622102462171 0.38885955313607279 0 0.29373006398809498 0.37700175091789651 0 0.28950248352475311 0.4095022566254774 0 0.27343145984221179 0.40601604463393609 0 0.28106797903805247 0.40257602375425933 0 0.28950248352475311 0.4095022566254774 0 0.28106797903805247 0.40257602375425933 0 0.28703790896230208 0.39693993209468148 0 0.27993136792368678 0.39059144184020128 0 0.28652318226166418 0.38492160690775928 0 0.28703790896230208 0.39693993209468148 0 0.29667622102462171 0.38885955313607279 0 0.28703790896230208 0.39693993209468148 0 0.29925209770985872 0.40107025153885512 0 0.28950248352475311 0.4095022566254774 0 0.28703790896230208 0.39693993209468148 0 0.29925209770985872 0.40107025153885512 0 0.29925209770985872 0.40107025153885512 0 0.30808595721765852 0.39404131105524431 0 0.31495791781995791 0.41600820478279921 0 0.29667622102462171 0.38885955313607279 0 0.29925209770985872 0.40107025153885512 0 0.30808595721765852 0.39404131105524431 0 0.29667622102462171 0.38885955313607279 0 0.29373006398809498 0.37700175091789651 0 0.30704607127102962 0.37874789135054893 0 0.29667622102462171 0.38885955313607279 0 0.30808595721765852 0.39404131105524431 0 0.30704607127102962 0.37874789135054893 0 0.30808595721765852 0.39404131105524431 0 0.30704607127102962 0.37874789135054893 0 0.32845424032326143 0.38484820442882378 0 0.32845424032326143 0.38484820442882378 0 0.35182903215467742 0.3758796537326512 0 0.34790646022865218 0.39538457505576469 0 0.32845424032326143 0.38484820442882378 0 0.35182903215467742 0.3758796537326512 0 0.33494999436834533 0.36683291921078343 0 0.32845424032326143 0.38484820442882378 0 0.34009343188574281 0.40901727465384918 0 0.34790646022865218 0.39538457505576469 0 0.32845424032326143 0.38484820442882378 0 0.34009343188574281 0.40901727465384918 0 0.32845424032326143 0.38484820442882378 0 0.31495791781995791 0.41600820478279921 0 0.34009343188574281 0.40901727465384918 0 0.30808595721765852 0.39404131105524431 0 0.32845424032326143 0.38484820442882378 0 0.31495791781995791 0.41600820478279921 0 0.31495791781995791 0.41600820478279921 0 0.32365546110746413 0.42694996431045568 0 0.33527312640506091 0.41934143736272778 0 0.31495791781995791 0.41600820478279921 0 0.34009343188574281 0.40901727465384918 0 0.31209623941360759 0.43776564917250638 0 0.31495791781995791 0.41600820478279921 0 0.32365546110746413 0.42694996431045568 0 0.32365546110746413 0.42694996431045568 0 0.32610359684421192 0.43678193879044119 0 0.33309445048640007 0.42842800460629599 0 0.31209623941360759 0.43776564917250638 0 0.32365546110746413 0.42694996431045568 0 0.32610359684421192 0.43678193879044119 0 0.32610359684421192 0.43678193879044119 0 0.33309445048640007 0.42842800460629599 0 0.33961570140635172 0.4362099185178574 0 0.32365546110746413 0.42694996431045568 0 0.33309445048640007 0.42842800460629599 0 0.33527312640506091 0.41934143736272778 0 0.33309445048640007 0.42842800460629599 0 0.33527312640506091 0.41934143736272778 0 0.34392047686629479 0.42488796581179539 0 0.33309445048640007 0.42842800460629599 0 0.33961570140635172 0.4362099185178574 0 0.34392047686629479 0.42488796581179539 0 0.31495791781995791 0.41600820478279921 0 0.33527312640506091 0.41934143736272778 0 0.34009343188574281 0.40901727465384918 0 0.33527312640506091 0.41934143736272778 0 0.34212939465805281 0.41814630590263291 0 0.34392047686629479 0.42488796581179539 0 0.33527312640506091 0.41934143736272778 0 0.34212939465805281 0.41814630590263291 0 0.34186442441667098 0.41269478460960501 0 0.34212939465805281 0.41814630590263291 0 0.34186442441667098 0.41269478460960501 0 0.34552380666320143 0.41323543455967687 0 0.34186442441667098 0.41269478460960501 0 0.34009343188574281 0.40901727465384918 0 0.34552380666320143 0.41323543455967687 0 0.33527312640506091 0.41934143736272778 0 0.34186442441667098 0.41269478460960501 0 0.34009343188574281 0.40901727465384918 0 0.34186442441667098 0.41269478460960501 0 0.34009343188574281 0.40901727465384918 0 0.34009343188574281 0.40901727465384918 0 0.35091829865975332 0.41092335925812529 0 0.35727600754431599 0.40423829199409889 0 0.34009343188574281 0.40901727465384918 0 0.35727600754431599 0.40423829199409889 0 0.34009343188574281 0.40901727465384918 0 0.35091829865975332 0.41092335925812529 0 0.34552380666320143 0.41323543455967687 0 0.35091829865975332 0.41092335925812529 0 0.34552380666320143 0.41323543455967687 0 0.34772672207850669 0.4169791994607831 0 0.34212939465805281 0.41814630590263291 0 0.34772672207850669 0.4169791994607831 0 0.34392047686629479 0.42488796581179539 0 0.34212939465805281 0.41814630590263291 0 0.34552380666320143 0.41323543455967687 0 0.34772672207850669 0.4169791994607831 0 0.34772672207850669 0.4169791994607831 0 0.35532758082363769 0.41783269502340331 0 0.34392047686629479 0.42488796581179539 0 0.35091829865975332 0.41092335925812529 0 0.34772672207850669 0.4169791994607831 0 0.35532758082363769 0.41783269502340331 0 0.35091829865975332 0.41092335925812529 0 0.35532758082363769 0.41783269502340331 0 0.35727600754431599 0.40423829199409889 0 0.35532758082363769 0.41783269502340331 0 0.36187958923526292 0.40293945046940088 0 0.35727600754431599 0.40423829199409889 0 0.35532758082363769 0.41783269502340331 0 0.34392047686629479 0.42488796581179539 0 0.35414098508291708 0.43540859867718368 0 0.33961570140635172 0.4362099185178574 0 0.34392047686629479 0.42488796581179539 0 0.35414098508291708 0.43540859867718368 0 0.35532758082363769 0.41783269502340331 0 0.35414098508291708 0.43540859867718368 0 0.37193014631584848 0.42999924720615068 0 0.36657482697318761 0.446748226791508 0 0.35414098508291708 0.43540859867718368 0 0.37193014631584848 0.42999924720615068 0 0.35532758082363769 0.41783269502340331 0 0.37193014631584848 0.42999924720615068 0 0.36187958923526292 0.40293945046940088 0 0.37193014631584848 0.42999924720615068 0 0.36187958923526292 0.40293945046940088 0 0.37193014631584848 0.42999924720615068 0 0.36187958923526292 0.40293945046940088 0 0.39091832328282361 0.41087193027100549 0 0.36187958923526292 0.40293945046940088 0 0.35182903215467742 0.3758796537326512 0 0.37807898130569972 0.38198010331448301 0 0.36187958923526292 0.40293945046940088 0 0.35182903215467742 0.3758796537326512 0 0.36187958923526292 0.40293945046940088 0 0.35182903215467742 0.3758796537326512 0 0.34790646022865218 0.39538457505576469 0 0.34009343188574281 0.40901727465384918 0 0.34790646022865218 0.39538457505576469 0 0.35727600754431599 0.40423829199409889 0 0.36187958923526292 0.40293945046940088 0 0.34790646022865218 0.39538457505576469 0 0.35727600754431599 0.40423829199409889 0 0.35182903215467742 0.3758796537326512 0 0.3722477765496085 0.35016695762591221 0 0.37807898130569972 0.38198010331448301 0 0.35182903215467742 0.3758796537326512 0 0.3722477765496085 0.35016695762591221 0 0.34177847507409181 0.34881985699590151 0 0.35182903215467742 0.3758796537326512 0 0.34177847507409181 0.34881985699590151 0 0.3722477765496085 0.35016695762591221 0 0.37069175466933912 0.32875176142968793 0 0.35660426620688718 0.33158813156598749 0 0.3722477765496085 0.35016695762591221 0 0.37069175466933912 0.32875176142968793 0 0.38018026091455548 0.33583017463534492 0 0.36908544359869788 0.31711993858565868 0 0.37552929986171052 0.31147094895867028 0 0.37512131353827649 0.31993777409944391 0 0.37069175466933912 0.32875176142968793 0 0.36908544359869788 0.31711993858565868 0 0.37512131353827649 0.31993777409944391 0 0.37069175466933912 0.32875176142968793 0 0.36908544359869788 0.31711993858565868 0 0.36227265828944472 0.32102596309161863 0 0.37069175466933912 0.32875176142968793 0 0.36227265828944472 0.32102596309161863 0 0.35660426620688718 0.33158813156598749 0 0.36908544359869788 0.31711993858565868 0 0.36216199407232552 0.31421251507807352 0 0.36873564116109159 0.30732066885645792 0 0.36908544359869788 0.31711993858565868 0 0.36227265828944472 0.32102596309161863 0 0.36216199407232552 0.31421251507807352 0 0.36227265828944472 0.32102596309161863 0 0.36216199407232552 0.31421251507807352 0 0.35548040964913802 0.3182867922552447 0 0.33172791799350532 0.32176006025915199 0 0.34669185149407039 0.31235854363774268 0 0.35483192959872478 0.30892549123100937 0 0.34679263072992478 0.32222161781041447 0 0.33172791799350532 0.32176006025915199 0 0.35483192959872478 0.30892549123100937 0 0.35548040964913802 0.3182867922552447 0 0.34679263072992478 0.32222161781041447 0 0.35483192959872478 0.30892549123100937 0 0.36216199407232552 0.31421251507807352 0 0.35548040964913802 0.3182867922552447 0 0.35483192959872478 0.30892549123100937 0 0.35548040964913802 0.3182867922552447 0 0.34679263072992478 0.32222161781041447 0 0.35660426620688718 0.33158813156598749 0 0.36227265828944472 0.32102596309161863 0 0.35548040964913802 0.3182867922552447 0 0.35660426620688718 0.33158813156598749 0 0.34679263072992478 0.32222161781041447 0 0.35660426620688718 0.33158813156598749 0 0.34177847507409181 0.34881985699590151 0 0.3722477765496085 0.35016695762591221 0 0.35660426620688718 0.33158813156598749 0 0.34177847507409181 0.34881985699590151 0 0.33172791799350532 0.32176006025915199 0 0.32481653016515311 0.34395618279456119 0 0.34177847507409181 0.34881985699590151 0 0.34679263072992478 0.32222161781041447 0 0.33172791799350532 0.32176006025915199 0 0.34177847507409181 0.34881985699590151 0 0.33172791799350532 0.32176006025915199 0 0.34177847507409181 0.34881985699590151 0 0.33172791799350532 0.32176006025915199 0 0.35483192959872478 0.30892549123100937 0 0.33172791799350532 0.32176006025915199 0 0.33433715661558527 0.30915126849091529 0 0.34669185149407039 0.31235854363774268 0 0.33172791799350532 0.32176006025915199 0 0.32649517228490349 0.30767158395733452 0 0.33433715661558527 0.30915126849091529 0 0.33172791799350532 0.32176006025915199 0 0.32649517228490349 0.30767158395733452 0 0.33172791799350532 0.32176006025915199 0 0.31845188759589887 0.32913506211895882 0 0.3124215414252603 0.31463851826348332 0 0.33172791799350532 0.32176006025915199 0 0.3124215414252603 0.31463851826348332 0 0.32649517228490349 0.30767158395733452 0 0.33172791799350532 0.32176006025915199 0 0.31845188759589887 0.32913506211895882 0 0.33172791799350532 0.32176006025915199 0 0.31845188759589887 0.32913506211895882 0 0.32481653016515311 0.34395618279456119 0 0.31845188759589887 0.32913506211895882 0 0.32481653016515311 0.34395618279456119 0 0.3051758571982971 0.3365100639787737 0 0.32481653016515311 0.34395618279456119 0 0.31681504876077932 0.36067913420379871 0 0.3051758571982971 0.3365100639787737 0 0.32481653016515311 0.34395618279456119 0 0.33494999436834533 0.36683291921078343 0 0.31681504876077932 0.36067913420379871 0 0.32481653016515311 0.34395618279456119 0 0.34177847507409181 0.34881985699590151 0 0.33494999436834533 0.36683291921078343 0 0.35182903215467742 0.3758796537326512 0 0.34177847507409181 0.34881985699590151 0 0.33494999436834533 0.36683291921078343 0 0.30704607127102962 0.37874789135054893 0 0.32845424032326143 0.38484820442882378 0 0.31681504876077932 0.36067913420379871 0 0.32845424032326143 0.38484820442882378 0 0.31681504876077932 0.36067913420379871 0 0.32845424032326143 0.38484820442882378 0 0.33494999436834533 0.36683291921078343 0 0.31681504876077932 0.36067913420379871 0 0.30704607127102962 0.37874789135054893 0 0.31681504876077932 0.36067913420379871 0 0.30062517624183088 0.36676896646786628 0 0.31681504876077932 0.36067913420379871 0 0.30062517624183088 0.36676896646786628 0 0.29985560249366611 0.35416009340586768 0 0.29373006398809498 0.37700175091789651 0 0.30704607127102962 0.37874789135054893 0 0.30062517624183088 0.36676896646786628 0 0.31681504876077932 0.36067913420379871 0 0.3051758571982971 0.3365100639787737 0 0.31681504876077932 0.36067913420379871 0 0.29985560249366611 0.35416009340586768 0 0.3051758571982971 0.3365100639787737 0 0.29985560249366611 0.35416009340586768 0 0.29642893485056382 0.34373170356788069 0 0.3051758571982971 0.3365100639787737 0 0.29156997961887149 0.34921014654590388 0 0.28547266882539629 0.3430582048410174 0 0.29642893485056382 0.34373170356788069 0 0.29985560249366611 0.35416009340586768 0 0.29156997961887149 0.34921014654590388 0 0.29642893485056382 0.34373170356788069 0 0.29985560249366611 0.35416009340586768 0 0.2845227123058599 0.35589058436884952 0 0.28847801066549428 0.36644572303251932 0 0.29985560249366611 0.35416009340586768 0 0.29156997961887149 0.34921014654590388 0 0.2845227123058599 0.35589058436884952 0 0.29156997961887149 0.34921014654590388 0 0.2845227123058599 0.35589058436884952 0 0.28547266882539629 0.3430582048410174 0 0.29373006398809498 0.37700175091789651 0 0.30062517624183088 0.36676896646786628 0 0.28847801066549428 0.36644572303251932 0 0.30062517624183088 0.36676896646786628 0 0.29985560249366611 0.35416009340586768 0 0.28847801066549428 0.36644572303251932 0 0.2845227123058599 0.35589058436884952 0 0.28170395393251652 0.36324765217496502 0 0.28847801066549428 0.36644572303251932 0 0.28170395393251652 0.36324765217496502 0 0.28847801066549428 0.36644572303251932 0 0.28042538913708492 0.36831170178922717 0 0.28390095120816711 0.37562544504190132 0 0.29373006398809498 0.37700175091789651 0 0.28847801066549428 0.36644572303251932 0 0.28390095120816711 0.37562544504190132 0 0.28847801066549428 0.36644572303251932 0 0.28042538913708492 0.36831170178922717 0 0.28042538913708492 0.36831170178922717 0 0.2766490591355068 0.37433388147839908 0 0.27338970362162712 0.36234259950926417 0 0.26130673841785779 0.38162699417751078 0 0.27338970362162712 0.36234259950926417 0 0.26130673841785779 0.38162699417751078 0 0.27338970362162712 0.36234259950926417 0 0.27075156819252399 0.35763296848608189 0 0.26130673841785779 0.38162699417751078 0 0.27107463499663109 0.37851234507980008 0 0.27338970362162712 0.36234259950926417 0 0.26130673841785779 0.38162699417751078 0 0.27075156819252399 0.35763296848608189 0 0.27107463499663109 0.37851234507980008 0 0.2766490591355068 0.37433388147839908 0 0.27338970362162712 0.36234259950926417 0 0.28390095120816711 0.37562544504190132 0 0.28042538913708492 0.36831170178922717 0 0.2766490591355068 0.37433388147839908 0 0.28170395393251652 0.36324765217496502 0 0.28042538913708492 0.36831170178922717 0 0.27338970362162712 0.36234259950926417 0 0.2845227123058599 0.35589058436884952 0 0.28170395393251652 0.36324765217496502 0 0.27338970362162712 0.36234259950926417 0 0.27075156819252399 0.35763296848608189 0 0.26558463596339632 0.34150625501184179 0 0.28019639796719031 0.33363894279465311 0 0.27075156819252399 0.35763296848608189 0 0.28019639796719031 0.33363894279465311 0 0.28547266882539629 0.3430582048410174 0 0.2845227123058599 0.35589058436884952 0 0.27338970362162712 0.36234259950926417 0 0.28547266882539629 0.3430582048410174 0 0.27075156819252399 0.35763296848608189 0 0.28019639796719031 0.33363894279465311 0 0.27338970362162712 0.36234259950926417 0 0.28547266882539629 0.3430582048410174 0 0.27338970362162712 0.36234259950926417 0 0.27075156819252399 0.35763296848608189 0 0.28547266882539629 0.3430582048410174 0 0.27075156819252399 0.35763296848608189 0 0.25711451900508148 0.35258648987221092 0 0.26558463596339632 0.34150625501184179 0 0.2438273554430464 0.34812574592335249 0 0.25711451900508148 0.35258648987221092 0 0.25235619873932041 0.33556187677713623 0 0.27075156819252399 0.35763296848608189 0 0.25711451900508148 0.35258648987221092 0 0.25830082874688443 0.36636652218621663 0 0.26130673841785779 0.38162699417751078 0 0.27075156819252399 0.35763296848608189 0 0.25830082874688443 0.36636652218621663 0 0.2444030594993066 0.36261468031945582 0 0.25711451900508148 0.35258648987221092 0 0.25830082874688443 0.36636652218621663 0 0.2444030594993066 0.36261468031945582 0 0.25490457918629872 0.37507349251653871 0 0.25830082874688443 0.36636652218621663 0 0.26130673841785779 0.38162699417751078 0 0.25490457918629872 0.37507349251653871 0 0.25830082874688443 0.36636652218621663 0 0.2412863906095909 0.31706614216088019 0 0.25496362040665271 0.32267745764425643 0 0.26071219069447599 0.31197788889560879 0 0.25496362040665271 0.32267745764425643 0 0.26589958482641279 0.32752631364072038 0 0.26071219069447599 0.31197788889560879 0 0.25496362040665271 0.32267745764425643 0 0.25235619873932041 0.33556187677713623 0 0.26589958482641279 0.32752631364072038 0 0.25711451900508148 0.35258648987221092 0 0.25235619873932041 0.33556187677713623 0 0.26558463596339632 0.34150625501184179 0 0.25235619873932041 0.33556187677713623 0 0.26558463596339632 0.34150625501184179 0 0.26589958482641279 0.32752631364072038 0 0.26558463596339632 0.34150625501184179 0 0.28019639796719031 0.33363894279465311 0 0.26589958482641279 0.32752631364072038 0 0.28019639796719031 0.33363894279465311 0 0.26589958482641279 0.32752631364072038 0 0.27489680020354851 0.31780650302536112 0 0.26589958482641279 0.32752631364072038 0 0.27489680020354851 0.31780650302536112 0 0.26071219069447599 0.31197788889560879 0 0.28019639796719031 0.33363894279465311 0 0.28964122774185652 0.30964491710322428 0 0.28019639796719031 0.33363894279465311 0 0.27489680020354851 0.31780650302536112 0 0.28964122774185652 0.30964491710322428 0 0.28019639796719031 0.33363894279465311 0 0.29537221966939131 0.31615256727250862 0 0.28964122774185652 0.30964491710322428 0 0.28019639796719031 0.33363894279465311 0 0.29537221966939131 0.31615256727250862 0 0.29755563402916552 0.32377381017277068 0 0.28019639796719031 0.33363894279465311 0 0.28547266882539629 0.3430582048410174 0 0.29755563402916552 0.32377381017277068 0 0.28547266882539629 0.3430582048410174 0 0.29755563402916552 0.32377381017277068 0 0.28547266882539629 0.3430582048410174 0 0.29642893485056382 0.34373170356788069 0 0.29755563402916552 0.32377381017277068 0 0.29642893485056382 0.34373170356788069 0 0.3051758571982971 0.3365100639787737 0 0.29755563402916552 0.32377381017277068 0 0.31845188759589887 0.32913506211895882 0 0.3051758571982971 0.3365100639787737 0 0.29537221966939131 0.31615256727250862 0 0.3051758571982971 0.3365100639787737 0 0.29755563402916552 0.32377381017277068 0 0.31845188759589887 0.32913506211895882 0 0.3051758571982971 0.3365100639787737 0 0.3124215414252603 0.31463851826348332 0 0.29537221966939131 0.31615256727250862 0 0.3051758571982971 0.3365100639787737 0 0.29537221966939131 0.31615256727250862 0 0.3051758571982971 0.3365100639787737 0 0.3124215414252603 0.31463851826348332 0 0.29537221966939131 0.31615256727250862 0 0.3064038210334884 0.30067388223127611 0 0.29780590900410991 0.29124285186599119 0 0.29537221966939131 0.31615256727250862 0 0.3124215414252603 0.31463851826348332 0 0.3064038210334884 0.30067388223127611 0 0.3124215414252603 0.31463851826348332 0 0.3064038210334884 0.30067388223127611 0 0.31797064105596812 0.29669460242380358 0 0.3064038210334884 0.30067388223127611 0 0.30706453001149392 0.28545611992336922 0 0.31797064105596812 0.29669460242380358 0 0.3064038210334884 0.30067388223127611 0 0.30706453001149392 0.28545611992336922 0 0.29780590900410991 0.29124285186599119 0 0.30706453001149392 0.28545611992336922 0 0.29780590900410991 0.29124285186599119 0 0.29516751126046797 0.28001135836836077 0 0.28556858214048553 0.29579507056624349 0 0.28351082165216779 0.2739244349354083 0 0.29516751126046797 0.28001135836836077 0 0.29780590900410991 0.29124285186599119 0 0.28556858214048553 0.29579507056624349 0 0.29516751126046797 0.28001135836836077 0 0.28556858214048553 0.29579507056624349 0 0.27576494461157991 0.27543757385997852 0 0.28351082165216779 0.2739244349354083 0 0.29537221966939131 0.31615256727250862 0 0.29780590900410991 0.29124285186599119 0 0.28556858214048553 0.29579507056624349 0 0.29537221966939131 0.31615256727250862 0 0.28556858214048553 0.29579507056624349 0 0.28964122774185652 0.30964491710322428 0 0.29537221966939131 0.31615256727250862 0 0.28556858214048553 0.29579507056624349 0 0.28556858214048553 0.29579507056624349 0 0.28964122774185652 0.30964491710322428 0 0.27438759942090191 0.30337842557507938 0 0.27489680020354851 0.31780650302536112 0 0.28964122774185652 0.30964491710322428 0 0.27438759942090191 0.30337842557507938 0 0.27489680020354851 0.31780650302536112 0 0.27438759942090191 0.30337842557507938 0 0.26071219069447599 0.31197788889560879 0 0.27248032494705132 0.28939396479480628 0 0.25491758893057909 0.27951005592881761 0 0.27576494461157991 0.27543757385997852 0 0.28556858214048553 0.29579507056624349 0 0.27576494461157991 0.27543757385997852 0 0.28556858214048553 0.29579507056624349 0 0.27248032494705132 0.28939396479480628 0 0.27576494461157991 0.27543757385997852 0 0.28556858214048553 0.29579507056624349 0 0.27438759942090191 0.30337842557507938 0 0.27248032494705132 0.28939396479480628 0 0.27438759942090191 0.30337842557507938 0 0.27248032494705132 0.28939396479480628 0 0.26162700977852021 0.29629342014523508 0 0.27248032494705132 0.28939396479480628 0 0.26162700977852021 0.29629342014523508 0 0.25491758893057909 0.27951005592881761 0 0.24543399627141721 0.29887735901603257 0 0.26162700977852021 0.29629342014523508 0 0.25491758893057909 0.27951005592881761 0 0.27438759942090191 0.30337842557507938 0 0.26162700977852021 0.29629342014523508 0 0.26071219069447599 0.31197788889560879 0 0.24543399627141721 0.29887735901603257 0 0.26162700977852021 0.29629342014523508 0 0.26071219069447599 0.31197788889560879 0 0.25153222320099622 0.25722575917013901 0 0.27218921726664158 0.26801248725998528 0 0.26048617882559622 0.24371083740660091 0 0.25153222320099622 0.25722575917013901 0 0.25536006440587672 0.26878811273571068 0 0.27218921726664158 0.26801248725998528 0 0.25153222320099622 0.25722575917013901 0 0.27218921726664158 0.26801248725998528 0 0.25153222320099622 0.25722575917013901 0 0.26048617882559622 0.24371083740660091 0 0.25491758893057909 0.27951005592881761 0 0.27576494461157991 0.27543757385997852 0 0.25536006440587672 0.26878811273571068 0 0.25491758893057909 0.27951005592881761 0 0.27218921726664158 0.26801248725998528 0 0.2428012282252888 0.27040414858390061 0 0.25536006440587672 0.26878811273571068 0 0.25491758893057909 0.27951005592881761 0 0.25491758893057909 0.27951005592881761 0 0.27218921726664158 0.26801248725998528 0 0.27576494461157991 0.27543757385997852 0 0.27576494461157991 0.27543757385997852 0 0.28351082165216779 0.2739244349354083 0 0.27218921726664158 0.26801248725998528 0 0.28351082165216779 0.2739244349354083 0 0.28241209558822961 0.26632916093747078 0 0.27218921726664158 0.26801248725998528 0 0.27576494461157991 0.27543757385997852 0 0.28351082165216779 0.2739244349354083 0 0.27218921726664158 0.26801248725998528 0 0.28351082165216779 0.2739244349354083 0 0.27218921726664158 0.26801248725998528 0 0.27576494461157991 0.27543757385997852 0 0.27218921726664158 0.26801248725998528 0 0.27691591880596222 0.25729022711116639 0 0.28241209558822961 0.26632916093747078 0 0.27218921726664158 0.26801248725998528 0 0.26048617882559622 0.24371083740660091 0 0.27218921726664158 0.26801248725998528 0 0.27691591880596222 0.25729022711116639 0 0.26048617882559622 0.24371083740660091 0 0.27691591880596222 0.25729022711116639 0 0.28359094229813148 0.25448793817281579 0 0.27685630599777589 0.2478154210616699 0 0.27691591880596222 0.25729022711116639 0 0.28359094229813148 0.25448793817281579 0 0.2851673007449898 0.26023557940088332 0 0.3039173510814423 0.25972757105281219 0 0.28965918427723281 0.24218391352450211 0 0.28359094229813148 0.25448793817281579 0 0.27685630599777589 0.2478154210616699 0 0.28494106210013392 0.2498489505319901 0 0.29345893722613059 0.25129825022350127 0 0.3039173510814423 0.25972757105281219 0 0.28965918427723281 0.24218391352450211 0 0.28868459035541499 0.25311981898255947 0 0.28494106210013392 0.2498489505319901 0 0.28892582916583598 0.2492018439528669 0 0.28868459035541499 0.25311981898255947 0 0.28359094229813148 0.25448793817281579 0 0.28494106210013392 0.2498489505319901 0 0.28868459035541499 0.25311981898255947 0 0.28687158554486092 0.25569243113247692 0 0.28359094229813148 0.25448793817281579 0 0.28687158554486092 0.25569243113247692 0 0.28359094229813148 0.25448793817281579 0 0.2851673007449898 0.26023557940088332 0 0.28687158554486092 0.25569243113247692 0 0.28807077596690611 0.2581880435182905 0 0.28931157611965458 0.25623197766376038 0 0.28868459035541499 0.25311981898255947 0 0.28687158554486092 0.25569243113247692 0 0.28931157611965458 0.25623197766376038 0 0.27691591880596222 0.25729022711116639 0 0.2851673007449898 0.26023557940088332 0 0.28241209558822961 0.26632916093747078 0 0.28612348479105743 0.26557280400170857 0 0.2851673007449898 0.26023557940088332 0 0.28241209558822961 0.26632916093747078 0 0.28612348479105743 0.26557280400170857 0 0.28820153575970392 0.26340271637493412 0 0.2851673007449898 0.26023557940088332 0 0.28612348479105743 0.26557280400170857 0 0.28820153575970392 0.26340271637493412 0 0.28928435291432292 0.26627202701476832 0 0.28820153575970392 0.26340271637493412 0 0.2851673007449898 0.26023557940088332 0 0.28910030818167282 0.2606462295185657 0 0.28687158554486092 0.25569243113247692 0 0.2851673007449898 0.26023557940088332 0 0.28807077596690611 0.2581880435182905 0 0.2851673007449898 0.26023557940088332 0 0.28807077596690611 0.2581880435182905 0 0.28910030818167282 0.2606462295185657 0 0.28807077596690611 0.2581880435182905 0 0.29012458656076978 0.25822105451885852 0 0.28910030818167282 0.2606462295185657 0 0.29012458656076978 0.25822105451885852 0 0.28910030818167282 0.2606462295185657 0 0.29181146649833112 0.25980397671080041 0 0.28910030818167282 0.2606462295185657 0 0.29181146649833112 0.25980397671080041 0 0.29208830856188789 0.26336840763512592 0 0.29012458656076978 0.25822105451885852 0 0.29181146649833112 0.25980397671080041 0 0.29232880603728451 0.25623504518287532 0 0.28820153575970392 0.26340271637493412 0 0.29208830856188789 0.26336840763512592 0 0.28928435291432292 0.26627202701476832 0 0.28820153575970392 0.26340271637493412 0 0.28910030818167282 0.2606462295185657 0 0.29208830856188789 0.26336840763512592 0 0.29208830856188789 0.26336840763512592 0 0.295861748010873 0.25998823260247511 0 0.29765944308527592 0.26593032899830249 0 0.29208830856188789 0.26336840763512592 0 0.29297695870925222 0.26738919668419731 0 0.29765944308527592 0.26593032899830249 0 0.29181146649833112 0.25980397671080041 0 0.29208830856188789 0.26336840763512592 0 0.295861748010873 0.25998823260247511 0 0.29181146649833112 0.25980397671080041 0 0.295861748010873 0.25998823260247511 0 0.29232880603728451 0.25623504518287532 0 0.295861748010873 0.25998823260247511 0 0.29345893722613059 0.25129825022350127 0 0.29232880603728451 0.25623504518287532 0 0.28868459035541499 0.25311981898255947 0 0.29345893722613059 0.25129825022350127 0 0.29232880603728451 0.25623504518287532 0 0.28868459035541499 0.25311981898255947 0 0.29345893722613059 0.25129825022350127 0 0.28892582916583598 0.2492018439528669 0 0.28868459035541499 0.25311981898255947 0 0.28931157611965458 0.25623197766376038 0 0.29232880603728451 0.25623504518287532 0 0.29012458656076978 0.25822105451885852 0 0.28931157611965458 0.25623197766376038 0 0.29232880603728451 0.25623504518287532 0 0.28807077596690611 0.2581880435182905 0 0.29012458656076978 0.25822105451885852 0 0.28931157611965458 0.25623197766376038 0 0.28351082165216779 0.2739244349354083 0 0.28733438825076368 0.27108796110478978 0 0.2907816862342732 0.27306575569366948 0 0.28733438825076368 0.27108796110478978 0 0.28661589797855402 0.26840505384568097 0 0.29024227766669058 0.26954619460490381 0 0.28733438825076368 0.27108796110478978 0 0.2848684593192698 0.27078404615639318 0 0.28661589797855402 0.26840505384568097 0 0.28351082165216779 0.2739244349354083 0 0.28733438825076368 0.27108796110478978 0 0.2848684593192698 0.27078404615639318 0 0.28351082165216779 0.2739244349354083 0 0.2848684593192698 0.27078404615639318 0 0.28241209558822961 0.26632916093747078 0 0.28612348479105743 0.26557280400170857 0 0.28241209558822961 0.26632916093747078 0 0.28661589797855402 0.26840505384568097 0 0.2848684593192698 0.27078404615639318 0 0.28241209558822961 0.26632916093747078 0 0.28661589797855402 0.26840505384568097 0 0.28661589797855402 0.26840505384568097 0 0.28928435291432292 0.26627202701476832 0 0.29024227766669058 0.26954619460490381 0 0.28612348479105743 0.26557280400170857 0 0.28661589797855402 0.26840505384568097 0 0.28928435291432292 0.26627202701476832 0 0.29208830856188789 0.26336840763512592 0 0.28928435291432292 0.26627202701476832 0 0.29297695870925222 0.26738919668419731 0 0.28928435291432292 0.26627202701476832 0 0.29297695870925222 0.26738919668419731 0 0.29024227766669058 0.26954619460490381 0 0.29297695870925222 0.26738919668419731 0 0.29576201226787813 0.27118247982537402 0 0.29024227766669058 0.26954619460490381 0 0.29297695870925222 0.26738919668419731 0 0.29576201226787813 0.27118247982537402 0 0.29765944308527592 0.26593032899830249 0 0.29576201226787813 0.27118247982537402 0 0.29024227766669058 0.26954619460490381 0 0.2907816862342732 0.27306575569366948 0 0.28733438825076368 0.27108796110478978 0 0.29024227766669058 0.26954619460490381 0 0.2907816862342732 0.27306575569366948 0 0.28351082165216779 0.2739244349354083 0 0.2907816862342732 0.27306575569366948 0 0.29516751126046797 0.28001135836836077 0 0.29576201226787813 0.27118247982537402 0 0.2907816862342732 0.27306575569366948 0 0.29516751126046797 0.28001135836836077 0 0.28351082165216779 0.2739244349354083 0 0.29516751126046797 0.28001135836836077 0 0.30323688172566321 0.27316773846810899 0 0.3039173510814423 0.25972757105281219 0 0.31817551788565168 0.27727122858112241 0 0.3039173510814423 0.25972757105281219 0 0.31817551788565168 0.27727122858112241 0 0.29576201226787813 0.27118247982537402 0 0.29516751126046797 0.28001135836836077 0 0.30323688172566321 0.27316773846810899 0 0.30706453001149392 0.28545611992336922 0 0.29516751126046797 0.28001135836836077 0 0.30323688172566321 0.27316773846810899 0 0.30323688172566321 0.27316773846810899 0 0.29765944308527592 0.26593032899830249 0 0.3039173510814423 0.25972757105281219 0 0.29576201226787813 0.27118247982537402 0 0.30323688172566321 0.27316773846810899 0 0.29765944308527592 0.26593032899830249 0 0.30706453001149392 0.28545611992336922 0 0.30323688172566321 0.27316773846810899 0 0.31817551788565168 0.27727122858112241 0 0.3039173510814423 0.25972757105281219 0 0.31246354634074469 0.25301562706991498 0 0.31817551788565168 0.27727122858112241 0 0.3039173510814423 0.25972757105281219 0 0.31246354634074469 0.25301562706991498 0 0.28965918427723281 0.24218391352450211 0 0.295861748010873 0.25998823260247511 0 0.29345893722613059 0.25129825022350127 0 0.3039173510814423 0.25972757105281219 0 0.295861748010873 0.25998823260247511 0 0.29765944308527592 0.26593032899830249 0 0.3039173510814423 0.25972757105281219 0 0.31246354634074469 0.25301562706991498 0 0.33526790840425669 0.26384734061532772 0 0.31246354634074469 0.25301562706991498 0 0.33526790840425669 0.26384734061532772 0 0.32643540241908581 0.2493154440826276 0 0.31246354634074469 0.25301562706991498 0 0.33526790840425669 0.26384734061532772 0 0.31817551788565168 0.27727122858112241 0 0.33526790840425669 0.26384734061532772 0 0.3379127634661398 0.24049180221066491 0 0.32643540241908581 0.2493154440826276 0 0.33526790840425669 0.26384734061532772 0 0.35634129443021012 0.25447852924978431 0 0.3379127634661398 0.24049180221066491 0 0.33526790840425669 0.26384734061532772 0 0.31817551788565168 0.27727122858112241 0 0.34172042880505471 0.28277804546335827 0 0.31817551788565168 0.27727122858112241 0 0.31797064105596812 0.29669460242380358 0 0.33243368468986112 0.29481488610943257 0 0.31817551788565168 0.27727122858112241 0 0.33243368468986112 0.29481488610943257 0 0.30706453001149392 0.28545611992336922 0 0.31817551788565168 0.27727122858112241 0 0.31797064105596812 0.29669460242380358 0 0.3124215414252603 0.31463851826348332 0 0.31797064105596812 0.29669460242380358 0 0.32649517228490349 0.30767158395733452 0 0.31797064105596812 0.29669460242380358 0 0.32649517228490349 0.30767158395733452 0 0.33243368468986112 0.29481488610943257 0 0.33433715661558527 0.30915126849091529 0 0.33243368468986112 0.29481488610943257 0 0.34669185149407039 0.31235854363774268 0 0.33243368468986112 0.29481488610943257 0 0.34669185149407039 0.31235854363774268 0 0.34568712778571031 0.29860929543060832 0 0.33243368468986112 0.29481488610943257 0 0.34669185149407039 0.31235854363774268 0 0.32649517228490349 0.30767158395733452 0 0.33433715661558527 0.30915126849091529 0 0.33243368468986112 0.29481488610943257 0 0.31817551788565168 0.27727122858112241 0 0.34172042880505471 0.28277804546335827 0 0.33243368468986112 0.29481488610943257 0 0.34172042880505471 0.28277804546335827 0 0.33243368468986112 0.29481488610943257 0 0.34568712778571031 0.29860929543060832 0 0.35199353865369548 0.28986078273705529 0 0.36153231744840347 0.2937746187606235 0 0.35807227046776868 0.27467905416074029 0 0.34172042880505471 0.28277804546335827 0 0.35199353865369548 0.28986078273705529 0 0.35807227046776868 0.27467905416074029 0 0.34172042880505471 0.28277804546335827 0 0.35199353865369548 0.28986078273705529 0 0.34568712778571031 0.29860929543060832 0 0.35199353865369548 0.28986078273705529 0 0.34568712778571031 0.29860929543060832 0 0.35295554876154028 0.29946289986994618 0 0.35199353865369548 0.28986078273705529 0 0.35295554876154028 0.29946289986994618 0 0.36153231744840347 0.2937746187606235 0 0.34669185149407039 0.31235854363774268 0 0.350707664864299 0.30502754758011252 0 0.35483192959872478 0.30892549123100937 0 0.34669185149407039 0.31235854363774268 0 0.350707664864299 0.30502754758011252 0 0.34568712778571031 0.29860929543060832 0 0.350707664864299 0.30502754758011252 0 0.34568712778571031 0.29860929543060832 0 0.35295554876154028 0.29946289986994618 0 0.35295554876154028 0.29946289986994618 0 0.35483192959872478 0.30892549123100937 0 0.36153231744840347 0.2937746187606235 0 0.350707664864299 0.30502754758011252 0 0.35295554876154028 0.29946289986994618 0 0.35483192959872478 0.30892549123100937 0 0.35483192959872478 0.30892549123100937 0 0.36873564116109159 0.30732066885645792 0 0.37793594120394791 0.29609092220287331 0 0.35483192959872478 0.30892549123100937 0 0.36153231744840347 0.2937746187606235 0 0.37793594120394791 0.29609092220287331 0 0.35483192959872478 0.30892549123100937 0 0.37793594120394791 0.29609092220287331 0 0.36216199407232552 0.31421251507807352 0 0.35483192959872478 0.30892549123100937 0 0.36873564116109159 0.30732066885645792 0 0.36873564116109159 0.30732066885645792 0 0.37793594120394791 0.29609092220287331 0 0.37618493526913999 0.30531787431980001 0 0.36908544359869788 0.31711993858565868 0 0.36873564116109159 0.30732066885645792 0 0.37552929986171052 0.31147094895867028 0 0.36873564116109159 0.30732066885645792 0 0.37552929986171052 0.31147094895867028 0 0.37618493526913999 0.30531787431980001 0 0.36153231744840347 0.2937746187606235 0 0.3696042904128502 0.28751384070759761 0 0.37793594120394791 0.29609092220287331 0 0.3696042904128502 0.28751384070759761 0 0.35807227046776868 0.27467905416074029 0 0.38087663253128068 0.28551076770615302 0 0.36153231744840347 0.2937746187606235 0 0.3696042904128502 0.28751384070759761 0 0.35807227046776868 0.27467905416074029 0 0.35807227046776868 0.27467905416074029 0 0.38087663253128068 0.28551076770615302 0 0.35807227046776868 0.27467905416074029 0 0.37543677279847171 0.26770278157766031 0 0.38087663253128068 0.28551076770615302 0 0.35634129443021012 0.25447852924978431 0 0.35807227046776868 0.27467905416074029 0 0.37543677279847171 0.26770278157766031 0 0.35634129443021012 0.25447852924978431 0 0.37543677279847171 0.26770278157766031 0 0.37588607332036628 0.2490878796733729 0 0.33526790840425669 0.26384734061532772 0 0.35634129443021012 0.25447852924978431 0 0.35807227046776868 0.27467905416074029 0 0.33526790840425669 0.26384734061532772 0 0.34172042880505471 0.28277804546335827 0 0.35807227046776868 0.27467905416074029 0 0.33526790840425669 0.26384734061532772 0 0.35807227046776868 0.27467905416074029 0 0.39392409312874033 0.26548119861246328 0 0.41196211293711438 0.28187451755155379 0 0.39392409312874033 0.26548119861246328 0 0.38745056937483863 0.27594374287878148 0 0.39653744276239639 0.28470199660397738 0 0.39392409312874033 0.26548119861246328 0 0.39653744276239639 0.28470199660397738 0 0.41196211293711438 0.28187451755155379 0 0.39392409312874033 0.26548119861246328 0 0.41530077718395331 0.26533492563787903 0 0.40933178642478668 0.24530746794650141 0 0.39392409312874033 0.26548119861246328 0 0.37543677279847171 0.26770278157766031 0 0.37588607332036628 0.2490878796733729 0 0.39392409312874033 0.26548119861246328 0 0.37588607332036628 0.2490878796733729 0 0.39392409312874033 0.26548119861246328 0 0.39103074677198191 0.2378645478919707 0 0.37588607332036628 0.2490878796733729 0 0.39392409312874033 0.26548119861246328 0 0.38745056937483863 0.27594374287878148 0 0.37543677279847171 0.26770278157766031 0 0.38745056937483863 0.27594374287878148 0 0.37543677279847171 0.26770278157766031 0 0.38087663253128068 0.28551076770615302 0 0.38087663253128068 0.28551076770615302 0 0.39129466819619951 0.29801807429951538 0 0.39653744276239639 0.28470199660397738 0 0.38745056937483863 0.27594374287878148 0 0.38087663253128068 0.28551076770615302 0 0.39653744276239639 0.28470199660397738 0 0.3696042904128502 0.28751384070759761 0 0.38087663253128068 0.28551076770615302 0 0.37793594120394791 0.29609092220287331 0 0.38087663253128068 0.28551076770615302 0 0.37793594120394791 0.29609092220287331 0 0.39129466819619951 0.29801807429951538 0 0.37552929986171052 0.31147094895867028 0 0.38253885884981009 0.30638895726119819 0 0.38253365066345929 0.31657150904984471 0 0.37552929986171052 0.31147094895867028 0 0.37618493526913999 0.30531787431980001 0 0.38253885884981009 0.30638895726119819 0 0.37793594120394791 0.29609092220287331 0 0.37618493526913999 0.30531787431980001 0 0.38253885884981009 0.30638895726119819 0 0.37793594120394791 0.29609092220287331 0 0.38253885884981009 0.30638895726119819 0 0.39129466819619951 0.29801807429951538 0 0.38253885884981009 0.30638895726119819 0 0.39212940840629362 0.31318847352025442 0 0.38253365066345929 0.31657150904984471 0 0.38253885884981009 0.30638895726119819 0 0.39129466819619951 0.29801807429951538 0 0.39212940840629362 0.31318847352025442 0 0.39129466819619951 0.29801807429951538 0 0.40057903262284272 0.30682002081122939 0 0.39212940840629362 0.31318847352025442 0 0.39129466819619951 0.29801807429951538 0 0.40479167519220871 0.29803551582379922 0 0.40057903262284272 0.30682002081122939 0 0.40057903262284272 0.30682002081122939 0 0.40276015360382211 0.3144041531339446 0 0.39212940840629362 0.31318847352025442 0 0.40479167519220871 0.29803551582379922 0 0.40057903262284272 0.30682002081122939 0 0.40860853726765339 0.309318938863758 0 0.40057903262284272 0.30682002081122939 0 0.40860853726765339 0.309318938863758 0 0.40276015360382211 0.3144041531339446 0 0.40479167519220871 0.29803551582379922 0 0.39653744276239639 0.28470199660397738 0 0.41196211293711438 0.28187451755155379 0 0.39129466819619951 0.29801807429951538 0 0.40479167519220871 0.29803551582379922 0 0.39653744276239639 0.28470199660397738 0 0.40479167519220871 0.29803551582379922 0 0.41196211293711438 0.28187451755155379 0 0.42604734048813458 0.28838989128274578 0 0.40479167519220871 0.29803551582379922 0 0.42604734048813458 0.28838989128274578 0 0.41196211293711438 0.28187451755155379 0 0.42604734048813458 0.28838989128274578 0 0.42096165520647338 0.27640965763746961 0 0.41751736358108449 0.30523346237375532 0 0.43213625579819431 0.30543734923285137 0 0.41316086399048302 0.31918962555795088 0 0.40479167519220871 0.29803551582379922 0 0.41751736358108449 0.30523346237375532 0 0.42604734048813458 0.28838989128274578 0 0.40860853726765339 0.309318938863758 0 0.41751736358108449 0.30523346237375532 0 0.41316086399048302 0.31918962555795088 0 0.40479167519220871 0.29803551582379922 0 0.40860853726765339 0.309318938863758 0 0.41751736358108449 0.30523346237375532 0 0.41751736358108449 0.30523346237375532 0 0.43213625579819431 0.30543734923285137 0 0.42604734048813458 0.28838989128274578 0 0.43213625579819431 0.30543734923285137 0 0.41316086399048302 0.31918962555795088 0 0.43213625579819431 0.30543734923285137 0 0.44422558879226298 0.30694386780845051 0 0.43154308657343537 0.31483265104709918 0 0.42604734048813458 0.28838989128274578 0 0.44730300578406051 0.27874426674169239 0 0.43914956241907371 0.29106414504126032 0 0.43213625579819431 0.30543734923285137 0 0.42604734048813458 0.28838989128274578 0 0.43914956241907371 0.29106414504126032 0 0.42604734048813458 0.28838989128274578 0 0.44730300578406051 0.27874426674169239 0 0.42604734048813458 0.28838989128274578 0 0.43053639021669149 0.27003929607769961 0 0.44730300578406051 0.27874426674169239 0 0.42604734048813458 0.28838989128274578 0 0.43053639021669149 0.27003929607769961 0 0.42096165520647338 0.27640965763746961 0 0.43053639021669149 0.27003929607769961 0 0.42096165520647338 0.27640965763746961 0 0.41530077718395331 0.26533492563787903 0 0.39392409312874033 0.26548119861246328 0 0.41196211293711438 0.28187451755155379 0 0.41530077718395331 0.26533492563787903 0 0.41196211293711438 0.28187451755155379 0 0.42096165520647338 0.27640965763746961 0 0.41530077718395331 0.26533492563787903 0 0.41530077718395331 0.26533492563787903 0 0.42507863072368701 0.2531856777568211 0 0.40933178642478668 0.24530746794650141 0 0.43053639021669149 0.27003929607769961 0 0.42507863072368701 0.2531856777568211 0 0.43671171400039921 0.25931077911745237 0 0.43053639021669149 0.27003929607769961 0 0.41530077718395331 0.26533492563787903 0 0.42507863072368701 0.2531856777568211 0 0.43053639021669149 0.27003929607769961 0 0.43671171400039921 0.25931077911745237 0 0.4433298154441227 0.26629613073356512 0 0.42507863072368701 0.2531856777568211 0 0.43671171400039921 0.25931077911745237 0 0.43876594592942619 0.2491002947533556 0 0.48930401013157893 0.26400543771054868 0 0.5 0.30014541135995981 0 0.50000000000000078 0.23475110787519651 0 0.43671171400039921 0.25931077911745237 0 0.44893917376128722 0.25670587451621701 0 0.43876594592942619 0.2491002947533556 0 0.43671171400039921 0.25931077911745237 0 0.44893917376128722 0.25670587451621701 0 0.4433298154441227 0.26629613073356512 0 0.44893917376128722 0.25670587451621701 0 0.4433298154441227 0.26629613073356512 0 0.45470448649478412 0.26606712633996182 0 0.43053639021669149 0.27003929607769961 0 0.4433298154441227 0.26629613073356512 0 0.44730300578406051 0.27874426674169239 0 0.4433298154441227 0.26629613073356512 0 0.44730300578406051 0.27874426674169239 0 0.45470448649478412 0.26606712633996182 0 0.44730300578406051 0.27874426674169239 0 0.45470448649478412 0.26606712633996182 0 0.46855867107998628 0.26909864220063873 0 0.44730300578406051 0.27874426674169239 0 0.46855867107998628 0.26909864220063873 0 0.47008703941361663 0.27793279658265219 0 0.44730300578406051 0.27874426674169239 0 0.46855867107998628 0.26909864220063873 0 0.44893917376128722 0.25670587451621701 0 0.4657425708042397 0.25282124097232528 0 0.45444189403291402 0.2411770147019261 0 0.46855867107998628 0.26909864220063873 0 0.4657425708042397 0.25282124097232528 0 0.45470448649478412 0.26606712633996182 0 0.46855867107998628 0.26909864220063873 0 0.4657425708042397 0.25282124097232528 0 0.44893917376128722 0.25670587451621701 0 0.45470448649478412 0.26606712633996182 0 0.4657425708042397 0.25282124097232528 0 0.4657425708042397 0.25282124097232528 0 0.48060284673389919 0.263633106558882 0 0.48319944748130261 0.24680576274814439 0 0.48060284673389919 0.263633106558882 0 0.48930401013157893 0.26400543771054868 0 0.48319944748130261 0.24680576274814439 0 0.46855867107998628 0.26909864220063873 0 0.4657425708042397 0.25282124097232528 0 0.48060284673389919 0.263633106558882 0 0.47008703941361663 0.27793279658265219 0 0.48930401013157893 0.26400543771054868 0 0.46855867107998628 0.26909864220063873 0 0.48060284673389919 0.263633106558882 0 0.48060284673389919 0.263633106558882 0 0.47008703941361663 0.27793279658265219 0 0.48930401013157893 0.26400543771054868 0 0.47008703941361663 0.27793279658265219 0 0.48006412771999057 0.27905949761247589 0 0.48930401013157893 0.26400543771054868 0 0.46855867107998628 0.26909864220063873 0 0.48060284673389919 0.263633106558882 0 0.47008703941361663 0.27793279658265219 0 0.46855867107998628 0.26909864220063873 0 0.47008703941361663 0.27793279658265219 0 0.48006412771999057 0.27905949761247589 0 0.48930401013157893 0.26400543771054868 0 0.48625483393177482 0.28246926535835643 0 0.48930401013157893 0.26400543771054868 0 0.5 0.30014541135995981 0 0.48625483393177482 0.28246926535835643 0 0.5 0.30014541135995981 0 0.48970041229178968 0.29406901354624332 0 0.4885492687023667 0.31475660787172299 0 0.5 0.30014541135995981 0 0.48625483393177482 0.28246926535835643 0 0.48970041229178968 0.29406901354624332 0 0.48625483393177482 0.28246926535835643 0 0.48970041229178968 0.29406901354624332 0 0.47848665946962488 0.28859017348115529 0 0.48970041229178968 0.29406901354624332 0 0.47848665946962488 0.28859017348115529 0 0.47416262890117539 0.30149019824985379 0 0.47008703941361663 0.27793279658265219 0 0.47416262890117539 0.30149019824985379 0 0.47008703941361663 0.27793279658265219 0 0.47848665946962488 0.28859017348115529 0 0.47416262890117539 0.30149019824985379 0 0.47008703941361663 0.27793279658265219 0 0.47416262890117539 0.30149019824985379 0 0.46463260069651119 0.29140132306620031 0 0.48006412771999057 0.27905949761247589 0 0.48625483393177482 0.28246926535835643 0 0.47848665946962488 0.28859017348115529 0 0.47008703941361663 0.27793279658265219 0 0.48006412771999057 0.27905949761247589 0 0.47848665946962488 0.28859017348115529 0 0.48970041229178968 0.29406901354624332 0 0.47416262890117539 0.30149019824985379 0 0.4885492687023667 0.31475660787172299 0 0.48970041229178968 0.29406901354624332 0 0.47416262890117539 0.30149019824985379 0 0.47416262890117539 0.30149019824985379 0 0.45853060084376801 0.29977374142415342 0 0.45560674310843452 0.3103528945782269 0 0.47416262890117539 0.30149019824985379 0 0.45560674310843452 0.3103528945782269 0 0.47416262890117539 0.30149019824985379 0 0.45853060084376801 0.29977374142415342 0 0.46463260069651119 0.29140132306620031 0 0.47008703941361663 0.27793279658265219 0 0.46463260069651119 0.29140132306620031 0 0.45111164760590539 0.29168507290775181 0 0.47008703941361663 0.27793279658265219 0 0.45111164760590539 0.29168507290775181 0 0.44730300578406051 0.27874426674169239 0 0.47008703941361663 0.27793279658265219 0 0.45111164760590539 0.29168507290775181 0 0.45853060084376801 0.29977374142415342 0 0.46463260069651119 0.29140132306620031 0 0.45111164760590539 0.29168507290775181 0 0.43213625579819431 0.30543734923285137 0 0.45111164760590539 0.29168507290775181 0 0.43914956241907371 0.29106414504126032 0 0.44730300578406051 0.27874426674169239 0 0.45111164760590539 0.29168507290775181 0 0.43914956241907371 0.29106414504126032 0 0.43213625579819431 0.30543734923285137 0 0.45111164760590539 0.29168507290775181 0 0.43213625579819431 0.30543734923285137 0 0.45111164760590539 0.29168507290775181 0 0.44422558879226298 0.30694386780845051 0 0.45560674310843452 0.3103528945782269 0 0.44422558879226298 0.30694386780845051 0 0.43842966418539248 0.31774810934188358 0 0.45853060084376801 0.29977374142415342 0 0.45560674310843452 0.3103528945782269 0 0.44422558879226298 0.30694386780845051 0 0.45853060084376801 0.29977374142415342 0 0.45111164760590539 0.29168507290775181 0 0.44422558879226298 0.30694386780845051 0 0.45560674310843452 0.3103528945782269 0 0.43705085731569332 0.31921559090659912 0 0.45560674310843452 0.3103528945782269 0 0.445574462909617 0.32293984437028 0 0.43705085731569332 0.31921559090659912 0 0.45560674310843452 0.3103528945782269 0 0.445574462909617 0.32293984437028 0 0.45356547482711718 0.33018117931006491 0 0.45560674310843452 0.3103528945782269 0 0.43842966418539248 0.31774810934188358 0 0.43705085731569332 0.31921559090659912 0 0.44422558879226298 0.30694386780845051 0 0.43842966418539248 0.31774810934188358 0 0.43154308657343537 0.31483265104709918 0 0.43842966418539248 0.31774810934188358 0 0.43705085731569332 0.31921559090659912 0 0.43892997145578388 0.32563168502311662 0 0.445574462909617 0.32293984437028 0 0.44083529419097978 0.33094373067874189 0 0.43892997145578388 0.32563168502311662 0 0.445574462909617 0.32293984437028 0 0.43705085731569332 0.31921559090659912 0 0.445574462909617 0.32293984437028 0 0.44083529419097978 0.33094373067874189 0 0.45356547482711718 0.33018117931006491 0 0.44165801472227312 0.34323984209273423 0 0.45356547482711718 0.33018117931006491 0 0.45850926574073331 0.34651392194864622 0 0.44165801472227312 0.34323984209273423 0 0.44083529419097978 0.33094373067874189 0 0.43166902790598161 0.33929201054700048 0 0.43892997145578388 0.32563168502311662 0 0.44083529419097978 0.33094373067874189 0 0.43317574323615998 0.33104402243960368 0 0.44165801472227312 0.34323984209273423 0 0.44083529419097978 0.33094373067874189 0 0.45356547482711718 0.33018117931006491 0 0.45356547482711718 0.33018117931006491 0 0.47888330231886822 0.32877626329145132 0 0.45850926574073331 0.34651392194864622 0 0.45560674310843452 0.3103528945782269 0 0.45356547482711718 0.33018117931006491 0 0.47888330231886822 0.32877626329145132 0 0.5 0.30014541135995981 0 0.4885492687023667 0.31475660787172299 0 0.5 0.34930215291110689 0 0.47888330231886822 0.32877626329145132 0 0.4885492687023667 0.31475660787172299 0 0.5 0.34930215291110689 0 0.47416262890117539 0.30149019824985379 0 0.45560674310843452 0.3103528945782269 0 0.47888330231886822 0.32877626329145132 0 0.47416262890117539 0.30149019824985379 0 0.47888330231886822 0.32877626329145132 0 0.4885492687023667 0.31475660787172299 0 0.47416262890117539 0.30149019824985379 0 0.47888330231886822 0.32877626329145132 0 0.47888330231886822 0.32877626329145132 0 0.47565767627723321 0.35367653303588131 0 0.45850926574073331 0.34651392194864622 0 0.5 0.34930215291110689 0 0.47565767627723321 0.35367653303588131 0 0.47781149018510388 0.37869427749857482 0 0.47888330231886822 0.32877626329145132 0 0.5 0.34930215291110689 0 0.47565767627723321 0.35367653303588131 0 0.47565767627723321 0.35367653303588131 0 0.45733288770108432 0.36201985544527537 0 0.47781149018510388 0.37869427749857482 0 0.47565767627723321 0.35367653303588131 0 0.45733288770108432 0.36201985544527537 0 0.45850926574073331 0.34651392194864622 0 0.44165801472227312 0.34323984209273423 0 0.45850926574073331 0.34651392194864622 0 0.4413887647347946 0.35929889092681982 0 0.45733288770108432 0.36201985544527537 0 0.45850926574073331 0.34651392194864622 0 0.4413887647347946 0.35929889092681982 0 0.45733288770108432 0.36201985544527537 0 0.4413887647347946 0.35929889092681982 0 0.44153901264778062 0.37343480580038879 0 0.45733288770108432 0.36201985544527537 0 0.44153901264778062 0.37343480580038879 0 0.45482676763662039 0.38809293299633429 0 0.42640845802995259 0.36892404556868708 0 0.41557269665981 0.35954071959013117 0 0.42852438312620561 0.35190461944610102 0 0.4413887647347946 0.35929889092681982 0 0.42640845802995259 0.36892404556868708 0 0.42852438312620561 0.35190461944610102 0 0.4413887647347946 0.35929889092681982 0 0.44153901264778062 0.37343480580038879 0 0.42640845802995259 0.36892404556868708 0 0.41557269665981 0.35954071959013117 0 0.39773627330903077 0.36105859917852151 0 0.40780080352149928 0.37567923871478631 0 0.42640845802995259 0.36892404556868708 0 0.41557269665981 0.35954071959013117 0 0.40780080352149928 0.37567923871478631 0 0.41557269665981 0.35954071959013117 0 0.42852438312620561 0.35190461944610102 0 0.41739356531236188 0.34013709504256018 0 0.41557269665981 0.35954071959013117 0 0.41739356531236188 0.34013709504256018 0 0.39773627330903077 0.36105859917852151 0 0.41739356531236188 0.34013709504256018 0 0.39773627330903077 0.36105859917852151 0 0.42852438312620561 0.35190461944610102 0 0.43166902790598161 0.33929201054700048 0 0.41739356531236188 0.34013709504256018 0 0.44165801472227312 0.34323984209273423 0 0.4413887647347946 0.35929889092681982 0 0.42852438312620561 0.35190461944610102 0 0.44165801472227312 0.34323984209273423 0 0.42852438312620561 0.35190461944610102 0 0.43166902790598161 0.33929201054700048 0 0.43705085731569332 0.31921559090659912 0 0.41739356531236188 0.34013709504256018 0 0.41544983039366512 0.32953271314637039 0 0.43705085731569332 0.31921559090659912 0 0.41739356531236188 0.34013709504256018 0 0.43317574323615998 0.33104402243960368 0 0.43705085731569332 0.31921559090659912 0 0.41739356531236188 0.34013709504256018 0 0.43166902790598161 0.33929201054700048 0 0.43317574323615998 0.33104402243960368 0 0.41739356531236188 0.34013709504256018 0 0.44083529419097978 0.33094373067874189 0 0.43166902790598161 0.33929201054700048 0 0.43317574323615998 0.33104402243960368 0 0.43213625579819431 0.30543734923285137 0 0.43154308657343537 0.31483265104709918 0 0.41316086399048302 0.31918962555795088 0 0.43705085731569332 0.31921559090659912 0 0.41544983039366512 0.32953271314637039 0 0.43705085731569332 0.31921559090659912 0 0.42444684759267981 0.32028615430654062 0 0.41544983039366512 0.32953271314637039 0 0.43154308657343537 0.31483265104709918 0 0.42444684759267981 0.32028615430654062 0 0.41316086399048302 0.31918962555795088 0 0.43154308657343537 0.31483265104709918 0 0.43705085731569332 0.31921559090659912 0 0.42444684759267981 0.32028615430654062 0 0.43842966418539248 0.31774810934188358 0 0.43154308657343537 0.31483265104709918 0 0.43705085731569332 0.31921559090659912 0 0.43892997145578388 0.32563168502311662 0 0.43317574323615998 0.33104402243960368 0 0.43705085731569332 0.31921559090659912 0 0.41316086399048302 0.31918962555795088 0 0.41544983039366512 0.32953271314637039 0 0.39418547218277172 0.33294190188305062 0 0.42444684759267981 0.32028615430654062 0 0.41316086399048302 0.31918962555795088 0 0.41544983039366512 0.32953271314637039 0 0.40860853726765339 0.309318938863758 0 0.41316086399048302 0.31918962555795088 0 0.40276015360382211 0.3144041531339446 0 0.41739356531236188 0.34013709504256018 0 0.41544983039366512 0.32953271314637039 0 0.39384880347163692 0.33984983538614127 0 0.41544983039366512 0.32953271314637039 0 0.39418547218277172 0.33294190188305062 0 0.39384880347163692 0.33984983538614127 0 0.41544983039366512 0.32953271314637039 0 0.39384880347163692 0.33984983538614127 0 0.39418547218277172 0.33294190188305062 0 0.39384880347163692 0.33984983538614127 0 0.38763626903965592 0.33142256612758492 0 0.39418547218277172 0.33294190188305062 0 0.39181849880786379 0.32717555703993689 0 0.38763626903965592 0.33142256612758492 0 0.41316086399048302 0.31918962555795088 0 0.39418547218277172 0.33294190188305062 0 0.39708961803314868 0.32200780813679419 0 0.41316086399048302 0.31918962555795088 0 0.40276015360382211 0.3144041531339446 0 0.39708961803314868 0.32200780813679419 0 0.41316086399048302 0.31918962555795088 0 0.39418547218277172 0.33294190188305062 0 0.39418547218277172 0.33294190188305062 0 0.39708961803314868 0.32200780813679419 0 0.39181849880786379 0.32717555703993689 0 0.39708961803314868 0.32200780813679419 0 0.39181849880786379 0.32717555703993689 0 0.38758066886242332 0.32336225559927501 0 0.39708961803314868 0.32200780813679419 0 0.39212940840629362 0.31318847352025442 0 0.38758066886242332 0.32336225559927501 0 0.40276015360382211 0.3144041531339446 0 0.39708961803314868 0.32200780813679419 0 0.39212940840629362 0.31318847352025442 0 0.39212940840629362 0.31318847352025442 0 0.38758066886242332 0.32336225559927501 0 0.38253365066345929 0.31657150904984471 0 0.38758066886242332 0.32336225559927501 0 0.37951212113643251 0.32682582922079478 0 0.38253365066345929 0.31657150904984471 0 0.39181849880786379 0.32717555703993689 0 0.38758066886242332 0.32336225559927501 0 0.38763626903965592 0.33142256612758492 0 0.38758066886242332 0.32336225559927501 0 0.37951212113643251 0.32682582922079478 0 0.38763626903965592 0.33142256612758492 0 0.37069175466933912 0.32875176142968793 0 0.37951212113643251 0.32682582922079478 0 0.37512131353827649 0.31993777409944391 0 0.37951212113643251 0.32682582922079478 0 0.38253365066345929 0.31657150904984471 0 0.37512131353827649 0.31993777409944391 0 0.37552929986171052 0.31147094895867028 0 0.38253365066345929 0.31657150904984471 0 0.37512131353827649 0.31993777409944391 0 0.3722477765496085 0.35016695762591221 0 0.39384880347163692 0.33984983538614127 0 0.38018026091455548 0.33583017463534492 0 0.39384880347163692 0.33984983538614127 0 0.38763626903965592 0.33142256612758492 0 0.38018026091455548 0.33583017463534492 0 0.37069175466933912 0.32875176142968793 0 0.37951212113643251 0.32682582922079478 0 0.38018026091455548 0.33583017463534492 0 0.37951212113643251 0.32682582922079478 0 0.38763626903965592 0.33142256612758492 0 0.38018026091455548 0.33583017463534492 0 0.3722477765496085 0.35016695762591221 0 0.39384880347163692 0.33984983538614127 0 0.3722477765496085 0.35016695762591221 0 0.39384880347163692 0.33984983538614127 0 0.38596182216836522 0.35527606173029752 0 0.3722477765496085 0.35016695762591221 0 0.38596182216836522 0.35527606173029752 0 0.37807898130569972 0.38198010331448301 0 0.38596182216836522 0.35527606173029752 0 0.39773627330903077 0.36105859917852151 0 0.37807898130569972 0.38198010331448301 0 0.39773627330903077 0.36105859917852151 0 0.37807898130569972 0.38198010331448301 0 0.39773627330903077 0.36105859917852151 0 0.37807898130569972 0.38198010331448301 0 0.40780080352149928 0.37567923871478631 0 0.41739356531236188 0.34013709504256018 0 0.39384880347163692 0.33984983538614127 0 0.39773627330903077 0.36105859917852151 0 0.39384880347163692 0.33984983538614127 0 0.38596182216836522 0.35527606173029752 0 0.39773627330903077 0.36105859917852151 0 0.40390821143883249 0.39309141821086863 0 0.37807898130569972 0.38198010331448301 0 0.39091832328282361 0.41087193027100549 0 0.40390821143883249 0.39309141821086863 0 0.39091832328282361 0.41087193027100549 0 0.41386422373874859 0.406371997932643 0 0.40390821143883249 0.39309141821086863 0 0.37807898130569972 0.38198010331448301 0 0.40780080352149928 0.37567923871478631 0 0.36187958923526292 0.40293945046940088 0 0.37807898130569972 0.38198010331448301 0 0.39091832328282361 0.41087193027100549 0 0.37193014631584848 0.42999924720615068 0 0.39355396721594382 0.43664913910555569 0 0.39091832328282361 0.41087193027100549 0 0.39355396721594382 0.43664913910555569 0 0.4086430402520686 0.43726383809014391 0 0.41286414250946218 0.42378426033622751 0 0.39355396721594382 0.43664913910555569 0 0.39091832328282361 0.41087193027100549 0 0.41286414250946218 0.42378426033622751 0 0.39091832328282361 0.41087193027100549 0 0.41386422373874859 0.406371997932643 0 0.41286414250946218 0.42378426033622751 0 0.41386422373874859 0.406371997932643 0 0.41286414250946218 0.42378426033622751 0 0.43221705047033082 0.4090921792360791 0 0.41286414250946218 0.42378426033622751 0 0.43133933500857929 0.43201167421733949 0 0.41892553910608071 0.43791135523627978 0 0.4086430402520686 0.43726383809014391 0 0.41286414250946218 0.42378426033622751 0 0.41892553910608071 0.43791135523627978 0 0.41286414250946218 0.42378426033622751 0 0.43133933500857929 0.43201167421733949 0 0.41286414250946218 0.42378426033622751 0 0.43133933500857929 0.43201167421733949 0 0.43221705047033082 0.4090921792360791 0 0.41386422373874859 0.406371997932643 0 0.43221705047033082 0.4090921792360791 0 0.42773818513645112 0.38883830406482728 0 0.40390821143883249 0.39309141821086863 0 0.41386422373874859 0.406371997932643 0 0.42773818513645112 0.38883830406482728 0 0.40390821143883249 0.39309141821086863 0 0.40780080352149928 0.37567923871478631 0 0.42773818513645112 0.38883830406482728 0 0.42640845802995259 0.36892404556868708 0 0.40780080352149928 0.37567923871478631 0 0.42773818513645112 0.38883830406482728 0 0.44153901264778062 0.37343480580038879 0 0.42640845802995259 0.36892404556868708 0 0.42773818513645112 0.38883830406482728 0 0.44153901264778062 0.37343480580038879 0 0.42773818513645112 0.38883830406482728 0 0.45482676763662039 0.38809293299633429 0 0.5 0.34930215291110689 0 0.47781149018510388 0.37869427749857482 0 0.5 0.41423412078117261 0 0.43221705047033082 0.4090921792360791 0 0.42773818513645112 0.38883830406482728 0 0.45482676763662039 0.38809293299633429 0 0.43221705047033082 0.4090921792360791 0 0.45482676763662039 0.38809293299633429 0 0.45232064757215651 0.41416601054739322 0 0.45482676763662039 0.38809293299633429 0 0.47121798163558132 0.40484318606820219 0 0.45232064757215651 0.41416601054739322 0 0.45482676763662039 0.38809293299633429 0 0.45232064757215651 0.41416601054739322 0 0.45733288770108432 0.36201985544527537 0 0.45482676763662039 0.38809293299633429 0 0.47781149018510388 0.37869427749857482 0 0.45482676763662039 0.38809293299633429 0 0.47781149018510388 0.37869427749857482 0 0.47121798163558132 0.40484318606820219 0 0.45733288770108432 0.36201985544527537 0 0.45482676763662039 0.38809293299633429 0 0.47781149018510388 0.37869427749857482 0 0.47121798163558132 0.40484318606820219 0 0.5 0.41423412078117261 0 0.5 0.41423412078117261 0 0.47113100278402542 0.42902858851753611 0 0.48237845739663598 0.45474052989964669 0 0.47121798163558132 0.40484318606820219 0 0.5 0.41423412078117261 0 0.47113100278402542 0.42902858851753611 0 0.47113100278402542 0.42902858851753611 0 0.45232064757215651 0.41416601054739322 0 0.44981452750769602 0.44023908809845258 0 0.47121798163558132 0.40484318606820219 0 0.47113100278402542 0.42902858851753611 0 0.45232064757215651 0.41416601054739322 0 0.43133933500857929 0.43201167421733949 0 0.43221705047033082 0.4090921792360791 0 0.45232064757215651 0.41416601054739322 0 0.43133933500857929 0.43201167421733949 0 0.44981452750769602 0.44023908809845258 0 0.45232064757215651 0.41416601054739322 0 0.44981452750769602 0.44023908809845258 0 0.43133933500857929 0.43201167421733949 0 0.45232064757215651 0.41416601054739322 0 0.44981452750769602 0.44023908809845258 0 0.43133933500857929 0.43201167421733949 0 0.44981452750769602 0.44023908809845258 0 0.43647632095713862 0.44436215142212632 0 0.44981452750769602 0.44023908809845258 0 0.44828887142136431 0.4561116514361514 0 0.43647632095713862 0.44436215142212632 0 0.5 0.41423412078117261 0 0.48237845739663598 0.45474052989964669 0 0.5 0.5 0 0.44981452750769602 0.44023908809845258 0 0.44828887142136431 0.4561116514361514 0 0.44828887142136431 0.4561116514361514 0 0.46262912319994498 0.4617517767316669 0 0.44676321533503599 0.47198421477385039 0 0.44828887142136431 0.4561116514361514 0 0.44676321533503599 0.47198421477385039 0 0.44828887142136431 0.4561116514361514 0 0.44676321533503599 0.47198421477385039 0 0.43105685511778941 0.46008286853249242 0 0.44828887142136431 0.4561116514361514 0 0.43105685511778941 0.46008286853249242 0 0.43647632095713862 0.44436215142212632 0 0.44828887142136431 0.4561116514361514 0 0.46262912319994498 0.4617517767316669 0 0.46609649245216622 0.44748980899904922 0 0.44981452750769602 0.44023908809845258 0 0.46609649245216622 0.44748980899904922 0 0.47113100278402542 0.42902858851753611 0 0.44981452750769602 0.44023908809845258 0 0.46609649245216622 0.44748980899904922 0 0.44981452750769602 0.44023908809845258 0 0.44828887142136431 0.4561116514361514 0 0.46609649245216622 0.44748980899904922 0 0.46609649245216622 0.44748980899904922 0 0.48237845739663598 0.45474052989964669 0 0.47113100278402542 0.42902858851753611 0 0.46609649245216622 0.44748980899904922 0 0.48237845739663598 0.45474052989964669 0 0.46262912319994498 0.4617517767316669 0 0.46609649245216622 0.44748980899904922 0 0.48237845739663598 0.45474052989964669 0 0.46262912319994498 0.4617517767316669 0 0.48237845739663598 0.45474052989964669 0 0.46961857939452217 0.47843267854963678 0 0.5 0.5 0 0.46961857939452217 0.47843267854963678 0 0.45695651283274419 0.5 0 0.48237845739663598 0.45474052989964669 0 0.5 0.5 0 0.46961857939452217 0.47843267854963678 0 0.46262912319994498 0.4617517767316669 0 0.46961857939452217 0.47843267854963678 0 0.44676321533503599 0.47198421477385039 0 0.46961857939452217 0.47843267854963678 0 0.45695651283274419 0.5 0 0.44676321533503599 0.47198421477385039 0 0.45695651283274419 0.5 0 0.44676321533503599 0.47198421477385039 0 0.42715067833807191 0.48563837301334373 0 0.45695651283274419 0.5 0 0.42715067833807191 0.48563837301334373 0 0.39792984500105372 0.49999999999999267 0 0.42715067833807191 0.48563837301334373 0 0.40953154044098622 0.4794767255128099 0 0.39792984500105372 0.49999999999999267 0 0.40953154044098622 0.4794767255128099 0 0.41525465208730261 0.46316685488367448 0 0.40032430733366781 0.47438196319643627 0 0.42715067833807191 0.48563837301334373 0 0.40953154044098622 0.4794767255128099 0 0.42565961132635199 0.47168315798381388 0 0.40953154044098622 0.4794767255128099 0 0.42565961132635199 0.47168315798381388 0 0.41525465208730261 0.46316685488367448 0 0.44676321533503599 0.47198421477385039 0 0.42715067833807191 0.48563837301334373 0 0.42565961132635199 0.47168315798381388 0 0.42565961132635199 0.47168315798381388 0 0.43105685511778941 0.46008286853249242 0 0.41525465208730261 0.46316685488367448 0 0.44676321533503599 0.47198421477385039 0 0.42565961132635199 0.47168315798381388 0 0.43105685511778941 0.46008286853249242 0 0.43647632095713862 0.44436215142212632 0 0.4092285121767878 0.4507105976825127 0 0.43133933500857929 0.43201167421733949 0 0.43647632095713862 0.44436215142212632 0 0.41892553910608071 0.43791135523627978 0 0.43105685511778941 0.46008286853249242 0 0.43647632095713862 0.44436215142212632 0 0.4092285121767878 0.4507105976825127 0 0.43647632095713862 0.44436215142212632 0 0.41892553910608071 0.43791135523627978 0 0.4092285121767878 0.4507105976825127 0 0.4086430402520686 0.43726383809014391 0 0.41892553910608071 0.43791135523627978 0 0.4092285121767878 0.4507105976825127 0 0.43105685511778941 0.46008286853249242 0 0.4092285121767878 0.4507105976825127 0 0.41525465208730261 0.46316685488367448 0 0.41525465208730261 0.46316685488367448 0 0.38526933680530762 0.46591325479630669 0 0.40032430733366781 0.47438196319643627 0 0.4092285121767878 0.4507105976825127 0 0.41525465208730261 0.46316685488367448 0 0.38526933680530762 0.46591325479630669 0 0.4092285121767878 0.4507105976825127 0 0.38526933680530762 0.46591325479630669 0 0.38198070339643708 0.45705904394289942 0 0.4092285121767878 0.4507105976825127 0 0.38198070339643708 0.45705904394289942 0 0.41525465208730261 0.46316685488367448 0 0.38526933680530762 0.46591325479630669 0 0.39355396721594382 0.43664913910555569 0 0.4086430402520686 0.43726383809014391 0 0.4092285121767878 0.4507105976825127 0 0.39355396721594382 0.43664913910555569 0 0.4092285121767878 0.4507105976825127 0 0.38198070339643708 0.45705904394289942 0 0.37193014631584848 0.42999924720615068 0 0.39355396721594382 0.43664913910555569 0 0.38198070339643708 0.45705904394289942 0 0.37193014631584848 0.42999924720615068 0 0.38198070339643708 0.45705904394289942 0 0.36717500093372668 0.46757054210475929 0 0.38526933680530762 0.46591325479630669 0 0.36717500093372668 0.46757054210475929 0 0.38526933680530762 0.46591325479630669 0 0.38198070339643708 0.45705904394289942 0 0.38526933680530762 0.46591325479630669 0 0.38198070339643708 0.45705904394289942 0 0.36717500093372668 0.46757054210475929 0 0.38526933680530762 0.46591325479630669 0 0.37501723488010369 0.48021086780116401 0 0.38526933680530762 0.46591325479630669 0 0.39159959090318019 0.48295662739814987 0 0.38526933680530762 0.46591325479630669 0 0.37501723488010369 0.48021086780116401 0 0.39159959090318019 0.48295662739814987 0 0.37100127548482031 0.49999999999999922 0 0.39792984500105372 0.49999999999999267 0 0.39159959090318019 0.48295662739814987 0 0.37100127548482031 0.49999999999999922 0 0.37501723488010369 0.48021086780116401 0 0.39159959090318019 0.48295662739814987 0 0.40953154044098622 0.4794767255128099 0 0.39792984500105372 0.49999999999999267 0 0.39159959090318019 0.48295662739814987 0 0.39792984500105372 0.49999999999999267 0 0.39159959090318019 0.48295662739814987 0 0.38526933680530762 0.46591325479630669 0 0.39159959090318019 0.48295662739814987 0 0.40032430733366781 0.47438196319643627 0 0.40953154044098622 0.4794767255128099 0 0.39159959090318019 0.48295662739814987 0 0.40032430733366781 0.47438196319643627 0 0.33044620589452839 0.087817198709655944 0 0.34171554996877818 0.096966806733087524 0 0.34881532063442522 0.082201530692034883 0 0.33044620589452839 0.087817198709655944 0 0.32566991147381341 0.070879840112157963 0 0.34881532063442522 0.082201530692034883 0 0.32566991147381341 0.070879840112157963 0 0.34881532063442522 0.082201530692034883 0 0.34230685448842202 0.061943355546023537 0 0.32566991147381341 0.070879840112157963 0 0.31072716300308328 0.059331554637136651 0 0.31153776068034922 0.089135316111794982 0 0.33044620589452839 0.087817198709655944 0 0.32806927392538099 0.098855845298032555 0 0.31153776068034922 0.089135316111794982 0 0.33044620589452839 0.087817198709655944 0 0.32566991147381341 0.070879840112157963 0 0.31153776068034922 0.089135316111794982 0 0.32260309590447922 0.1123122165003074 0 0.31153776068034922 0.089135316111794982 0 0.31234835835761571 0.11893907758645331 0 0.32806927392538099 0.098855845298032555 0 0.32260309590447922 0.1123122165003074 0 0.31153776068034922 0.089135316111794982 0 0.32260309590447922 0.1123122165003074 0 0.33019904407723683 0.1184739086744384 0 0.31234835835761571 0.11893907758645331 0 0.33019904407723683 0.1184739086744384 0 0.31234835835761571 0.11893907758645331 0 0.33442235067943221 0.13211305649348251 0 0.32260309590447922 0.1123122165003074 0 0.33019904407723683 0.1184739086744384 0 0.33404375717876961 0.1080476884353169 0 0.33404375717876961 0.1080476884353169 0 0.343988490580944 0.1176741160108202 0 0.33019904407723683 0.1184739086744384 0 0.33404375717876961 0.1080476884353169 0 0.343988490580944 0.1176741160108202 0 0.343988490580944 0.1176741160108202 0 0.33442235067943221 0.13211305649348251 0 0.33019904407723683 0.1184739086744384 0 0.343988490580944 0.1176741160108202 0 0.33442235067943221 0.13211305649348251 0 0.33404375717876961 0.1080476884353169 0 0.34171554996877818 0.096966806733087524 0 0.35392152912869879 0.10268138604034791 0 0.33044620589452839 0.087817198709655944 0 0.32806927392538099 0.098855845298032555 0 0.34171554996877818 0.096966806733087524 0 0.32806927392538099 0.098855845298032555 0 0.33404375717876961 0.1080476884353169 0 0.34171554996877818 0.096966806733087524 0 0.32806927392538099 0.098855845298032555 0 0.32260309590447922 0.1123122165003074 0 0.33404375717876961 0.1080476884353169 0 0.35392152912869879 0.10268138604034791 0 0.35491381869304151 0.1011836439930483 0 0.34881532063442522 0.082201530692034883 0 0.34171554996877818 0.096966806733087524 0 0.35392152912869879 0.10268138604034791 0 0.34881532063442522 0.082201530692034883 0 0.35392152912869879 0.10268138604034791 0 0.35546062987876292 0.1088543734464716 0 0.35491381869304151 0.1011836439930483 0 0.35392152912869879 0.10268138604034791 0 0.35491381869304151 0.1011836439930483 0 0.35392152912869879 0.10268138604034791 0 0.35546062987876292 0.1088543734464716 0 0.33404375717876961 0.1080476884353169 0 0.35392152912869879 0.10268138604034791 0 0.343988490580944 0.1176741160108202 0 0.35546062987876292 0.1088543734464716 0 0.35491381869304151 0.1011836439930483 0 0.36234477620530581 0.12431315491142481 0 0.35491381869304151 0.1011836439930483 0 0.36234477620530581 0.12431315491142481 0 0.343988490580944 0.1176741160108202 0 0.3557614600719885 0.1290702624504714 0 0.35392152912869879 0.10268138604034791 0 0.343988490580944 0.1176741160108202 0 0.35392152912869879 0.10268138604034791 0 0.35546062987876292 0.1088543734464716 0 0.343988490580944 0.1176741160108202 0 0.35546062987876292 0.1088543734464716 0 0.343988490580944 0.1176741160108202 0 0.35889290538618501 0.1204186727105461 0 0.343988490580944 0.1176741160108202 0 0.35889290538618501 0.1204186727105461 0 0.3557614600719885 0.1290702624504714 0 0.35546062987876292 0.1088543734464716 0 0.35889290538618501 0.1204186727105461 0 0.36234477620530581 0.12431315491142481 0 0.35889290538618501 0.1204186727105461 0 0.36234477620530581 0.12431315491142481 0 0.3557614600719885 0.1290702624504714 0 0.35491381869304151 0.1011836439930483 0 0.36234477620530581 0.12431315491142481 0 0.37533236417423199 0.11575217945856781 0 0.35889290538618501 0.1204186727105461 0 0.36234477620530581 0.12431315491142481 0 0.35491381869304151 0.1011836439930483 0 0.36864505415383159 0.080457991471440893 0 0.37989514383216261 0.1008811074142211 0 0.35491381869304151 0.1011836439930483 0 0.37989514383216261 0.1008811074142211 0 0.37533236417423199 0.11575217945856781 0 0.35491381869304151 0.1011836439930483 0 0.36864505415383159 0.080457991471440893 0 0.36864505415383159 0.080457991471440893 0 0.37194242117794668 0.076772614526931793 0 0.37989514383216261 0.1008811074142211 0 0.35491381869304151 0.1011836439930483 0 0.36864505415383159 0.080457991471440893 0 0.34881532063442522 0.082201530692034883 0 0.35491381869304151 0.1011836439930483 0 0.34881532063442522 0.082201530692034883 0 0.35392152912869879 0.10268138604034791 0 0.34881532063442522 0.082201530692034883 0 0.34881532063442522 0.082201530692034883 0 0.34230685448842202 0.061943355546023537 0 0.34881532063442522 0.082201530692034883 0 0.34385440331789768 0.06230440562327498 0 0.34881532063442522 0.082201530692034883 0 0.36113142589940772 0.067155945135465897 0 0.34385440331789768 0.06230440562327498 0 0.34881532063442522 0.082201530692034883 0 0.34385440331789768 0.06230440562327498 0 0.34230685448842202 0.061943355546023537 0 0.36864505415383159 0.080457991471440893 0 0.36113142589940772 0.067155945135465897 0 0.38237628961462611 0.059732338949836518 0 0.36864505415383159 0.080457991471440893 0 0.34881532063442522 0.082201530692034883 0 0.36113142589940772 0.067155945135465897 0 0.36864505415383159 0.080457991471440893 0 0.37194242117794668 0.076772614526931793 0 0.38237628961462611 0.059732338949836518 0 0.36113142589940772 0.067155945135465897 0 0.36196606177625779 0.051083458940742198 0 0.38237628961462611 0.059732338949836518 0 0.36196606177625779 0.051083458940742198 0 0.37923500638336632 0.043068186250585699 0 0.38237628961462611 0.059732338949836518 0 0.36196606177625779 0.051083458940742198 0 0.36321924137845568 0.02934286747329215 0 0.37923500638336632 0.043068186250585699 0 0.36196606177625779 0.051083458940742198 0 0.36321924137845568 0.02934286747329215 0 0.33889348600137009 0.042407280554515127 0 0.36321924137845568 0.02934286747329215 0 0.33393256868484111 0.02251015548575569 0 0.33889348600137009 0.042407280554515127 0 0.36113142589940772 0.067155945135465897 0 0.36196606177625779 0.051083458940742198 0 0.34385440331789768 0.06230440562327498 0 0.36196606177625779 0.051083458940742198 0 0.34385440331789768 0.06230440562327498 0 0.33889348600137009 0.042407280554515127 0 0.37357914744350779 0.002440479778912224 0 0.37424442014871812 0.021820824704299101 0 0.35598292622536432 0.0074660699477739154 0 0.37424442014871812 0.021820824704299101 0 0.35598292622536432 0.0074660699477739154 0 0.36321924137845568 0.02934286747329215 0 0.37424442014871812 0.021820824704299101 0 0.35598292622536432 0.0074660699477739154 0 0.36321924137845568 0.02934286747329215 0 0.34509322139385162 0.01518667904233665 0 0.33393256868484111 0.02251015548575569 0 0.36321924137845568 0.02934286747329215 0 0.33393256868484111 0.02251015548575569 0 0.36321924137845568 0.02934286747329215 0 0.35598292622536432 0.0074660699477739154 0 0.34509322139385162 0.01518667904233665 0 0.35598292622536432 0.0074660699477739154 0 0.33772143230201052 -0.0068886848087512803 0 0.35598292622536432 0.0074660699477739154 0 0.33877017139388149 0.0064718171092321003 0 0.33772143230201052 -0.0068886848087512803 0 0.35598292622536432 0.0074660699477739154 0 0.34509322139385162 0.01518667904233665 0 0.33877017139388149 0.0064718171092321003 0 0.33877017139388149 0.0064718171092321003 0 0.32325249182581611 0.0026349705202008129 0 0.33772143230201052 -0.0068886848087512803 0 0.33877017139388149 0.0064718171092321003 0 0.33180078522236511 0.01396005084460041 0 0.32325249182581611 0.0026349705202008129 0 0.34509322139385162 0.01518667904233665 0 0.33877017139388149 0.0064718171092321003 0 0.33180078522236511 0.01396005084460041 0 0.3292899221964134 0.021427005254001569 0 0.33393256868484111 0.02251015548575569 0 0.33579838834241882 0.04168518040001222 0 0.33180078522236511 0.01396005084460041 0 0.3292899221964134 0.021427005254001569 0 0.33393256868484111 0.02251015548575569 0 0.33180078522236511 0.01396005084460041 0 0.33393256868484111 0.02251015548575569 0 0.3292899221964134 0.021427005254001569 0 0.33393256868484111 0.02251015548575569 0 0.34509322139385162 0.01518667904233665 0 0.33180078522236511 0.01396005084460041 0 0.33393256868484111 0.02251015548575569 0 0.3292899221964134 0.021427005254001569 0 0.31293781791285569 0.017611986042758699 0 0.31923969929816981 0.035830495662194838 0 0.3292899221964134 0.021427005254001569 0 0.31293781791285569 0.017611986042758699 0 0.33180078522236511 0.01396005084460041 0 0.3292899221964134 0.021427005254001569 0 0.32325249182581611 0.0026349705202008129 0 0.3292899221964134 0.021427005254001569 0 0.31293781791285569 0.017611986042758699 0 0.32325249182581611 0.0026349705202008129 0 0.3292899221964134 0.021427005254001569 0 0.32325249182581611 0.0026349705202008129 0 0.31293781791285569 0.017611986042758699 0 0.32325249182581611 0.0026349705202008129 0 0.30690038754225768 -0.0011800486910433781 0 0.34230685448842202 0.061943355546023537 0 0.33579838834241882 0.04168518040001222 0 0.33889348600137009 0.042407280554515127 0 0.34385440331789768 0.06230440562327498 0 0.34230685448842202 0.061943355546023537 0 0.33889348600137009 0.042407280554515127 0 0.32566991147381341 0.070879840112157963 0 0.34230685448842202 0.061943355546023537 0 0.33579838834241882 0.04168518040001222 0 0.34230685448842202 0.061943355546023537 0 0.33579838834241882 0.04168518040001222 0 0.34385440331789768 0.06230440562327498 0 0.33889348600137009 0.042407280554515127 0 0.3292899221964134 0.021427005254001569 0 0.33579838834241882 0.04168518040001222 0 0.33393256868484111 0.02251015548575569 0 0.33889348600137009 0.042407280554515127 0 0.33393256868484111 0.02251015548575569 0 0.33579838834241882 0.04168518040001222 0 0.33889348600137009 0.042407280554515127 0 0.33579838834241882 0.04168518040001222 0 0.31923969929816981 0.035830495662194838 0 0.31072716300308328 0.059331554637136651 0 0.3292899221964134 0.021427005254001569 0 0.33579838834241882 0.04168518040001222 0 0.31923969929816981 0.035830495662194838 0 0.32566991147381341 0.070879840112157963 0 0.33579838834241882 0.04168518040001222 0 0.31072716300308328 0.059331554637136651 0 0.31072716300308328 0.059331554637136651 0 0.30691000426459791 0.042169890293137127 0 0.29424159478151202 0.042911142587019738 0 0.31923969929816981 0.035830495662194838 0 0.30691000426459791 0.042169890293137127 0 0.30060566889494089 0.02714657897289334 0 0.30691000426459791 0.042169890293137127 0 0.29424159478151202 0.042911142587019738 0 0.30060566889494089 0.02714657897289334 0 0.31923969929816981 0.035830495662194838 0 0.31072716300308328 0.059331554637136651 0 0.30691000426459791 0.042169890293137127 0 0.29424159478151202 0.042911142587019738 0 0.30060566889494089 0.02714657897289334 0 0.28762295502011598 0.027200489278051441 0 0.29424159478151202 0.042911142587019738 0 0.28762295502011598 0.027200489278051441 0 0.27805620151387522 0.042617420402232667 0 0.31072716300308328 0.059331554637136651 0 0.29424159478151202 0.042911142587019738 0 0.28127895804124392 0.05869653450612005 0 0.29424159478151202 0.042911142587019738 0 0.28127895804124392 0.05869653450612005 0 0.27805620151387522 0.042617420402232667 0 0.31293781791285569 0.017611986042758699 0 0.29658571362929892 0.01379696683151194 0 0.30690038754225768 -0.0011800486910433781 0 0.29658571362929892 0.01379696683151194 0 0.30050921735997521 -0.004605356182754896 0 0.30690038754225768 -0.0011800486910433781 0 0.29658571362929892 0.01379696683151194 0 0.30690038754225768 -0.0011800486910433781 0 0.31293781791285569 0.017611986042758699 0 0.30060566889494089 0.02714657897289334 0 0.29658571362929892 0.01379696683151194 0 0.31293781791285569 0.017611986042758699 0 0.31923969929816981 0.035830495662194838 0 0.30060566889494089 0.02714657897289334 0 0.31293781791285569 0.017611986042758699 0 0.29658571362929892 0.01379696683151194 0 0.30060566889494089 0.02714657897289334 0 0.29500274332330728 0.016095456443948788 0 0.29658571362929892 0.01379696683151194 0 0.30060566889494089 0.02714657897289334 0 0.28762295502011598 0.027200489278051441 0 0.29289454178864649 0.022456661223579269 0 0.28762295502011598 0.027200489278051441 0 0.28116395689077539 0.015207467567734259 0 0.27775173961206168 0.02941095978416057 0 0.28762295502011598 0.027200489278051441 0 0.28836526088227099 0.018465508051837269 0 0.28116395689077539 0.015207467567734259 0 0.28762295502011598 0.027200489278051441 0 0.28116395689077539 0.015207467567734259 0 0.30060566889494089 0.02714657897289334 0 0.29289454178864649 0.022456661223579269 0 0.29500274332330728 0.016095456443948788 0 0.28836526088227099 0.018465508051837269 0 0.29289454178864649 0.022456661223579269 0 0.29500274332330728 0.016095456443948788 0 0.28762295502011598 0.027200489278051441 0 0.28836526088227099 0.018465508051837269 0 0.29289454178864649 0.022456661223579269 0 0.28514691493175248 0.01112824383243886 0 0.30050921735997521 -0.004605356182754896 0 0.29658571362929892 0.01379696683151194 0 0.28514691493175248 0.01112824383243886 0 0.30050921735997521 -0.004605356182754896 0 0.28514691493175248 0.01112824383243886 0 0.27791710391185381 -0.0010379811687957271 0 0.28512431700806451 -0.0086992195202469716 0 0.29658571362929892 0.01379696683151194 0 0.28514691493175248 0.01112824383243886 0 0.28836526088227099 0.018465508051837269 0 0.29500274332330728 0.016095456443948788 0 0.28514691493175248 0.01112824383243886 0 0.29500274332330728 0.016095456443948788 0 0.29658571362929892 0.01379696683151194 0 0.28514691493175248 0.01112824383243886 0 0.29500274332330728 0.016095456443948788 0 0.29658571362929892 0.01379696683151194 0 0.28836526088227099 0.018465508051837269 0 0.28514691493175248 0.01112824383243886 0 0.28116395689077539 0.015207467567734259 0 0.28514691493175248 0.01112824383243886 0 0.27807895442698177 0.0094792569716416024 0 0.28116395689077539 0.015207467567734259 0 0.28514691493175248 0.01112824383243886 0 0.28116395689077539 0.015207467567734259 0 0.28514691493175248 0.01112824383243886 0 0.27807895442698177 0.0094792569716416024 0 0.27127393371108272 0.0054169343353159512 0 0.27807895442698177 0.0094792569716416024 0 0.2692248172919926 -0.0069610417805164738 0 0.27807895442698177 0.0094792569716416024 0 0.2692248172919926 -0.0069610417805164738 0 0.27807895442698177 0.0094792569716416024 0 0.2692248172919926 -0.0069610417805164738 0 0.27791710391185381 -0.0010379811687957271 0 0.26701986470523431 0.0028523954276382379 0 0.27127393371108272 0.0054169343353159512 0 0.2692248172919926 -0.0069610417805164738 0 0.26701986470523431 0.0028523954276382379 0 0.27127393371108272 0.0054169343353159512 0 0.26928034954363472 0.01099432455637152 0 0.28514691493175248 0.01112824383243886 0 0.27807895442698177 0.0094792569716416024 0 0.27791710391185381 -0.0010379811687957271 0 0.27807895442698177 0.0094792569716416024 0 0.27458783582826463 0.012565755321843329 0 0.27310560452179761 0.0095674853239665035 0 0.27127393371108272 0.0054169343353159512 0 0.27807895442698177 0.0094792569716416024 0 0.27310560452179761 0.0095674853239665035 0 0.27807895442698177 0.0094792569716416024 0 0.28116395689077539 0.015207467567734259 0 0.27807895442698177 0.0094792569716416024 0 0.28116395689077539 0.015207467567734259 0 0.27458783582826463 0.012565755321843329 0 0.27458783582826463 0.012565755321843329 0 0.26928034954363472 0.01099432455637152 0 0.26815911709364498 0.019514489362225031 0 0.27458783582826463 0.012565755321843329 0 0.27310560452179761 0.0095674853239665035 0 0.26928034954363472 0.01099432455637152 0 0.27127393371108272 0.0054169343353159512 0 0.27310560452179761 0.0095674853239665035 0 0.26928034954363472 0.01099432455637152 0 0.28116395689077539 0.015207467567734259 0 0.26416384502347939 0.032618461888623121 0 0.28116395689077539 0.015207467567734259 0 0.26815911709364498 0.019514489362225031 0 0.26416384502347939 0.032618461888623121 0 0.28116395689077539 0.015207467567734259 0 0.27775173961206168 0.02941095978416057 0 0.26416384502347939 0.032618461888623121 0 0.28116395689077539 0.015207467567734259 0 0.27458783582826463 0.012565755321843329 0 0.26815911709364498 0.019514489362225031 0 0.2489069739425 0.021637400389674748 0 0.25228035847618863 0.02688679106582054 0 0.25585841565974538 0.042233258010133973 0 0.26815911709364498 0.019514489362225031 0 0.25311855338379191 0.024668664965947041 0 0.26416384502347939 0.032618461888623121 0 0.25311855338379191 0.024668664965947041 0 0.26416384502347939 0.032618461888623121 0 0.25228035847618863 0.02688679106582054 0 0.25311855338379191 0.024668664965947041 0 0.26416384502347939 0.032618461888623121 0 0.2489069739425 0.021637400389674748 0 0.25228035847618863 0.02688679106582054 0 0.25311855338379191 0.024668664965947041 0 0.25228035847618863 0.02688679106582054 0 0.25311855338379191 0.024668664965947041 0 0.2489069739425 0.021637400389674748 0 0.25311855338379191 0.024668664965947041 0 0.25900523844679291 0.0090906536209348996 0 0.25311855338379191 0.024668664965947041 0 0.25900523844679291 0.0090906536209348996 0 0.2489069739425 0.021637400389674748 0 0.25311855338379191 0.024668664965947041 0 0.26815911709364498 0.019514489362225031 0 0.25311855338379191 0.024668664965947041 0 0.25900523844679291 0.0090906536209348996 0 0.26928034954363472 0.01099432455637152 0 0.26815911709364498 0.019514489362225031 0 0.25900523844679291 0.0090906536209348996 0 0.26701986470523431 0.0028523954276382379 0 0.26928034954363472 0.01099432455637152 0 0.25900523844679291 0.0090906536209348996 0 0.25900523844679291 0.0090906536209348996 0 0.26489192350979318 -0.0064873577240775106 0 0.26701986470523431 0.0028523954276382379 0 0.25900523844679291 0.0090906536209348996 0 0.26489192350979318 -0.0064873577240775106 0 0.28127895804124392 0.05869653450612005 0 0.26794279917258279 0.048584654113773551 0 0.27805620151387522 0.042617420402232667 0 0.28127895804124392 0.05869653450612005 0 0.26794279917258279 0.048584654113773551 0 0.26429652163301431 0.061701359010517647 0 0.26794279917258279 0.048584654113773551 0 0.27805620151387522 0.042617420402232667 0 0.26416384502347939 0.032618461888623121 0 0.28762295502011598 0.027200489278051441 0 0.27775173961206168 0.02941095978416057 0 0.27805620151387522 0.042617420402232667 0 0.27805620151387522 0.042617420402232667 0 0.26416384502347939 0.032618461888623121 0 0.27775173961206168 0.02941095978416057 0 0.27805620151387522 0.042617420402232667 0 0.26416384502347939 0.032618461888623121 0 0.26794279917258279 0.048584654113773551 0 0.2611959089814877 0.042898221548277563 0 0.26416384502347939 0.032618461888623121 0 0.2611959089814877 0.042898221548277563 0 0.25585841565974538 0.042233258010133973 0 0.25799090162224952 0.051667623778106117 0 0.2489069739425 0.021637400389674748 0 0.25585841565974538 0.042233258010133973 0 0.2611959089814877 0.042898221548277563 0 0.25868336492166327 0.038231401890038208 0 0.25585841565974538 0.042233258010133973 0 0.25228035847618863 0.02688679106582054 0 0.26416384502347939 0.032618461888623121 0 0.25868336492166327 0.038231401890038208 0 0.2611959089814877 0.042898221548277563 0 0.26416384502347939 0.032618461888623121 0 0.25868336492166327 0.038231401890038208 0 0.26416384502347939 0.032618461888623121 0 0.25868336492166327 0.038231401890038208 0 0.25228035847618863 0.02688679106582054 0 0.25868336492166327 0.038231401890038208 0 0.25585841565974538 0.042233258010133973 0 0.24915942417082321 0.043562136642382059 0 0.25585841565974538 0.042233258010133973 0 0.25194780840825542 0.047502886957762752 0 0.25585841565974538 0.042233258010133973 0 0.25194780840825542 0.047502886957762752 0 0.25799090162224952 0.051667623778106117 0 0.24612717135886061 0.053158967820149818 0 0.25194780840825542 0.047502886957762752 0 0.25799090162224952 0.051667623778106117 0 0.24612717135886061 0.053158967820149818 0 0.25799090162224952 0.051667623778106117 0 0.26429652163301431 0.061701359010517647 0 0.26794279917258279 0.048584654113773551 0 0.2611959089814877 0.042898221548277563 0 0.25799090162224952 0.051667623778106117 0 0.26794279917258279 0.048584654113773551 0 0.25799090162224952 0.051667623778106117 0 0.26429652163301431 0.061701359010517647 0 0.24612717135886061 0.053158967820149818 0 0.25923100858263742 0.079351551944828513 0 0.24612717135886061 0.053158967820149818 0 0.26429652163301431 0.061701359010517647 0 0.25923100858263742 0.079351551944828513 0 0.24537668551697431 0.097277083683747018 0 0.25923100858263742 0.079351551944828513 0 0.25922747002471352 0.097974378356717087 0 0.27555977218924488 0.077439952611008278 0 0.28759873658278978 0.090030408643589632 0 0.27101928807639453 0.09427347599549088 0 0.25923100858263742 0.079351551944828513 0 0.27555977218924488 0.077439952611008278 0 0.27101928807639453 0.09427347599549088 0 0.25923100858263742 0.079351551944828513 0 0.27101928807639453 0.09427347599549088 0 0.27233484580641432 0.1055441360695072 0 0.25923100858263742 0.079351551944828513 0 0.27233484580641432 0.1055441360695072 0 0.28127895804124392 0.05869653450612005 0 0.26429652163301431 0.061701359010517647 0 0.27555977218924488 0.077439952611008278 0 0.26429652163301431 0.061701359010517647 0 0.25923100858263742 0.079351551944828513 0 0.27555977218924488 0.077439952611008278 0 0.31072716300308328 0.059331554637136651 0 0.28127895804124392 0.05869653450612005 0 0.29303234378028109 0.075428628958087107 0 0.28127895804124392 0.05869653450612005 0 0.27555977218924488 0.077439952611008278 0 0.29303234378028109 0.075428628958087107 0 0.27555977218924488 0.077439952611008278 0 0.29303234378028109 0.075428628958087107 0 0.28759873658278978 0.090030408643589632 0 0.29303234378028109 0.075428628958087107 0 0.28759873658278978 0.090030408643589632 0 0.31153776068034922 0.089135316111794982 0 0.31072716300308328 0.059331554637136651 0 0.29303234378028109 0.075428628958087107 0 0.31153776068034922 0.089135316111794982 0 0.31072716300308328 0.059331554637136651 0 0.31153776068034922 0.089135316111794982 0 0.31234835835761571 0.11893907758645331 0 0.29168382321700531 0.1066062767909717 0 0.29960507646434792 0.12683409122409009 0 0.31234835835761571 0.11893907758645331 0 0.29168382321700531 0.1066062767909717 0 0.31153776068034922 0.089135316111794982 0 0.31234835835761571 0.11893907758645331 0 0.28759873658278978 0.090030408643589632 0 0.31153776068034922 0.089135316111794982 0 0.29168382321700531 0.1066062767909717 0 0.31153776068034922 0.089135316111794982 0 0.31234835835761571 0.11893907758645331 0 0.29168382321700531 0.1066062767909717 0 0.29168382321700531 0.1066062767909717 0 0.27101928807639453 0.09427347599549088 0 0.28759873658278978 0.090030408643589632 0 0.29168382321700531 0.1066062767909717 0 0.27101928807639453 0.09427347599549088 0 0.28726560712948962 0.11768030606968879 0 0.27233484580641432 0.1055441360695072 0 0.28543868303019121 0.131736720194186 0 0.29168382321700531 0.1066062767909717 0 0.28726560712948962 0.11768030606968879 0 0.29960507646434792 0.12683409122409009 0 0.29168382321700531 0.1066062767909717 0 0.28726560712948962 0.11768030606968879 0 0.27233484580641432 0.1055441360695072 0 0.2688255279836298 0.12262400996184721 0 0.27233484580641432 0.1055441360695072 0 0.28543868303019121 0.131736720194186 0 0.2688255279836298 0.12262400996184721 0 0.27233484580641432 0.1055441360695072 0 0.25996734019282808 0.1097247417287856 0 0.27233484580641432 0.1055441360695072 0 0.28543868303019121 0.131736720194186 0 0.29168382321700531 0.1066062767909717 0 0.27101928807639453 0.09427347599549088 0 0.27233484580641432 0.1055441360695072 0 0.25923100858263742 0.079351551944828513 0 0.27233484580641432 0.1055441360695072 0 0.25922747002471352 0.097974378356717087 0 0.27233484580641432 0.1055441360695072 0 0.25922747002471352 0.097974378356717087 0 0.25996734019282808 0.1097247417287856 0 0.24537668551697431 0.097277083683747018 0 0.25922747002471352 0.097974378356717087 0 0.25996734019282808 0.1097247417287856 0 0.24537668551697431 0.097277083683747018 0 0.25996734019282808 0.1097247417287856 0 0.25370366287882878 0.1241816415692342 0 0.2688255279836298 0.12262400996184721 0 0.25996734019282808 0.1097247417287856 0 0.25370366287882878 0.1241816415692342 0 0.25370366287882878 0.1241816415692342 0 0.26203064024068312 0.15108619945472171 0 0.2688255279836298 0.12262400996184721 0 0.25370366287882878 0.1241816415692342 0 0.27163016425534958 0.13738497633274069 0 0.25370366287882878 0.1241816415692342 0 0.27163016425534958 0.13738497633274069 0 0.26203064024068312 0.15108619945472171 0 0.2688255279836298 0.12262400996184721 0 0.27163016425534958 0.13738497633274069 0 0.28543868303019121 0.131736720194186 0 0.27163016425534958 0.13738497633274069 0 0.28543868303019121 0.131736720194186 0 0.2826446853024604 0.14124270427211749 0 0.27163016425534958 0.13738497633274069 0 0.27808704382392468 0.15255782491348299 0 0.26203064024068312 0.15108619945472171 0 0.27808704382392468 0.15255782491348299 0 0.26203064024068312 0.15108619945472171 0 0.26470071343822532 0.15971323610680241 0 0.27808704382392468 0.15255782491348299 0 0.26203064024068312 0.15108619945472171 0 0.27163016425534958 0.13738497633274069 0 0.27808704382392468 0.15255782491348299 0 0.2826446853024604 0.14124270427211749 0 0.27808704382392468 0.15255782491348299 0 0.26470071343822532 0.15971323610680241 0 0.24802047718606329 0.14980211908606039 0 0.25370366287882878 0.1241816415692342 0 0.26203064024068312 0.15108619945472171 0 0.26203064024068312 0.15108619945472171 0 0.26470071343822532 0.15971323610680241 0 0.26203064024068312 0.15108619945472171 0 0.25841385897244001 0.15585338151222791 0 0.26470071343822532 0.15971323610680241 0 0.24802047718606329 0.14980211908606039 0 0.25841385897244001 0.15585338151222791 0 0.25890360502478721 0.16281197140132819 0 0.24802047718606329 0.14980211908606039 0 0.26203064024068312 0.15108619945472171 0 0.24802047718606329 0.14980211908606039 0 0.26203064024068312 0.15108619945472171 0 0.25841385897244001 0.15585338151222791 0 0.26470071343822532 0.15971323610680241 0 0.25890360502478721 0.16281197140132819 0 0.26962736994955661 0.17563131892736969 0 0.24394273923527451 0.1708090208874482 0 0.25890360502478721 0.16281197140132819 0 0.25069145747160237 0.17986975870422739 0 0.24394273923527451 0.1708090208874482 0 0.24802047718606329 0.14980211908606039 0 0.25890360502478721 0.16281197140132819 0 0.24802047718606329 0.14980211908606039 0 0.25890360502478721 0.16281197140132819 0 0.24394273923527451 0.1708090208874482 0 0.25890360502478721 0.16281197140132819 0 0.25890360502478721 0.16281197140132819 0 0.26962736994955661 0.17563131892736969 0 0.26470071343822532 0.15971323610680241 0 0.25890360502478721 0.16281197140132819 0 0.25841385897244001 0.15585338151222791 0 0.26470071343822532 0.15971323610680241 0 0.25890360502478721 0.16281197140132819 0 0.25890360502478721 0.16281197140132819 0 0.25069145747160237 0.17986975870422739 0 0.2622875918713119 0.17871532590777511 0 0.25890360502478721 0.16281197140132819 0 0.2622875918713119 0.17871532590777511 0 0.26962736994955661 0.17563131892736969 0 0.24443808169503289 0.19165573435540739 0 0.25069145747160237 0.17986975870422739 0 0.25672659357731442 0.18931439154619459 0 0.25069145747160237 0.17986975870422739 0 0.2622875918713119 0.17871532590777511 0 0.25672659357731442 0.18931439154619459 0 0.2622875918713119 0.17871532590777511 0 0.2666871346110174 0.18721551203983949 0 0.25672659357731442 0.18931439154619459 0 0.2666871346110174 0.18721551203983949 0 0.2707313294469027 0.17919822452935469 0 0.28262567674856709 0.19158292471432059 0 0.2707313294469027 0.17919822452935469 0 0.26962736994955661 0.17563131892736969 0 0.28262567674856709 0.19158292471432059 0 0.26962736994955661 0.17563131892736969 0 0.28262567674856709 0.19158292471432059 0 0.26962736994955661 0.17563131892736969 0 0.28063414626850292 0.17836588696170111 0 0.28262567674856709 0.19158292471432059 0 0.2622875918713119 0.17871532590777511 0 0.2666871346110174 0.18721551203983949 0 0.2707313294469027 0.17919822452935469 0 0.2622875918713119 0.17871532590777511 0 0.2707313294469027 0.17919822452935469 0 0.26962736994955661 0.17563131892736969 0 0.2707313294469027 0.17919822452935469 0 0.26962736994955661 0.17563131892736969 0 0.26962736994955661 0.17563131892736969 0 0.28063414626850292 0.17836588696170111 0 0.27791551735799302 0.17228039079135241 0 0.26470071343822532 0.15971323610680241 0 0.26962736994955661 0.17563131892736969 0 0.26470071343822532 0.15971323610680241 0 0.26962736994955661 0.17563131892736969 0 0.27525802885731437 0.16516718346708009 0 0.27808704382392468 0.15255782491348299 0 0.26470071343822532 0.15971323610680241 0 0.27525802885731437 0.16516718346708009 0 0.26962736994955661 0.17563131892736969 0 0.27791551735799302 0.17228039079135241 0 0.27525802885731437 0.16516718346708009 0 0.27791551735799302 0.17228039079135241 0 0.27525802885731437 0.16516718346708009 0 0.28614252435659893 0.16995717380925851 0 0.27808704382392468 0.15255782491348299 0 0.27525802885731437 0.16516718346708009 0 0.28831271101088052 0.16150411312056051 0 0.27525802885731437 0.16516718346708009 0 0.28831271101088052 0.16150411312056051 0 0.28614252435659893 0.16995717380925851 0 0.28831271101088052 0.16150411312056051 0 0.28614252435659893 0.16995717380925851 0 0.2949765541501792 0.16654736560739511 0 0.28614252435659893 0.16995717380925851 0 0.2949765541501792 0.16654736560739511 0 0.2966990425067918 0.17398076245598329 0 0.28831271101088052 0.16150411312056051 0 0.2949765541501792 0.16654736560739511 0 0.29843684607612081 0.16152557188150271 0 0.28831271101088052 0.16150411312056051 0 0.29843684607612081 0.16152557188150271 0 0.2957188317017474 0.15417383984422159 0 0.28063414626850292 0.17836588696170111 0 0.28878787233227138 0.1800597202735717 0 0.28262567674856709 0.19158292471432059 0 0.28063414626850292 0.17836588696170111 0 0.28614252435659893 0.16995717380925851 0 0.28878787233227138 0.1800597202735717 0 0.28063414626850292 0.17836588696170111 0 0.27791551735799302 0.17228039079135241 0 0.28614252435659893 0.16995717380925851 0 0.28614252435659893 0.16995717380925851 0 0.28878787233227138 0.1800597202735717 0 0.2966990425067918 0.17398076245598329 0 0.28878787233227138 0.1800597202735717 0 0.2966990425067918 0.17398076245598329 0 0.29802567422580972 0.18704947290502161 0 0.28878787233227138 0.1800597202735717 0 0.29802567422580972 0.18704947290502161 0 0.28262567674856709 0.19158292471432059 0 0.29802567422580972 0.18704947290502161 0 0.32181551132831843 0.18004621980614391 0 0.2966990425067918 0.17398076245598329 0 0.29802567422580972 0.18704947290502161 0 0.31104746434799968 0.1673946430062502 0 0.29802567422580972 0.18704947290502161 0 0.31104746434799968 0.1673946430062502 0 0.29802567422580972 0.18704947290502161 0 0.31104746434799968 0.1673946430062502 0 0.32181551132831843 0.18004621980614391 0 0.30601579003330748 0.16116038764967211 0 0.2957188317017474 0.15417383984422159 0 0.31335061957957011 0.15578985477495891 0 0.29843684607612081 0.16152557188150271 0 0.30601579003330748 0.16116038764967211 0 0.2957188317017474 0.15417383984422159 0 0.29843684607612081 0.16152557188150271 0 0.3040416986791476 0.16682267597464789 0 0.30601579003330748 0.16116038764967211 0 0.2949765541501792 0.16654736560739511 0 0.2966990425067918 0.17398076245598329 0 0.3040416986791476 0.16682267597464789 0 0.2966990425067918 0.17398076245598329 0 0.3040416986791476 0.16682267597464789 0 0.31104746434799968 0.1673946430062502 0 0.2949765541501792 0.16654736560739511 0 0.29843684607612081 0.16152557188150271 0 0.3040416986791476 0.16682267597464789 0 0.3040416986791476 0.16682267597464789 0 0.31104746434799968 0.1673946430062502 0 0.30601579003330748 0.16116038764967211 0 0.3040416986791476 0.16682267597464789 0 0.31104746434799968 0.1673946430062502 0 0.31104746434799968 0.1673946430062502 0 0.30601579003330748 0.16116038764967211 0 0.31349927981525749 0.1612557404164488 0 0.30601579003330748 0.16116038764967211 0 0.31335061957957011 0.15578985477495891 0 0.31349927981525749 0.1612557404164488 0 0.30483300733717872 0.1478702823059759 0 0.29542285010037611 0.14329129564805981 0 0.31275865637682793 0.1340247663826373 0 0.30483300733717872 0.1478702823059759 0 0.31275865637682793 0.1340247663826373 0 0.31335061957957011 0.15578985477495891 0 0.30483300733717872 0.1478702823059759 0 0.2957188317017474 0.15417383984422159 0 0.31335061957957011 0.15578985477495891 0 0.2957188317017474 0.15417383984422159 0 0.31335061957957011 0.15578985477495891 0 0.30483300733717872 0.1478702823059759 0 0.2957188317017474 0.15417383984422159 0 0.29542285010037611 0.14329129564805981 0 0.29960507646434792 0.12683409122409009 0 0.29542285010037611 0.14329129564805981 0 0.31275865637682793 0.1340247663826373 0 0.29542285010037611 0.14329129564805981 0 0.31275865637682793 0.1340247663826373 0 0.31234835835761571 0.11893907758645331 0 0.29960507646434792 0.12683409122409009 0 0.31275865637682793 0.1340247663826373 0 0.29960507646434792 0.12683409122409009 0 0.28543868303019121 0.131736720194186 0 0.29542285010037611 0.14329129564805981 0 0.28726560712948962 0.11768030606968879 0 0.29960507646434792 0.12683409122409009 0 0.28543868303019121 0.131736720194186 0 0.28543868303019121 0.131736720194186 0 0.2826446853024604 0.14124270427211749 0 0.29542285010037611 0.14329129564805981 0 0.27808704382392468 0.15255782491348299 0 0.2826446853024604 0.14124270427211749 0 0.29542285010037611 0.14329129564805981 0 0.27808704382392468 0.15255782491348299 0 0.2957188317017474 0.15417383984422159 0 0.29542285010037611 0.14329129564805981 0 0.27808704382392468 0.15255782491348299 0 0.2957188317017474 0.15417383984422159 0 0.27808704382392468 0.15255782491348299 0 0.29542285010037611 0.14329129564805981 0 0.27808704382392468 0.15255782491348299 0 0.28831271101088052 0.16150411312056051 0 0.2957188317017474 0.15417383984422159 0 0.27685630599777589 0.2478154210616699 0 0.27299157826480569 0.23766007785357521 0 0.26048617882559622 0.24371083740660091 0 0.26048617882559622 0.24371083740660091 0 0.27110411734464762 0.2276843331004246 0 0.27299157826480569 0.23766007785357521 0 0.26048617882559622 0.24371083740660091 0 0.27110411734464762 0.2276843331004246 0 0.27691591880596222 0.25729022711116639 0 0.27685630599777589 0.2478154210616699 0 0.26048617882559622 0.24371083740660091 0 0.27685630599777589 0.2478154210616699 0 0.27901295757983852 0.24225897862297641 0 0.27299157826480569 0.23766007785357521 0 0.27685630599777589 0.2478154210616699 0 0.27901295757983852 0.24225897862297641 0 0.28234947844706793 0.24570967974740021 0 0.27901295757983852 0.24225897862297641 0 0.27719652076970691 0.235876877536806 0 0.2822644445936543 0.2387958425564555 0 0.27719652076970691 0.235876877536806 0 0.28215825558210461 0.2340236887935741 0 0.2822644445936543 0.2387958425564555 0 0.27901295757983852 0.24225897862297641 0 0.27719652076970691 0.235876877536806 0 0.27299157826480569 0.23766007785357521 0 0.24791323415382371 0.2458877298954085 0 0.25153222320099622 0.25722575917013901 0 0.26048617882559622 0.24371083740660091 0 0.2477315277427897 0.2356386040277525 0 0.24791323415382371 0.2458877298954085 0 0.26048617882559622 0.24371083740660091 0 0.24965972363503919 0.22122943443424911 0 0.26048617882559622 0.24371083740660091 0 0.27110411734464762 0.2276843331004246 0 0.2447696612887639 0.21650126134236319 0 0.24965972363503919 0.22122943443424911 0 0.27110411734464762 0.2276843331004246 0 0.24965972363503919 0.22122943443424911 0 0.26048617882559622 0.24371083740660091 0 0.2447696612887639 0.21650126134236319 0 0.27110411734464762 0.2276843331004246 0 0.2447696612887639 0.21650126134236319 0 0.27110411734464762 0.2276843331004246 0 0.2677963164460333 0.2150467959949465 0 0.24965972363503919 0.22122943443424911 0 0.2477315277427897 0.2356386040277525 0 0.26048617882559622 0.24371083740660091 0 0.27110411734464762 0.2276843331004246 0 0.28456489578522731 0.2073669030027222 0 0.2860351544522664 0.22291189892421159 0 0.27299157826480569 0.23766007785357521 0 0.27110411734464762 0.2276843331004246 0 0.27329338907126849 0.2286140193929726 0 0.27110411734464762 0.2276843331004246 0 0.27329338907126849 0.2286140193929726 0 0.27329338907126849 0.2286140193929726 0 0.27769713930278977 0.2310580429220736 0 0.28096010293809309 0.2280773344569369 0 0.27719652076970691 0.235876877536806 0 0.27299157826480569 0.23766007785357521 0 0.27329338907126849 0.2286140193929726 0 0.27110411734464762 0.2276843331004246 0 0.27329338907126849 0.2286140193929726 0 0.28096010293809309 0.2280773344569369 0 0.27719652076970691 0.235876877536806 0 0.27329338907126849 0.2286140193929726 0 0.27769713930278977 0.2310580429220736 0 0.27719652076970691 0.235876877536806 0 0.27769713930278977 0.2310580429220736 0 0.28215825558210461 0.2340236887935741 0 0.27769713930278977 0.2310580429220736 0 0.28096010293809309 0.2280773344569369 0 0.28215825558210461 0.2340236887935741 0 0.27110411734464762 0.2276843331004246 0 0.28096010293809309 0.2280773344569369 0 0.2860351544522664 0.22291189892421159 0 0.27110411734464762 0.2276843331004246 0 0.2677963164460333 0.2150467959949465 0 0.28456489578522731 0.2073669030027222 0 0.27110411734464762 0.2276843331004246 0 0.28456489578522731 0.2073669030027222 0 0.272670307474219 0.206747045740371 0 0.2677963164460333 0.2150467959949465 0 0.28456489578522731 0.2073669030027222 0 0.272670307474219 0.206747045740371 0 0.2677963164460333 0.2150467959949465 0 0.26045320274891359 0.2075872277184421 0 0.2447696612887639 0.21650126134236319 0 0.2677963164460333 0.2150467959949465 0 0.26045320274891359 0.2075872277184421 0 0.2445919001722652 0.2027793092260104 0 0.26045320274891359 0.2075872277184421 0 0.27130878719903789 0.19491439106551739 0 0.2445919001722652 0.2027793092260104 0 0.27130878719903789 0.19491439106551739 0 0.2445919001722652 0.2027793092260104 0 0.25672659357731442 0.18931439154619459 0 0.27130878719903789 0.19491439106551739 0 0.2666871346110174 0.18721551203983949 0 0.25672659357731442 0.18931439154619459 0 0.27130878719903789 0.19491439106551739 0 0.2666871346110174 0.18721551203983949 0 0.27130878719903789 0.19491439106551739 0 0.28262567674856709 0.19158292471432059 0 0.27130878719903789 0.19491439106551739 0 0.28262567674856709 0.19158292471432059 0 0.28456489578522731 0.2073669030027222 0 0.272670307474219 0.206747045740371 0 0.26045320274891359 0.2075872277184421 0 0.27130878719903789 0.19491439106551739 0 0.272670307474219 0.206747045740371 0 0.27130878719903789 0.19491439106551739 0 0.28456489578522731 0.2073669030027222 0 0.27130878719903789 0.19491439106551739 0 0.28262567674856709 0.19158292471432059 0 0.29802567422580972 0.18704947290502161 0 0.30459187314032082 0.20471057237354329 0 0.28456489578522731 0.2073669030027222 0 0.29802567422580972 0.18704947290502161 0 0.28456489578522731 0.2073669030027222 0 0.29802567422580972 0.18704947290502161 0 0.28262567674856709 0.19158292471432059 0 0.28456489578522731 0.2073669030027222 0 0.29802567422580972 0.18704947290502161 0 0.28262567674856709 0.19158292471432059 0 0.29802567422580972 0.18704947290502161 0 0.30459187314032082 0.20471057237354329 0 0.31598770299826118 0.19548598602398221 0 0.29802567422580972 0.18704947290502161 0 0.31598770299826118 0.19548598602398221 0 0.32181551132831843 0.18004621980614391 0 0.30459187314032082 0.20471057237354329 0 0.3112657248503683 0.22109255247881221 0 0.32160390274705047 0.2085142031879387 0 0.30459187314032082 0.20471057237354329 0 0.29694173849475131 0.21805006650638351 0 0.3112657248503683 0.22109255247881221 0 0.30459187314032082 0.20471057237354329 0 0.29694173849475131 0.21805006650638351 0 0.28456489578522731 0.2073669030027222 0 0.29694173849475131 0.21805006650638351 0 0.28456489578522731 0.2073669030027222 0 0.2860351544522664 0.22291189892421159 0 0.28096010293809309 0.2280773344569369 0 0.2860351544522664 0.22291189892421159 0 0.28751134043047888 0.23164143954930111 0 0.2860351544522664 0.22291189892421159 0 0.28751134043047888 0.23164143954930111 0 0.29310118177853489 0.2272447710257052 0 0.28096010293809309 0.2280773344569369 0 0.28215825558210461 0.2340236887935741 0 0.28751134043047888 0.23164143954930111 0 0.28215825558210461 0.2340236887935741 0 0.28751134043047888 0.23164143954930111 0 0.28579805486088677 0.2374330691078928 0 0.29310118177853489 0.2272447710257052 0 0.30108985200492661 0.22865112575325311 0 0.2939278235102516 0.23496932439537649 0 0.28751134043047888 0.23164143954930111 0 0.29310118177853489 0.2272447710257052 0 0.2939278235102516 0.23496932439537649 0 0.29694173849475131 0.21805006650638351 0 0.2860351544522664 0.22291189892421159 0 0.29310118177853489 0.2272447710257052 0 0.29694173849475131 0.21805006650638351 0 0.3112657248503683 0.22109255247881221 0 0.30108985200492661 0.22865112575325311 0 0.29694173849475131 0.21805006650638351 0 0.29310118177853489 0.2272447710257052 0 0.30108985200492661 0.22865112575325311 0 0.3112657248503683 0.22109255247881221 0 0.30108985200492661 0.22865112575325311 0 0.30814982578715833 0.23504095730125821 0 0.30108985200492661 0.22865112575325311 0 0.30079101833485439 0.23667575875814051 0 0.30814982578715833 0.23504095730125821 0 0.30108985200492661 0.22865112575325311 0 0.30079101833485439 0.23667575875814051 0 0.2939278235102516 0.23496932439537649 0 0.31246354634074469 0.25301562706991498 0 0.28965918427723281 0.24218391352450211 0 0.30079101833485439 0.23667575875814051 0 0.29637482176907359 0.2407438087058773 0 0.2939278235102516 0.23496932439537649 0 0.31246354634074469 0.25301562706991498 0 0.30301881801219099 0.2434786808704178 0 0.28965918427723281 0.24218391352450211 0 0.30079101833485439 0.23667575875814051 0 0.30814982578715833 0.23504095730125821 0 0.30301881801219099 0.2434786808704178 0 0.30079101833485439 0.23667575875814051 0 0.30301881801219099 0.2434786808704178 0 0.29637482176907359 0.2407438087058773 0 0.30814982578715833 0.23504095730125821 0 0.30301881801219099 0.2434786808704178 0 0.31261059057147461 0.2434248305083811 0 0.31246354634074469 0.25301562706991498 0 0.30301881801219099 0.2434786808704178 0 0.31261059057147461 0.2434248305083811 0 0.29345893722613059 0.25129825022350127 0 0.29035996411889098 0.24599513786664159 0 0.28965918427723281 0.24218391352450211 0 0.29345893722613059 0.25129825022350127 0 0.29035996411889098 0.24599513786664159 0 0.28892582916583598 0.2492018439528669 0 0.29035996411889098 0.24599513786664159 0 0.28965918427723281 0.24218391352450211 0 0.28783672664197268 0.24359463822150959 0 0.30301881801219099 0.2434786808704178 0 0.29637482176907359 0.2407438087058773 0 0.28965918427723281 0.24218391352450211 0 0.29637482176907359 0.2407438087058773 0 0.2939278235102516 0.23496932439537649 0 0.29248016532158921 0.23880015382188749 0 0.2939278235102516 0.23496932439537649 0 0.28995883172979869 0.23730356866179431 0 0.29248016532158921 0.23880015382188749 0 0.28751134043047888 0.23164143954930111 0 0.2939278235102516 0.23496932439537649 0 0.28995883172979869 0.23730356866179431 0 0.29637482176907359 0.2407438087058773 0 0.29248016532158921 0.23880015382188749 0 0.28965918427723281 0.24218391352450211 0 0.28995883172979869 0.23730356866179431 0 0.29248016532158921 0.23880015382188749 0 0.28965918427723281 0.24218391352450211 0 0.28995883172979869 0.23730356866179431 0 0.28965918427723281 0.24218391352450211 0 0.28579805486088677 0.2374330691078928 0 0.28965918427723281 0.24218391352450211 0 0.28777867495787518 0.24129070115530599 0 0.28579805486088677 0.2374330691078928 0 0.28965918427723281 0.24218391352450211 0 0.28777867495787518 0.24129070115530599 0 0.28965918427723281 0.24218391352450211 0 0.28579805486088677 0.2374330691078928 0 0.28777867495787518 0.24129070115530599 0 0.28579805486088677 0.2374330691078928 0 0.28505636658832489 0.24015885991938871 0 0.28777867495787518 0.24129070115530599 0 0.28505636658832489 0.24015885991938871 0 0.28397084752209928 0.24268433257024799 0 0.28751134043047888 0.23164143954930111 0 0.28995883172979869 0.23730356866179431 0 0.28579805486088677 0.2374330691078928 0 0.28215825558210461 0.2340236887935741 0 0.28579805486088677 0.2374330691078928 0 0.2822644445936543 0.2387958425564555 0 0.27901295757983852 0.24225897862297641 0 0.2822644445936543 0.2387958425564555 0 0.28397084752209928 0.24268433257024799 0 0.28505636658832489 0.24015885991938871 0 0.2822644445936543 0.2387958425564555 0 0.28397084752209928 0.24268433257024799 0 0.28579805486088677 0.2374330691078928 0 0.28505636658832489 0.24015885991938871 0 0.2822644445936543 0.2387958425564555 0 0.27901295757983852 0.24225897862297641 0 0.28234947844706793 0.24570967974740021 0 0.28397084752209928 0.24268433257024799 0 0.27685630599777589 0.2478154210616699 0 0.28234947844706793 0.24570967974740021 0 0.28494106210013392 0.2498489505319901 0 0.28234947844706793 0.24570967974740021 0 0.28397084752209928 0.24268433257024799 0 0.2869662190354918 0.2459407159501166 0 0.28234947844706793 0.24570967974740021 0 0.28494106210013392 0.2498489505319901 0 0.2869662190354918 0.2459407159501166 0 0.28494106210013392 0.2498489505319901 0 0.28892582916583598 0.2492018439528669 0 0.2869662190354918 0.2459407159501166 0 0.29035996411889098 0.24599513786664159 0 0.28892582916583598 0.2492018439528669 0 0.2869662190354918 0.2459407159501166 0 0.29035996411889098 0.24599513786664159 0 0.28783672664197268 0.24359463822150959 0 0.2869662190354918 0.2459407159501166 0 0.28965918427723281 0.24218391352450211 0 0.28777867495787518 0.24129070115530599 0 0.28783672664197268 0.24359463822150959 0 0.28397084752209928 0.24268433257024799 0 0.28783672664197268 0.24359463822150959 0 0.2869662190354918 0.2459407159501166 0 0.28777867495787518 0.24129070115530599 0 0.28397084752209928 0.24268433257024799 0 0.28783672664197268 0.24359463822150959 0 0.3379127634661398 0.24049180221066491 0 0.32643540241908581 0.2493154440826276 0 0.31942597565379999 0.2366753470562844 0 0.31246354634074469 0.25301562706991498 0 0.32643540241908581 0.2493154440826276 0 0.31261059057147461 0.2434248305083811 0 0.32643540241908581 0.2493154440826276 0 0.31261059057147461 0.2434248305083811 0 0.31942597565379999 0.2366753470562844 0 0.30814982578715833 0.23504095730125821 0 0.31261059057147461 0.2434248305083811 0 0.31942597565379999 0.2366753470562844 0 0.3379127634661398 0.24049180221066491 0 0.31942597565379999 0.2366753470562844 0 0.32600368008419539 0.22461502934577851 0 0.3112657248503683 0.22109255247881221 0 0.30814982578715833 0.23504095730125821 0 0.31942597565379999 0.2366753470562844 0 0.3112657248503683 0.22109255247881221 0 0.31942597565379999 0.2366753470562844 0 0.32600368008419539 0.22461502934577851 0 0.3379127634661398 0.24049180221066491 0 0.32600368008419539 0.22461502934577851 0 0.3398100337036184 0.2163012417951922 0 0.3398100337036184 0.2163012417951922 0 0.32160390274705047 0.2085142031879387 0 0.33063695298837592 0.19682719513420929 0 0.32600368008419539 0.22461502934577851 0 0.3398100337036184 0.2163012417951922 0 0.32160390274705047 0.2085142031879387 0 0.3112657248503683 0.22109255247881221 0 0.32600368008419539 0.22461502934577851 0 0.32160390274705047 0.2085142031879387 0 0.30459187314032082 0.20471057237354329 0 0.32160390274705047 0.2085142031879387 0 0.31598770299826118 0.19548598602398221 0 0.32160390274705047 0.2085142031879387 0 0.31598770299826118 0.19548598602398221 0 0.33063695298837592 0.19682719513420929 0 0.31598770299826118 0.19548598602398221 0 0.33063695298837592 0.19682719513420929 0 0.32181551132831843 0.18004621980614391 0 0.3398100337036184 0.2163012417951922 0 0.33063695298837592 0.19682719513420929 0 0.34652165966209031 0.1951830619424908 0 0.33063695298837592 0.19682719513420929 0 0.34652165966209031 0.1951830619424908 0 0.33808290749091702 0.1854324580495085 0 0.34652165966209031 0.1951830619424908 0 0.33808290749091702 0.1854324580495085 0 0.34805963641287802 0.18313381139210541 0 0.34652165966209031 0.1951830619424908 0 0.35834447101042982 0.1885307986193322 0 0.34805963641287802 0.18313381139210541 0 0.34652165966209031 0.1951830619424908 0 0.35697604229412883 0.20282503597125329 0 0.35834447101042982 0.1885307986193322 0 0.35834447101042982 0.1885307986193322 0 0.36867711819290189 0.19558193609178909 0 0.37211726383392318 0.18243968588977941 0 0.36867711819290189 0.19558193609178909 0 0.37211726383392318 0.18243968588977941 0 0.37959621891343998 0.18888004806970329 0 0.35697604229412883 0.20282503597125329 0 0.35834447101042982 0.1885307986193322 0 0.36867711819290189 0.19558193609178909 0 0.35697604229412883 0.20282503597125329 0 0.36867711819290189 0.19558193609178909 0 0.36464593244806109 0.2145418940701225 0 0.36867711819290189 0.19558193609178909 0 0.36464593244806109 0.2145418940701225 0 0.38262777372413942 0.20056577775977211 0 0.3398100337036184 0.2163012417951922 0 0.35697604229412883 0.20282503597125329 0 0.36464593244806109 0.2145418940701225 0 0.3398100337036184 0.2163012417951922 0 0.34652165966209031 0.1951830619424908 0 0.35697604229412883 0.20282503597125329 0 0.3379127634661398 0.24049180221066491 0 0.3398100337036184 0.2163012417951922 0 0.35784805351199239 0.2326945607342826 0 0.3398100337036184 0.2163012417951922 0 0.36464593244806109 0.2145418940701225 0 0.35784805351199239 0.2326945607342826 0 0.3398100337036184 0.2163012417951922 0 0.35784805351199239 0.2326945607342826 0 0.36464593244806109 0.2145418940701225 0 0.35784805351199239 0.2326945607342826 0 0.37504625414522869 0.2303727958758012 0 0.35784805351199239 0.2326945607342826 0 0.37588607332036628 0.2490878796733729 0 0.35784805351199239 0.2326945607342826 0 0.37588607332036628 0.2490878796733729 0 0.37504625414522869 0.2303727958758012 0 0.35634129443021012 0.25447852924978431 0 0.35784805351199239 0.2326945607342826 0 0.37588607332036628 0.2490878796733729 0 0.35634129443021012 0.25447852924978431 0 0.3379127634661398 0.24049180221066491 0 0.35784805351199239 0.2326945607342826 0 0.33844782525489081 0.14552375979656301 0 0.33442235067943221 0.13211305649348251 0 0.31842762243075678 0.15625517981560311 0 0.33844782525489081 0.14552375979656301 0 0.31842762243075678 0.15625517981560311 0 0.3463391887874393 0.1588133723418115 0 0.343988490580944 0.1176741160108202 0 0.33926610740018709 0.13500385884312699 0 0.33442235067943221 0.13211305649348251 0 0.33844782525489081 0.14552375979656301 0 0.33926610740018709 0.13500385884312699 0 0.33442235067943221 0.13211305649348251 0 0.33926610740018709 0.13500385884312699 0 0.33442235067943221 0.13211305649348251 0 0.31234835835761571 0.11893907758645331 0 0.33442235067943221 0.13211305649348251 0 0.31795714297393313 0.13124601312364301 0 0.33442235067943221 0.13211305649348251 0 0.31795714297393313 0.13124601312364301 0 0.31842762243075678 0.15625517981560311 0 0.31795714297393313 0.13124601312364301 0 0.31275865637682793 0.1340247663826373 0 0.31842762243075678 0.15625517981560311 0 0.31234835835761571 0.11893907758645331 0 0.33442235067943221 0.13211305649348251 0 0.31234835835761571 0.11893907758645331 0 0.31795714297393313 0.13124601312364301 0 0.31275865637682793 0.1340247663826373 0 0.31234835835761571 0.11893907758645331 0 0.31275865637682793 0.1340247663826373 0 0.31795714297393313 0.13124601312364301 0 0.31275865637682793 0.1340247663826373 0 0.31275865637682793 0.1340247663826373 0 0.31335061957957011 0.15578985477495891 0 0.31275865637682793 0.1340247663826373 0 0.31335061957957011 0.15578985477495891 0 0.31842762243075678 0.15625517981560311 0 0.33442235067943221 0.13211305649348251 0 0.31842762243075678 0.15625517981560311 0 0.31335061957957011 0.15578985477495891 0 0.31842762243075678 0.15625517981560311 0 0.31104746434799968 0.1673946430062502 0 0.31842762243075678 0.15625517981560311 0 0.33486110727476232 0.16933884429702981 0 0.31104746434799968 0.1673946430062502 0 0.31842762243075678 0.15625517981560311 0 0.31349927981525749 0.1612557404164488 0 0.31335061957957011 0.15578985477495891 0 0.31349927981525749 0.1612557404164488 0 0.31104746434799968 0.1673946430062502 0 0.33486110727476232 0.16933884429702981 0 0.31104746434799968 0.1673946430062502 0 0.31842762243075678 0.15625517981560311 0 0.31335061957957011 0.15578985477495891 0 0.31842762243075678 0.15625517981560311 0 0.31349927981525749 0.1612557404164488 0 0.31104746434799968 0.1673946430062502 0 0.32181551132831843 0.18004621980614391 0 0.33486110727476232 0.16933884429702981 0 0.32181551132831843 0.18004621980614391 0 0.33808290749091702 0.1854324580495085 0 0.34560534843082608 0.17304296670726349 0 0.33063695298837592 0.19682719513420929 0 0.32181551132831843 0.18004621980614391 0 0.33808290749091702 0.1854324580495085 0 0.32181551132831843 0.18004621980614391 0 0.33486110727476232 0.16933884429702981 0 0.34560534843082608 0.17304296670726349 0 0.32181551132831843 0.18004621980614391 0 0.34560534843082608 0.17304296670726349 0 0.31842762243075678 0.15625517981560311 0 0.33486110727476232 0.16933884429702981 0 0.3463391887874393 0.1588133723418115 0 0.31842762243075678 0.15625517981560311 0 0.3463391887874393 0.1588133723418115 0 0.33486110727476232 0.16933884429702981 0 0.35867475020152417 0.1712830455878149 0 0.33486110727476232 0.16933884429702981 0 0.3463391887874393 0.1588133723418115 0 0.35867475020152417 0.1712830455878149 0 0.33486110727476232 0.16933884429702981 0 0.35867475020152417 0.1712830455878149 0 0.34560534843082608 0.17304296670726349 0 0.35834447101042982 0.1885307986193322 0 0.35867475020152417 0.1712830455878149 0 0.34805963641287802 0.18313381139210541 0 0.33808290749091702 0.1854324580495085 0 0.34805963641287802 0.18313381139210541 0 0.34560534843082608 0.17304296670726349 0 0.35867475020152417 0.1712830455878149 0 0.34805963641287802 0.18313381139210541 0 0.34560534843082608 0.17304296670726349 0 0.35834447101042982 0.1885307986193322 0 0.35867475020152417 0.1712830455878149 0 0.37211726383392318 0.18243968588977941 0 0.35867475020152417 0.1712830455878149 0 0.37211726383392318 0.18243968588977941 0 0.38248839312828642 0.17322724687860011 0 0.35867475020152417 0.1712830455878149 0 0.38248839312828642 0.17322724687860011 0 0.3463391887874393 0.1588133723418115 0 0.35867475020152417 0.1712830455878149 0 0.37425075514412182 0.1613715648680196 0 0.35867475020152417 0.1712830455878149 0 0.37425075514412182 0.1613715648680196 0 0.38248839312828642 0.17322724687860011 0 0.3463391887874393 0.1588133723418115 0 0.37425075514412182 0.1613715648680196 0 0.37425075514412182 0.1613715648680196 0 0.36753442956304122 0.14046640889011411 0 0.37911076050976511 0.15167221068913639 0 0.37425075514412182 0.1613715648680196 0 0.35378385697663972 0.14543333148879159 0 0.36753442956304122 0.14046640889011411 0 0.37425075514412182 0.1613715648680196 0 0.36753442956304122 0.14046640889011411 0 0.36753442956304122 0.14046640889011411 0 0.37911076050976511 0.15167221068913639 0 0.3463391887874393 0.1588133723418115 0 0.37425075514412182 0.1613715648680196 0 0.35378385697663972 0.14543333148879159 0 0.33844782525489081 0.14552375979656301 0 0.33926610740018709 0.13500385884312699 0 0.35378385697663972 0.14543333148879159 0 0.33844782525489081 0.14552375979656301 0 0.3463391887874393 0.1588133723418115 0 0.35378385697663972 0.14543333148879159 0 0.343988490580944 0.1176741160108202 0 0.33926610740018709 0.13500385884312699 0 0.3557614600719885 0.1290702624504714 0 0.35378385697663972 0.14543333148879159 0 0.3557614600719885 0.1290702624504714 0 0.36753442956304122 0.14046640889011411 0 0.33926610740018709 0.13500385884312699 0 0.35378385697663972 0.14543333148879159 0 0.3557614600719885 0.1290702624504714 0 0.36234477620530581 0.12431315491142481 0 0.38206466283770479 0.146561596848436 0 0.36234477620530581 0.12431315491142481 0 0.36753442956304122 0.14046640889011411 0 0.38206466283770479 0.146561596848436 0 0.36234477620530581 0.12431315491142481 0 0.3557614600719885 0.1290702624504714 0 0.36753442956304122 0.14046640889011411 0 0.36234477620530581 0.12431315491142481 0 0.36753442956304122 0.14046640889011411 0 0.3557614600719885 0.1290702624504714 0 0.36753442956304122 0.14046640889011411 0 0.36234477620530581 0.12431315491142481 0 0.38206466283770479 0.146561596848436 0 0.38784786648637848 0.12498960030151041 0 0.39580058914059452 0.1490980931887998 0 0.38206466283770479 0.146561596848436 0 0.38784786648637848 0.12498960030151041 0 0.39580058914059452 0.1490980931887998 0 0.38784786648637848 0.12498960030151041 0 0.39497711538788383 0.13620291539220281 0 0.38784786648637848 0.12498960030151041 0 0.40536034682354632 0.12481683740862159 0 0.39497711538788383 0.13620291539220281 0 0.40981053908925419 0.14123984962813549 0 0.40536034682354632 0.12481683740862159 0 0.39497711538788383 0.13620291539220281 0 0.39580058914059452 0.1490980931887998 0 0.38784786648637848 0.12498960030151041 0 0.39497711538788383 0.13620291539220281 0 0.40981053908925419 0.14123984962813549 0 0.39580058914059452 0.1490980931887998 0 0.38206466283770479 0.146561596848436 0 0.39687031602956763 0.16326568453002829 0 0.39580058914059452 0.1490980931887998 0 0.40981053908925419 0.14123984962813549 0 0.41018078742555969 0.15504633733473569 0 0.39497711538788383 0.13620291539220281 0 0.39580058914059452 0.1490980931887998 0 0.40981053908925419 0.14123984962813549 0 0.38206466283770479 0.146561596848436 0 0.37911076050976511 0.15167221068913639 0 0.39068709145648911 0.16287801248815861 0 0.38206466283770479 0.146561596848436 0 0.39687031602956763 0.16326568453002829 0 0.36753442956304122 0.14046640889011411 0 0.38206466283770479 0.146561596848436 0 0.37911076050976511 0.15167221068913639 0 0.37425075514412182 0.1613715648680196 0 0.37911076050976511 0.15167221068913639 0 0.39068709145648911 0.16287801248815861 0 0.38206466283770479 0.146561596848436 0 0.39687031602956763 0.16326568453002829 0 0.39068709145648911 0.16287801248815861 0 0.37425075514412182 0.1613715648680196 0 0.39068709145648911 0.16287801248815861 0 0.37425075514412182 0.1613715648680196 0 0.38248839312828642 0.17322724687860011 0 0.39068709145648911 0.16287801248815861 0 0.38248839312828642 0.17322724687860011 0 0.39068709145648911 0.16287801248815861 0 0.39173266295372422 0.1703821586821625 0 0.37911076050976511 0.15167221068913639 0 0.39068709145648911 0.16287801248815861 0 0.37211726383392318 0.18243968588977941 0 0.38456142671463689 0.18119341109058101 0 0.37959621891343998 0.18888004806970329 0 0.37211726383392318 0.18243968588977941 0 0.38248839312828642 0.17322724687860011 0 0.38456142671463689 0.18119341109058101 0 0.38248839312828642 0.17322724687860011 0 0.39015071041641458 0.1752968202883449 0 0.38456142671463689 0.18119341109058101 0 0.39015071041641458 0.1752968202883449 0 0.38456142671463689 0.18119341109058101 0 0.3936647719149563 0.17997510126181099 0 0.38248839312828642 0.17322724687860011 0 0.39015071041641458 0.1752968202883449 0 0.39173266295372422 0.1703821586821625 0 0.38935120208080087 0.18734156415524739 0 0.38456142671463689 0.18119341109058101 0 0.37959621891343998 0.18888004806970329 0 0.38935120208080087 0.18734156415524739 0 0.38456142671463689 0.18119341109058101 0 0.3936647719149563 0.17997510126181099 0 0.40402992335265742 0.18295193175906091 0 0.40178454947010472 0.1688100387854462 0 0.4113280318459675 0.18796372784287679 0 0.38935120208080087 0.18734156415524739 0 0.39769522389517081 0.18613352877741379 0 0.3936647719149563 0.17997510126181099 0 0.39769522389517081 0.18613352877741379 0 0.3936647719149563 0.17997510126181099 0 0.39874070762402308 0.17719757549675871 0 0.3936647719149563 0.17997510126181099 0 0.39444527572727123 0.17454960687581639 0 0.39874070762402308 0.17719757549675871 0 0.39015071041641458 0.1752968202883449 0 0.3936647719149563 0.17997510126181099 0 0.39444527572727123 0.17454960687581639 0 0.39015071041641458 0.1752968202883449 0 0.39444527572727123 0.17454960687581639 0 0.39173266295372422 0.1703821586821625 0 0.39444527572727123 0.17454960687581639 0 0.39874070762402308 0.17719757549675871 0 0.39793752572723801 0.16989637865000479 0 0.39874070762402308 0.17719757549675871 0 0.40402992335265742 0.18295193175906091 0 0.40178454947010472 0.1688100387854462 0 0.39874070762402308 0.17719757549675871 0 0.39793752572723801 0.16989637865000479 0 0.40178454947010472 0.1688100387854462 0 0.39769522389517081 0.18613352877741379 0 0.39874070762402308 0.17719757549675871 0 0.40402992335265742 0.18295193175906091 0 0.39580058914059452 0.1490980931887998 0 0.39687031602956763 0.16326568453002829 0 0.40178454947010472 0.1688100387854462 0 0.39580058914059452 0.1490980931887998 0 0.40178454947010472 0.1688100387854462 0 0.41018078742555969 0.15504633733473569 0 0.39687031602956763 0.16326568453002829 0 0.39068709145648911 0.16287801248815861 0 0.39068709145648911 0.16287801248815861 0 0.39793752572723801 0.16989637865000479 0 0.39068709145648911 0.16287801248815861 0 0.39173266295372422 0.1703821586821625 0 0.39793752572723801 0.16989637865000479 0 0.39444527572727123 0.17454960687581639 0 0.39173266295372422 0.1703821586821625 0 0.39793752572723801 0.16989637865000479 0 0.39687031602956763 0.16326568453002829 0 0.39068709145648911 0.16287801248815861 0 0.39793752572723801 0.16989637865000479 0 0.39687031602956763 0.16326568453002829 0 0.40178454947010472 0.1688100387854462 0 0.39687031602956763 0.16326568453002829 0 0.39793752572723801 0.16989637865000479 0 0.40178454947010472 0.1688100387854462 0 0.42156831075211598 0.1680848541833582 0 0.42464396279062439 0.14627678386406909 0 0.41018078742555969 0.15504633733473569 0 0.40178454947010472 0.1688100387854462 0 0.42156831075211598 0.1680848541833582 0 0.41018078742555969 0.15504633733473569 0 0.40178454947010472 0.1688100387854462 0 0.4113280318459675 0.18796372784287679 0 0.42150443610250471 0.1910584807224564 0 0.40178454947010472 0.1688100387854462 0 0.42150443610250471 0.1910584807224564 0 0.40178454947010472 0.1688100387854462 0 0.42156831075211598 0.1680848541833582 0 0.42150443610250471 0.1910584807224564 0 0.42156831075211598 0.1680848541833582 0 0.43118451961009657 0.17908750652768421 0 0.42150443610250471 0.1910584807224564 0 0.43118451961009657 0.17908750652768421 0 0.42150443610250471 0.1910584807224564 0 0.44066350929549042 0.1899546779532231 0 0.42156831075211598 0.1680848541833582 0 0.43118451961009657 0.17908750652768421 0 0.44223327263954998 0.1675638295240294 0 0.42156831075211598 0.1680848541833582 0 0.42464396279062439 0.14627678386406909 0 0.44223327263954998 0.1675638295240294 0 0.42464396279062439 0.14627678386406909 0 0.44223327263954998 0.1675638295240294 0 0.42464396279062439 0.14627678386406909 0 0.44100510488797162 0.1518324801367677 0 0.42464396279062439 0.14627678386406909 0 0.43171131441089522 0.13754306829591861 0 0.44100510488797162 0.1518324801367677 0 0.43731578770263868 0.15311191614552969 0 0.42464396279062439 0.14627678386406909 0 0.44100510488797162 0.1518324801367677 0 0.43731578770263868 0.15311191614552969 0 0.42464396279062439 0.14627678386406909 0 0.44223327263954998 0.1675638295240294 0 0.43171131441089522 0.13754306829591861 0 0.41885098875887777 0.13391820237067861 0 0.42338535559027479 0.1205090768914225 0 0.43171131441089522 0.13754306829591861 0 0.44201491538503751 0.1221884416046867 0 0.42338535559027479 0.1205090768914225 0 0.42464396279062439 0.14627678386406909 0 0.43171131441089522 0.13754306829591861 0 0.41885098875887777 0.13391820237067861 0 0.41885098875887777 0.13391820237067861 0 0.40981053908925419 0.14123984962813549 0 0.40536034682354632 0.12481683740862159 0 0.41885098875887777 0.13391820237067861 0 0.42338535559027479 0.1205090768914225 0 0.40536034682354632 0.12481683740862159 0 0.42464396279062439 0.14627678386406909 0 0.41885098875887777 0.13391820237067861 0 0.40981053908925419 0.14123984962813549 0 0.42464396279062439 0.14627678386406909 0 0.40981053908925419 0.14123984962813549 0 0.42464396279062439 0.14627678386406909 0 0.40981053908925419 0.14123984962813549 0 0.41018078742555969 0.15504633733473569 0 0.39103074677198191 0.2378645478919707 0 0.40699913865084292 0.2200073724427305 0 0.40933178642478668 0.24530746794650141 0 0.39392409312874033 0.26548119861246328 0 0.39103074677198191 0.2378645478919707 0 0.40933178642478668 0.24530746794650141 0 0.39103074677198191 0.2378645478919707 0 0.37588607332036628 0.2490878796733729 0 0.37504625414522869 0.2303727958758012 0 0.39103074677198191 0.2378645478919707 0 0.37504625414522869 0.2303727958758012 0 0.38582046467374198 0.21767509700925741 0 0.36464593244806109 0.2145418940701225 0 0.37504625414522869 0.2303727958758012 0 0.38582046467374198 0.21767509700925741 0 0.39103074677198191 0.2378645478919707 0 0.38582046467374198 0.21767509700925741 0 0.40699913865084292 0.2200073724427305 0 0.39535308900850558 0.20493870697966851 0 0.38582046467374198 0.21767509700925741 0 0.40699913865084292 0.2200073724427305 0 0.39535308900850558 0.20493870697966851 0 0.40736650267529367 0.20534760411496161 0 0.40699913865084292 0.2200073724427305 0 0.36464593244806109 0.2145418940701225 0 0.38582046467374198 0.21767509700925741 0 0.38262777372413942 0.20056577775977211 0 0.39535308900850558 0.20493870697966851 0 0.38582046467374198 0.21767509700925741 0 0.38262777372413942 0.20056577775977211 0 0.36867711819290189 0.19558193609178909 0 0.38262777372413942 0.20056577775977211 0 0.37959621891343998 0.18888004806970329 0 0.38935120208080087 0.18734156415524739 0 0.38262777372413942 0.20056577775977211 0 0.37959621891343998 0.18888004806970329 0 0.38935120208080087 0.18734156415524739 0 0.38262777372413942 0.20056577775977211 0 0.39495039075152383 0.19500119794261639 0 0.38935120208080087 0.18734156415524739 0 0.39769522389517081 0.18613352877741379 0 0.39495039075152383 0.19500119794261639 0 0.39535308900850558 0.20493870697966851 0 0.38262777372413942 0.20056577775977211 0 0.39495039075152383 0.19500119794261639 0 0.39535308900850558 0.20493870697966851 0 0.40543434764706382 0.19433380204898831 0 0.40736650267529367 0.20534760411496161 0 0.39535308900850558 0.20493870697966851 0 0.39495039075152383 0.19500119794261639 0 0.40543434764706382 0.19433380204898831 0 0.39769522389517081 0.18613352877741379 0 0.39495039075152383 0.19500119794261639 0 0.40543434764706382 0.19433380204898831 0 0.39769522389517081 0.18613352877741379 0 0.40402992335265742 0.18295193175906091 0 0.40543434764706382 0.19433380204898831 0 0.41405593538476537 0.1978098369375659 0 0.42150443610250471 0.1910584807224564 0 0.41932031768340311 0.20743549227764799 0 0.40543434764706382 0.19433380204898831 0 0.4113280318459675 0.18796372784287679 0 0.41405593538476537 0.1978098369375659 0 0.40402992335265742 0.18295193175906091 0 0.40543434764706382 0.19433380204898831 0 0.4113280318459675 0.18796372784287679 0 0.40543434764706382 0.19433380204898831 0 0.41405593538476537 0.1978098369375659 0 0.40736650267529367 0.20534760411496161 0 0.4113280318459675 0.18796372784287679 0 0.41405593538476537 0.1978098369375659 0 0.41800374937960327 0.1912601641577685 0 0.4113280318459675 0.18796372784287679 0 0.41800374937960327 0.1912601641577685 0 0.42150443610250471 0.1910584807224564 0 0.41405593538476537 0.1978098369375659 0 0.41800374937960327 0.1912601641577685 0 0.42150443610250471 0.1910584807224564 0 0.41800374937960327 0.1912601641577685 0 0.42150443610250471 0.1910584807224564 0 0.42150443610250471 0.1910584807224564 0 0.43964605568812892 0.21152628449425559 0 0.44066350929549042 0.1899546779532231 0 0.42150443610250471 0.1910584807224564 0 0.44066350929549042 0.1899546779532231 0 0.42150443610250471 0.1910584807224564 0 0.43964605568812892 0.21152628449425559 0 0.42692227912344938 0.2185749218571387 0 0.41932031768340311 0.20743549227764799 0 0.43964605568812892 0.21152628449425559 0 0.42150443610250471 0.1910584807224564 0 0.41932031768340311 0.20743549227764799 0 0.43964605568812892 0.21152628449425559 0 0.42692227912344938 0.2185749218571387 0 0.41932031768340311 0.20743549227764799 0 0.40699913865084292 0.2200073724427305 0 0.41932031768340311 0.20743549227764799 0 0.40736650267529367 0.20534760411496161 0 0.40699913865084292 0.2200073724427305 0 0.41405593538476537 0.1978098369375659 0 0.41932031768340311 0.20743549227764799 0 0.40736650267529367 0.20534760411496161 0 0.40699913865084292 0.2200073724427305 0 0.42791060214005622 0.23524578657545639 0 0.40933178642478668 0.24530746794650141 0 0.42692227912344938 0.2185749218571387 0 0.40699913865084292 0.2200073724427305 0 0.42791060214005622 0.23524578657545639 0 0.42692227912344938 0.2185749218571387 0 0.42791060214005622 0.23524578657545639 0 0.44687549402799981 0.2240274878755969 0 0.42507863072368701 0.2531856777568211 0 0.42791060214005622 0.23524578657545639 0 0.43876594592942619 0.2491002947533556 0 0.42791060214005622 0.23524578657545639 0 0.43876594592942619 0.2491002947533556 0 0.44210509291822658 0.23713285843962781 0 0.42507863072368701 0.2531856777568211 0 0.42791060214005622 0.23524578657545639 0 0.40933178642478668 0.24530746794650141 0 0.4657425708042397 0.25282124097232528 0 0.45444189403291402 0.2411770147019261 0 0.46902648610557401 0.23978031661179641 0 0.45444189403291402 0.2411770147019261 0 0.46153812927118693 0.22769678494989409 0 0.46902648610557401 0.23978031661179641 0 0.44893917376128722 0.25670587451621701 0 0.45444189403291402 0.2411770147019261 0 0.43876594592942619 0.2491002947533556 0 0.45444189403291402 0.2411770147019261 0 0.43876594592942619 0.2491002947533556 0 0.44210509291822658 0.23713285843962781 0 0.42791060214005622 0.23524578657545639 0 0.44210509291822658 0.23713285843962781 0 0.44687549402799981 0.2240274878755969 0 0.45444189403291402 0.2411770147019261 0 0.44210509291822658 0.23713285843962781 0 0.44687549402799981 0.2240274878755969 0 0.45444189403291402 0.2411770147019261 0 0.44687549402799981 0.2240274878755969 0 0.46153812927118693 0.22769678494989409 0 0.44687549402799981 0.2240274878755969 0 0.46153812927118693 0.22769678494989409 0 0.45434831412809351 0.2169717754240589 0 0.46153812927118693 0.22769678494989409 0 0.46788422009904918 0.21602458295004651 0 0.45434831412809351 0.2169717754240589 0 0.46788422009904918 0.21602458295004651 0 0.45579767155410239 0.20558373685050119 0 0.47298928242684912 0.20478556194466599 0 0.46788422009904918 0.21602458295004651 0 0.45579767155410239 0.20558373685050119 0 0.45434831412809351 0.2169717754240589 0 0.45579767155410239 0.20558373685050119 0 0.45434831412809351 0.2169717754240589 0 0.43964605568812892 0.21152628449425559 0 0.45579767155410239 0.20558373685050119 0 0.43964605568812892 0.21152628449425559 0 0.44944268158891898 0.19797959918788341 0 0.42692227912344938 0.2185749218571387 0 0.44687549402799981 0.2240274878755969 0 0.43964605568812892 0.21152628449425559 0 0.44687549402799981 0.2240274878755969 0 0.45434831412809351 0.2169717754240589 0 0.43964605568812892 0.21152628449425559 0 0.43964605568812892 0.21152628449425559 0 0.44944268158891898 0.19797959918788341 0 0.44066350929549042 0.1899546779532231 0 0.44066350929549042 0.1899546779532231 0 0.45982258248847607 0.18885087518398949 0 0.44944268158891898 0.19797959918788341 0 0.44066350929549042 0.1899546779532231 0 0.45982258248847607 0.18885087518398949 0 0.45579767155410239 0.20558373685050119 0 0.44944268158891898 0.19797959918788341 0 0.45982258248847607 0.18885087518398949 0 0.45982258248847607 0.18885087518398949 0 0.47298928242684912 0.20478556194466599 0 0.45579767155410239 0.20558373685050119 0 0.45982258248847607 0.18885087518398949 0 0.47298928242684912 0.20478556194466599 0 0.45982258248847607 0.18885087518398949 0 0.46246267395613577 0.18869877282268771 0 0.47298928242684912 0.20478556194466599 0 0.45982258248847607 0.18885087518398949 0 0.46246267395613577 0.18869877282268771 0 0.48123133697806858 0.18761746257298201 0 0.49061566848903448 0.19913054633610969 0 0.48123133697806791 0.21172494034894249 0 0.46246267395613577 0.18869877282268771 0 0.48123133697806791 0.21172494034894249 0 0.47298928242684912 0.20478556194466599 0 0.46246267395613577 0.18869877282268771 0 0.48123133697806791 0.21172494034894249 0 0.46246267395613577 0.18869877282268771 0 0.48123133697806858 0.18761746257298201 0 0.48123133697806791 0.21172494034894249 0 0.46246267395613577 0.18869877282268771 0 0.48123133697806858 0.18761746257298201 0 0.49061566848903448 0.19913054633610969 0 0.5 0.21064363009923689 0 0.50000000000000144 0.18653615232327739 0 0.48123133697806858 0.18761746257298201 0 0.49061566848903448 0.19913054633610969 0 0.50000000000000144 0.18653615232327739 0 0.49061566848903448 0.19913054633610969 0 0.5 0.21064363009923689 0 0.48123133697806791 0.21172494034894249 0 0.46788422009904918 0.21602458295004651 0 0.48123133697806791 0.21172494034894249 0 0.47298928242684912 0.20478556194466599 0 0.46153812927118693 0.22769678494989409 0 0.47761079907368659 0.22975513346519441 0 0.46902648610557401 0.23978031661179641 0 0.46153812927118693 0.22769678494989409 0 0.46788422009904918 0.21602458295004651 0 0.47761079907368659 0.22975513346519441 0 0.46788422009904918 0.21602458295004651 0 0.48123133697806791 0.21172494034894249 0 0.47761079907368659 0.22975513346519441 0 0.48123133697806791 0.21172494034894249 0 0.50000000000000078 0.23475110787519651 0 0.48123133697806791 0.21172494034894249 0 0.47761079907368659 0.22975513346519441 0 0.50000000000000078 0.23475110787519651 0 0.5 0.21064363009923689 0 0.48123133697806791 0.21172494034894249 0 0.50000000000000078 0.23475110787519651 0 0.47761079907368659 0.22975513346519441 0 0.50000000000000078 0.23475110787519651 0 0.48319944748130261 0.24680576274814439 0 0.48930401013157893 0.26400543771054868 0 0.50000000000000078 0.23475110787519651 0 0.48319944748130261 0.24680576274814439 0 0.47761079907368659 0.22975513346519441 0 0.48319944748130261 0.24680576274814439 0 0.46902648610557401 0.23978031661179641 0 0.4657425708042397 0.25282124097232528 0 0.48319944748130261 0.24680576274814439 0 0.46902648610557401 0.23978031661179641 0 0.46067006992531578 0.14501277255513739 0 0.44100510488797162 0.1518324801367677 0 0.45842061247378069 0.15774620364127601 0 0.46067006992531578 0.14501277255513739 0 0.45842061247378069 0.15774620364127601 0 0.47181417780450058 0.15130991192119209 0 0.46067006992531578 0.14501277255513739 0 0.44779797982522251 0.13591138282507809 0 0.46358849451689271 0.12298015153287919 0 0.46067006992531578 0.14501277255513739 0 0.48033503496266028 0.13819306497350831 0 0.46358849451689271 0.12298015153287919 0 0.44779797982522251 0.13591138282507809 0 0.46358849451689271 0.12298015153287919 0 0.44201491538503751 0.1221884416046867 0 0.43171131441089522 0.13754306829591861 0 0.44779797982522251 0.13591138282507809 0 0.44201491538503751 0.1221884416046867 0 0.46067006992531578 0.14501277255513739 0 0.44100510488797162 0.1518324801367677 0 0.43171131441089522 0.13754306829591861 0 0.44779797982522251 0.13591138282507809 0 0.44100510488797162 0.1518324801367677 0 0.44100510488797162 0.1518324801367677 0 0.45842061247378069 0.15774620364127601 0 0.46067006992531578 0.14501277255513739 0 0.44779797982522251 0.13591138282507809 0 0.44100510488797162 0.1518324801367677 0 0.43731578770263868 0.15311191614552969 0 0.44100510488797162 0.1518324801367677 0 0.43731578770263868 0.15311191614552969 0 0.44100510488797162 0.1518324801367677 0 0.44223327263954998 0.1675638295240294 0 0.44100510488797162 0.1518324801367677 0 0.44223327263954998 0.1675638295240294 0 0.45064745071206469 0.16407050785850311 0 0.44100510488797162 0.1518324801367677 0 0.45064745071206469 0.16407050785850311 0 0.45842061247378069 0.15774620364127601 0 0.44223327263954998 0.1675638295240294 0 0.45064745071206469 0.16407050785850311 0 0.45252365300287162 0.17650517324400131 0 0.44066350929549042 0.1899546779532231 0 0.45982258248847607 0.18885087518398949 0 0.44223327263954998 0.1675638295240294 0 0.45982258248847607 0.18885087518398949 0 0.44223327263954998 0.1675638295240294 0 0.45982258248847607 0.18885087518398949 0 0.44223327263954998 0.1675638295240294 0 0.45252365300287162 0.17650517324400131 0 0.43118451961009657 0.17908750652768421 0 0.44066350929549042 0.1899546779532231 0 0.44223327263954998 0.1675638295240294 0 0.45252365300287162 0.17650517324400131 0 0.46852950543390098 0.17564223008125701 0 0.45888445054831062 0.16819836462120771 0 0.46246267395613577 0.18869877282268771 0 0.45252365300287162 0.17650517324400131 0 0.46852950543390098 0.17564223008125701 0 0.46246267395613577 0.18869877282268771 0 0.45252365300287162 0.17650517324400131 0 0.45982258248847607 0.18885087518398949 0 0.46246267395613577 0.18869877282268771 0 0.45252365300287162 0.17650517324400131 0 0.45842061247378069 0.15774620364127601 0 0.4758361200595902 0.1636599271457834 0 0.47181417780450058 0.15130991192119209 0 0.45842061247378069 0.15774620364127601 0 0.4758361200595902 0.1636599271457834 0 0.45842061247378069 0.15774620364127601 0 0.45888445054831062 0.16819836462120771 0 0.4758361200595902 0.1636599271457834 0 0.46852950543390098 0.17564223008125701 0 0.45888445054831062 0.16819836462120771 0 0.4758361200595902 0.1636599271457834 0 0.45064745071206469 0.16407050785850311 0 0.45842061247378069 0.15774620364127601 0 0.45888445054831062 0.16819836462120771 0 0.45064745071206469 0.16407050785850311 0 0.45252365300287162 0.17650517324400131 0 0.45888445054831062 0.16819836462120771 0 0.4758361200595902 0.1636599271457834 0 0.48630368258704137 0.17140311931871249 0 0.48517032610197292 0.15232670889348399 0 0.46852950543390098 0.17564223008125701 0 0.4758361200595902 0.1636599271457834 0 0.48630368258704137 0.17140311931871249 0 0.46246267395613577 0.18869877282268771 0 0.48123133697806858 0.18761746257298201 0 0.46852950543390098 0.17564223008125701 0 0.48123133697806858 0.18761746257298201 0 0.46852950543390098 0.17564223008125701 0 0.48630368258704137 0.17140311931871249 0 0.48123133697806858 0.18761746257298201 0 0.50000000000000144 0.18653615232327739 0 0.48123133697806858 0.18761746257298201 0 0.50000000000000144 0.18653615232327739 0 0.48630368258704137 0.17140311931871249 0 0.50000000000000144 0.18653615232327739 0 0.48630368258704137 0.17140311931871249 0 0.5 0.15895475485757751 0 0.48630368258704137 0.17140311931871249 0 0.5 0.15895475485757751 0 0.48517032610197292 0.15232670889348399 0 0.48517032610197292 0.15232670889348399 0 0.48033503496266028 0.13819306497350831 0 0.50000000000000444 0.13137335739187769 0 0.5 0.15895475485757751 0 0.48517032610197292 0.15232670889348399 0 0.50000000000000444 0.13137335739187769 0 0.46067006992531578 0.14501277255513739 0 0.47181417780450058 0.15130991192119209 0 0.48033503496266028 0.13819306497350831 0 0.46067006992531578 0.14501277255513739 0 0.48033503496266028 0.13819306497350831 0 0.4758361200595902 0.1636599271457834 0 0.48517032610197292 0.15232670889348399 0 0.47181417780450058 0.15130991192119209 0 0.48517032610197292 0.15232670889348399 0 0.47181417780450058 0.15130991192119209 0 0.48033503496266028 0.13819306497350831 0 0.48033503496266028 0.13819306497350831 0 0.48287207193790682 0.119833017198512 0 0.46358849451689271 0.12298015153287919 0 0.48033503496266028 0.13819306497350831 0 0.50000000000000444 0.13137335739187769 0 0.48287207193790682 0.119833017198512 0 0.48033503496266028 0.13819306497350831 0 0.50000000000000444 0.13137335739187769 0 0.50000000000000444 0.13137335739187769 0 0.5 0.112750504140729 0 0.48287207193790682 0.119833017198512 0 0.5 0.112750504140729 0 0.47708970494047592 0.096547162644013557 0 0.48287207193790682 0.119833017198512 0 0.5 0.112750504140729 0 0.49999999999999811 0.094127650889580305 0 0.47708970494047592 0.096547162644013557 0 0.49999999999999811 0.094127650889580305 0 0.47708970494047592 0.096547162644013557 0 0.47708970494047592 0.096547162644013557 0 0.48287207193790682 0.119833017198512 0 0.46358849451689271 0.12298015153287919 0 0.49999999999999811 0.094127650889580305 0 0.5 0.065085683867034727 0 0.49030416231355511 0.073256317384286063 0 0.49030416231355511 0.073256317384286063 0 0.47714578073418512 0.066537383845565096 0 0.49228297291204992 0.059454014438704107 0 0.5 0.065085683867034727 0 0.49030416231355511 0.073256317384286063 0 0.49228297291204992 0.059454014438704107 0 0.49999999999999811 0.094127650889580305 0 0.47708970494047592 0.096547162644013557 0 0.48209205792154058 0.081076853880546043 0 0.49999999999999811 0.094127650889580305 0 0.49030416231355511 0.073256317384286063 0 0.48209205792154058 0.081076853880546043 0 0.47708970494047592 0.096547162644013557 0 0.48209205792154058 0.081076853880546043 0 0.46573084566111861 0.080721753047445138 0 0.48209205792154058 0.081076853880546043 0 0.47714578073418512 0.066537383845565096 0 0.46573084566111861 0.080721753047445138 0 0.49030416231355511 0.073256317384286063 0 0.48209205792154058 0.081076853880546043 0 0.47714578073418512 0.066537383845565096 0 0.45650324214529259 0.065280330615496637 0 0.46573084566111861 0.080721753047445138 0 0.4463318017969411 0.077534016390637867 0 0.47714578073418512 0.066537383845565096 0 0.45650324214529259 0.065280330615496637 0 0.46573084566111861 0.080721753047445138 0 0.46573084566111861 0.080721753047445138 0 0.4463318017969411 0.077534016390637867 0 0.45417940988095362 0.098966674398447016 0 0.47708970494047592 0.096547162644013557 0 0.46573084566111861 0.080721753047445138 0 0.45417940988095362 0.098966674398447016 0 0.4463318017969411 0.077534016390637867 0 0.45417940988095362 0.098966674398447016 0 0.43319821241535611 0.085947639564665793 0 0.4463318017969411 0.077534016390637867 0 0.44127530461137909 0.064432497562673663 0 0.4323056194460711 0.072068218276874901 0 0.45650324214529259 0.065280330615496637 0 0.4463318017969411 0.077534016390637867 0 0.44127530461137909 0.064432497562673663 0 0.46358849451689271 0.12298015153287919 0 0.45417940988095362 0.098966674398447016 0 0.44201491538503751 0.1221884416046867 0 0.47708970494047592 0.096547162644013557 0 0.46358849451689271 0.12298015153287919 0 0.45417940988095362 0.098966674398447016 0 0.47708970494047592 0.096547162644013557 0 0.45417940988095362 0.098966674398447016 0 0.45417940988095362 0.098966674398447016 0 0.43126911482143138 0.1013861861528805 0 0.43319821241535611 0.085947639564665793 0 0.45417940988095362 0.098966674398447016 0 0.43126911482143138 0.1013861861528805 0 0.45417940988095362 0.098966674398447016 0 0.44201491538503751 0.1221884416046867 0 0.43126911482143138 0.1013861861528805 0 0.44201491538503751 0.1221884416046867 0 0.42338535559027479 0.1205090768914225 0 0.43126911482143138 0.1013861861528805 0 0.42338535559027479 0.1205090768914225 0 0.40835881976190908 0.10380569790731391 0 0.40536034682354632 0.12481683740862159 0 0.40835881976190908 0.10380569790731391 0 0.43126911482143138 0.1013861861528805 0 0.42338535559027479 0.1205090768914225 0 0.40835881976190908 0.10380569790731391 0 0.43126911482143138 0.1013861861528805 0 0.40835881976190908 0.10380569790731391 0 0.43126911482143138 0.1013861861528805 0 0.41935522763475591 0.089699073352522835 0 0.4463318017969411 0.077534016390637867 0 0.43319821241535611 0.085947639564665793 0 0.4323056194460711 0.072068218276874901 0 0.43319821241535611 0.085947639564665793 0 0.41924297708616731 0.074654461475880396 0 0.41935522763475591 0.089699073352522835 0 0.43126911482143138 0.1013861861528805 0 0.43319821241535611 0.085947639564665793 0 0.41935522763475591 0.089699073352522835 0 0.4323056194460711 0.072068218276874901 0 0.41924297708616731 0.074654461475880396 0 0.42690609811089331 0.059013607202760512 0 0.44127530461137909 0.064432497562673663 0 0.4323056194460711 0.072068218276874901 0 0.42690609811089331 0.059013607202760512 0 0.43319821241535611 0.085947639564665793 0 0.4323056194460711 0.072068218276874901 0 0.41924297708616731 0.074654461475880396 0 0.41924297708616731 0.074654461475880396 0 0.41572401702962131 0.06154942829698281 0 0.42690609811089331 0.059013607202760512 0 0.41924297708616731 0.074654461475880396 0 0.40863285456409321 0.067745049984629005 0 0.41572401702962131 0.06154942829698281 0 0.41924297708616731 0.074654461475880396 0 0.40863285456409321 0.067745049984629005 0 0.40581890464532883 0.082285452545517224 0 0.40835881976190908 0.10380569790731391 0 0.41935522763475591 0.089699073352522835 0 0.40581890464532883 0.082285452545517224 0 0.41924297708616731 0.074654461475880396 0 0.41935522763475591 0.089699073352522835 0 0.40581890464532883 0.082285452545517224 0 0.40581890464532883 0.082285452545517224 0 0.39175039171038772 0.087168104040655559 0 0.39624558431573131 0.06624045880030964 0 0.40835881976190908 0.10380569790731391 0 0.40581890464532883 0.082285452545517224 0 0.39175039171038772 0.087168104040655559 0 0.39175039171038772 0.087168104040655559 0 0.39624558431573131 0.06624045880030964 0 0.38418619936747078 0.072555057714184676 0 0.40863285456409321 0.067745049984629005 0 0.40581890464532883 0.082285452545517224 0 0.39624558431573131 0.06624045880030964 0 0.40863285456409321 0.067745049984629005 0 0.39624558431573131 0.06624045880030964 0 0.40829937009812589 0.05445646228617778 0 0.37194242117794668 0.076772614526931793 0 0.38418619936747078 0.072555057714184676 0 0.38237628961462611 0.059732338949836518 0 0.36864505415383159 0.080457991471440893 0 0.38237628961462611 0.059732338949836518 0 0.39624558431573131 0.06624045880030964 0 0.38418619936747078 0.072555057714184676 0 0.38237628961462611 0.059732338949836518 0 0.37194242117794668 0.076772614526931793 0 0.38418619936747078 0.072555057714184676 0 0.38194353902199202 0.084344220923998292 0 0.39175039171038772 0.087168104040655559 0 0.38194353902199202 0.084344220923998292 0 0.37989514383216261 0.1008811074142211 0 0.37194242117794668 0.076772614526931793 0 0.37989514383216261 0.1008811074142211 0 0.37194242117794668 0.076772614526931793 0 0.38194353902199202 0.084344220923998292 0 0.37989514383216261 0.1008811074142211 0 0.39175039171038772 0.087168104040655559 0 0.38418619936747078 0.072555057714184676 0 0.38194353902199202 0.084344220923998292 0 0.39175039171038772 0.087168104040655559 0 0.37989514383216261 0.1008811074142211 0 0.39428450139263399 0.1099935163928351 0 0.37989514383216261 0.1008811074142211 0 0.38784786648637848 0.12498960030151041 0 0.37989514383216261 0.1008811074142211 0 0.38784786648637848 0.12498960030151041 0 0.39428450139263399 0.1099935163928351 0 0.37989514383216261 0.1008811074142211 0 0.38784786648637848 0.12498960030151041 0 0.37533236417423199 0.11575217945856781 0 0.36234477620530581 0.12431315491142481 0 0.38784786648637848 0.12498960030151041 0 0.37533236417423199 0.11575217945856781 0 0.38784786648637848 0.12498960030151041 0 0.39428450139263399 0.1099935163928351 0 0.40536034682354632 0.12481683740862159 0 0.40835881976190908 0.10380569790731391 0 0.39428450139263399 0.1099935163928351 0 0.40536034682354632 0.12481683740862159 0 0.40835881976190908 0.10380569790731391 0 0.39175039171038772 0.087168104040655559 0 0.39428450139263399 0.1099935163928351 0 0.4022109480673669 0.029794301680725051 0 0.39903054770448521 0.019764345079569041 0 0.38956197386376129 0.02112761593547402 0 0.4022109480673669 0.029794301680725051 0 0.38956197386376129 0.02112761593547402 0 0.39250591407207142 0.036175579460824843 0 0.4022109480673669 0.029794301680725051 0 0.39903054770448521 0.019764345079569041 0 0.40715192280340562 0.01462234732060084 0 0.3939873043738738 0.005606014803845533 0 0.40715192280340562 0.01462234732060084 0 0.41629264407573002 -0.006850845090226044 0 0.39903054770448521 0.019764345079569041 0 0.3939873043738738 0.005606014803845533 0 0.40715192280340562 0.01462234732060084 0 0.39903054770448521 0.019764345079569041 0 0.3939873043738738 0.005606014803845533 0 0.38956197386376129 0.02112761593547402 0 0.3939873043738738 0.005606014803845533 0 0.38284321145746519 0.01274873380563272 0 0.38956197386376129 0.02112761593547402 0 0.37357914744350779 0.002440479778912224 0 0.37424442014871812 0.021820824704299101 0 0.38284321145746519 0.01274873380563272 0 0.37357914744350779 0.002440479778912224 0 0.3939873043738738 0.005606014803845533 0 0.38284321145746519 0.01274873380563272 0 0.37424442014871812 0.021820824704299101 0 0.39250591407207142 0.036175579460824843 0 0.36321924137845568 0.02934286747329215 0 0.37424442014871812 0.021820824704299101 0 0.39250591407207142 0.036175579460824843 0 0.37424442014871812 0.021820824704299101 0 0.38956197386376129 0.02112761593547402 0 0.39250591407207142 0.036175579460824843 0 0.37424442014871812 0.021820824704299101 0 0.38284321145746519 0.01274873380563272 0 0.38956197386376129 0.02112761593547402 0 0.36321924137845568 0.02934286747329215 0 0.37923500638336632 0.043068186250585699 0 0.39250591407207142 0.036175579460824843 0 0.36321924137845568 0.02934286747329215 0 0.39250591407207142 0.036175579460824843 0 0.37923500638336632 0.043068186250585699 0 0.39610752507542107 0.039006686428232497 0 0.39250591407207142 0.036175579460824843 0 0.37923500638336632 0.043068186250585699 0 0.38237628961462611 0.059732338949836518 0 0.39610752507542107 0.039006686428232497 0 0.38237628961462611 0.059732338949836518 0 0.39610752507542107 0.039006686428232497 0 0.38237628961462611 0.059732338949836518 0 0.39498436831919048 0.053995491217328308 0 0.39610752507542107 0.039006686428232497 0 0.39624558431573131 0.06624045880030964 0 0.38237628961462611 0.059732338949836518 0 0.39498436831919048 0.053995491217328308 0 0.39624558431573131 0.06624045880030964 0 0.39498436831919048 0.053995491217328308 0 0.40127216254757908 0.052142880950221668 0 0.39498436831919048 0.053995491217328308 0 0.40127216254757908 0.052142880950221668 0 0.39610752507542107 0.039006686428232497 0 0.40127216254757908 0.052142880950221668 0 0.40829937009812589 0.05445646228617778 0 0.40647643562697111 0.047157343142538291 0 0.39624558431573131 0.06624045880030964 0 0.40127216254757908 0.052142880950221668 0 0.40829937009812589 0.05445646228617778 0 0.39624558431573131 0.06624045880030964 0 0.40829937009812589 0.05445646228617778 0 0.4022109480673669 0.029794301680725051 0 0.39724992059935432 0.037282377443883637 0 0.39250591407207142 0.036175579460824843 0 0.39724992059935432 0.037282377443883637 0 0.39250591407207142 0.036175579460824843 0 0.39610752507542107 0.039006686428232497 0 0.39724992059935432 0.037282377443883637 0 0.39250591407207142 0.036175579460824843 0 0.39610752507542107 0.039006686428232497 0 0.39724992059935432 0.037282377443883637 0 0.39610752507542107 0.039006686428232497 0 0.39250591407207142 0.036175579460824843 0 0.39610752507542107 0.039006686428232497 0 0.40647643562697111 0.047157343142538291 0 0.40127216254757908 0.052142880950221668 0 0.39610752507542107 0.039006686428232497 0 0.40647643562697111 0.047157343142538291 0 0.39610752507542107 0.039006686428232497 0 0.39724992059935432 0.037282377443883637 0 0.40647643562697111 0.047157343142538291 0 0.4022109480673669 0.029794301680725051 0 0.39724992059935432 0.037282377443883637 0 0.41056521822753728 0.033900572446116307 0 0.4022109480673669 0.029794301680725051 0 0.39724992059935432 0.037282377443883637 0 0.39724992059935432 0.037282377443883637 0 0.42035315588052052 0.042672465772045823 0 0.39724992059935432 0.037282377443883637 0 0.41056521822753728 0.033900572446116307 0 0.42035315588052052 0.042672465772045823 0 0.39724992059935432 0.037282377443883637 0 0.42035315588052052 0.042672465772045823 0 0.40647643562697111 0.047157343142538291 0 0.41056521822753728 0.033900572446116307 0 0.42035315588052052 0.042672465772045823 0 0.41918056088687422 0.025106301550984179 0 0.42035315588052052 0.042672465772045823 0 0.41807260402200452 0.053616349792940499 0 0.42690609811089331 0.059013607202760512 0 0.40863285456409321 0.067745049984629005 0 0.40829937009812589 0.05445646228617778 0 0.41572401702962131 0.06154942829698281 0 0.40829937009812589 0.05445646228617778 0 0.41807260402200452 0.053616349792940499 0 0.41572401702962131 0.06154942829698281 0 0.42035315588052052 0.042672465772045823 0 0.40829937009812589 0.05445646228617778 0 0.40647643562697111 0.047157343142538291 0 0.42035315588052052 0.042672465772045823 0 0.40829937009812589 0.05445646228617778 0 0.42035315588052052 0.042672465772045823 0 0.40829937009812589 0.05445646228617778 0 0.41807260402200452 0.053616349792940499 0 0.41807260402200452 0.053616349792940499 0 0.41572401702962131 0.06154942829698281 0 0.42690609811089331 0.059013607202760512 0 0.42035315588052052 0.042672465772045823 0 0.42690609811089331 0.059013607202760512 0 0.44432976155769699 0.048266315327598383 0 0.42035315588052052 0.042672465772045823 0 0.43671568676264189 0.026676163003921921 0 0.42035315588052052 0.042672465772045823 0 0.43671568676264189 0.026676163003921921 0 0.44432976155769699 0.048266315327598383 0 0.42035315588052052 0.042672465772045823 0 0.44432976155769699 0.048266315327598383 0 0.42035315588052052 0.042672465772045823 0 0.43671568676264189 0.026676163003921921 0 0.41918056088687422 0.025106301550984179 0 0.43671568676264189 0.026676163003921921 0 0.41918056088687422 0.025106301550984179 0 0.43085411213296282 0.0071934808399317304 0 0.4022109480673669 0.029794301680725051 0 0.41918056088687422 0.025106301550984179 0 0.40715192280340562 0.01462234732060084 0 0.41918056088687422 0.025106301550984179 0 0.40715192280340562 0.01462234732060084 0 0.43085411213296282 0.0071934808399317304 0 0.4022109480673669 0.029794301680725051 0 0.41056521822753728 0.033900572446116307 0 0.41918056088687422 0.025106301550984179 0 0.40715192280340562 0.01462234732060084 0 0.43085411213296282 0.0071934808399317304 0 0.41629264407573002 -0.006850845090226044 0 0.43085411213296282 0.0071934808399317304 0 0.45307821764476319 0.010679860235798 0 0.45275060893296981 -0.0060266252809792519 0 0.43671568676264189 0.026676163003921921 0 0.43085411213296282 0.0071934808399317304 0 0.45307821764476319 0.010679860235798 0 0.43671568676264189 0.026676163003921921 0 0.45307821764476319 0.010679860235798 0 0.45536773125663488 0.033055304065500078 0 0.43671568676264189 0.026676163003921921 0 0.45307821764476319 0.010679860235798 0 0.45307821764476319 0.010679860235798 0 0.45536773125663488 0.033055304065500078 0 0.4743220131113518 0.027463297392627269 0 0.45307821764476319 0.010679860235798 0 0.47441986059974051 0.002164373494884166 0 0.4743220131113518 0.027463297392627269 0 0.45307821764476319 0.010679860235798 0 0.47441986059974051 0.002164373494884166 0 0.45275060893296981 -0.0060266252809792519 0 0.45650324214529259 0.065280330615496637 0 0.44127530461137909 0.064432497562673663 0 0.44432976155769699 0.048266315327598383 0 0.44127530461137909 0.064432497562673663 0 0.42690609811089331 0.059013607202760512 0 0.44432976155769699 0.048266315327598383 0 0.43671568676264189 0.026676163003921921 0 0.44432976155769699 0.048266315327598383 0 0.45536773125663488 0.033055304065500078 0 0.45536773125663488 0.033055304065500078 0 0.4683063672348734 0.053860164883151249 0 0.4743220131113518 0.027463297392627269 0 0.44432976155769699 0.048266315327598383 0 0.45536773125663488 0.033055304065500078 0 0.4683063672348734 0.053860164883151249 0 0.44432976155769699 0.048266315327598383 0 0.4683063672348734 0.053860164883151249 0 0.45650324214529259 0.065280330615496637 0 0.44432976155769699 0.048266315327598383 0 0.4683063672348734 0.053860164883151249 0 0.47714578073418512 0.066537383845565096 0 0.45650324214529259 0.065280330615496637 0 0.4683063672348734 0.053860164883151249 0 0.47714578073418512 0.066537383845565096 0 0.4683063672348734 0.053860164883151249 0 0.49228297291204992 0.059454014438704107 0 0.4683063672348734 0.053860164883151249 0 0.48335627184046892 0.043534316590418197 0 0.49228297291204992 0.059454014438704107 0 0.4683063672348734 0.053860164883151249 0 0.49228297291204992 0.059454014438704107 0 0.4683063672348734 0.053860164883151249 0 0.48335627184046892 0.043534316590418197 0 0.4743220131113518 0.027463297392627269 0 0.48335627184046892 0.043534316590418197 0 0.5 0.03604371684448926 0 0.4743220131113518 0.027463297392627269 0 0.48335627184046892 0.043534316590418197 0 0.5 0.03604371684448926 0 0.49228297291204992 0.059454014438704107 0 0.5 0.065085683867034727 0 0.5 0.03604371684448926 0 0.49228297291204992 0.059454014438704107 0 0.47441986059974051 0.002164373494884166 0 0.4743220131113518 0.027463297392627269 0 0.5 0.0070017498219436813 0 0.5 0.03604371684448926 0 0.4743220131113518 0.027463297392627269 0 0.5 0.0070017498219436813 0 0.47441986059974051 0.002164373494884166 0 0.5 0.0070017498219436813 0 0.48435038112254591 -0.01295811459108822 0 0.5 0.0070017498219436813 0 0.48435038112254591 -0.01295811459108822 0 0.5 -0.022040217200601949 0 0.47441986059974051 0.002164373494884166 0 0.48435038112254591 -0.01295811459108822 0 0.46567746476080879 -0.018036067265790781 0 0.48165458025218022 -0.033880411805876212 0 0.46055892944421639 -0.034826981934293802 0 0.46567746476080879 -0.018036067265790781 0 0.48435038112254591 -0.01295811459108822 0 0.48165458025218022 -0.033880411805876212 0 0.46567746476080879 -0.018036067265790781 0 0.48435038112254591 -0.01295811459108822 0 0.5 -0.022040217200601949 0 0.48165458025218022 -0.033880411805876212 0 0.5 -0.051082184223147482 0 0.48331950433178789 -0.05028970193443566 0 0.48165458025218022 -0.033880411805876212 0 0.5 -0.022040217200601949 0 0.5 -0.051082184223147482 0 0.48165458025218022 -0.033880411805876212 0 0.5 -0.051082184223147482 0 0.48331950433178789 -0.05028970193443566 0 0.48351099524096458 -0.065188187078006596 0 0.46811244183400691 -0.051008024630712363 0 0.48351099524096458 -0.065188187078006596 0 0.46325174163611299 -0.065085723760132191 0 0.48331950433178789 -0.05028970193443566 0 0.46811244183400691 -0.051008024630712363 0 0.48351099524096458 -0.065188187078006596 0 0.48331950433178789 -0.05028970193443566 0 0.48165458025218022 -0.033880411805876212 0 0.46811244183400691 -0.051008024630712363 0 0.48165458025218022 -0.033880411805876212 0 0.46055892944421639 -0.034826981934293802 0 0.46811244183400691 -0.051008024630712363 0 0.46055892944421639 -0.034826981934293802 0 0.46811244183400691 -0.051008024630712363 0 0.44580381826440463 -0.044156532015693237 0 0.46811244183400691 -0.051008024630712363 0 0.44580381826440463 -0.044156532015693237 0 0.46325174163611299 -0.065085723760132191 0 0.44580381826440463 -0.044156532015693237 0 0.46325174163611299 -0.065085723760132191 0 0.46811244183400691 -0.051008024630712363 0 0.46325174163611299 -0.065085723760132191 0 0.44420654965085082 -0.062216100931960373 0 0.44580381826440463 -0.044156532015693237 0 0.42712667170951002 -0.058909162300086547 0 0.44420654965085082 -0.062216100931960373 0 0.44580381826440463 -0.044156532015693237 0 0.46325174163611299 -0.065085723760132191 0 0.46055892944421639 -0.034826981934293802 0 0.44580381826440463 -0.044156532015693237 0 0.43960160651246799 -0.018737423931294579 0 0.43960160651246799 -0.018737423931294579 0 0.45275060893296981 -0.0060266252809792519 0 0.46567746476080879 -0.018036067265790781 0 0.43085411213296282 0.0071934808399317304 0 0.43960160651246799 -0.018737423931294579 0 0.45275060893296981 -0.0060266252809792519 0 0.47441986059974051 0.002164373494884166 0 0.45275060893296981 -0.0060266252809792519 0 0.46567746476080879 -0.018036067265790781 0 0.46055892944421639 -0.034826981934293802 0 0.43960160651246799 -0.018737423931294579 0 0.46567746476080879 -0.018036067265790781 0 0.47818452339587708 -0.1165119508780514 0 0.50000000000000278 -0.1091661182682386 0 0.5 -0.13347981615570359 0 0.50000000000000278 -0.1091661182682386 0 0.48162587081805858 -0.087125921014184843 0 0.47818452339587708 -0.1165119508780514 0 0.50000000000000278 -0.1091661182682386 0 0.47745756082527618 -0.1021495788090297 0 0.50000000000000278 -0.1091661182682386 0 0.47745756082527618 -0.1021495788090297 0 0.48162587081805858 -0.087125921014184843 0 0.47818452339587708 -0.1165119508780514 0 0.47745756082527618 -0.1021495788090297 0 0.45929027747438272 -0.10448110762161331 0 0.47745756082527618 -0.1021495788090297 0 0.48162587081805858 -0.087125921014184843 0 0.46818713243806243 -0.093462796263060144 0 0.48162587081805858 -0.087125921014184843 0 0.46325174163611299 -0.065085723760132191 0 0.46656747462136422 -0.083363997574371698 0 0.48162587081805858 -0.087125921014184843 0 0.46656747462136422 -0.083363997574371698 0 0.46818713243806243 -0.093462796263060144 0 0.50000000000000278 -0.1091661182682386 0 0.48162587081805858 -0.087125921014184843 0 0.5 -0.080124151245693054 0 0.48162587081805858 -0.087125921014184843 0 0.5 -0.080124151245693054 0 0.48351099524096458 -0.065188187078006596 0 0.5 -0.051082184223147482 0 0.5 -0.080124151245693054 0 0.48351099524096458 -0.065188187078006596 0 0.48162587081805858 -0.087125921014184843 0 0.48351099524096458 -0.065188187078006596 0 0.46325174163611299 -0.065085723760132191 0 0.48162587081805858 -0.087125921014184843 0 0.46325174163611299 -0.065085723760132191 0 0.46325174163611299 -0.065085723760132191 0 0.44779547222269012 -0.07571174360441861 0 0.4542230721705241 -0.091234814858292518 0 0.44420654965085082 -0.062216100931960373 0 0.46325174163611299 -0.065085723760132191 0 0.44779547222269012 -0.07571174360441861 0 0.44420654965085082 -0.062216100931960373 0 0.44779547222269012 -0.07571174360441861 0 0.43605259790445722 -0.074801038719200894 0 0.44779547222269012 -0.07571174360441861 0 0.441034556727114 -0.086800976364950752 0 0.4542230721705241 -0.091234814858292518 0 0.44779547222269012 -0.07571174360441861 0 0.441034556727114 -0.086800976364950752 0 0.43605259790445722 -0.074801038719200894 0 0.441034556727114 -0.086800976364950752 0 0.4542230721705241 -0.091234814858292518 0 0.44037425786955031 -0.1001430447449046 0 0.46325174163611299 -0.065085723760132191 0 0.4542230721705241 -0.091234814858292518 0 0.46325174163611299 -0.065085723760132191 0 0.4542230721705241 -0.091234814858292518 0 0.46656747462136422 -0.083363997574371698 0 0.4542230721705241 -0.091234814858292518 0 0.46656747462136422 -0.083363997574371698 0 0.46818713243806243 -0.093462796263060144 0 0.47745756082527618 -0.1021495788090297 0 0.46818713243806243 -0.093462796263060144 0 0.45929027747438272 -0.10448110762161331 0 0.4542230721705241 -0.091234814858292518 0 0.46818713243806243 -0.093462796263060144 0 0.45929027747438272 -0.10448110762161331 0 0.4542230721705241 -0.091234814858292518 0 0.45929027747438272 -0.10448110762161331 0 0.44519440270493238 -0.1173839059564518 0 0.4542230721705241 -0.091234814858292518 0 0.44519440270493238 -0.1173839059564518 0 0.4542230721705241 -0.091234814858292518 0 0.44037425786955031 -0.1001430447449046 0 0.44519440270493238 -0.1173839059564518 0 0.45929027747438272 -0.10448110762161331 0 0.44519440270493238 -0.1173839059564518 0 0.44037425786955031 -0.1001430447449046 0 0.44519440270493238 -0.1173839059564518 0 0.43733469804818831 -0.11156713863760261 0 0.44519440270493238 -0.1173839059564518 0 0.43583674875745881 -0.11887614197332121 0 0.43733469804818831 -0.11156713863760261 0 0.44519440270493238 -0.1173839059564518 0 0.44103349219651622 -0.1294348541443999 0 0.44519440270493238 -0.1173839059564518 0 0.43473286131254663 -0.1269599813022704 0 0.44519440270493238 -0.1173839059564518 0 0.43652399803370612 -0.1266503843383173 0 0.44103349219651622 -0.1294348541443999 0 0.44519440270493238 -0.1173839059564518 0 0.43473286131254663 -0.1269599813022704 0 0.43652399803370612 -0.1266503843383173 0 0.44519440270493238 -0.1173839059564518 0 0.43583674875745881 -0.11887614197332121 0 0.43473286131254663 -0.1269599813022704 0 0.44519440270493238 -0.1173839059564518 0 0.4507048422038758 -0.1254569291466279 0 0.44103349219651622 -0.1294348541443999 0 0.44519440270493238 -0.1173839059564518 0 0.45845740270007618 -0.1179768520576317 0 0.4507048422038758 -0.1254569291466279 0 0.47818452339587708 -0.1165119508780514 0 0.45929027747438272 -0.10448110762161331 0 0.45845740270007618 -0.1179768520576317 0 0.45845740270007618 -0.1179768520576317 0 0.46233294642030121 -0.13029577410444981 0 0.4507048422038758 -0.1254569291466279 0 0.47818452339587708 -0.1165119508780514 0 0.45845740270007618 -0.1179768520576317 0 0.46233294642030121 -0.13029577410444981 0 0.45929027747438272 -0.10448110762161331 0 0.44519440270493238 -0.1173839059564518 0 0.45845740270007618 -0.1179768520576317 0 0.40724277249555002 -0.1192463337858536 0 0.41884687315735308 -0.1196411488000769 0 0.41208161927757919 -0.13087523561031761 0 0.40724277249555002 -0.1192463337858536 0 0.41698364908723728 -0.1130169343472482 0 0.41068457829189181 -0.1070723437572161 0 0.41698364908723728 -0.1130169343472482 0 0.4250766521847687 -0.1135111272305598 0 0.42274743771597889 -0.1059915359454271 0 0.41698364908723728 -0.1130169343472482 0 0.41884687315735308 -0.1196411488000769 0 0.4250766521847687 -0.1135111272305598 0 0.40724277249555002 -0.1192463337858536 0 0.41698364908723728 -0.1130169343472482 0 0.41884687315735308 -0.1196411488000769 0 0.41884687315735308 -0.1196411488000769 0 0.42661387223904329 -0.12098454377727109 0 0.41208161927757919 -0.13087523561031761 0 0.41884687315735308 -0.1196411488000769 0 0.42661387223904329 -0.12098454377727109 0 0.4250766521847687 -0.1135111272305598 0 0.42661387223904329 -0.12098454377727109 0 0.43583674875745881 -0.11887614197332121 0 0.43473286131254663 -0.1269599813022704 0 0.42661387223904329 -0.12098454377727109 0 0.43583674875745881 -0.11887614197332121 0 0.43287065052056112 -0.1145040342651165 0 0.43733469804818831 -0.11156713863760261 0 0.43287065052056112 -0.1145040342651165 0 0.43239743038843881 -0.106928566248219 0 0.43583674875745881 -0.11887614197332121 0 0.43733469804818831 -0.11156713863760261 0 0.43287065052056112 -0.1145040342651165 0 0.43287065052056112 -0.1145040342651165 0 0.4250766521847687 -0.1135111272305598 0 0.43239743038843881 -0.106928566248219 0 0.42661387223904329 -0.12098454377727109 0 0.43287065052056112 -0.1145040342651165 0 0.4250766521847687 -0.1135111272305598 0 0.4250766521847687 -0.1135111272305598 0 0.42274743771597889 -0.1059915359454271 0 0.43239743038843881 -0.106928566248219 0 0.42274743771597889 -0.1059915359454271 0 0.43239743038843881 -0.106928566248219 0 0.42854124961890733 -0.099856724000988273 0 0.44037425786955031 -0.1001430447449046 0 0.43239743038843881 -0.106928566248219 0 0.42854124961890733 -0.099856724000988273 0 0.44037425786955031 -0.1001430447449046 0 0.43733469804818831 -0.11156713863760261 0 0.43239743038843881 -0.106928566248219 0 0.44037425786955031 -0.1001430447449046 0 0.42854124961890733 -0.099856724000988273 0 0.42870758522811919 -0.089164076341860632 0 0.42274743771597889 -0.1059915359454271 0 0.42854124961890733 -0.099856724000988273 0 0.41847953689244971 -0.097056396724529995 0 0.42854124961890733 -0.099856724000988273 0 0.41847953689244971 -0.097056396724529995 0 0.42870758522811919 -0.089164076341860632 0 0.42274743771597889 -0.1059915359454271 0 0.41847953689244971 -0.097056396724529995 0 0.41068457829189181 -0.1070723437572161 0 0.41698364908723728 -0.1130169343472482 0 0.42274743771597889 -0.1059915359454271 0 0.41068457829189181 -0.1070723437572161 0 0.41847953689244971 -0.097056396724529995 0 0.41068457829189181 -0.1070723437572161 0 0.40440998182912408 -0.094196755676502056 0 0.40751187940595462 -0.08478461483936342 0 0.41476450049512009 -0.087087396641621656 0 0.40440998182912408 -0.094196755676502056 0 0.41847953689244971 -0.097056396724529995 0 0.41476450049512009 -0.087087396641621656 0 0.40440998182912408 -0.094196755676502056 0 0.40751187940595462 -0.08478461483936342 0 0.41476450049512009 -0.087087396641621656 0 0.40927176781453312 -0.077086569868640542 0 0.40751187940595462 -0.08478461483936342 0 0.40927176781453312 -0.077086569868640542 0 0.40237588567979138 -0.081472047511817525 0 0.41476450049512009 -0.087087396641621656 0 0.42870758522811919 -0.089164076341860632 0 0.42122478008006597 -0.0757594802833121 0 0.41476450049512009 -0.087087396641621656 0 0.42122478008006597 -0.0757594802833121 0 0.40927176781453312 -0.077086569868640542 0 0.41847953689244971 -0.097056396724529995 0 0.41476450049512009 -0.087087396641621656 0 0.42870758522811919 -0.089164076341860632 0 0.441034556727114 -0.086800976364950752 0 0.44037425786955031 -0.1001430447449046 0 0.42870758522811919 -0.089164076341860632 0 0.441034556727114 -0.086800976364950752 0 0.42870758522811919 -0.089164076341860632 0 0.43605259790445722 -0.074801038719200894 0 0.42870758522811919 -0.089164076341860632 0 0.43605259790445722 -0.074801038719200894 0 0.42122478008006597 -0.0757594802833121 0 0.43605259790445722 -0.074801038719200894 0 0.42122478008006597 -0.0757594802833121 0 0.42712667170951002 -0.058909162300086547 0 0.44420654965085082 -0.062216100931960373 0 0.43605259790445722 -0.074801038719200894 0 0.42712667170951002 -0.058909162300086547 0 0.42122478008006597 -0.0757594802833121 0 0.4114316245373863 -0.068167670275121897 0 0.42712667170951002 -0.058909162300086547 0 0.40927176781453312 -0.077086569868640542 0 0.4114316245373863 -0.068167670275121897 0 0.39842538017083612 -0.076484449263173909 0 0.42122478008006597 -0.0757594802833121 0 0.40927176781453312 -0.077086569868640542 0 0.4114316245373863 -0.068167670275121897 0 0.4114316245373863 -0.068167670275121897 0 0.39842538017083612 -0.076484449263173909 0 0.40640664480004829 -0.052123305293471443 0 0.39842538017083612 -0.076484449263173909 0 0.38906844471504909 -0.048791226331097663 0 0.4114316245373863 -0.068167670275121897 0 0.39842538017083612 -0.076484449263173909 0 0.39842538017083612 -0.076484449263173909 0 0.38333741963197843 -0.065496938221855289 0 0.38906844471504909 -0.048791226331097663 0 0.39842538017083612 -0.076484449263173909 0 0.38333741963197843 -0.065496938221855289 0 0.37036238702559748 -0.076146834841134659 0 0.39842538017083612 -0.076484449263173909 0 0.373127492796404 -0.092661058915291472 0 0.39842538017083612 -0.076484449263173909 0 0.37036238702559748 -0.076146834841134659 0 0.373127492796404 -0.092661058915291472 0 0.39842538017083612 -0.076484449263173909 0 0.3905434538793735 -0.094168622203984975 0 0.373127492796404 -0.092661058915291472 0 0.39842538017083612 -0.076484449263173909 0 0.40142869859064212 -0.08537321064543299 0 0.3905434538793735 -0.094168622203984975 0 0.39842538017083612 -0.076484449263173909 0 0.40142869859064212 -0.08537321064543299 0 0.40237588567979138 -0.081472047511817525 0 0.40927176781453312 -0.077086569868640542 0 0.39842538017083612 -0.076484449263173909 0 0.40237588567979138 -0.081472047511817525 0 0.39842538017083612 -0.076484449263173909 0 0.40142869859064212 -0.08537321064543299 0 0.40142869859064212 -0.08537321064543299 0 0.40237588567979138 -0.081472047511817525 0 0.40751187940595462 -0.08478461483936342 0 0.40142869859064212 -0.08537321064543299 0 0.40237588567979138 -0.081472047511817525 0 0.40751187940595462 -0.08478461483936342 0 0.40142869859064212 -0.08537321064543299 0 0.40440998182912408 -0.094196755676502056 0 0.40142869859064212 -0.08537321064543299 0 0.40440998182912408 -0.094196755676502056 0 0.40142869859064212 -0.08537321064543299 0 0.39542953791662688 -0.1100818502818986 0 0.40142869859064212 -0.08537321064543299 0 0.3905434538793735 -0.094168622203984975 0 0.39542953791662688 -0.1100818502818986 0 0.40142869859064212 -0.08537321064543299 0 0.40440998182912408 -0.094196755676502056 0 0.39542953791662688 -0.1100818502818986 0 0.41068457829189181 -0.1070723437572161 0 0.40440998182912408 -0.094196755676502056 0 0.39542953791662688 -0.1100818502818986 0 0.3905434538793735 -0.094168622203984975 0 0.38430615992235861 -0.10624254191412789 0 0.373127492796404 -0.092661058915291472 0 0.3905434538793735 -0.094168622203984975 0 0.38430615992235861 -0.10624254191412789 0 0.39542953791662688 -0.1100818502818986 0 0.38430615992235861 -0.10624254191412789 0 0.373127492796404 -0.092661058915291472 0 0.37262698081820339 -0.10985920037046069 0 0.38430615992235861 -0.10624254191412789 0 0.37980885755413418 -0.11928611433555709 0 0.39542953791662688 -0.1100818502818986 0 0.37980885755413418 -0.11928611433555709 0 0.39542953791662688 -0.1100818502818986 0 0.38943037724261159 -0.1347904899183642 0 0.38430615992235861 -0.10624254191412789 0 0.37980885755413418 -0.11928611433555709 0 0.37262698081820339 -0.10985920037046069 0 0.40724277249555002 -0.1192463337858536 0 0.39542953791662688 -0.1100818502818986 0 0.38943037724261159 -0.1347904899183642 0 0.39542953791662688 -0.1100818502818986 0 0.38943037724261159 -0.1347904899183642 0 0.40724277249555002 -0.1192463337858536 0 0.41068457829189181 -0.1070723437572161 0 0.39542953791662688 -0.1100818502818986 0 0.41629264407573002 -0.006850845090226044 0 0.42276864855888052 -0.033584784942844392 0 0.40125875037878711 -0.026146768788422061 0 0.43085411213296282 0.0071934808399317304 0 0.43960160651246799 -0.018737423931294579 0 0.41629264407573002 -0.006850845090226044 0 0.43960160651246799 -0.018737423931294579 0 0.41629264407573002 -0.006850845090226044 0 0.42276864855888052 -0.033584784942844392 0 0.44580381826440463 -0.044156532015693237 0 0.42276864855888052 -0.033584784942844392 0 0.42712667170951002 -0.058909162300086547 0 0.44580381826440463 -0.044156532015693237 0 0.43960160651246799 -0.018737423931294579 0 0.42276864855888052 -0.033584784942844392 0 0.4114316245373863 -0.068167670275121897 0 0.42712667170951002 -0.058909162300086547 0 0.40640664480004829 -0.052123305293471443 0 0.42276864855888052 -0.033584784942844392 0 0.42712667170951002 -0.058909162300086547 0 0.40640664480004829 -0.052123305293471443 0 0.42276864855888052 -0.033584784942844392 0 0.40640664480004829 -0.052123305293471443 0 0.40125875037878711 -0.026146768788422061 0 0.40640664480004829 -0.052123305293471443 0 0.38906844471504909 -0.048791226331097663 0 0.40125875037878711 -0.026146768788422061 0 0.39842538017083612 -0.076484449263173909 0 0.40640664480004829 -0.052123305293471443 0 0.38906844471504909 -0.048791226331097663 0 0.38906844471504909 -0.048791226331097663 0 0.36552082236990341 -0.042261935088275922 0 0.37096486530484057 -0.058236420929508259 0 0.38333741963197843 -0.065496938221855289 0 0.38906844471504909 -0.048791226331097663 0 0.37096486530484057 -0.058236420929508259 0 0.38906844471504909 -0.048791226331097663 0 0.37971150925926189 -0.0210980033990215 0 0.40125875037878711 -0.026146768788422061 0 0.38906844471504909 -0.048791226331097663 0 0.37971150925926189 -0.0210980033990215 0 0.36552082236990341 -0.042261935088275922 0 0.38906844471504909 -0.048791226331097663 0 0.37971150925926189 -0.0210980033990215 0 0.3939873043738738 0.005606014803845533 0 0.37971150925926189 -0.0210980033990215 0 0.40125875037878711 -0.026146768788422061 0 0.3939873043738738 0.005606014803845533 0 0.41629264407573002 -0.006850845090226044 0 0.40125875037878711 -0.026146768788422061 0 0.37357914744350779 0.002440479778912224 0 0.3939873043738738 0.005606014803845533 0 0.37971150925926189 -0.0210980033990215 0 0.37357914744350779 0.002440479778912224 0 0.35598292622536432 0.0074660699477739154 0 0.35747226134953669 -0.011539359516293059 0 0.37357914744350779 0.002440479778912224 0 0.37971150925926189 -0.0210980033990215 0 0.35747226134953669 -0.011539359516293059 0 0.37971150925926189 -0.0210980033990215 0 0.3567572465296398 -0.028300240308235611 0 0.35747226134953669 -0.011539359516293059 0 0.37971150925926189 -0.0210980033990215 0 0.3567572465296398 -0.028300240308235611 0 0.36552082236990341 -0.042261935088275922 0 0.3567572465296398 -0.028300240308235611 0 0.34108130633743572 -0.022855778308436141 0 0.34876980709143918 -0.036804132634757111 0 0.3567572465296398 -0.028300240308235611 0 0.35747226134953669 -0.011539359516293059 0 0.34108130633743572 -0.022855778308436141 0 0.35598292622536432 0.0074660699477739154 0 0.35747226134953669 -0.011539359516293059 0 0.33772143230201052 -0.0068886848087512803 0 0.35747226134953669 -0.011539359516293059 0 0.33772143230201052 -0.0068886848087512803 0 0.34108130633743572 -0.022855778308436141 0 0.33772143230201052 -0.0068886848087512803 0 0.34108130633743572 -0.022855778308436141 0 0.317215061455216 -0.016157064213598971 0 0.34108130633743572 -0.022855778308436141 0 0.317215061455216 -0.016157064213598971 0 0.33020564447161199 -0.035019528032180489 0 0.317215061455216 -0.016157064213598971 0 0.33020564447161199 -0.035019528032180489 0 0.317215061455216 -0.016157064213598971 0 0.31587151978819911 -0.020338956197947448 0 0.33020564447161199 -0.035019528032180489 0 0.31587151978819911 -0.020338956197947448 0 0.33020564447161199 -0.035019528032180489 0 0.317215061455216 -0.016157064213598971 0 0.31587151978819911 -0.020338956197947448 0 0.32325249182581611 0.0026349705202008129 0 0.317215061455216 -0.016157064213598971 0 0.32325249182581611 0.0026349705202008129 0 0.33772143230201052 -0.0068886848087512803 0 0.317215061455216 -0.016157064213598971 0 0.32325249182581611 0.0026349705202008129 0 0.317215061455216 -0.016157064213598971 0 0.30690038754225768 -0.0011800486910433781 0 0.32587161445787949 -0.051186402763021513 0 0.31829608624605688 -0.065472752473192938 0 0.30886460616181383 -0.042148593106558697 0 0.32587161445787949 -0.051186402763021513 0 0.33198766712898281 -0.064044197254424853 0 0.31829608624605688 -0.065472752473192938 0 0.31587151978819911 -0.020338956197947448 0 0.33020564447161199 -0.035019528032180489 0 0.30886460616181383 -0.042148593106558697 0 0.32587161445787949 -0.051186402763021513 0 0.33020564447161199 -0.035019528032180489 0 0.30886460616181383 -0.042148593106558697 0 0.34108130633743572 -0.022855778308436141 0 0.33020564447161199 -0.035019528032180489 0 0.34876980709143918 -0.036804132634757111 0 0.32587161445787949 -0.051186402763021513 0 0.33020564447161199 -0.035019528032180489 0 0.34000406828093183 -0.049246942948750677 0 0.33020564447161199 -0.035019528032180489 0 0.3502840157486049 -0.055583181436657553 0 0.33020564447161199 -0.035019528032180489 0 0.34000406828093183 -0.049246942948750677 0 0.33020564447161199 -0.035019528032180489 0 0.34000406828093183 -0.049246942948750677 0 0.3502840157486049 -0.055583181436657553 0 0.33020564447161199 -0.035019528032180489 0 0.3502840157486049 -0.055583181436657553 0 0.34876980709143918 -0.036804132634757111 0 0.34000406828093183 -0.049246942948750677 0 0.33198766712898281 -0.064044197254424853 0 0.34180884154053498 -0.065879049105621951 0 0.32587161445787949 -0.051186402763021513 0 0.34000406828093183 -0.049246942948750677 0 0.33198766712898281 -0.064044197254424853 0 0.34000406828093183 -0.049246942948750677 0 0.34980249209025183 -0.063474357865320699 0 0.34000406828093183 -0.049246942948750677 0 0.34980249209025183 -0.063474357865320699 0 0.34180884154053498 -0.065879049105621951 0 0.34000406828093183 -0.049246942948750677 0 0.3502840157486049 -0.055583181436657553 0 0.34980249209025183 -0.063474357865320699 0 0.3502840157486049 -0.055583181436657553 0 0.34980249209025183 -0.063474357865320699 0 0.35472253155892502 -0.068395270968063401 0 0.3502840157486049 -0.055583181436657553 0 0.34876980709143918 -0.036804132634757111 0 0.36552082236990341 -0.042261935088275922 0 0.3567572465296398 -0.028300240308235611 0 0.34876980709143918 -0.036804132634757111 0 0.36552082236990341 -0.042261935088275922 0 0.3502840157486049 -0.055583181436657553 0 0.36552082236990341 -0.042261935088275922 0 0.37096486530484057 -0.058236420929508259 0 0.3502840157486049 -0.055583181436657553 0 0.37096486530484057 -0.058236420929508259 0 0.37036238702559748 -0.076146834841134659 0 0.38333741963197843 -0.065496938221855289 0 0.37096486530484057 -0.058236420929508259 0 0.37036238702559748 -0.076146834841134659 0 0.3502840157486049 -0.055583181436657553 0 0.37036238702559748 -0.076146834841134659 0 0.37036238702559748 -0.076146834841134659 0 0.35472253155892502 -0.068395270968063401 0 0.35439705838588692 -0.077054866778644621 0 0.37036238702559748 -0.076146834841134659 0 0.36026598055858428 -0.086219317086442732 0 0.35439705838588692 -0.077054866778644621 0 0.37036238702559748 -0.076146834841134659 0 0.373127492796404 -0.092661058915291472 0 0.36026598055858428 -0.086219317086442732 0 0.373127492796404 -0.092661058915291472 0 0.36026598055858428 -0.086219317086442732 0 0.35442896873054819 -0.093899165736773108 0 0.36026598055858428 -0.086219317086442732 0 0.34819406691839527 -0.085912356067407769 0 0.35439705838588692 -0.077054866778644621 0 0.36026598055858428 -0.086219317086442732 0 0.34819406691839527 -0.085912356067407769 0 0.35442896873054819 -0.093899165736773108 0 0.34819406691839527 -0.085912356067407769 0 0.35442896873054819 -0.093899165736773108 0 0.34250823495700278 -0.096843945418323016 0 0.34819406691839527 -0.085912356067407769 0 0.35439705838588692 -0.077054866778644621 0 0.34213718893203959 -0.07422010281979162 0 0.3502840157486049 -0.055583181436657553 0 0.37036238702559748 -0.076146834841134659 0 0.35472253155892502 -0.068395270968063401 0 0.34876670454428399 -0.06971711391855949 0 0.35439705838588692 -0.077054866778644621 0 0.34213718893203959 -0.07422010281979162 0 0.34980249209025183 -0.063474357865320699 0 0.34876670454428399 -0.06971711391855949 0 0.34180884154053498 -0.065879049105621951 0 0.34876670454428399 -0.06971711391855949 0 0.34180884154053498 -0.065879049105621951 0 0.34213718893203959 -0.07422010281979162 0 0.34980249209025183 -0.063474357865320699 0 0.34876670454428399 -0.06971711391855949 0 0.35472253155892502 -0.068395270968063401 0 0.34876670454428399 -0.06971711391855949 0 0.35472253155892502 -0.068395270968063401 0 0.35439705838588692 -0.077054866778644621 0 0.36703358201424818 -0.1205643964158449 0 0.35968204517414459 -0.1107584800748472 0 0.35606369033391522 -0.1259709067163762 0 0.37980885755413418 -0.11928611433555709 0 0.36703358201424818 -0.1205643964158449 0 0.37262698081820339 -0.10985920037046069 0 0.36703358201424818 -0.1205643964158449 0 0.37262698081820339 -0.10985920037046069 0 0.35968204517414459 -0.1107584800748472 0 0.373127492796404 -0.092661058915291472 0 0.3478296054219725 -0.1088376685674099 0 0.373127492796404 -0.092661058915291472 0 0.37262698081820339 -0.10985920037046069 0 0.35968204517414459 -0.1107584800748472 0 0.373127492796404 -0.092661058915291472 0 0.35968204517414459 -0.1107584800748472 0 0.3478296054219725 -0.1088376685674099 0 0.373127492796404 -0.092661058915291472 0 0.35442896873054819 -0.093899165736773108 0 0.3478296054219725 -0.1088376685674099 0 0.35442896873054819 -0.093899165736773108 0 0.3478296054219725 -0.1088376685674099 0 0.34250823495700278 -0.096843945418323016 0 0.3478296054219725 -0.1088376685674099 0 0.34004518790650529 -0.12527848050574 0 0.35606369033391522 -0.1259709067163762 0 0.35968204517414459 -0.1107584800748472 0 0.3478296054219725 -0.1088376685674099 0 0.35606369033391522 -0.1259709067163762 0 0.35968204517414459 -0.1107584800748472 0 0.35606369033391522 -0.1259709067163762 0 0.3478296054219725 -0.1088376685674099 0 0.3336003219875231 -0.1076211020920432 0 0.32253171804754088 -0.12501427821952829 0 0.3478296054219725 -0.1088376685674099 0 0.32253171804754088 -0.12501427821952829 0 0.34004518790650529 -0.12527848050574 0 0.3478296054219725 -0.1088376685674099 0 0.32253171804754088 -0.12501427821952829 0 0.3336003219875231 -0.1076211020920432 0 0.3322859580981179 -0.098725703467523684 0 0.32284609341298121 -0.10868391478743129 0 0.3478296054219725 -0.1088376685674099 0 0.3336003219875231 -0.1076211020920432 0 0.34250823495700278 -0.096843945418323016 0 0.3336003219875231 -0.1076211020920432 0 0.34250823495700278 -0.096843945418323016 0 0.3322859580981179 -0.098725703467523684 0 0.34250823495700278 -0.096843945418323016 0 0.3322859580981179 -0.098725703467523684 0 0.33540967344911948 -0.088036983583798772 0 0.32220919005921328 -0.094454801116449272 0 0.31258915767766499 -0.1029799685902579 0 0.31246538712165289 -0.087003597160487944 0 0.3322859580981179 -0.098725703467523684 0 0.32220919005921328 -0.094454801116449272 0 0.32284609341298121 -0.10868391478743129 0 0.32220919005921328 -0.094454801116449272 0 0.31258915767766499 -0.1029799685902579 0 0.32284609341298121 -0.10868391478743129 0 0.31258915767766499 -0.1029799685902579 0 0.32284609341298121 -0.10868391478743129 0 0.30701266551867318 -0.11795202584412939 0 0.3336003219875231 -0.1076211020920432 0 0.32284609341298121 -0.10868391478743129 0 0.32253171804754088 -0.12501427821952829 0 0.32284609341298121 -0.10868391478743129 0 0.30701266551867318 -0.11795202584412939 0 0.32253171804754088 -0.12501427821952829 0 0.33198766712898281 -0.064044197254424853 0 0.34213718893203959 -0.07422010281979162 0 0.32642601186692399 -0.078569743361430744 0 0.33198766712898281 -0.064044197254424853 0 0.34180884154053498 -0.065879049105621951 0 0.34213718893203959 -0.07422010281979162 0 0.34213718893203959 -0.07422010281979162 0 0.33540967344911948 -0.088036983583798772 0 0.32642601186692399 -0.078569743361430744 0 0.34819406691839527 -0.085912356067407769 0 0.34213718893203959 -0.07422010281979162 0 0.33540967344911948 -0.088036983583798772 0 0.34819406691839527 -0.085912356067407769 0 0.34250823495700278 -0.096843945418323016 0 0.33540967344911948 -0.088036983583798772 0 0.3322859580981179 -0.098725703467523684 0 0.32220919005921328 -0.094454801116449272 0 0.33540967344911948 -0.088036983583798772 0 0.32220919005921328 -0.094454801116449272 0 0.33540967344911948 -0.088036983583798772 0 0.32642601186692399 -0.078569743361430744 0 0.32220919005921328 -0.094454801116449272 0 0.32642601186692399 -0.078569743361430744 0 0.31246538712165289 -0.087003597160487944 0 0.32642601186692399 -0.078569743361430744 0 0.31246538712165289 -0.087003597160487944 0 0.32642601186692399 -0.078569743361430744 0 0.31829608624605688 -0.065472752473192938 0 0.31246538712165289 -0.087003597160487944 0 0.33198766712898281 -0.064044197254424853 0 0.32642601186692399 -0.078569743361430744 0 0.31829608624605688 -0.065472752473192938 0 0.31829608624605688 -0.065472752473192938 0 0.30185769253542699 -0.063958230015169509 0 0.31246538712165289 -0.087003597160487944 0 0.30185769253542699 -0.063958230015169509 0 0.29485077890903838 -0.08576786692377969 0 0.31246538712165289 -0.087003597160487944 0 0.29485077890903838 -0.08576786692377969 0 0.29850476237638052 -0.095437450959542897 0 0.30185769253542699 -0.063958230015169509 0 0.31246538712165289 -0.087003597160487944 0 0.29485077890903838 -0.08576786692377969 0 0.31246538712165289 -0.087003597160487944 0 0.29850476237638052 -0.095437450959542897 0 0.29485077890903838 -0.08576786692377969 0 0.29011601486440819 -0.10050523777883651 0 0.27233191485367331 -0.086662364145387083 0 0.29485077890903838 -0.08576786692377969 0 0.29850476237638052 -0.095437450959542897 0 0.29485077890903838 -0.08576786692377969 0 0.29011601486440819 -0.10050523777883651 0 0.30185769253542699 -0.063958230015169509 0 0.29485077890903838 -0.08576786692377969 0 0.28549509337792828 -0.061009794462930381 0 0.29485077890903838 -0.08576786692377969 0 0.27233191485367331 -0.086662364145387083 0 0.28549509337792828 -0.061009794462930381 0 0.29485077890903838 -0.08576786692377969 0 0.28549509337792828 -0.061009794462930381 0 0.30701266551867318 -0.11795202584412939 0 0.29478762612759141 -0.11288625738249181 0 0.29867666688697703 -0.1272849549211697 0 0.30701266551867318 -0.11795202584412939 0 0.29850476237638052 -0.095437450959542897 0 0.29478762612759141 -0.11288625738249181 0 0.31258915767766499 -0.1029799685902579 0 0.30701266551867318 -0.11795202584412939 0 0.29850476237638052 -0.095437450959542897 0 0.30701266551867318 -0.11795202584412939 0 0.29850476237638052 -0.095437450959542897 0 0.31258915767766499 -0.1029799685902579 0 0.31246538712165289 -0.087003597160487944 0 0.29850476237638052 -0.095437450959542897 0 0.29850476237638052 -0.095437450959542897 0 0.29011601486440819 -0.10050523777883651 0 0.29478762612759141 -0.11288625738249181 0 0.29850476237638052 -0.095437450959542897 0 0.29011601486440819 -0.10050523777883651 0 0.29485077890903838 -0.08576786692377969 0 0.29850476237638052 -0.095437450959542897 0 0.29011601486440819 -0.10050523777883651 0 0.29011601486440819 -0.10050523777883651 0 0.27631136395687561 -0.10884486509677729 0 0.29011601486440819 -0.10050523777883651 0 0.28377904751550082 -0.12022960778689511 0 0.29011601486440819 -0.10050523777883651 0 0.28377904751550082 -0.12022960778689511 0 0.27631136395687561 -0.10884486509677729 0 0.29011601486440819 -0.10050523777883651 0 0.29478762612759141 -0.11288625738249181 0 0.28377904751550082 -0.12022960778689511 0 0.29478762612759141 -0.11288625738249181 0 0.28377904751550082 -0.12022960778689511 0 0.29867666688697703 -0.1272849549211697 0 0.28377904751550082 -0.12022960778689511 0 0.27500980117207829 -0.12155323577333579 0 0.27631136395687561 -0.10884486509677729 0 0.27631136395687561 -0.10884486509677729 0 0.26250671304934198 -0.1171844924147165 0 0.27500980117207829 -0.12155323577333579 0 0.27631136395687561 -0.10884486509677729 0 0.26250671304934198 -0.1171844924147165 0 0.29011601486440819 -0.10050523777883651 0 0.27631136395687561 -0.10884486509677729 0 0.27233191485367331 -0.086662364145387083 0 0.27631136395687561 -0.10884486509677729 0 0.26480060580106352 -0.1019600400236301 0 0.27233191485367331 -0.086662364145387083 0 0.27631136395687561 -0.10884486509677729 0 0.26480060580106352 -0.1019600400236301 0 0.26250671304934198 -0.1171844924147165 0 0.26480060580106352 -0.1019600400236301 0 0.27233191485367331 -0.086662364145387083 0 0.248052431344363 -0.095148438437639593 0 0.26480060580106352 -0.1019600400236301 0 0.26250671304934198 -0.1171844924147165 0 0.248052431344363 -0.095148438437639593 0 0.26250671304934198 -0.1171844924147165 0 0.248052431344363 -0.095148438437639593 0 0.26250671304934198 -0.1171844924147165 0 0.248052431344363 -0.095148438437639593 0 0.24260121657943401 -0.11258968035378961 0 0.26250671304934198 -0.1171844924147165 0 0.2441250445765018 -0.1282891748563233 0 0.27233191485367331 -0.086662364145387083 0 0.25578894406637898 -0.071814983055159112 0 0.28549509337792828 -0.061009794462930381 0 0.27233191485367331 -0.086662364145387083 0 0.25578894406637898 -0.071814983055159112 0 0.248052431344363 -0.095148438437639593 0 0.25578894406637898 -0.071814983055159112 0 0.26356106344924501 -0.050736506704392427 0 0.24466000719816181 -0.052572806154117767 0 0.27613940784681967 -0.036251722002080641 0 0.28549509337792828 -0.061009794462930381 0 0.26356106344924501 -0.050736506704392427 0 0.27613940784681967 -0.036251722002080641 0 0.28549509337792828 -0.061009794462930381 0 0.25578894406637898 -0.071814983055159112 0 0.26356106344924501 -0.050736506704392427 0 0.28549509337792828 -0.061009794462930381 0 0.26356106344924501 -0.050736506704392427 0 0.25572186475693609 -0.032033227847674262 0 0.24466000719816181 -0.052572806154117767 0 0.26356106344924501 -0.050736506704392427 0 0.27613940784681967 -0.036251722002080641 0 0.25572186475693609 -0.032033227847674262 0 0.25572186475693609 -0.032033227847674262 0 0.24466000719816181 -0.052572806154117767 0 0.25572186475693609 -0.032033227847674262 0 0.25159771702699008 -0.014371615300676641 0 0.26678372231571063 -0.011493649541230871 0 0.25572186475693609 -0.032033227847674262 0 0.26678372231571063 -0.011493649541230871 0 0.26489192350979318 -0.0064873577240775106 0 0.2403210271001277 -0.0038011986657945939 0 0.25900523844679291 0.0090906536209348996 0 0.26489192350979318 -0.0064873577240775106 0 0.2403210271001277 -0.0038011986657945939 0 0.25159771702699008 -0.014371615300676641 0 0.26489192350979318 -0.0064873577240775106 0 0.2403210271001277 -0.0038011986657945939 0 0.25159771702699008 -0.014371615300676641 0 0.26489192350979318 -0.0064873577240775106 0 0.26678372231571063 -0.011493649541230871 0 0.2692248172919926 -0.0069610417805164738 0 0.27741899960964289 -0.015799745368864509 0 0.28512431700806451 -0.0086992195202469716 0 0.2692248172919926 -0.0069610417805164738 0 0.27791710391185381 -0.0010379811687957271 0 0.28512431700806451 -0.0086992195202469716 0 0.2692248172919926 -0.0069610417805164738 0 0.28512431700806451 -0.0086992195202469716 0 0.26701986470523431 0.0028523954276382379 0 0.26489192350979318 -0.0064873577240775106 0 0.2692248172919926 -0.0069610417805164738 0 0.26489192350979318 -0.0064873577240775106 0 0.2692248172919926 -0.0069610417805164738 0 0.2692248172919926 -0.0069610417805164738 0 0.26678372231571063 -0.011493649541230871 0 0.27741899960964289 -0.015799745368864509 0 0.26489192350979318 -0.0064873577240775106 0 0.26678372231571063 -0.011493649541230871 0 0.26489192350979318 -0.0064873577240775106 0 0.2692248172919926 -0.0069610417805164738 0 0.26678372231571063 -0.011493649541230871 0 0.2692248172919926 -0.0069610417805164738 0 0.26678372231571063 -0.011493649541230871 0 0.27613940784681967 -0.036251722002080641 0 0.26678372231571063 -0.011493649541230871 0 0.27613940784681967 -0.036251722002080641 0 0.26678372231571063 -0.011493649541230871 0 0.27741899960964289 -0.015799745368864509 0 0.27613940784681967 -0.036251722002080641 0 0.25572186475693609 -0.032033227847674262 0 0.26678372231571063 -0.011493649541230871 0 0.27613940784681967 -0.036251722002080641 0 0.27741899960964289 -0.015799745368864509 0 0.29413594975842328 -0.02512550933568073 0 0.27741899960964289 -0.015799745368864509 0 0.29413594975842328 -0.02512550933568073 0 0.28512431700806451 -0.0086992195202469716 0 0.28514691493175248 0.01112824383243886 0 0.28512431700806451 -0.0086992195202469716 0 0.30050921735997521 -0.004605356182754896 0 0.29413594975842328 -0.02512550933568073 0 0.28512431700806451 -0.0086992195202469716 0 0.30050921735997521 -0.004605356182754896 0 0.317215061455216 -0.016157064213598971 0 0.31587151978819911 -0.020338956197947448 0 0.30050921735997521 -0.004605356182754896 0 0.31587151978819911 -0.020338956197947448 0 0.30050921735997521 -0.004605356182754896 0 0.317215061455216 -0.016157064213598971 0 0.30050921735997521 -0.004605356182754896 0 0.30690038754225768 -0.0011800486910433781 0 0.317215061455216 -0.016157064213598971 0 0.30690038754225768 -0.0011800486910433781 0 0.31587151978819911 -0.020338956197947448 0 0.29413594975842328 -0.02512550933568073 0 0.30886460616181383 -0.042148593106558697 0 0.31587151978819911 -0.020338956197947448 0 0.29413594975842328 -0.02512550933568073 0 0.30050921735997521 -0.004605356182754896 0 0.31587151978819911 -0.020338956197947448 0 0.30886460616181383 -0.042148593106558697 0 0.29413594975842328 -0.02512550933568073 0 0.30886460616181383 -0.042148593106558697 0 0.29329854993608251 -0.045698769784483992 0 0.31829608624605688 -0.065472752473192938 0 0.30185769253542699 -0.063958230015169509 0 0.30886460616181383 -0.042148593106558697 0 0.30185769253542699 -0.063958230015169509 0 0.30886460616181383 -0.042148593106558697 0 0.30185769253542699 -0.063958230015169509 0 0.30886460616181383 -0.042148593106558697 0 0.29329854993608251 -0.045698769784483992 0 0.27613940784681967 -0.036251722002080641 0 0.28549509337792828 -0.061009794462930381 0 0.29329854993608251 -0.045698769784483992 0 0.30185769253542699 -0.063958230015169509 0 0.28549509337792828 -0.061009794462930381 0 0.29329854993608251 -0.045698769784483992 0 0.27613940784681967 -0.036251722002080641 0 0.29413594975842328 -0.02512550933568073 0 0.29329854993608251 -0.045698769784483992 0 0.28257577117233168 -0.20518994938083851 0 0.30379191605182437 -0.20471284840499179 0 0.29252942038038049 -0.2260032745248223 0 0.28257577117233168 -0.20518994938083851 0 0.29252942038038049 -0.2260032745248223 0 0.27440370665207992 -0.22158759206732809 0 0.28257577117233168 -0.20518994938083851 0 0.29805932829815662 -0.18954203104115269 0 0.30379191605182437 -0.20471284840499179 0 0.28257577117233168 -0.20518994938083851 0 0.29805932829815662 -0.18954203104115269 0 0.28309810934824442 -0.18139531770741171 0 0.29805932829815662 -0.18954203104115269 0 0.30379191605182437 -0.20471284840499179 0 0.31670590871501719 -0.18767809548444081 0 0.30379191605182437 -0.20471284840499179 0 0.31109634377457301 -0.22154997806035029 0 0.29252942038038049 -0.2260032745248223 0 0.31109634377457301 -0.22154997806035029 0 0.30987088180634448 -0.24125362874219619 0 0.29252942038038049 -0.2260032745248223 0 0.30987088180634448 -0.24125362874219619 0 0.29250997527574701 -0.24677647679701359 0 0.29252942038038049 -0.2260032745248223 0 0.29250997527574701 -0.24677647679701359 0 0.29252942038038049 -0.2260032745248223 0 0.27462122614518292 -0.24127539045551061 0 0.29252942038038049 -0.2260032745248223 0 0.27440370665207992 -0.22158759206732809 0 0.27462122614518292 -0.24127539045551061 0 0.27440370665207992 -0.22158759206732809 0 0.27462122614518292 -0.24127539045551061 0 0.25406429941061343 -0.23112732810889039 0 0.29250997527574701 -0.24677647679701359 0 0.27462122614518292 -0.24127539045551061 0 0.27534065318434953 -0.25880162201512719 0 0.25406429941061343 -0.23112732810889039 0 0.25726365536858148 -0.25362034743760148 0 0.24146341680214309 -0.24448521489457861 0 0.27462122614518292 -0.24127539045551061 0 0.25406429941061343 -0.23112732810889039 0 0.25726365536858148 -0.25362034743760148 0 0.27440370665207992 -0.22158759206732809 0 0.25406429941061343 -0.23112732810889039 0 0.25948399805722178 -0.21095426616987389 0 0.25406429941061343 -0.23112732810889039 0 0.25948399805722178 -0.21095426616987389 0 0.23924146656863479 -0.21600942233651971 0 0.25948399805722178 -0.21095426616987389 0 0.25294493867930001 -0.1971512634910503 0 0.23924146656863479 -0.21600942233651971 0 0.28257577117233168 -0.20518994938083851 0 0.27440370665207992 -0.22158759206732809 0 0.25948399805722178 -0.21095426616987389 0 0.28257577117233168 -0.20518994938083851 0 0.26980921912182793 -0.19283345323968809 0 0.28309810934824442 -0.18139531770741171 0 0.28257577117233168 -0.20518994938083851 0 0.25948399805722178 -0.21095426616987389 0 0.26980921912182793 -0.19283345323968809 0 0.26980921912182793 -0.19283345323968809 0 0.25294493867930001 -0.1971512634910503 0 0.26076150014885863 -0.1842019471946538 0 0.25948399805722178 -0.21095426616987389 0 0.26980921912182793 -0.19283345323968809 0 0.25294493867930001 -0.1971512634910503 0 0.25294493867930001 -0.1971512634910503 0 0.25115080808597218 -0.18349252771031549 0 0.26076150014885863 -0.1842019471946538 0 0.25115080808597218 -0.18349252771031549 0 0.26076150014885863 -0.1842019471946538 0 0.25889962869698091 -0.1746028342129915 0 0.26076150014885863 -0.1842019471946538 0 0.25889962869698091 -0.1746028342129915 0 0.27017957837672091 -0.17747692395416009 0 0.25115080808597218 -0.18349252771031549 0 0.25889962869698091 -0.1746028342129915 0 0.24727016264961249 -0.1692414738038848 0 0.25889962869698091 -0.1746028342129915 0 0.26616743516329899 -0.16248611748055669 0 0.24727016264961249 -0.1692414738038848 0 0.26140577643439422 -0.14332992145424359 0 0.24727016264961249 -0.1692414738038848 0 0.26616743516329899 -0.16248611748055669 0 0.26140577643439422 -0.14332992145424359 0 0.24727016264961249 -0.1692414738038848 0 0.25889962869698091 -0.1746028342129915 0 0.26616743516329899 -0.16248611748055669 0 0.27017957837672091 -0.17747692395416009 0 0.26616743516329899 -0.16248611748055669 0 0.27825348655266058 -0.16907893574793359 0 0.27017957837672091 -0.17747692395416009 0 0.26616743516329899 -0.16248611748055669 0 0.27746834422487981 -0.157383776805052 0 0.26883056353995632 -0.15253713768717189 0 0.26616743516329899 -0.16248611748055669 0 0.27746834422487981 -0.157383776805052 0 0.27825348655266058 -0.16907893574793359 0 0.27825348655266058 -0.16907893574793359 0 0.27017957837672091 -0.17747692395416009 0 0.28309810934824442 -0.18139531770741171 0 0.26980921912182793 -0.19283345323968809 0 0.27017957837672091 -0.17747692395416009 0 0.28309810934824442 -0.18139531770741171 0 0.26980921912182793 -0.19283345323968809 0 0.26076150014885863 -0.1842019471946538 0 0.27017957837672091 -0.17747692395416009 0 0.25959792799319448 -0.13115630782849941 0 0.26140577643439422 -0.14332992145424359 0 0.2441250445765018 -0.1282891748563233 0 0.26250671304934198 -0.1171844924147165 0 0.25959792799319448 -0.13115630782849941 0 0.2441250445765018 -0.1282891748563233 0 0.26616743516329899 -0.16248611748055669 0 0.26140577643439422 -0.14332992145424359 0 0.26883056353995632 -0.15253713768717189 0 0.26140577643439422 -0.14332992145424359 0 0.2760714190023883 -0.1442202816071636 0 0.27744208016659549 -0.13995397779495439 0 0.27746834422487981 -0.157383776805052 0 0.26883056353995632 -0.15253713768717189 0 0.27327340453904758 -0.14909472247049649 0 0.27746834422487981 -0.157383776805052 0 0.27327340453904758 -0.14909472247049649 0 0.27944720334199591 -0.1510298305388795 0 0.27746834422487981 -0.157383776805052 0 0.27944720334199591 -0.1510298305388795 0 0.28543485155381138 -0.1532631785773593 0 0.27944720334199591 -0.1510298305388795 0 0.27867318395593788 -0.14678707333018209 0 0.28267306369304718 -0.14834113794059131 0 0.27327340453904758 -0.14909472247049649 0 0.27944720334199591 -0.1510298305388795 0 0.27867318395593788 -0.14678707333018209 0 0.27327340453904758 -0.14909472247049649 0 0.27867318395593788 -0.14678707333018209 0 0.2760714190023883 -0.1442202816071636 0 0.27867318395593788 -0.14678707333018209 0 0.28203705400801471 -0.14409361128278431 0 0.28267306369304718 -0.14834113794059131 0 0.27867318395593788 -0.14678707333018209 0 0.27862243637812423 -0.14384960257769991 0 0.2760714190023883 -0.1442202816071636 0 0.27867318395593788 -0.14678707333018209 0 0.27862243637812423 -0.14384960257769991 0 0.28203705400801471 -0.14409361128278431 0 0.27862243637812423 -0.14384960257769991 0 0.27744208016659549 -0.13995397779495439 0 0.28203705400801471 -0.14409361128278431 0 0.27862243637812423 -0.14384960257769991 0 0.2760714190023883 -0.1442202816071636 0 0.27744208016659549 -0.13995397779495439 0 0.2760714190023883 -0.1442202816071636 0 0.27744208016659549 -0.13995397779495439 0 0.26140577643439422 -0.14332992145424359 0 0.27327340453904758 -0.14909472247049649 0 0.2760714190023883 -0.1442202816071636 0 0.26140577643439422 -0.14332992145424359 0 0.26883056353995632 -0.15253713768717189 0 0.27327340453904758 -0.14909472247049649 0 0.26250671304934198 -0.1171844924147165 0 0.25959792799319448 -0.13115630782849941 0 0.27744208016659549 -0.13995397779495439 0 0.27500980117207829 -0.12155323577333579 0 0.26250671304934198 -0.1171844924147165 0 0.27744208016659549 -0.13995397779495439 0 0.28377904751550082 -0.12022960778689511 0 0.27500980117207829 -0.12155323577333579 0 0.27744208016659549 -0.13995397779495439 0 0.26250671304934198 -0.1171844924147165 0 0.27744208016659549 -0.13995397779495439 0 0.28377904751550082 -0.12022960778689511 0 0.27744208016659549 -0.13995397779495439 0 0.25959792799319448 -0.13115630782849941 0 0.26140577643439422 -0.14332992145424359 0 0.27744208016659549 -0.13995397779495439 0 0.28377904751550082 -0.12022960778689511 0 0.27744208016659549 -0.13995397779495439 0 0.28932323864627207 -0.13288207724771259 0 0.28377904751550082 -0.12022960778689511 0 0.28932323864627207 -0.13288207724771259 0 0.29867666688697703 -0.1272849549211697 0 0.28932323864627207 -0.13288207724771259 0 0.29298701750044082 -0.14249666764126889 0 0.28471550868115297 -0.14112277714418339 0 0.27744208016659549 -0.13995397779495439 0 0.28932323864627207 -0.13288207724771259 0 0.28471550868115297 -0.14112277714418339 0 0.28932323864627207 -0.13288207724771259 0 0.29298701750044082 -0.14249666764126889 0 0.30163685485285813 -0.1392931605370735 0 0.28932323864627207 -0.13288207724771259 0 0.30163685485285813 -0.1392931605370735 0 0.29867666688697703 -0.1272849549211697 0 0.29298701750044082 -0.14249666764126889 0 0.28777302560547591 -0.14653199597375141 0 0.29658698791447552 -0.15065635986343121 0 0.29298701750044082 -0.14249666764126889 0 0.28471550868115297 -0.14112277714418339 0 0.28777302560547591 -0.14653199597375141 0 0.28471550868115297 -0.14112277714418339 0 0.28203705400801471 -0.14409361128278431 0 0.28777302560547591 -0.14653199597375141 0 0.27744208016659549 -0.13995397779495439 0 0.28471550868115297 -0.14112277714418339 0 0.28203705400801471 -0.14409361128278431 0 0.28203705400801471 -0.14409361128278431 0 0.28267306369304718 -0.14834113794059131 0 0.28777302560547591 -0.14653199597375141 0 0.28267306369304718 -0.14834113794059131 0 0.28777302560547591 -0.14653199597375141 0 0.28543485155381138 -0.1532631785773593 0 0.27944720334199591 -0.1510298305388795 0 0.28267306369304718 -0.14834113794059131 0 0.28543485155381138 -0.1532631785773593 0 0.28543485155381138 -0.1532631785773593 0 0.29658698791447552 -0.15065635986343121 0 0.29083384063311041 -0.16291767632429169 0 0.28777302560547591 -0.14653199597375141 0 0.28543485155381138 -0.1532631785773593 0 0.29658698791447552 -0.15065635986343121 0 0.29658698791447552 -0.15065635986343121 0 0.30903803874224028 -0.154944676915485 0 0.29083384063311041 -0.16291767632429169 0 0.30903803874224028 -0.154944676915485 0 0.30163685485285813 -0.1392931605370735 0 0.31552056866096628 -0.14046660072871581 0 0.29658698791447552 -0.15065635986343121 0 0.30903803874224028 -0.154944676915485 0 0.30163685485285813 -0.1392931605370735 0 0.29298701750044082 -0.14249666764126889 0 0.29658698791447552 -0.15065635986343121 0 0.30163685485285813 -0.1392931605370735 0 0.30163685485285813 -0.1392931605370735 0 0.29867666688697703 -0.1272849549211697 0 0.31552056866096628 -0.14046660072871581 0 0.30701266551867318 -0.11795202584412939 0 0.31552056866096628 -0.14046660072871581 0 0.30701266551867318 -0.11795202584412939 0 0.29867666688697703 -0.1272849549211697 0 0.31552056866096628 -0.14046660072871581 0 0.29805932829815662 -0.18954203104115269 0 0.28309810934824442 -0.18139531770741171 0 0.30374566956112747 -0.172867968401477 0 0.28309810934824442 -0.18139531770741171 0 0.29083384063311041 -0.16291767632429169 0 0.30374566956112747 -0.172867968401477 0 0.27825348655266058 -0.16907893574793359 0 0.28309810934824442 -0.18139531770741171 0 0.29083384063311041 -0.16291767632429169 0 0.27746834422487981 -0.157383776805052 0 0.27825348655266058 -0.16907893574793359 0 0.29083384063311041 -0.16291767632429169 0 0.27746834422487981 -0.157383776805052 0 0.28543485155381138 -0.1532631785773593 0 0.29083384063311041 -0.16291767632429169 0 0.30903803874224028 -0.154944676915485 0 0.30374566956112747 -0.172867968401477 0 0.3240284718032595 -0.16298117561330211 0 0.30903803874224028 -0.154944676915485 0 0.29083384063311041 -0.16291767632429169 0 0.30374566956112747 -0.172867968401477 0 0.29805932829815662 -0.18954203104115269 0 0.30374566956112747 -0.172867968401477 0 0.31670590871501719 -0.18767809548444081 0 0.30374566956112747 -0.172867968401477 0 0.3240284718032595 -0.16298117561330211 0 0.31670590871501719 -0.18767809548444081 0 0.3240284718032595 -0.16298117561330211 0 0.33253637494555272 -0.18549575049788841 0 0.31670590871501719 -0.18767809548444081 0 0.3240284718032595 -0.16298117561330211 0 0.33799671017450289 -0.15427059616939481 0 0.34627497421775172 -0.16712500364912669 0 0.3240284718032595 -0.16298117561330211 0 0.33253637494555272 -0.18549575049788841 0 0.34627497421775172 -0.16712500364912669 0 0.34627497421775172 -0.16712500364912669 0 0.34011486294275067 -0.1930235804920396 0 0.33253637494555272 -0.18549575049788841 0 0.34627497421775172 -0.16712500364912669 0 0.34011486294275067 -0.1930235804920396 0 0.3240284718032595 -0.16298117561330211 0 0.33253637494555272 -0.18549575049788841 0 0.31552056866096628 -0.14046660072871581 0 0.32253171804754088 -0.12501427821952829 0 0.33350864076215958 -0.14068733778211151 0 0.30701266551867318 -0.11795202584412939 0 0.31552056866096628 -0.14046660072871581 0 0.32253171804754088 -0.12501427821952829 0 0.3240284718032595 -0.16298117561330211 0 0.31552056866096628 -0.14046660072871581 0 0.33350864076215958 -0.14068733778211151 0 0.3240284718032595 -0.16298117561330211 0 0.31552056866096628 -0.14046660072871581 0 0.30903803874224028 -0.154944676915485 0 0.3240284718032595 -0.16298117561330211 0 0.31552056866096628 -0.14046660072871581 0 0.3240284718032595 -0.16298117561330211 0 0.33799671017450289 -0.15427059616939481 0 0.33350864076215958 -0.14068733778211151 0 0.33799671017450289 -0.15427059616939481 0 0.33350864076215958 -0.14068733778211151 0 0.35233452294063261 -0.141202487244703 0 0.33350864076215958 -0.14068733778211151 0 0.34402529308911528 -0.13391297654823131 0 0.35233452294063261 -0.141202487244703 0 0.32253171804754088 -0.12501427821952829 0 0.33350864076215958 -0.14068733778211151 0 0.34004518790650529 -0.12527848050574 0 0.33350864076215958 -0.14068733778211151 0 0.34004518790650529 -0.12527848050574 0 0.34402529308911528 -0.13391297654823131 0 0.34004518790650529 -0.12527848050574 0 0.35606369033391522 -0.1259709067163762 0 0.34402529308911528 -0.13391297654823131 0 0.35606369033391522 -0.1259709067163762 0 0.34402529308911528 -0.13391297654823131 0 0.35233452294063261 -0.141202487244703 0 0.35606369033391522 -0.1259709067163762 0 0.35233452294063261 -0.141202487244703 0 0.33799671017450289 -0.15427059616939481 0 0.35233452294063261 -0.141202487244703 0 0.34627497421775172 -0.16712500364912669 0 0.35233452294063261 -0.141202487244703 0 0.34627497421775172 -0.16712500364912669 0 0.35233452294063261 -0.141202487244703 0 0.34627497421775172 -0.16712500364912669 0 0.36205375531824391 -0.1583193433668508 0 0.35233452294063261 -0.141202487244703 0 0.37378191529930621 -0.14944718128022591 0 0.37093785636814908 -0.13798691163813531 0 0.35233452294063261 -0.141202487244703 0 0.37378191529930621 -0.14944718128022591 0 0.36205375531824391 -0.1583193433668508 0 0.37378191529930621 -0.14944718128022591 0 0.36205375531824391 -0.1583193433668508 0 0.37308854109455708 -0.16093157526259191 0 0.35606369033391522 -0.1259709067163762 0 0.35233452294063261 -0.141202487244703 0 0.37093785636814908 -0.13798691163813531 0 0.35233452294063261 -0.141202487244703 0 0.37093785636814908 -0.13798691163813531 0 0.37980885755413418 -0.11928611433555709 0 0.36703358201424818 -0.1205643964158449 0 0.37093785636814908 -0.13798691163813531 0 0.36703358201424818 -0.1205643964158449 0 0.35606369033391522 -0.1259709067163762 0 0.37093785636814908 -0.13798691163813531 0 0.35440938842994413 -0.18403818521213361 0 0.34627497421775172 -0.16712500364912669 0 0.34011486294275067 -0.1930235804920396 0 0.35440938842994413 -0.18403818521213361 0 0.34627497421775172 -0.16712500364912669 0 0.36427806099096738 -0.1715772602872144 0 0.34627497421775172 -0.16712500364912669 0 0.36427806099096738 -0.1715772602872144 0 0.36205375531824391 -0.1583193433668508 0 0.36427806099096738 -0.1715772602872144 0 0.37308854109455708 -0.16093157526259191 0 0.38040919016197472 -0.17194589761299089 0 0.36427806099096738 -0.1715772602872144 0 0.36205375531824391 -0.1583193433668508 0 0.37308854109455708 -0.16093157526259191 0 0.36427806099096738 -0.1715772602872144 0 0.37230187155944527 -0.18410680502223259 0 0.38040919016197472 -0.17194589761299089 0 0.35440938842994413 -0.18403818521213361 0 0.36427806099096738 -0.1715772602872144 0 0.37230187155944527 -0.18410680502223259 0 0.37230187155944527 -0.18410680502223259 0 0.36943541324010287 -0.20186706000128449 0 0.35149154164174501 -0.20315574626222041 0 0.37230187155944527 -0.18410680502223259 0 0.36943541324010287 -0.20186706000128449 0 0.38044042972011022 -0.19453179374419641 0 0.37230187155944527 -0.18410680502223259 0 0.35149154164174501 -0.20315574626222041 0 0.35440938842994413 -0.18403818521213361 0 0.37230187155944527 -0.18410680502223259 0 0.35149154164174501 -0.20315574626222041 0 0.36366819524513028 -0.21031437113148671 0 0.35862104841248232 -0.2228308520016947 0 0.37925693361890289 -0.2120285714887051 0 0.36943541324010287 -0.20186706000128449 0 0.36366819524513028 -0.21031437113148671 0 0.35149154164174501 -0.20315574626222041 0 0.36943541324010287 -0.20186706000128449 0 0.36366819524513028 -0.21031437113148671 0 0.37925693361890289 -0.2120285714887051 0 0.35149154164174501 -0.20315574626222041 0 0.33068121172404469 -0.22220468750220829 0 0.35862104841248232 -0.2228308520016947 0 0.36366819524513028 -0.21031437113148671 0 0.35149154164174501 -0.20315574626222041 0 0.35862104841248232 -0.2228308520016947 0 0.35440938842994413 -0.18403818521213361 0 0.35149154164174501 -0.20315574626222041 0 0.34011486294275067 -0.1930235804920396 0 0.35149154164174501 -0.20315574626222041 0 0.34011486294275067 -0.1930235804920396 0 0.3308500388182079 -0.19477209315265531 0 0.35149154164174501 -0.20315574626222041 0 0.3308500388182079 -0.19477209315265531 0 0.32373992820587338 -0.20544181336631709 0 0.33253637494555272 -0.18549575049788841 0 0.34011486294275067 -0.1930235804920396 0 0.3308500388182079 -0.19477209315265531 0 0.35149154164174501 -0.20315574626222041 0 0.32373992820587338 -0.20544181336631709 0 0.33068121172404469 -0.22220468750220829 0 0.35149154164174501 -0.20315574626222041 0 0.33068121172404469 -0.22220468750220829 0 0.30379191605182437 -0.20471284840499179 0 0.31109634377457301 -0.22154997806035029 0 0.32373992820587338 -0.20544181336631709 0 0.31109634377457301 -0.22154997806035029 0 0.32373992820587338 -0.20544181336631709 0 0.33068121172404469 -0.22220468750220829 0 0.3308500388182079 -0.19477209315265531 0 0.32373992820587338 -0.20544181336631709 0 0.31670590871501719 -0.18767809548444081 0 0.33253637494555272 -0.18549575049788841 0 0.3308500388182079 -0.19477209315265531 0 0.31670590871501719 -0.18767809548444081 0 0.30379191605182437 -0.20471284840499179 0 0.32373992820587338 -0.20544181336631709 0 0.31670590871501719 -0.18767809548444081 0 0.30987088180634448 -0.24125362874219619 0 0.33627474799740559 -0.24529035195854479 0 0.32740146312166057 -0.2615598439342075 0 0.30987088180634448 -0.24125362874219619 0 0.33068121172404469 -0.22220468750220829 0 0.33627474799740559 -0.24529035195854479 0 0.31109634377457301 -0.22154997806035029 0 0.30987088180634448 -0.24125362874219619 0 0.33068121172404469 -0.22220468750220829 0 0.30987088180634448 -0.24125362874219619 0 0.33068121172404469 -0.22220468750220829 0 0.33068121172404469 -0.22220468750220829 0 0.33627474799740559 -0.24529035195854479 0 0.34620802689974478 -0.2341148902952345 0 0.33627474799740559 -0.24529035195854479 0 0.3592550994650468 -0.24613366971849041 0 0.34620802689974478 -0.2341148902952345 0 0.33068121172404469 -0.22220468750220829 0 0.34620802689974478 -0.2341148902952345 0 0.35862104841248232 -0.2228308520016947 0 0.3592550994650468 -0.24613366971849041 0 0.34620802689974478 -0.2341148902952345 0 0.35862104841248232 -0.2228308520016947 0 0.35862104841248232 -0.2228308520016947 0 0.37496953662933208 -0.22868277770556319 0 0.37925693361890289 -0.2120285714887051 0 0.3592550994650468 -0.24613366971849041 0 0.35862104841248232 -0.2228308520016947 0 0.37496953662933208 -0.22868277770556319 0 0.3592550994650468 -0.24613366971849041 0 0.37496953662933208 -0.22868277770556319 0 0.37997975350283419 -0.24239130628825581 0 0.3592550994650468 -0.24613366971849041 0 0.37997975350283419 -0.24239130628825581 0 0.37962897743813367 -0.25651992395937562 0 0.37997975350283419 -0.24239130628825581 0 0.39078422201957003 -0.24969070593678949 0 0.39374115574330237 -0.23275594279604889 0 0.37496953662933208 -0.22868277770556319 0 0.37997975350283419 -0.24239130628825581 0 0.39374115574330237 -0.23275594279604889 0 0.37997975350283419 -0.24239130628825581 0 0.39078422201957003 -0.24969070593678949 0 0.37962897743813367 -0.25651992395937562 0 0.39078422201957003 -0.24969070593678949 0 0.40271577749504128 -0.24808950568319249 0 0.39374115574330237 -0.23275594279604889 0 0.40271577749504128 -0.24808950568319249 0 0.39374115574330237 -0.23275594279604889 0 0.41071323046394659 -0.2405815597806012 0 0.39374115574330237 -0.23275594279604889 0 0.40098237452119001 -0.21274615241137729 0 0.41052741769560203 -0.22783696307390669 0 0.39374115574330237 -0.23275594279604889 0 0.41071323046394659 -0.2405815597806012 0 0.41052741769560203 -0.22783696307390669 0 0.39374115574330237 -0.23275594279604889 0 0.37925693361890289 -0.2120285714887051 0 0.40098237452119001 -0.21274615241137729 0 0.37496953662933208 -0.22868277770556319 0 0.39374115574330237 -0.23275594279604889 0 0.37925693361890289 -0.2120285714887051 0 0.36943541324010287 -0.20186706000128449 0 0.37925693361890289 -0.2120285714887051 0 0.38044042972011022 -0.19453179374419641 0 0.37925693361890289 -0.2120285714887051 0 0.38044042972011022 -0.19453179374419641 0 0.39584695818252569 -0.1933624959239181 0 0.38044042972011022 -0.19453179374419641 0 0.39584695818252569 -0.1933624959239181 0 0.3883302688968957 -0.18261969374673129 0 0.39584695818252569 -0.1933624959239181 0 0.40098237452119001 -0.21274615241137729 0 0.4098684358706004 -0.20142281071300391 0 0.39584695818252569 -0.1933624959239181 0 0.4098684358706004 -0.20142281071300391 0 0.41232050953237392 -0.17982343258281169 0 0.37925693361890289 -0.2120285714887051 0 0.39584695818252569 -0.1933624959239181 0 0.40098237452119001 -0.21274615241137729 0 0.41622029565463942 -0.21609362125780859 0 0.4098684358706004 -0.20142281071300391 0 0.4264315356173396 -0.20432849808395781 0 0.40098237452119001 -0.21274615241137729 0 0.41622029565463942 -0.21609362125780859 0 0.4098684358706004 -0.20142281071300391 0 0.4098684358706004 -0.20142281071300391 0 0.4264315356173396 -0.20432849808395781 0 0.41232050953237392 -0.17982343258281169 0 0.4264315356173396 -0.20432849808395781 0 0.41232050953237392 -0.17982343258281169 0 0.4264315356173396 -0.20432849808395781 0 0.43189275347364769 -0.18601108132065861 0 0.4422427041991972 -0.19293897445371649 0 0.4264315356173396 -0.20432849808395781 0 0.41232050953237392 -0.17982343258281169 0 0.43189275347364769 -0.18601108132065861 0 0.4264315356173396 -0.20432849808395781 0 0.44054256170230521 -0.22883356358510401 0 0.4264315356173396 -0.20432849808395781 0 0.42740075470870198 -0.2217522577010006 0 0.44054256170230521 -0.22883356358510401 0 0.41622029565463942 -0.21609362125780859 0 0.4264315356173396 -0.20432849808395781 0 0.42740075470870198 -0.2217522577010006 0 0.41622029565463942 -0.21609362125780859 0 0.42740075470870198 -0.2217522577010006 0 0.42211125551440248 -0.22847504556360529 0 0.42740075470870198 -0.2217522577010006 0 0.42211125551440248 -0.22847504556360529 0 0.43135414754850671 -0.23039238084196881 0 0.42211125551440248 -0.22847504556360529 0 0.42953670257014748 -0.23642300718324211 0 0.42008770906388448 -0.23759219001855961 0 0.42211125551440248 -0.22847504556360529 0 0.43135414754850671 -0.23039238084196881 0 0.42953670257014748 -0.23642300718324211 0 0.43135414754850671 -0.23039238084196881 0 0.43570292594701721 -0.2354153486954452 0 0.44054256170230521 -0.22883356358510401 0 0.42740075470870198 -0.2217522577010006 0 0.43135414754850671 -0.23039238084196881 0 0.44054256170230521 -0.22883356358510401 0 0.43135414754850671 -0.23039238084196881 0 0.43570292594701721 -0.2354153486954452 0 0.42953670257014748 -0.23642300718324211 0 0.43570292594701721 -0.2354153486954452 0 0.43468079386219632 -0.24191883787933049 0 0.44107348969050558 -0.240693309601615 0 0.43468079386219632 -0.24191883787933049 0 0.4271596561998503 -0.244205651647634 0 0.42953670257014748 -0.23642300718324211 0 0.43570292594701721 -0.2354153486954452 0 0.43468079386219632 -0.24191883787933049 0 0.42953670257014748 -0.23642300718324211 0 0.43292967301130941 -0.2488540036824014 0 0.43917511256413022 -0.2466480151322302 0 0.43871762778532231 -0.25212208882244802 0 0.43468079386219632 -0.24191883787933049 0 0.43292967301130941 -0.2488540036824014 0 0.43917511256413022 -0.2466480151322302 0 0.43468079386219632 -0.24191883787933049 0 0.43292967301130941 -0.2488540036824014 0 0.4271596561998503 -0.244205651647634 0 0.4271596561998503 -0.244205651647634 0 0.4190014546393992 -0.24696823138092139 0 0.42541254610488072 -0.25270056741268049 0 0.43292967301130941 -0.2488540036824014 0 0.4271596561998503 -0.244205651647634 0 0.42541254610488072 -0.25270056741268049 0 0.4271596561998503 -0.244205651647634 0 0.42008770906388448 -0.23759219001855961 0 0.4190014546393992 -0.24696823138092139 0 0.4271596561998503 -0.244205651647634 0 0.42953670257014748 -0.23642300718324211 0 0.42008770906388448 -0.23759219001855961 0 0.42008770906388448 -0.23759219001855961 0 0.4190014546393992 -0.24696823138092139 0 0.41071323046394659 -0.2405815597806012 0 0.4190014546393992 -0.24696823138092139 0 0.41071323046394659 -0.2405815597806012 0 0.41170531542548788 -0.25126417515390992 0 0.40271577749504128 -0.24808950568319249 0 0.41071323046394659 -0.2405815597806012 0 0.41170531542548788 -0.25126417515390992 0 0.42008770906388448 -0.23759219001855961 0 0.41071323046394659 -0.2405815597806012 0 0.41052741769560203 -0.22783696307390669 0 0.40098237452119001 -0.21274615241137729 0 0.41622029565463942 -0.21609362125780859 0 0.41052741769560203 -0.22783696307390669 0 0.41622029565463942 -0.21609362125780859 0 0.42211125551440248 -0.22847504556360529 0 0.41052741769560203 -0.22783696307390669 0 0.42211125551440248 -0.22847504556360529 0 0.42008770906388448 -0.23759219001855961 0 0.41052741769560203 -0.22783696307390669 0 0.38943037724261159 -0.1347904899183642 0 0.39869330261889507 -0.14602014112377221 0 0.41208161927757919 -0.13087523561031761 0 0.40724277249555002 -0.1192463337858536 0 0.38943037724261159 -0.1347904899183642 0 0.41208161927757919 -0.13087523561031761 0 0.38943037724261159 -0.1347904899183642 0 0.41208161927757919 -0.13087523561031761 0 0.37980885755413418 -0.11928611433555709 0 0.37093785636814908 -0.13798691163813531 0 0.38943037724261159 -0.1347904899183642 0 0.37093785636814908 -0.13798691163813531 0 0.38943037724261159 -0.1347904899183642 0 0.37378191529930621 -0.14944718128022591 0 0.38943037724261159 -0.1347904899183642 0 0.38491978370229318 -0.15336819376567751 0 0.38943037724261159 -0.1347904899183642 0 0.38491978370229318 -0.15336819376567751 0 0.37378191529930621 -0.14944718128022591 0 0.37093785636814908 -0.13798691163813531 0 0.38943037724261159 -0.1347904899183642 0 0.37378191529930621 -0.14944718128022591 0 0.37308854109455708 -0.16093157526259191 0 0.38491978370229318 -0.15336819376567751 0 0.39869330261889507 -0.14602014112377221 0 0.39311220147714548 -0.16505786378224471 0 0.41392253139484558 -0.14600892254225711 0 0.38491978370229318 -0.15336819376567751 0 0.39869330261889507 -0.14602014112377221 0 0.39311220147714548 -0.16505786378224471 0 0.38943037724261159 -0.1347904899183642 0 0.38491978370229318 -0.15336819376567751 0 0.39869330261889507 -0.14602014112377221 0 0.39311220147714548 -0.16505786378224471 0 0.41392253139484558 -0.14600892254225711 0 0.39311220147714548 -0.16505786378224471 0 0.41068030945659773 -0.16570921719709561 0 0.41392253139484558 -0.14600892254225711 0 0.39311220147714548 -0.16505786378224471 0 0.39994988354525202 -0.1760395102610646 0 0.41068030945659773 -0.16570921719709561 0 0.38491978370229318 -0.15336819376567751 0 0.39311220147714548 -0.16505786378224471 0 0.38040919016197472 -0.17194589761299089 0 0.37308854109455708 -0.16093157526259191 0 0.38491978370229318 -0.15336819376567751 0 0.38040919016197472 -0.17194589761299089 0 0.38491978370229318 -0.15336819376567751 0 0.38040919016197472 -0.17194589761299089 0 0.37230187155944527 -0.18410680502223259 0 0.39311220147714548 -0.16505786378224471 0 0.3883302688968957 -0.18261969374673129 0 0.37230187155944527 -0.18410680502223259 0 0.39311220147714548 -0.16505786378224471 0 0.38040919016197472 -0.17194589761299089 0 0.37230187155944527 -0.18410680502223259 0 0.38044042972011022 -0.19453179374419641 0 0.3883302688968957 -0.18261969374673129 0 0.37230187155944527 -0.18410680502223259 0 0.39311220147714548 -0.16505786378224471 0 0.39584695818252569 -0.1933624959239181 0 0.39994988354525202 -0.1760395102610646 0 0.41232050953237392 -0.17982343258281169 0 0.39584695818252569 -0.1933624959239181 0 0.3883302688968957 -0.18261969374673129 0 0.39994988354525202 -0.1760395102610646 0 0.39311220147714548 -0.16505786378224471 0 0.3883302688968957 -0.18261969374673129 0 0.39994988354525202 -0.1760395102610646 0 0.39994988354525202 -0.1760395102610646 0 0.41232050953237392 -0.17982343258281169 0 0.41068030945659773 -0.16570921719709561 0 0.41232050953237392 -0.17982343258281169 0 0.42257653670861861 -0.1716129151356913 0 0.41068030945659773 -0.16570921719709561 0 0.43189275347364769 -0.18601108132065861 0 0.42257653670861861 -0.1716129151356913 0 0.43412364138782639 -0.16920851808495629 0 0.43189275347364769 -0.18601108132065861 0 0.43412364138782639 -0.16920851808495629 0 0.44001273516831668 -0.1783764172762527 0 0.41232050953237392 -0.17982343258281169 0 0.43189275347364769 -0.18601108132065861 0 0.42257653670861861 -0.1716129151356913 0 0.43412364138782639 -0.16920851808495629 0 0.42386546969264721 -0.157312326492934 0 0.43988674428557012 -0.15629540566381109 0 0.42257653670861861 -0.1716129151356913 0 0.43412364138782639 -0.16920851808495629 0 0.42386546969264721 -0.157312326492934 0 0.42386546969264721 -0.157312326492934 0 0.41068030945659773 -0.16570921719709561 0 0.41392253139484558 -0.14600892254225711 0 0.42257653670861861 -0.1716129151356913 0 0.42386546969264721 -0.157312326492934 0 0.41068030945659773 -0.16570921719709561 0 0.39869330261889507 -0.14602014112377221 0 0.41392253139484558 -0.14600892254225711 0 0.41208161927757919 -0.13087523561031761 0 0.42386546969264721 -0.157312326492934 0 0.41392253139484558 -0.14600892254225711 0 0.43230421280140441 -0.1433416226119455 0 0.42386546969264721 -0.157312326492934 0 0.43230421280140441 -0.1433416226119455 0 0.43988674428557012 -0.15629540566381109 0 0.42661387223904329 -0.12098454377727109 0 0.43473286131254663 -0.1269599813022704 0 0.41208161927757919 -0.13087523561031761 0 0.41392253139484558 -0.14600892254225711 0 0.43230421280140441 -0.1433416226119455 0 0.43473286131254663 -0.1269599813022704 0 0.43230421280140441 -0.1433416226119455 0 0.43473286131254663 -0.1269599813022704 0 0.43648454183824659 -0.13175811878196239 0 0.41392253139484558 -0.14600892254225711 0 0.43473286131254663 -0.1269599813022704 0 0.43473286131254663 -0.1269599813022704 0 0.41208161927757919 -0.13087523561031761 0 0.43473286131254663 -0.1269599813022704 0 0.43652399803370612 -0.1266503843383173 0 0.43473286131254663 -0.1269599813022704 0 0.43652399803370612 -0.1266503843383173 0 0.43686479974981568 -0.1288436488615915 0 0.43473286131254663 -0.1269599813022704 0 0.43686479974981568 -0.1288436488615915 0 0.43648454183824659 -0.13175811878196239 0 0.41392253139484558 -0.14600892254225711 0 0.43473286131254663 -0.1269599813022704 0 0.41208161927757919 -0.13087523561031761 0 0.46233294642030121 -0.13029577410444981 0 0.4507048422038758 -0.1254569291466279 0 0.44969735458306581 -0.1318629992909984 0 0.46233294642030121 -0.13029577410444981 0 0.44969735458306581 -0.1318629992909984 0 0.44471813751157008 -0.14226443976851619 0 0.4507048422038758 -0.1254569291466279 0 0.44969735458306581 -0.1318629992909984 0 0.44103349219651622 -0.1294348541443999 0 0.43686479974981568 -0.1288436488615915 0 0.43648454183824659 -0.13175811878196239 0 0.44103349219651622 -0.1294348541443999 0 0.43652399803370612 -0.1266503843383173 0 0.43686479974981568 -0.1288436488615915 0 0.44103349219651622 -0.1294348541443999 0 0.44969735458306581 -0.1318629992909984 0 0.44103349219651622 -0.1294348541443999 0 0.44471813751157008 -0.14226443976851619 0 0.43648454183824659 -0.13175811878196239 0 0.44103349219651622 -0.1294348541443999 0 0.44471813751157008 -0.14226443976851619 0 0.43230421280140441 -0.1433416226119455 0 0.43648454183824659 -0.13175811878196239 0 0.44471813751157008 -0.14226443976851619 0 0.44471813751157008 -0.14226443976851619 0 0.45766723532789633 -0.15879666333412101 0 0.43988674428557012 -0.15629540566381109 0 0.43230421280140441 -0.1433416226119455 0 0.44471813751157008 -0.14226443976851619 0 0.43988674428557012 -0.15629540566381109 0 0.46233294642030121 -0.13029577410444981 0 0.45766723532789633 -0.15879666333412101 0 0.46233294642030121 -0.13029577410444981 0 0.45766723532789633 -0.15879666333412101 0 0.47903454186700689 -0.14491860817462909 0 0.46233294642030121 -0.13029577410444981 0 0.44471813751157008 -0.14226443976851619 0 0.45766723532789633 -0.15879666333412101 0 0.45766723532789633 -0.15879666333412101 0 0.43988674428557012 -0.15629540566381109 0 0.4458378175146181 -0.17411517349359901 0 0.43412364138782639 -0.16920851808495629 0 0.43988674428557012 -0.15629540566381109 0 0.4458378175146181 -0.17411517349359901 0 0.45766723532789633 -0.15879666333412101 0 0.4458378175146181 -0.17411517349359901 0 0.45300152423549178 -0.1872975525637923 0 0.43412364138782639 -0.16920851808495629 0 0.4458378175146181 -0.17411517349359901 0 0.44001273516831668 -0.1783764172762527 0 0.4458378175146181 -0.17411517349359901 0 0.44001273516831668 -0.1783764172762527 0 0.44489139372352893 -0.18154716366216431 0 0.43189275347364769 -0.18601108132065861 0 0.44001273516831668 -0.1783764172762527 0 0.4419738252115778 -0.1858134044909181 0 0.44001273516831668 -0.1783764172762527 0 0.44489139372352893 -0.18154716366216431 0 0.4419738252115778 -0.1858134044909181 0 0.4458378175146181 -0.17411517349359901 0 0.45051520093052061 -0.18628588467377419 0 0.45300152423549178 -0.1872975525637923 0 0.4458378175146181 -0.17411517349359901 0 0.44489139372352893 -0.18154716366216431 0 0.45051520093052061 -0.18628588467377419 0 0.44489139372352893 -0.18154716366216431 0 0.4419738252115778 -0.1858134044909181 0 0.45051520093052061 -0.18628588467377419 0 0.45051520093052061 -0.18628588467377419 0 0.45300152423549178 -0.1872975525637923 0 0.45766723532789633 -0.15879666333412101 0 0.45300152423549178 -0.1872975525637923 0 0.47602254605796679 -0.17263393053228049 0 0.45300152423549178 -0.1872975525637923 0 0.47602254605796679 -0.17263393053228049 0 0.47650076211774711 -0.19685923119094451 0 0.45766723532789633 -0.15879666333412101 0 0.45300152423549178 -0.1872975525637923 0 0.47602254605796679 -0.17263393053228049 0 0.5 -0.18210721193063359 0 0.47650076211774711 -0.19685923119094451 0 0.47602254605796679 -0.17263393053228049 0 0.5 -0.18210721193063359 0 0.5 -0.15779351404316869 0 0.47602254605796679 -0.17263393053228049 0 0.5 -0.15779351404316869 0 0.47903454186700689 -0.14491860817462909 0 0.45766723532789633 -0.15879666333412101 0 0.47602254605796679 -0.17263393053228049 0 0.47903454186700689 -0.14491860817462909 0 0.5 -0.15779351404316869 0 0.47903454186700689 -0.14491860817462909 0 0.5 -0.13347981615570359 0 0.47818452339587708 -0.1165119508780514 0 0.47903454186700689 -0.14491860817462909 0 0.5 -0.13347981615570359 0 0.47818452339587708 -0.1165119508780514 0 0.46233294642030121 -0.13029577410444981 0 0.47903454186700689 -0.14491860817462909 0 0.46031275976808328 -0.23316788994673901 0 0.45494703228505612 -0.22365309056703511 0 0.45215825402727128 -0.23076677405108431 0 0.46031275976808328 -0.23316788994673901 0 0.45530172715096351 -0.23784707953664069 0 0.45215825402727128 -0.23076677405108431 0 0.46031275976808328 -0.23316788994673901 0 0.45494703228505612 -0.22365309056703511 0 0.46412837801973811 -0.21929252942849389 0 0.46031275976808328 -0.23316788994673901 0 0.46412837801973811 -0.21929252942849389 0 0.47030631581894022 -0.23354799250188951 0 0.46031275976808328 -0.23316788994673901 0 0.46848515047489081 -0.24338241864882551 0 0.46066141885548939 -0.24148158248895141 0 0.46031275976808328 -0.23316788994673901 0 0.46848515047489081 -0.24338241864882551 0 0.47030631581894022 -0.23354799250188951 0 0.46848515047489081 -0.24338241864882551 0 0.47379426967759908 -0.2551161382871 0 0.45921282319897938 -0.25088534477896152 0 0.46848515047489081 -0.24338241864882551 0 0.46066141885548939 -0.24148158248895141 0 0.45921282319897938 -0.25088534477896152 0 0.46066141885548939 -0.24148158248895141 0 0.45530172715096351 -0.23784707953664069 0 0.45921282319897938 -0.25088534477896152 0 0.46031275976808328 -0.23316788994673901 0 0.46066141885548939 -0.24148158248895141 0 0.45530172715096351 -0.23784707953664069 0 0.44552755473851618 -0.24512414212957201 0 0.44054256170230521 -0.22883356358510401 0 0.45465358778727077 -0.25333862908624999 0 0.44416337990499422 -0.23293380641746719 0 0.45921282319897938 -0.25088534477896152 0 0.45465358778727077 -0.25333862908624999 0 0.45530172715096351 -0.23784707953664069 0 0.44416337990499422 -0.23293380641746719 0 0.45921282319897938 -0.25088534477896152 0 0.44054256170230521 -0.22883356358510401 0 0.44416337990499422 -0.23293380641746719 0 0.45465358778727077 -0.25333862908624999 0 0.44054256170230521 -0.22883356358510401 0 0.45465358778727077 -0.25333862908624999 0 0.44416337990499422 -0.23293380641746719 0 0.45921282319897938 -0.25088534477896152 0 0.44552755473851618 -0.24512414212957201 0 0.44107348969050558 -0.240693309601615 0 0.44054256170230521 -0.22883356358510401 0 0.44552755473851618 -0.24512414212957201 0 0.44412948591815982 -0.25166394159908168 0 0.44816248816364901 -0.25238097519102243 0 0.44247641072782801 -0.24603235211562469 0 0.43917511256413022 -0.2466480151322302 0 0.44412948591815982 -0.25166394159908168 0 0.44552755473851618 -0.24512414212957201 0 0.44247641072782801 -0.24603235211562469 0 0.44412948591815982 -0.25166394159908168 0 0.44552755473851618 -0.24512414212957201 0 0.44247641072782801 -0.24603235211562469 0 0.44107348969050558 -0.240693309601615 0 0.43468079386219632 -0.24191883787933049 0 0.43917511256413022 -0.2466480151322302 0 0.44107348969050558 -0.240693309601615 0 0.44247641072782801 -0.24603235211562469 0 0.43917511256413022 -0.2466480151322302 0 0.44107348969050558 -0.240693309601615 0 0.43570292594701721 -0.2354153486954452 0 0.44107348969050558 -0.240693309601615 0 0.44054256170230521 -0.22883356358510401 0 0.4264315356173396 -0.20432849808395781 0 0.44054256170230521 -0.22883356358510401 0 0.44673315619821857 -0.2255884067429007 0 0.44054256170230521 -0.22883356358510401 0 0.44416337990499422 -0.23293380641746719 0 0.44673315619821857 -0.2255884067429007 0 0.44416337990499422 -0.23293380641746719 0 0.45215825402727128 -0.23076677405108431 0 0.44673315619821857 -0.2255884067429007 0 0.45530172715096351 -0.23784707953664069 0 0.44416337990499422 -0.23293380641746719 0 0.45215825402727128 -0.23076677405108431 0 0.45494703228505612 -0.22365309056703511 0 0.45215825402727128 -0.23076677405108431 0 0.44673315619821857 -0.2255884067429007 0 0.4264315356173396 -0.20432849808395781 0 0.44673315619821857 -0.2255884067429007 0 0.44986734021685498 -0.20644297965334649 0 0.44673315619821857 -0.2255884067429007 0 0.44986734021685498 -0.20644297965334649 0 0.45494703228505612 -0.22365309056703511 0 0.44673315619821857 -0.2255884067429007 0 0.44986734021685498 -0.20644297965334649 0 0.45300152423549178 -0.1872975525637923 0 0.44986734021685498 -0.20644297965334649 0 0.4422427041991972 -0.19293897445371649 0 0.45300152423549178 -0.1872975525637923 0 0.44986734021685498 -0.20644297965334649 0 0.4264315356173396 -0.20432849808395781 0 0.44986734021685498 -0.20644297965334649 0 0.4422427041991972 -0.19293897445371649 0 0.43189275347364769 -0.18601108132065861 0 0.4419738252115778 -0.1858134044909181 0 0.4422427041991972 -0.19293897445371649 0 0.4419738252115778 -0.1858134044909181 0 0.45051520093052061 -0.18628588467377419 0 0.4422427041991972 -0.19293897445371649 0 0.45051520093052061 -0.18628588467377419 0 0.45300152423549178 -0.1872975525637923 0 0.4422427041991972 -0.19293897445371649 0 0.45300152423549178 -0.1872975525637923 0 0.47650076211774711 -0.19685923119094451 0 0.45300152423549178 -0.1872975525637923 0 0.44986734021685498 -0.20644297965334649 0 0.46374770476768601 -0.204378797979305 0 0.45300152423549178 -0.1872975525637923 0 0.46374770476768601 -0.204378797979305 0 0.47650076211774711 -0.19685923119094451 0 0.45494703228505612 -0.22365309056703511 0 0.46412837801973811 -0.21929252942849389 0 0.44986734021685498 -0.20644297965334649 0 0.46412837801973811 -0.21929252942849389 0 0.44986734021685498 -0.20644297965334649 0 0.46374770476768601 -0.204378797979305 0 0.46412837801973811 -0.21929252942849389 0 0.46374770476768601 -0.204378797979305 0 0.47707366821483449 -0.2120031562722216 0 0.46374770476768601 -0.204378797979305 0 0.47707366821483449 -0.2120031562722216 0 0.47650076211774711 -0.19685923119094451 0 0.47650076211774711 -0.19685923119094451 0 0.50000000000000155 -0.2064209098180986 0 0.5 -0.18210721193063359 0 0.47650076211774711 -0.19685923119094451 0 0.50000000000000155 -0.2064209098180986 0 0.50000000000000155 -0.2064209098180986 0 0.48970053883092229 -0.21844058073303951 0 0.5 -0.23051517486053599 0 0.47707366821483449 -0.2120031562722216 0 0.47650076211774711 -0.19685923119094451 0 0.50000000000000155 -0.2064209098180986 0 0.47707366821483449 -0.2120031562722216 0 0.50000000000000155 -0.2064209098180986 0 0.48970053883092229 -0.21844058073303951 0 0.48970053883092229 -0.21844058073303951 0 0.5 -0.23051517486053599 0 0.47892356359843868 -0.22663529354614381 0 0.5 -0.23051517486053599 0 0.47892356359843868 -0.22663529354614381 0 0.48037632353124621 -0.24431513348718631 0 0.47707366821483449 -0.2120031562722216 0 0.48970053883092229 -0.21844058073303951 0 0.47892356359843868 -0.22663529354614381 0 0.46412837801973811 -0.21929252942849389 0 0.47707366821483449 -0.2120031562722216 0 0.47892356359843868 -0.22663529354614381 0 0.46412837801973811 -0.21929252942849389 0 0.47892356359843868 -0.22663529354614381 0 0.47030631581894022 -0.23354799250188951 0 0.47892356359843868 -0.22663529354614381 0 0.47030631581894022 -0.23354799250188951 0 0.48037632353124621 -0.24431513348718631 0 0.46848515047489081 -0.24338241864882551 0 0.48037632353124621 -0.24431513348718631 0 0.47379426967759908 -0.2551161382871 0 0.46848515047489081 -0.24338241864882551 0 0.47030631581894022 -0.23354799250188951 0 0.48037632353124621 -0.24431513348718631 0 0.5 -0.23051517486053599 0 0.48037632353124621 -0.24431513348718631 0 0.5 -0.25460943990297341 0 0.48037632353124621 -0.24431513348718631 0 0.5 -0.25460943990297341 0 0.48801367558502928 -0.26571606475136661 0 0.50000000000000022 -0.27870370494541058 0 0.48801367558502928 -0.26571606475136661 0 0.48931170978694949 -0.28678842150195 0 0.5 -0.25460943990297341 0 0.50000000000000022 -0.27870370494541058 0 0.48801367558502928 -0.26571606475136661 0 0.47426226649296438 -0.26883688314045567 0 0.47311276962135179 -0.28508457281551508 0 0.48931170978694949 -0.28678842150195 0 0.48801367558502928 -0.26571606475136661 0 0.47426226649296438 -0.26883688314045567 0 0.48931170978694949 -0.28678842150195 0 0.47426226649296438 -0.26883688314045567 0 0.48931170978694949 -0.28678842150195 0 0.47426226649296438 -0.26883688314045567 0 0.47379426967759908 -0.2551161382871 0 0.45921282319897938 -0.25088534477896152 0 0.48037632353124621 -0.24431513348718631 0 0.48801367558502928 -0.26571606475136661 0 0.47379426967759908 -0.2551161382871 0 0.48801367558502928 -0.26571606475136661 0 0.47426226649296438 -0.26883688314045567 0 0.47379426967759908 -0.2551161382871 0 0.47426226649296438 -0.26883688314045567 0 0.45921282319897938 -0.25088534477896152 0 0.45867357026917482 -0.26750260605831883 0 0.45921282319897938 -0.25088534477896152 0 0.45465358778727077 -0.25333862908624999 0 0.45867357026917482 -0.26750260605831883 0 0.47426226649296438 -0.26883688314045567 0 0.45921282319897938 -0.25088534477896152 0 0.45465358778727077 -0.25333862908624999 0 0.45867357026917482 -0.26750260605831883 0 0.44833932421064931 -0.25939718794918609 0 0.47426226649296438 -0.26883688314045567 0 0.45867357026917482 -0.26750260605831883 0 0.47311276962135179 -0.28508457281551508 0 0.45867357026917482 -0.26750260605831883 0 0.45341190072698129 -0.28456089864454431 0 0.47311276962135179 -0.28508457281551508 0 0.45867357026917482 -0.26750260605831883 0 0.44699314029513348 -0.27052543302498011 0 0.44833932421064931 -0.25939718794918609 0 0.45867357026917482 -0.26750260605831883 0 0.44699314029513348 -0.27052543302498011 0 0.45341190072698129 -0.28456089864454431 0 0.44699314029513348 -0.27052543302498011 0 0.43919222284155002 -0.27830080619971909 0 0.45341190072698129 -0.28456089864454431 0 0.44699314029513348 -0.27052543302498011 0 0.4385944452063526 -0.26988256164274432 0 0.44171549930134968 -0.26335377754900008 0 0.44699314029513348 -0.27052543302498011 0 0.43919222284155002 -0.27830080619971909 0 0.4385944452063526 -0.26988256164274432 0 0.4385944452063526 -0.26988256164274432 0 0.44171549930134968 -0.26335377754900008 0 0.43505770238402619 -0.26461992241763038 0 0.44171549930134968 -0.26335377754900008 0 0.43505770238402619 -0.26461992241763038 0 0.43648606404966428 -0.25753784968455939 0 0.44171549930134968 -0.26335377754900008 0 0.4419947323052219 -0.25760620957214742 0 0.44833932421064931 -0.25939718794918609 0 0.44171549930134968 -0.26335377754900008 0 0.4419947323052219 -0.25760620957214742 0 0.43648606404966428 -0.25753784968455939 0 0.43871762778532231 -0.25212208882244802 0 0.4419947323052219 -0.25760620957214742 0 0.43648606404966428 -0.25753784968455939 0 0.43917511256413022 -0.2466480151322302 0 0.43871762778532231 -0.25212208882244802 0 0.44412948591815982 -0.25166394159908168 0 0.43871762778532231 -0.25212208882244802 0 0.44412948591815982 -0.25166394159908168 0 0.4419947323052219 -0.25760620957214742 0 0.44412948591815982 -0.25166394159908168 0 0.4419947323052219 -0.25760620957214742 0 0.44833932421064931 -0.25939718794918609 0 0.44552755473851618 -0.24512414212957201 0 0.45465358778727077 -0.25333862908624999 0 0.44816248816364901 -0.25238097519102243 0 0.44412948591815982 -0.25166394159908168 0 0.44816248816364901 -0.25238097519102243 0 0.44833932421064931 -0.25939718794918609 0 0.45465358778727077 -0.25333862908624999 0 0.44816248816364901 -0.25238097519102243 0 0.44833932421064931 -0.25939718794918609 0 0.44699314029513348 -0.27052543302498011 0 0.44171549930134968 -0.26335377754900008 0 0.44833932421064931 -0.25939718794918609 0 0.44647667656812801 -0.29965112561783208 0 0.45137615954030103 -0.31548320476916308 0 0.43444005925229529 -0.31032905382020182 0 0.44647667656812801 -0.29965112561783208 0 0.43234265414258233 -0.29853995875229639 0 0.43444005925229529 -0.31032905382020182 0 0.44647667656812801 -0.29965112561783208 0 0.43824437449043008 -0.28966145028223478 0 0.43234265414258233 -0.29853995875229639 0 0.43919222284155002 -0.27830080619971909 0 0.43824437449043008 -0.28966145028223478 0 0.45341190072698129 -0.28456089864454431 0 0.44647667656812801 -0.29965112561783208 0 0.43824437449043008 -0.28966145028223478 0 0.45341190072698129 -0.28456089864454431 0 0.45341190072698129 -0.28456089864454431 0 0.47034393466362562 -0.30113581313555698 0 0.47311276962135179 -0.28508457281551508 0 0.44647667656812801 -0.29965112561783208 0 0.45341190072698129 -0.28456089864454431 0 0.47034393466362562 -0.30113581313555698 0 0.44647667656812801 -0.29965112561783208 0 0.47034393466362562 -0.30113581313555698 0 0.45137615954030103 -0.31548320476916308 0 0.47034393466362562 -0.30113581313555698 0 0.45137615954030103 -0.31548320476916308 0 0.47034393466362562 -0.30113581313555698 0 0.48609801829406513 -0.30033747069297151 0 0.48569838996659448 -0.31355153071673758 0 0.47034393466362562 -0.30113581313555698 0 0.48931170978694949 -0.28678842150195 0 0.47034393466362562 -0.30113581313555698 0 0.48931170978694949 -0.28678842150195 0 0.48609801829406513 -0.30033747069297151 0 0.47034393466362562 -0.30113581313555698 0 0.47311276962135179 -0.28508457281551508 0 0.48931170978694949 -0.28678842150195 0 0.50000000000000022 -0.27870370494541058 0 0.48931170978694949 -0.28678842150195 0 0.50000000000000078 -0.29953781349142472 0 0.48931170978694949 -0.28678842150195 0 0.48609801829406513 -0.30033747069297151 0 0.50000000000000078 -0.29953781349142472 0 0.48931170978694949 -0.28678842150195 0 0.50000000000000078 -0.29953781349142472 0 0.50000000000000022 -0.27870370494541058 0 0.48931170978694949 -0.28678842150195 0 0.48609801829406513 -0.30033747069297151 0 0.50000000000000078 -0.29953781349142472 0 0.48569838996659448 -0.31355153071673758 0 0.50000000000000078 -0.29953781349142472 0 0.48569838996659448 -0.31355153071673758 0 0.5 -0.32898483254094879 0 0.48569838996659448 -0.31355153071673758 0 0.5 -0.32898483254094879 0 0.4688689480981888 -0.32767699473222389 0 0.5 -0.32898483254094879 0 0.4688689480981888 -0.32767699473222389 0 0.47786930722932619 -0.34789692042963721 0 0.47034393466362562 -0.30113581313555698 0 0.48569838996659448 -0.31355153071673758 0 0.4688689480981888 -0.32767699473222389 0 0.5 -0.35843185159047292 0 0.47350757658922271 -0.36952329647287657 0 0.48620898030354948 -0.37918006028240092 0 0.5 -0.32898483254094879 0 0.5 -0.35843185159047292 0 0.47786930722932619 -0.34789692042963721 0 0.47786930722932619 -0.34789692042963721 0 0.47350757658922271 -0.36952329647287657 0 0.4655023448943818 -0.35719392053603988 0 0.5 -0.35843185159047292 0 0.47786930722932619 -0.34789692042963721 0 0.47350757658922271 -0.36952329647287657 0 0.45861777817450511 -0.36868509019449441 0 0.46271268513135372 -0.37747780338012438 0 0.45189505467726382 -0.37680202485208381 0 0.45861777817450511 -0.36868509019449441 0 0.44976491938063418 -0.36654981963533051 0 0.45189505467726382 -0.37680202485208381 0 0.47350757658922271 -0.36952329647287657 0 0.45861777817450511 -0.36868509019449441 0 0.46271268513135372 -0.37747780338012438 0 0.47350757658922271 -0.36952329647287657 0 0.45861777817450511 -0.36868509019449441 0 0.4655023448943818 -0.35719392053603988 0 0.45861777817450511 -0.36868509019449441 0 0.45601593140111862 -0.35990106862703092 0 0.44976491938063418 -0.36654981963533051 0 0.45861777817450511 -0.36868509019449441 0 0.45601593140111862 -0.35990106862703092 0 0.4655023448943818 -0.35719392053603988 0 0.47786930722932619 -0.34789692042963721 0 0.4655023448943818 -0.35719392053603988 0 0.45483150576365328 -0.34688844598146529 0 0.45601593140111862 -0.35990106862703092 0 0.4655023448943818 -0.35719392053603988 0 0.45483150576365328 -0.34688844598146529 0 0.45483150576365328 -0.34688844598146529 0 0.44020278747438729 -0.34510251360014332 0 0.44674619010751909 -0.35809924702175239 0 0.44020278747438729 -0.34510251360014332 0 0.43833245073232718 -0.35667994920926999 0 0.44674619010751909 -0.35809924702175239 0 0.45601593140111862 -0.35990106862703092 0 0.45483150576365328 -0.34688844598146529 0 0.44674619010751909 -0.35809924702175239 0 0.44674619010751909 -0.35809924702175239 0 0.44976491938063418 -0.36654981963533051 0 0.4432564460600979 -0.36443112509465042 0 0.45601593140111862 -0.35990106862703092 0 0.44674619010751909 -0.35809924702175239 0 0.44976491938063418 -0.36654981963533051 0 0.43833245073232718 -0.35667994920926999 0 0.44674619010751909 -0.35809924702175239 0 0.4432564460600979 -0.36443112509465042 0 0.43833245073232718 -0.35667994920926999 0 0.4432564460600979 -0.36443112509465042 0 0.43792231759094602 -0.36891862507496959 0 0.44976491938063418 -0.36654981963533051 0 0.4432564460600979 -0.36443112509465042 0 0.44173316381622191 -0.37123334486501253 0 0.4432564460600979 -0.36443112509465042 0 0.43792231759094602 -0.36891862507496959 0 0.44173316381622191 -0.37123334486501253 0 0.44976491938063418 -0.36654981963533051 0 0.44173316381622191 -0.37123334486501253 0 0.45189505467726382 -0.37680202485208381 0 0.4688689480981888 -0.32767699473222389 0 0.44744827938524201 -0.33285238680196422 0 0.45137615954030103 -0.31548320476916308 0 0.47034393466362562 -0.30113581313555698 0 0.4688689480981888 -0.32767699473222389 0 0.45137615954030103 -0.31548320476916308 0 0.4688689480981888 -0.32767699473222389 0 0.45483150576365328 -0.34688844598146529 0 0.44744827938524201 -0.33285238680196422 0 0.4688689480981888 -0.32767699473222389 0 0.47786930722932619 -0.34789692042963721 0 0.45483150576365328 -0.34688844598146529 0 0.45483150576365328 -0.34688844598146529 0 0.44020278747438729 -0.34510251360014332 0 0.44744827938524201 -0.33285238680196422 0 0.44020278747438729 -0.34510251360014332 0 0.44744827938524201 -0.33285238680196422 0 0.43240838441697632 -0.3298305964027694 0 0.45137615954030103 -0.31548320476916308 0 0.43240838441697632 -0.3298305964027694 0 0.43444005925229529 -0.31032905382020182 0 0.44744827938524201 -0.33285238680196422 0 0.45137615954030103 -0.31548320476916308 0 0.43240838441697632 -0.3298305964027694 0 0.45137615954030103 -0.31548320476916308 0 0.43240838441697632 -0.3298305964027694 0 0.42213808355103849 -0.31598854483820238 0 0.43240838441697632 -0.3298305964027694 0 0.43444005925229529 -0.31032905382020182 0 0.42213808355103849 -0.31598854483820238 0 0.43240838441697632 -0.3298305964027694 0 0.42063894984562838 -0.32794228428963068 0 0.43240838441697632 -0.3298305964027694 0 0.42063894984562838 -0.32794228428963068 0 0.42353451242868528 -0.3468482352548341 0 0.44020278747438729 -0.34510251360014332 0 0.43240838441697632 -0.3298305964027694 0 0.42353451242868528 -0.3468482352548341 0 0.4091467072664246 -0.32477784543469868 0 0.42353451242868528 -0.3468482352548341 0 0.4091467072664246 -0.32477784543469868 0 0.42063894984562838 -0.32794228428963068 0 0.42353451242868528 -0.3468482352548341 0 0.41089111725139721 -0.34269856142925859 0 0.4091467072664246 -0.32477784543469868 0 0.42353451242868528 -0.3468482352548341 0 0.41089111725139721 -0.34269856142925859 0 0.4091467072664246 -0.32477784543469868 0 0.40425152475925441 -0.33267251048098129 0 0.4091467072664246 -0.32477784543469868 0 0.41500843607520332 -0.31765864762852652 0 0.40782856937156858 -0.30992265774813338 0 0.42213808355103849 -0.31598854483820238 0 0.41500843607520332 -0.31765864762852652 0 0.41528987034135628 -0.30966190583196729 0 0.4091467072664246 -0.32477784543469868 0 0.41500843607520332 -0.31765864762852652 0 0.42063894984562838 -0.32794228428963068 0 0.42213808355103849 -0.31598854483820238 0 0.41500843607520332 -0.31765864762852652 0 0.42063894984562838 -0.32794228428963068 0 0.43792231759094602 -0.36891862507496959 0 0.42718561209050382 -0.36319872422350041 0 0.42353451242868528 -0.3468482352548341 0 0.43792231759094602 -0.36891862507496959 0 0.44173316381622191 -0.37123334486501253 0 0.43018656974337233 -0.3834847830435818 0 0.43792231759094602 -0.36891862507496959 0 0.42661372489006832 -0.37330916830292271 0 0.42718561209050382 -0.36319872422350041 0 0.42661372489006832 -0.37330916830292271 0 0.42718561209050382 -0.36319872422350041 0 0.42067189345231581 -0.36371886826127509 0 0.43792231759094602 -0.36891862507496959 0 0.42353451242868528 -0.3468482352548341 0 0.42718561209050382 -0.36319872422350041 0 0.42353451242868528 -0.3468482352548341 0 0.42067189345231581 -0.36371886826127509 0 0.43833245073232718 -0.35667994920926999 0 0.43792231759094602 -0.36891862507496959 0 0.42353451242868528 -0.3468482352548341 0 0.44020278747438729 -0.34510251360014332 0 0.43833245073232718 -0.35667994920926999 0 0.42353451242868528 -0.3468482352548341 0 0.42353451242868528 -0.3468482352548341 0 0.41118608239640281 -0.35773278074769221 0 0.42067189345231581 -0.36371886826127509 0 0.41089111725139721 -0.34269856142925859 0 0.42353451242868528 -0.3468482352548341 0 0.41118608239640281 -0.35773278074769221 0 0.41089111725139721 -0.34269856142925859 0 0.41118608239640281 -0.35773278074769221 0 0.40345194384414051 -0.35159281539693271 0 0.42661372489006832 -0.37330916830292271 0 0.42067189345231581 -0.36371886826127509 0 0.40978735765452701 -0.3715350174533486 0 0.41118608239640281 -0.35773278074769221 0 0.42067189345231581 -0.36371886826127509 0 0.40978735765452701 -0.3715350174533486 0 0.39634156242657448 -0.36307978873527152 0 0.40109715774397792 -0.38275058451944882 0 0.38240798480570892 -0.37852010314408679 0 0.40978735765452701 -0.3715350174533486 0 0.39634156242657448 -0.36307978873527152 0 0.40109715774397792 -0.38275058451944882 0 0.41118608239640281 -0.35773278074769221 0 0.40978735765452701 -0.3715350174533486 0 0.39634156242657448 -0.36307978873527152 0 0.39634156242657448 -0.36307978873527152 0 0.40345194384414051 -0.35159281539693271 0 0.39209624447111568 -0.34275609473116092 0 0.41118608239640281 -0.35773278074769221 0 0.39634156242657448 -0.36307978873527152 0 0.40345194384414051 -0.35159281539693271 0 0.40345194384414051 -0.35159281539693271 0 0.40267270758147689 -0.34242999550958342 0 0.39209624447111568 -0.34275609473116092 0 0.41089111725139721 -0.34269856142925859 0 0.40345194384414051 -0.35159281539693271 0 0.40267270758147689 -0.34242999550958342 0 0.39634156242657448 -0.36307978873527152 0 0.37618485313497191 -0.35303141813195599 0 0.39209624447111568 -0.34275609473116092 0 0.39634156242657448 -0.36307978873527152 0 0.37618485313497191 -0.35303141813195599 0 0.38240798480570892 -0.37852010314408679 0 0.37618485313497191 -0.35303141813195599 0 0.38240798480570892 -0.37852010314408679 0 0.40425152475925441 -0.33267251048098129 0 0.39300241843570249 -0.3110378002903586 0 0.4091467072664246 -0.32477784543469868 0 0.39300241843570249 -0.3110378002903586 0 0.39475890210416392 -0.30270745561456308 0 0.4091467072664246 -0.32477784543469868 0 0.39475890210416392 -0.30270745561456308 0 0.4091467072664246 -0.32477784543469868 0 0.40425152475925441 -0.33267251048098129 0 0.39300241843570249 -0.3110378002903586 0 0.40425152475925441 -0.33267251048098129 0 0.38822804294015112 -0.3261114208869455 0 0.39300241843570249 -0.3110378002903586 0 0.40425152475925441 -0.33267251048098129 0 0.39209624447111568 -0.34275609473116092 0 0.38822804294015112 -0.3261114208869455 0 0.40425152475925441 -0.33267251048098129 0 0.40267270758147689 -0.34242999550958342 0 0.39209624447111568 -0.34275609473116092 0 0.41089111725139721 -0.34269856142925859 0 0.40425152475925441 -0.33267251048098129 0 0.40267270758147689 -0.34242999550958342 0 0.37618485313497191 -0.35303141813195599 0 0.39209624447111568 -0.34275609473116092 0 0.36996172146423478 -0.32754273311982529 0 0.39209624447111568 -0.34275609473116092 0 0.38822804294015112 -0.3261114208869455 0 0.36996172146423478 -0.32754273311982529 0 0.38822804294015112 -0.3261114208869455 0 0.38164260336710232 -0.31615744579396521 0 0.36996172146423478 -0.32754273311982529 0 0.38822804294015112 -0.3261114208869455 0 0.38164260336710232 -0.31615744579396521 0 0.39300241843570249 -0.3110378002903586 0 0.38177106400017391 -0.30862132669022929 0 0.38029466251644028 -0.29986647237510811 0 0.37214457168145071 -0.30742358830148531 0 0.39300241843570249 -0.3110378002903586 0 0.38175331211215058 -0.28940309009973592 0 0.38164260336710232 -0.31615744579396521 0 0.38177106400017391 -0.30862132669022929 0 0.37214457168145071 -0.30742358830148531 0 0.39300241843570249 -0.3110378002903586 0 0.39475890210416392 -0.30270745561456308 0 0.38175331211215058 -0.28940309009973592 0 0.38029466251644028 -0.29986647237510811 0 0.39300241843570249 -0.3110378002903586 0 0.38175331211215058 -0.28940309009973592 0 0.38164260336710232 -0.31615744579396521 0 0.38177106400017391 -0.30862132669022929 0 0.39300241843570249 -0.3110378002903586 0 0.38177106400017391 -0.30862132669022929 0 0.38029466251644028 -0.29986647237510811 0 0.39300241843570249 -0.3110378002903586 0 0.4091467072664246 -0.32477784543469868 0 0.39475890210416392 -0.30270745561456308 0 0.40782856937156858 -0.30992265774813338 0 0.39475890210416392 -0.30270745561456308 0 0.40429755200803852 -0.3015310211561289 0 0.40149673409666831 -0.29605944040816118 0 0.40429755200803852 -0.3015310211561289 0 0.40149673409666831 -0.29605944040816118 0 0.40808526015628949 -0.29523915444325732 0 0.39475890210416392 -0.30270745561456308 0 0.40429755200803852 -0.3015310211561289 0 0.40782856937156858 -0.30992265774813338 0 0.39475890210416392 -0.30270745561456308 0 0.39730188346755718 -0.29161135963752222 0 0.39142402894447709 -0.286435042888317 0 0.40304007274729231 -0.28920821118933449 0 0.39763996789025002 -0.28367275964584732 0 0.40506285170047662 -0.28083922749534462 0 0.40304007274729231 -0.28920821118933449 0 0.39730188346755718 -0.29161135963752222 0 0.39763996789025002 -0.28367275964584732 0 0.40304007274729231 -0.28920821118933449 0 0.40149673409666831 -0.29605944040816118 0 0.40808526015628949 -0.29523915444325732 0 0.40304007274729231 -0.28920821118933449 0 0.40149673409666831 -0.29605944040816118 0 0.39730188346755718 -0.29161135963752222 0 0.39475890210416392 -0.30270745561456308 0 0.40149673409666831 -0.29605944040816118 0 0.39730188346755718 -0.29161135963752222 0 0.39763996789025002 -0.28367275964584732 0 0.39142402894447709 -0.286435042888317 0 0.39195529533629442 -0.27806131115557092 0 0.39730188346755718 -0.29161135963752222 0 0.39763996789025002 -0.28367275964584732 0 0.39142402894447709 -0.286435042888317 0 0.39475890210416392 -0.30270745561456308 0 0.38037109694190308 -0.28063706579442749 0 0.39475890210416392 -0.30270745561456308 0 0.38175331211215058 -0.28940309009973592 0 0.38037109694190308 -0.28063706579442749 0 0.39142402894447709 -0.286435042888317 0 0.38037109694190308 -0.28063706579442749 0 0.38713910380081668 -0.27916368249890622 0 0.39475890210416392 -0.30270745561456308 0 0.39142402894447709 -0.286435042888317 0 0.38037109694190308 -0.28063706579442749 0 0.38029466251644028 -0.29986647237510811 0 0.38175331211215058 -0.28940309009973592 0 0.37093408616543422 -0.29499190654120538 0 0.38175331211215058 -0.28940309009973592 0 0.37050420578859872 -0.26776837990911312 0 0.38175331211215058 -0.28940309009973592 0 0.38037109694190308 -0.28063706579442749 0 0.37050420578859872 -0.26776837990911312 0 0.38037109694190308 -0.28063706579442749 0 0.38480599398059251 -0.27152131015730951 0 0.37050420578859872 -0.26776837990911312 0 0.38480599398059251 -0.27152131015730951 0 0.39244458987216091 -0.26161417174629581 0 0.39261010037049587 -0.27136451795379868 0 0.38037109694190308 -0.28063706579442749 0 0.38480599398059251 -0.27152131015730951 0 0.38713910380081668 -0.27916368249890622 0 0.38480599398059251 -0.27152131015730951 0 0.38713910380081668 -0.27916368249890622 0 0.39195529533629442 -0.27806131115557092 0 0.39142402894447709 -0.286435042888317 0 0.38713910380081668 -0.27916368249890622 0 0.39195529533629442 -0.27806131115557092 0 0.38480599398059251 -0.27152131015730951 0 0.39195529533629442 -0.27806131115557092 0 0.39261010037049587 -0.27136451795379868 0 0.38480599398059251 -0.27152131015730951 0 0.37962897743813367 -0.25651992395937562 0 0.37050420578859872 -0.26776837990911312 0 0.38480599398059251 -0.27152131015730951 0 0.37962897743813367 -0.25651992395937562 0 0.39244458987216091 -0.26161417174629581 0 0.39078422201957003 -0.24969070593678949 0 0.37962897743813367 -0.25651992395937562 0 0.39244458987216091 -0.26161417174629581 0 0.39078422201957003 -0.24969070593678949 0 0.39244458987216091 -0.26161417174629581 0 0.40410575785193181 -0.25828851936103481 0 0.39244458987216091 -0.26161417174629581 0 0.40410575785193181 -0.25828851936103481 0 0.39822211595326279 -0.26692182407365989 0 0.40410575785193181 -0.25828851936103481 0 0.39822211595326279 -0.26692182407365989 0 0.40492140044583741 -0.26790783212078467 0 0.40410575785193181 -0.25828851936103481 0 0.40492140044583741 -0.26790783212078467 0 0.40945290732670331 -0.26396052327947239 0 0.39078422201957003 -0.24969070593678949 0 0.40271577749504128 -0.24808950568319249 0 0.40410575785193181 -0.25828851936103481 0 0.40271577749504128 -0.24808950568319249 0 0.40410575785193181 -0.25828851936103481 0 0.41170531542548788 -0.25126417515390992 0 0.39763996789025002 -0.28367275964584732 0 0.39195529533629442 -0.27806131115557092 0 0.39894115351181969 -0.27424944313259708 0 0.39195529533629442 -0.27806131115557092 0 0.39261010037049587 -0.27136451795379868 0 0.39894115351181969 -0.27424944313259708 0 0.39244458987216091 -0.26161417174629581 0 0.39261010037049587 -0.27136451795379868 0 0.39822211595326279 -0.26692182407365989 0 0.39261010037049587 -0.27136451795379868 0 0.39822211595326279 -0.26692182407365989 0 0.39894115351181969 -0.27424944313259708 0 0.39822211595326279 -0.26692182407365989 0 0.40492140044583741 -0.26790783212078467 0 0.39894115351181969 -0.27424944313259708 0 0.40492140044583741 -0.26790783212078467 0 0.39894115351181969 -0.27424944313259708 0 0.40712920685057652 -0.27420612675110112 0 0.39763996789025002 -0.28367275964584732 0 0.39894115351181969 -0.27424944313259708 0 0.40506285170047662 -0.28083922749534462 0 0.39894115351181969 -0.27424944313259708 0 0.40506285170047662 -0.28083922749534462 0 0.40712920685057652 -0.27420612675110112 0 0.40506285170047662 -0.28083922749534462 0 0.41284697370079432 -0.2782971556212297 0 0.40712920685057652 -0.27420612675110112 0 0.41284697370079432 -0.2782971556212297 0 0.40712920685057652 -0.27420612675110112 0 0.41387365489395472 -0.26973697538554919 0 0.40492140044583741 -0.26790783212078467 0 0.41387365489395472 -0.26973697538554919 0 0.40945290732670331 -0.26396052327947239 0 0.40492140044583741 -0.26790783212078467 0 0.40712920685057652 -0.27420612675110112 0 0.41387365489395472 -0.26973697538554919 0 0.41387365489395472 -0.26973697538554919 0 0.42135307316749521 -0.27487684751024949 0 0.42100146315739412 -0.26552033609670711 0 0.41284697370079432 -0.2782971556212297 0 0.41387365489395472 -0.26973697538554919 0 0.42135307316749521 -0.27487684751024949 0 0.41284697370079432 -0.2782971556212297 0 0.42135307316749521 -0.27487684751024949 0 0.41975251852593748 -0.28445801958006911 0 0.40410575785193181 -0.25828851936103481 0 0.41170531542548788 -0.25126417515390992 0 0.41491081611508918 -0.25990876625052101 0 0.40410575785193181 -0.25828851936103481 0 0.40945290732670331 -0.26396052327947239 0 0.41491081611508918 -0.25990876625052101 0 0.41387365489395472 -0.26973697538554919 0 0.40945290732670331 -0.26396052327947239 0 0.41491081611508918 -0.25990876625052101 0 0.41387365489395472 -0.26973697538554919 0 0.42100146315739412 -0.26552033609670711 0 0.41491081611508918 -0.25990876625052101 0 0.42100146315739412 -0.26552033609670711 0 0.42163465399116667 -0.25872199059074641 0 0.41491081611508918 -0.25990876625052101 0 0.41170531542548788 -0.25126417515390992 0 0.41491081611508918 -0.25990876625052101 0 0.41853295725520467 -0.25391274615775578 0 0.42163465399116667 -0.25872199059074641 0 0.41491081611508918 -0.25990876625052101 0 0.41853295725520467 -0.25391274615775578 0 0.42163465399116667 -0.25872199059074641 0 0.41853295725520467 -0.25391274615775578 0 0.42541254610488072 -0.25270056741268049 0 0.4190014546393992 -0.24696823138092139 0 0.41853295725520467 -0.25391274615775578 0 0.42541254610488072 -0.25270056741268049 0 0.4190014546393992 -0.24696823138092139 0 0.41170531542548788 -0.25126417515390992 0 0.41853295725520467 -0.25391274615775578 0 0.42163465399116667 -0.25872199059074641 0 0.42541254610488072 -0.25270056741268049 0 0.42845093672784768 -0.26136295507116752 0 0.42541254610488072 -0.25270056741268049 0 0.42845093672784768 -0.26136295507116752 0 0.43126889086453951 -0.25455984543500237 0 0.42100146315739412 -0.26552033609670711 0 0.42163465399116667 -0.25872199059074641 0 0.42845093672784768 -0.26136295507116752 0 0.42845093672784768 -0.26136295507116752 0 0.43505770238402619 -0.26461992241763038 0 0.43648606404966428 -0.25753784968455939 0 0.42845093672784768 -0.26136295507116752 0 0.43505770238402619 -0.26461992241763038 0 0.43027170394141367 -0.27054512142908671 0 0.42845093672784768 -0.26136295507116752 0 0.43126889086453951 -0.25455984543500237 0 0.43648606404966428 -0.25753784968455939 0 0.43871762778532231 -0.25212208882244802 0 0.43126889086453951 -0.25455984543500237 0 0.43648606404966428 -0.25753784968455939 0 0.43292967301130941 -0.2488540036824014 0 0.43871762778532231 -0.25212208882244802 0 0.43126889086453951 -0.25455984543500237 0 0.43292967301130941 -0.2488540036824014 0 0.42541254610488072 -0.25270056741268049 0 0.43126889086453951 -0.25455984543500237 0 0.42135307316749521 -0.27487684751024949 0 0.42956799811030638 -0.28148515248710693 0 0.41975251852593748 -0.28445801958006911 0 0.42135307316749521 -0.27487684751024949 0 0.43027170394141367 -0.27054512142908671 0 0.42956799811030638 -0.28148515248710693 0 0.42135307316749521 -0.27487684751024949 0 0.42100146315739412 -0.26552033609670711 0 0.43027170394141367 -0.27054512142908671 0 0.42100146315739412 -0.26552033609670711 0 0.42845093672784768 -0.26136295507116752 0 0.43027170394141367 -0.27054512142908671 0 0.43919222284155002 -0.27830080619971909 0 0.4385944452063526 -0.26988256164274432 0 0.43027170394141367 -0.27054512142908671 0 0.4385944452063526 -0.26988256164274432 0 0.43505770238402619 -0.26461992241763038 0 0.43027170394141367 -0.27054512142908671 0 0.43919222284155002 -0.27830080619971909 0 0.43027170394141367 -0.27054512142908671 0 0.42956799811030638 -0.28148515248710693 0 0.43824437449043008 -0.28966145028223478 0 0.42956799811030638 -0.28148515248710693 0 0.42651213435721103 -0.29151489344350012 0 0.43919222284155002 -0.27830080619971909 0 0.43824437449043008 -0.28966145028223478 0 0.42956799811030638 -0.28148515248710693 0 0.42956799811030638 -0.28148515248710693 0 0.42651213435721103 -0.29151489344350012 0 0.41975251852593748 -0.28445801958006911 0 0.42651213435721103 -0.29151489344350012 0 0.42265725367426682 -0.30260234616053761 0 0.41710028749217543 -0.29373719746223742 0 0.43824437449043008 -0.28966145028223478 0 0.42651213435721103 -0.29151489344350012 0 0.43234265414258233 -0.29853995875229639 0 0.43234265414258233 -0.29853995875229639 0 0.43444005925229529 -0.31032905382020182 0 0.42265725367426682 -0.30260234616053761 0 0.42213808355103849 -0.31598854483820238 0 0.43444005925229529 -0.31032905382020182 0 0.42265725367426682 -0.30260234616053761 0 0.42651213435721103 -0.29151489344350012 0 0.43234265414258233 -0.29853995875229639 0 0.42265725367426682 -0.30260234616053761 0 0.42265725367426682 -0.30260234616053761 0 0.41237795257390419 -0.3022181237121867 0 0.41710028749217543 -0.29373719746223742 0 0.42213808355103849 -0.31598854483820238 0 0.42265725367426682 -0.30260234616053761 0 0.41528987034135628 -0.30966190583196729 0 0.42265725367426682 -0.30260234616053761 0 0.41528987034135628 -0.30966190583196729 0 0.41237795257390419 -0.3022181237121867 0 0.41500843607520332 -0.31765864762852652 0 0.41528987034135628 -0.30966190583196729 0 0.40782856937156858 -0.30992265774813338 0 0.41528987034135628 -0.30966190583196729 0 0.40782856937156858 -0.30992265774813338 0 0.41237795257390419 -0.3022181237121867 0 0.40429755200803852 -0.3015310211561289 0 0.41237795257390419 -0.3022181237121867 0 0.40808526015628949 -0.29523915444325732 0 0.41237795257390419 -0.3022181237121867 0 0.40808526015628949 -0.29523915444325732 0 0.41710028749217543 -0.29373719746223742 0 0.40429755200803852 -0.3015310211561289 0 0.40782856937156858 -0.30992265774813338 0 0.41237795257390419 -0.3022181237121867 0 0.40808526015628949 -0.29523915444325732 0 0.41113464432764291 -0.28683687095609128 0 0.41710028749217543 -0.29373719746223742 0 0.40304007274729231 -0.28920821118933449 0 0.40808526015628949 -0.29523915444325732 0 0.41113464432764291 -0.28683687095609128 0 0.40304007274729231 -0.28920821118933449 0 0.40506285170047662 -0.28083922749534462 0 0.41113464432764291 -0.28683687095609128 0 0.40506285170047662 -0.28083922749534462 0 0.41284697370079432 -0.2782971556212297 0 0.41113464432764291 -0.28683687095609128 0 0.41284697370079432 -0.2782971556212297 0 0.41113464432764291 -0.28683687095609128 0 0.41975251852593748 -0.28445801958006911 0 0.41113464432764291 -0.28683687095609128 0 0.41975251852593748 -0.28445801958006911 0 0.41710028749217543 -0.29373719746223742 0 0.42651213435721103 -0.29151489344350012 0 0.41975251852593748 -0.28445801958006911 0 0.41710028749217543 -0.29373719746223742 0 0.44904225237101492 -0.50000000000000033 0 0.45004401508161579 -0.4787570704506926 0 0.43421240961939139 -0.49999999999999972 0 0.44904225237101492 -0.50000000000000033 0 0.45004401508161579 -0.4787570704506926 0 0.45004401508161579 -0.4787570704506926 0 0.43065669488015018 -0.48070599894378141 0 0.43421240961939139 -0.49999999999999972 0 0.45004401508161579 -0.4787570704506926 0 0.43566071353235342 -0.46355264343579089 0 0.43065669488015018 -0.48070599894378141 0 0.45004401508161579 -0.4787570704506926 0 0.47115653038696198 -0.47458122981084161 0 0.46628057992027361 -0.46016057875321997 0 0.44904225237101492 -0.50000000000000033 0 0.45004401508161579 -0.4787570704506926 0 0.47115653038696198 -0.47458122981084161 0 0.5 -0.5 0 0.47115653038696198 -0.47458122981084161 0 0.5 -0.45186915055015731 0 0.44904225237101492 -0.50000000000000033 0 0.5 -0.5 0 0.47115653038696198 -0.47458122981084161 0 0.47115653038696198 -0.47458122981084161 0 0.48077102025797452 -0.45549611643706822 0 0.46628057992027361 -0.46016057875321997 0 0.47115653038696198 -0.47458122981084161 0 0.48077102025797452 -0.45549611643706822 0 0.47115653038696198 -0.47458122981084161 0 0.48077102025797452 -0.45549611643706822 0 0.5 -0.45186915055015731 0 0.48077102025797452 -0.45549611643706822 0 0.47047881694724669 -0.44903457528364688 0 0.46628057992027361 -0.46016057875321997 0 0.48077102025797452 -0.45549611643706822 0 0.49038551012898701 -0.43641100306329461 0 0.48077102025797452 -0.45549611643706822 0 0.5 -0.45186915055015731 0 0.49038551012898701 -0.43641100306329461 0 0.48077102025797452 -0.45549611643706822 0 0.47754833864438551 -0.44218946840133899 0 0.49038551012898701 -0.43641100306329461 0 0.48077102025797452 -0.45549611643706822 0 0.47754833864438551 -0.44218946840133899 0 0.47047881694724669 -0.44903457528364688 0 0.47754833864438551 -0.44218946840133899 0 0.47047881694724669 -0.44903457528364688 0 0.46852552080992549 -0.44048839695443598 0 0.45926862510367472 -0.44683831587217138 0 0.45104577779221661 -0.45751414090138481 0 0.45204754050281742 -0.43627121135207708 0 0.46852552080992549 -0.44048839695443598 0 0.45926862510367472 -0.44683831587217138 0 0.46246741514551631 -0.43660855176593799 0 0.45926862510367472 -0.44683831587217138 0 0.45204754050281742 -0.43627121135207708 0 0.46246741514551631 -0.43660855176593799 0 0.47047881694724669 -0.44903457528364688 0 0.46852552080992549 -0.44048839695443598 0 0.45926862510367472 -0.44683831587217138 0 0.47047881694724669 -0.44903457528364688 0 0.45926862510367472 -0.44683831587217138 0 0.46628057992027361 -0.46016057875321997 0 0.45004401508161579 -0.4787570704506926 0 0.46628057992027361 -0.46016057875321997 0 0.45104577779221661 -0.45751414090138481 0 0.45926862510367472 -0.44683831587217138 0 0.46628057992027361 -0.46016057875321997 0 0.45104577779221661 -0.45751414090138481 0 0.45004401508161579 -0.4787570704506926 0 0.45104577779221661 -0.45751414090138481 0 0.43566071353235342 -0.46355264343579089 0 0.45004401508161579 -0.4787570704506926 0 0.45104577779221661 -0.45751414090138481 0 0.45104577779221661 -0.45751414090138481 0 0.43823690162582152 -0.442656551615 0 0.43566071353235342 -0.46355264343579089 0 0.45104577779221661 -0.45751414090138481 0 0.45204754050281742 -0.43627121135207708 0 0.45104577779221661 -0.45751414090138481 0 0.43823690162582152 -0.442656551615 0 0.45204754050281742 -0.43627121135207708 0 0.45430136434918972 -0.42968477721519488 0 0.43040870373640522 -0.42960949699457918 0 0.4445886017928069 -0.41946726592624312 0 0.45430136434918972 -0.42968477721519488 0 0.43040870373640522 -0.42960949699457918 0 0.43823690162582152 -0.442656551615 0 0.45204754050281742 -0.43627121135207708 0 0.43040870373640522 -0.42960949699457918 0 0.45204754050281742 -0.43627121135207708 0 0.45430136434918972 -0.42968477721519488 0 0.43040870373640522 -0.42960949699457918 0 0.4445886017928069 -0.41946726592624312 0 0.45626400488001012 -0.41852232274223139 0 0.45430136434918972 -0.42968477721519488 0 0.4445886017928069 -0.41946726592624312 0 0.45030067759957459 -0.40920304056939583 0 0.43607093377631329 -0.40042142092979582 0 0.4445886017928069 -0.41946726592624312 0 0.45030067759957459 -0.40920304056939583 0 0.45626400488001012 -0.41852232274223139 0 0.45030067759957459 -0.40920304056939583 0 0.45626400488001012 -0.41852232274223139 0 0.46461227738567717 -0.40399461877989912 0 0.45626400488001012 -0.41852232274223139 0 0.46727733630446061 -0.4192115361233813 0 0.46461227738567717 -0.40399461877989912 0 0.45430136434918972 -0.42968477721519488 0 0.47819402496197411 -0.42976005743581058 0 0.46727733630446061 -0.4192115361233813 0 0.45430136434918972 -0.42968477721519488 0 0.47819402496197411 -0.42976005743581058 0 0.45430136434918972 -0.42968477721519488 0 0.46246741514551631 -0.43660855176593799 0 0.47819402496197411 -0.42976005743581058 0 0.45626400488001012 -0.41852232274223139 0 0.46727733630446061 -0.4192115361233813 0 0.45430136434918972 -0.42968477721519488 0 0.45204754050281742 -0.43627121135207708 0 0.45430136434918972 -0.42968477721519488 0 0.46246741514551631 -0.43660855176593799 0 0.5 -0.45186915055015731 0 0.49038551012898701 -0.43641100306329461 0 0.49999999999999978 -0.41732588968952122 0 0.47754833864438551 -0.44218946840133899 0 0.46852552080992549 -0.44048839695443598 0 0.47819402496197411 -0.42976005743581058 0 0.46852552080992549 -0.44048839695443598 0 0.46246741514551631 -0.43660855176593799 0 0.47819402496197411 -0.42976005743581058 0 0.47754833864438551 -0.44218946840133899 0 0.47819402496197411 -0.42976005743581058 0 0.49038551012898701 -0.43641100306329461 0 0.47819402496197411 -0.42976005743581058 0 0.49038551012898701 -0.43641100306329461 0 0.49999999999999978 -0.41732588968952122 0 0.49038551012898701 -0.43641100306329461 0 0.49999999999999978 -0.41732588968952122 0 0.49999999999999978 -0.41732588968952122 0 0.47803026485536992 -0.41388491951904732 0 0.48349128744616809 -0.3981477611786608 0 0.47819402496197411 -0.42976005743581058 0 0.49999999999999978 -0.41732588968952122 0 0.47803026485536992 -0.41388491951904732 0 0.46727733630446061 -0.4192115361233813 0 0.47819402496197411 -0.42976005743581058 0 0.47803026485536992 -0.41388491951904732 0 0.46727733630446061 -0.4192115361233813 0 0.47803026485536992 -0.41388491951904732 0 0.46461227738567717 -0.40399461877989912 0 0.47803026485536992 -0.41388491951904732 0 0.48349128744616809 -0.3981477611786608 0 0.46461227738567717 -0.40399461877989912 0 0.48349128744616809 -0.3981477611786608 0 0.47209620213241288 -0.38662220816109938 0 0.46461227738567717 -0.40399461877989912 0 0.49999999999999978 -0.41732588968952122 0 0.48349128744616809 -0.3981477611786608 0 0.5 -0.38787887063999699 0 0.48349128744616809 -0.3981477611786608 0 0.48620898030354948 -0.37918006028240092 0 0.5 -0.38787887063999699 0 0.5 -0.35843185159047292 0 0.48620898030354948 -0.37918006028240092 0 0.5 -0.38787887063999699 0 0.47350757658922271 -0.36952329647287657 0 0.47209620213241288 -0.38662220816109938 0 0.46271268513135372 -0.37747780338012438 0 0.48349128744616809 -0.3981477611786608 0 0.48620898030354948 -0.37918006028240092 0 0.47209620213241288 -0.38662220816109938 0 0.47350757658922271 -0.36952329647287657 0 0.48620898030354948 -0.37918006028240092 0 0.47209620213241288 -0.38662220816109938 0 0.46271268513135372 -0.37747780338012438 0 0.45744681408336407 -0.38575639722006821 0 0.45189505467726382 -0.37680202485208381 0 0.47209620213241288 -0.38662220816109938 0 0.46271268513135372 -0.37747780338012438 0 0.45744681408336407 -0.38575639722006821 0 0.47209620213241288 -0.38662220816109938 0 0.45744681408336407 -0.38575639722006821 0 0.46461227738567717 -0.40399461877989912 0 0.45744681408336407 -0.38575639722006821 0 0.46461227738567717 -0.40399461877989912 0 0.45184219469928433 -0.39789486874989249 0 0.45030067759957459 -0.40920304056939583 0 0.46461227738567717 -0.40399461877989912 0 0.45184219469928433 -0.39789486874989249 0 0.45030067759957459 -0.40920304056939583 0 0.45184219469928433 -0.39789486874989249 0 0.43607093377631329 -0.40042142092979582 0 0.45184219469928433 -0.39789486874989249 0 0.44708058619903079 -0.38729405048447457 0 0.43607093377631329 -0.40042142092979582 0 0.44173316381622191 -0.37123334486501253 0 0.45189505467726382 -0.37680202485208381 0 0.44708058619903079 -0.38729405048447457 0 0.44173316381622191 -0.37123334486501253 0 0.44708058619903079 -0.38729405048447457 0 0.43607093377631329 -0.40042142092979582 0 0.44173316381622191 -0.37123334486501253 0 0.43607093377631329 -0.40042142092979582 0 0.45744681408336407 -0.38575639722006821 0 0.45189505467726382 -0.37680202485208381 0 0.44708058619903079 -0.38729405048447457 0 0.45744681408336407 -0.38575639722006821 0 0.45184219469928433 -0.39789486874989249 0 0.44708058619903079 -0.38729405048447457 0 0.44173316381622191 -0.37123334486501253 0 0.43018656974337233 -0.3834847830435818 0 0.43607093377631329 -0.40042142092979582 0 0.42661372489006832 -0.37330916830292271 0 0.43018656974337233 -0.3834847830435818 0 0.41571052833623512 -0.38186572013688852 0 0.43792231759094602 -0.36891862507496959 0 0.42661372489006832 -0.37330916830292271 0 0.43018656974337233 -0.3834847830435818 0 0.43607093377631329 -0.40042142092979582 0 0.41370439676437609 -0.3974940894908795 0 0.41981869584763148 -0.41440516100429259 0 0.43018656974337233 -0.3834847830435818 0 0.43607093377631329 -0.40042142092979582 0 0.41370439676437609 -0.3974940894908795 0 0.43018656974337233 -0.3834847830435818 0 0.41370439676437609 -0.3974940894908795 0 0.41571052833623512 -0.38186572013688852 0 0.41370439676437609 -0.3974940894908795 0 0.41571052833623512 -0.38186572013688852 0 0.40109715774397792 -0.38275058451944882 0 0.42661372489006832 -0.37330916830292271 0 0.40978735765452701 -0.3715350174533486 0 0.41571052833623512 -0.38186572013688852 0 0.40978735765452701 -0.3715350174533486 0 0.41571052833623512 -0.38186572013688852 0 0.40109715774397792 -0.38275058451944882 0 0.40109715774397792 -0.38275058451944882 0 0.38240798480570892 -0.37852010314408679 0 0.38863111647644599 -0.40400878815621749 0 0.38240798480570892 -0.37852010314408679 0 0.38863111647644599 -0.40400878815621749 0 0.38863111647644599 -0.40400878815621749 0 0.37176003243497441 -0.40998872043702711 0 0.36795612070160122 -0.3943037227883871 0 0.38240798480570892 -0.37852010314408679 0 0.38863111647644599 -0.40400878815621749 0 0.36795612070160122 -0.3943037227883871 0 0.41370439676437609 -0.3974940894908795 0 0.38863111647644599 -0.40400878815621749 0 0.4062779690192711 -0.41494731252474337 0 0.41370439676437609 -0.3974940894908795 0 0.40109715774397792 -0.38275058451944882 0 0.38863111647644599 -0.40400878815621749 0 0.38863111647644599 -0.40400878815621749 0 0.39485424814717818 -0.42949747316834941 0 0.4062779690192711 -0.41494731252474337 0 0.38863111647644599 -0.40400878815621749 0 0.39485424814717818 -0.42949747316834941 0 0.38863111647644599 -0.40400878815621749 0 0.38208767645140901 -0.41911042656524472 0 0.37176003243497441 -0.40998872043702711 0 0.38863111647644599 -0.40400878815621749 0 0.38208767645140901 -0.41911042656524472 0 0.39485424814717818 -0.42949747316834941 0 0.39485424814717818 -0.42949747316834941 0 0.36925590453949608 -0.42941681873704168 0 0.37665443888321409 -0.43729346785436302 0 0.3856757983069049 -0.43577025519560952 0 0.36925590453949608 -0.42941681873704168 0 0.3856757983069049 -0.43577025519560952 0 0.39485424814717818 -0.42949747316834941 0 0.36925590453949608 -0.42941681873704168 0 0.38208767645140901 -0.41911042656524472 0 0.39485424814717818 -0.42949747316834941 0 0.36925590453949608 -0.42941681873704168 0 0.39485424814717818 -0.42949747316834941 0 0.41263147594179173 -0.42955348508146501 0 0.3970599418841867 -0.43853154730823468 0 0.39485424814717818 -0.42949747316834941 0 0.41263147594179173 -0.42955348508146501 0 0.39485424814717818 -0.42949747316834941 0 0.3970599418841867 -0.43853154730823468 0 0.3856757983069049 -0.43577025519560952 0 0.39485424814717818 -0.42949747316834941 0 0.3970599418841867 -0.43853154730823468 0 0.39485424814717818 -0.42949747316834941 0 0.41263147594179173 -0.42955348508146501 0 0.4062779690192711 -0.41494731252474337 0 0.41263147594179173 -0.42955348508146501 0 0.43040870373640522 -0.42960949699457918 0 0.41263147594179173 -0.42955348508146501 0 0.43040870373640522 -0.42960949699457918 0 0.4105733347589578 -0.4439764995731092 0 0.41263147594179173 -0.42955348508146501 0 0.4105733347589578 -0.4439764995731092 0 0.3970599418841867 -0.43853154730823468 0 0.41263147594179173 -0.42955348508146501 0 0.41981869584763148 -0.41440516100429259 0 0.43040870373640522 -0.42960949699457918 0 0.41370439676437609 -0.3974940894908795 0 0.4062779690192711 -0.41494731252474337 0 0.41981869584763148 -0.41440516100429259 0 0.41263147594179173 -0.42955348508146501 0 0.4062779690192711 -0.41494731252474337 0 0.41981869584763148 -0.41440516100429259 0 0.43607093377631329 -0.40042142092979582 0 0.41981869584763148 -0.41440516100429259 0 0.43040870373640522 -0.42960949699457918 0 0.4445886017928069 -0.41946726592624312 0 0.43607093377631329 -0.40042142092979582 0 0.43040870373640522 -0.42960949699457918 0 0.43607093377631329 -0.40042142092979582 0 0.43040870373640522 -0.42960949699457918 0 0.43040870373640522 -0.42960949699457918 0 0.42609808641601882 -0.45183018130920338 0 0.43823690162582152 -0.442656551615 0 0.43040870373640522 -0.42960949699457918 0 0.42609808641601882 -0.45183018130920338 0 0.43040870373640522 -0.42960949699457918 0 0.42609808641601882 -0.45183018130920338 0 0.4105733347589578 -0.4439764995731092 0 0.43823690162582152 -0.442656551615 0 0.42609808641601882 -0.45183018130920338 0 0.43566071353235342 -0.46355264343579089 0 0.42609808641601882 -0.45183018130920338 0 0.43566071353235342 -0.46355264343579089 0 0.41788280539829797 -0.46985191739468413 0 0.42609808641601882 -0.45183018130920338 0 0.40695414576950523 -0.45771744581404522 0 0.41788280539829797 -0.46985191739468413 0 0.42609808641601882 -0.45183018130920338 0 0.40695414576950523 -0.45771744581404522 0 0.4105733347589578 -0.4439764995731092 0 0.4105733347589578 -0.4439764995731092 0 0.39721761528731692 -0.45119552741579683 0 0.3970599418841867 -0.43853154730823468 0 0.40695414576950523 -0.45771744581404522 0 0.4105733347589578 -0.4439764995731092 0 0.39721761528731692 -0.45119552741579683 0 0.39721761528731692 -0.45119552741579683 0 0.3970599418841867 -0.43853154730823468 0 0.3848034700195111 -0.44451211479328562 0 0.3856757983069049 -0.43577025519560952 0 0.3970599418841867 -0.43853154730823468 0 0.3848034700195111 -0.44451211479328562 0 0.37665443888321409 -0.43729346785436302 0 0.3856757983069049 -0.43577025519560952 0 0.3848034700195111 -0.44451211479328562 0 0.3848034700195111 -0.44451211479328562 0 0.39015981315766812 -0.47191920641734841 0 0.36813351492680652 -0.4578788096260229 0 0.39015981315766812 -0.47191920641734841 0 0.36813351492680652 -0.4578788096260229 0 0.39721761528731692 -0.45119552741579683 0 0.3848034700195111 -0.44451211479328562 0 0.39015981315766812 -0.47191920641734841 0 0.40695414576950523 -0.45771744581404522 0 0.39721761528731692 -0.45119552741579683 0 0.39015981315766812 -0.47191920641734841 0 0.40695414576950523 -0.45771744581404522 0 0.39015981315766812 -0.47191920641734841 0 0.41788280539829797 -0.46985191739468413 0 0.39015981315766812 -0.47191920641734841 0 0.39617150827203812 -0.48844435240108153 0 0.41218611138852979 -0.48595960320867387 0 0.39015981315766812 -0.47191920641734841 0 0.41218611138852979 -0.48595960320867387 0 0.39015981315766812 -0.47191920641734841 0 0.37999710445162738 -0.5 0 0.36111942344273912 -0.48004186837267743 0 0.39015981315766812 -0.47191920641734841 0 0.37999710445162738 -0.5 0 0.39617150827203812 -0.48844435240108153 0 0.37999710445162738 -0.5 0 0.39617150827203812 -0.48844435240108153 0 0.40710475703550941 -0.5 0 0.39617150827203812 -0.48844435240108153 0 0.40710475703550941 -0.5 0 0.41218611138852979 -0.48595960320867387 0 0.40710475703550941 -0.5 0 0.41218611138852979 -0.48595960320867387 0 0.43421240961939139 -0.49999999999999972 0 0.41218611138852979 -0.48595960320867387 0 0.41788280539829797 -0.46985191739468413 0 0.43065669488015018 -0.48070599894378141 0 0.39015981315766812 -0.47191920641734841 0 0.41218611138852979 -0.48595960320867387 0 0.41788280539829797 -0.46985191739468413 0 0.43566071353235342 -0.46355264343579089 0 0.41788280539829797 -0.46985191739468413 0 0.43065669488015018 -0.48070599894378141 0 0.41218611138852979 -0.48595960320867387 0 0.43421240961939139 -0.49999999999999972 0 0.41218611138852979 -0.48595960320867387 0 0.43065669488015018 -0.48070599894378141 0 0.43421240961939139 -0.49999999999999972 0 0.32562102085959999 -0.49962517918909338 0 0.3188650930646052 -0.49384015059516778 0 0.30906313459206908 -0.49999999999999822 0 0.3188650930646052 -0.49384015059516778 0 0.31537357137569311 -0.47573542319158041 0 0.30906313459206908 -0.49999999999999822 0 0.32562102085959999 -0.49962517918909338 0 0.3188650930646052 -0.49384015059516778 0 0.31537357137569311 -0.47573542319158041 0 0.32562102085959999 -0.49962517918909338 0 0.31537357137569311 -0.47573542319158041 0 0.32562102085959999 -0.49962517918909338 0 0.32705189356582531 -0.47758756671950892 0 0.31537357137569311 -0.47573542319158041 0 0.32705189356582531 -0.47758756671950892 0 0.31537357137569311 -0.47573542319158041 0 0.32731070687432662 -0.45987691031431599 0 0.32705189356582531 -0.47758756671950892 0 0.33990227515368221 -0.47511275418304622 0 0.32731070687432662 -0.45987691031431599 0 0.32562102085959999 -0.49962517918909338 0 0.32705189356582531 -0.47758756671950892 0 0.33990227515368221 -0.47511275418304622 0 0.32562102085959999 -0.49962517918909338 0 0.33990227515368221 -0.47511275418304622 0 0.32562102085959999 -0.49962517918909338 0 0.33990227515368221 -0.47511275418304622 0 0.33937333261091801 -0.49122101923177458 0 0.32562102085959999 -0.49962517918909338 0 0.33937333261091801 -0.49122101923177458 0 0.35288945186774517 -0.5 0 0.33937333261091801 -0.49122101923177458 0 0.35288945186774517 -0.5 0 0.36111942344273912 -0.48004186837267743 0 0.37999710445162738 -0.5 0 0.35288945186774517 -0.5 0 0.36111942344273912 -0.48004186837267743 0 0.39015981315766812 -0.47191920641734841 0 0.36111942344273912 -0.48004186837267743 0 0.36813351492680652 -0.4578788096260229 0 0.33990227515368221 -0.47511275418304622 0 0.33937333261091801 -0.49122101923177458 0 0.36111942344273912 -0.48004186837267743 0 0.33990227515368221 -0.47511275418304622 0 0.36111942344273912 -0.48004186837267743 0 0.35583468574274812 -0.46590844033968648 0 0.33990227515368221 -0.47511275418304622 0 0.35418352944776488 -0.45060032917699938 0 0.33990227515368221 -0.47511275418304622 0 0.35418352944776488 -0.45060032917699938 0 0.340093026771697 -0.45737760876331679 0 0.33990227515368221 -0.47511275418304622 0 0.35583468574274812 -0.46590844033968648 0 0.35418352944776488 -0.45060032917699938 0 0.36111942344273912 -0.48004186837267743 0 0.35583468574274812 -0.46590844033968648 0 0.36813351492680652 -0.4578788096260229 0 0.35583468574274812 -0.46590844033968648 0 0.36813351492680652 -0.4578788096260229 0 0.35418352944776488 -0.45060032917699938 0 0.3848034700195111 -0.44451211479328562 0 0.36813351492680652 -0.4578788096260229 0 0.36188953281526259 -0.44421627808609571 0 0.3848034700195111 -0.44451211479328562 0 0.36188953281526259 -0.44421627808609571 0 0.37665443888321409 -0.43729346785436302 0 0.3848034700195111 -0.44451211479328562 0 0.36188953281526259 -0.44421627808609571 0 0.36813351492680652 -0.4578788096260229 0 0.36188953281526259 -0.44421627808609571 0 0.35418352944776488 -0.45060032917699938 0 0.36188953281526259 -0.44421627808609571 0 0.33897559561101431 -0.44392044137890579 0 0.34365756093181399 -0.42933616430573279 0 0.36188953281526259 -0.44421627808609571 0 0.33897559561101431 -0.44392044137890579 0 0.36188953281526259 -0.44421627808609571 0 0.35418352944776488 -0.45060032917699938 0 0.33897559561101431 -0.44392044137890579 0 0.35418352944776488 -0.45060032917699938 0 0.33897559561101431 -0.44392044137890579 0 0.340093026771697 -0.45737760876331679 0 0.33990227515368221 -0.47511275418304622 0 0.340093026771697 -0.45737760876331679 0 0.32731070687432662 -0.45987691031431599 0 0.33897559561101431 -0.44392044137890579 0 0.340093026771697 -0.45737760876331679 0 0.32731070687432662 -0.45987691031431599 0 0.31537357137569311 -0.47573542319158041 0 0.32731070687432662 -0.45987691031431599 0 0.31637589709399738 -0.45542627657340667 0 0.33897559561101431 -0.44392044137890579 0 0.31606165840676581 -0.44362460467171588 0 0.31637589709399738 -0.45542627657340667 0 0.31606165840676581 -0.44362460467171588 0 0.30512612189178517 -0.45184566719406782 0 0.33897559561101431 -0.44392044137890579 0 0.32731070687432662 -0.45987691031431599 0 0.31606165840676581 -0.44362460467171588 0 0.33897559561101431 -0.44392044137890579 0 0.31606165840676581 -0.44362460467171588 0 0.32817533568345891 -0.437405088827024 0 0.32731070687432662 -0.45987691031431599 0 0.31637589709399738 -0.45542627657340667 0 0.31606165840676581 -0.44362460467171588 0 0.31606165840676581 -0.44362460467171588 0 0.31805921732413212 -0.42925550987442379 0 0.32817533568345891 -0.437405088827024 0 0.31606165840676581 -0.44362460467171588 0 0.31805921732413212 -0.42925550987442379 0 0.30493236766246812 -0.436345934488445 0 0.31985940292529941 -0.41295447671329732 0 0.31075796009052831 -0.39572085063997808 0 0.30888278388740348 -0.41521004381282178 0 0.31805921732413212 -0.42925550987442379 0 0.31985940292529941 -0.41295447671329732 0 0.33113555781690102 -0.41904522338276579 0 0.31805921732413212 -0.42925550987442379 0 0.31985940292529941 -0.41295447671329732 0 0.30888278388740348 -0.41521004381282178 0 0.31985940292529941 -0.41295447671329732 0 0.33113555781690102 -0.41904522338276579 0 0.33046149550753229 -0.40554075585649679 0 0.33113555781690102 -0.41904522338276579 0 0.34241547994114269 -0.41362446478144221 0 0.34365756093181399 -0.42933616430573279 0 0.33113555781690102 -0.41904522338276579 0 0.34241547994114269 -0.41362446478144221 0 0.33046149550753229 -0.40554075585649679 0 0.31805921732413212 -0.42925550987442379 0 0.34365756093181399 -0.42933616430573279 0 0.32817533568345891 -0.437405088827024 0 0.31805921732413212 -0.42925550987442379 0 0.33113555781690102 -0.41904522338276579 0 0.34365756093181399 -0.42933616430573279 0 0.31805921732413212 -0.42925550987442379 0 0.34365756093181399 -0.42933616430573279 0 0.33897559561101431 -0.44392044137890579 0 0.34365756093181399 -0.42933616430573279 0 0.32817533568345891 -0.437405088827024 0 0.34365756093181399 -0.42933616430573279 0 0.36925590453949608 -0.42941681873704168 0 0.35674230937501078 -0.41217086121041902 0 0.34365756093181399 -0.42933616430573279 0 0.36925590453949608 -0.42941681873704168 0 0.36188953281526259 -0.44421627808609571 0 0.34365756093181399 -0.42933616430573279 0 0.36925590453949608 -0.42941681873704168 0 0.37665443888321409 -0.43729346785436302 0 0.36188953281526259 -0.44421627808609571 0 0.36925590453949608 -0.42941681873704168 0 0.38208767645140901 -0.41911042656524472 0 0.36925590453949608 -0.42941681873704168 0 0.37176003243497441 -0.40998872043702711 0 0.36925590453949608 -0.42941681873704168 0 0.37176003243497441 -0.40998872043702711 0 0.35674230937501078 -0.41217086121041902 0 0.34241547994114269 -0.41362446478144221 0 0.35674230937501078 -0.41217086121041902 0 0.34647936393220441 -0.39402114553103817 0 0.34241547994114269 -0.41362446478144221 0 0.34365756093181399 -0.42933616430573279 0 0.35674230937501078 -0.41217086121041902 0 0.35674230937501078 -0.41217086121041902 0 0.34647936393220441 -0.39402114553103817 0 0.36795612070160122 -0.3943037227883871 0 0.37176003243497441 -0.40998872043702711 0 0.35674230937501078 -0.41217086121041902 0 0.36795612070160122 -0.3943037227883871 0 0.38240798480570892 -0.37852010314408679 0 0.36795612070160122 -0.3943037227883871 0 0.3567457423339877 -0.37092962175819427 0 0.34647936393220441 -0.39402114553103817 0 0.33846966771265258 -0.37695460337982112 0 0.3567457423339877 -0.37092962175819427 0 0.34647936393220441 -0.39402114553103817 0 0.36795612070160122 -0.3943037227883871 0 0.3567457423339877 -0.37092962175819427 0 0.34647936393220441 -0.39402114553103817 0 0.33846966771265258 -0.37695460337982112 0 0.3263508617172054 -0.38750488125084709 0 0.34241547994114269 -0.41362446478144221 0 0.34647936393220441 -0.39402114553103817 0 0.33046149550753229 -0.40554075585649679 0 0.34647936393220441 -0.39402114553103817 0 0.33046149550753229 -0.40554075585649679 0 0.3263508617172054 -0.38750488125084709 0 0.33046149550753229 -0.40554075585649679 0 0.3263508617172054 -0.38750488125084709 0 0.31075796009052831 -0.39572085063997808 0 0.31985940292529941 -0.41295447671329732 0 0.33046149550753229 -0.40554075585649679 0 0.31075796009052831 -0.39572085063997808 0 0.3263508617172054 -0.38750488125084709 0 0.3096773386499212 -0.3813243078888065 0 0.31075796009052831 -0.39572085063997808 0 0.33846966771265258 -0.37695460337982112 0 0.3263508617172054 -0.38750488125084709 0 0.31915821050206972 -0.37043664262910392 0 0.3263508617172054 -0.38750488125084709 0 0.3096773386499212 -0.3813243078888065 0 0.31915821050206972 -0.37043664262910392 0 0.3096773386499212 -0.3813243078888065 0 0.29526372343335222 -0.38214642848390951 0 0.29938815419514908 -0.36235191135060729 0 0.3096773386499212 -0.3813243078888065 0 0.31075796009052831 -0.39572085063997808 0 0.29526372343335222 -0.38214642848390951 0 0.31075796009052831 -0.39572085063997808 0 0.29178274806564442 -0.41520067436951369 0 0.31075796009052831 -0.39572085063997808 0 0.29113929267155558 -0.40194094561721161 0 0.29526372343335222 -0.38214642848390951 0 0.31075796009052831 -0.39572085063997808 0 0.29113929267155558 -0.40194094561721161 0 0.29178274806564442 -0.41520067436951369 0 0.29113929267155558 -0.40194094561721161 0 0.29526372343335222 -0.38214642848390951 0 0.29096903481361719 -0.39843243044280019 0 0.28318981538834798 -0.39262896962206201 0 0.29526372343335222 -0.38214642848390951 0 0.29096903481361719 -0.39843243044280019 0 0.29113929267155558 -0.40194094561721161 0 0.29526372343335222 -0.38214642848390951 0 0.29096903481361719 -0.39843243044280019 0 0.29113929267155558 -0.40194094561721161 0 0.28502919674291388 -0.40062006331372729 0 0.27798512017272892 -0.40082089003652099 0 0.28264635626051132 -0.40952105626625152 0 0.29113929267155558 -0.40194094561721161 0 0.28502919674291388 -0.40062006331372729 0 0.28264635626051132 -0.40952105626625152 0 0.29096903481361719 -0.39843243044280019 0 0.29113929267155558 -0.40194094561721161 0 0.28502919674291388 -0.40062006331372729 0 0.28502919674291388 -0.40062006331372729 0 0.28318981538834798 -0.39262896962206201 0 0.27798512017272892 -0.40082089003652099 0 0.29096903481361719 -0.39843243044280019 0 0.28502919674291388 -0.40062006331372729 0 0.28318981538834798 -0.39262896962206201 0 0.28318981538834798 -0.39262896962206201 0 0.29526372343335222 -0.38214642848390951 0 0.27569670368188232 -0.38326726020642471 0 0.29526372343335222 -0.38214642848390951 0 0.27569670368188232 -0.38326726020642471 0 0.2822483272805178 -0.36575990941074382 0 0.28318981538834798 -0.39262896962206201 0 0.27569670368188232 -0.38326726020642471 0 0.27140133813572248 -0.39438652514112071 0 0.27569670368188232 -0.38326726020642471 0 0.26161541147981399 -0.38825456187999341 0 0.27140133813572248 -0.39438652514112071 0 0.27569670368188232 -0.38326726020642471 0 0.26161541147981399 -0.38825456187999341 0 0.26273855981799532 -0.37402085189451678 0 0.26161541147981399 -0.38825456187999341 0 0.26273855981799532 -0.37402085189451678 0 0.2462658744323834 -0.38197959250061342 0 0.26161541147981399 -0.38825456187999341 0 0.25113336278303172 -0.39639034007073559 0 0.2462658744323834 -0.38197959250061342 0 0.25113336278303172 -0.39639034007073559 0 0.25834465052961392 -0.41196496969487773 0 0.2415255849161019 -0.40609463635975013 0 0.25113336278303172 -0.39639034007073559 0 0.26281084462470111 -0.3998352336856334 0 0.25834465052961392 -0.41196496969487773 0 0.26161541147981399 -0.38825456187999341 0 0.25113336278303172 -0.39639034007073559 0 0.26281084462470111 -0.3998352336856334 0 0.26161541147981399 -0.38825456187999341 0 0.26281084462470111 -0.3998352336856334 0 0.27140133813572248 -0.39438652514112071 0 0.26281084462470111 -0.3998352336856334 0 0.27081663500811198 -0.40520008615658132 0 0.25834465052961392 -0.41196496969487773 0 0.27081663500811198 -0.40520008615658132 0 0.27140133813572248 -0.39438652514112071 0 0.27798512017272892 -0.40082089003652099 0 0.26281084462470111 -0.3998352336856334 0 0.27081663500811198 -0.40520008615658132 0 0.27140133813572248 -0.39438652514112071 0 0.28318981538834798 -0.39262896962206201 0 0.27140133813572248 -0.39438652514112071 0 0.27798512017272892 -0.40082089003652099 0 0.27081663500811198 -0.40520008615658132 0 0.27798512017272892 -0.40082089003652099 0 0.28264635626051132 -0.40952105626625152 0 0.27081663500811198 -0.40520008615658132 0 0.27206571492222681 -0.41502427433416672 0 0.28264635626051132 -0.40952105626625152 0 0.27844475086434628 -0.42008249968918893 0 0.27206571492222681 -0.41502427433416672 0 0.28264635626051132 -0.40952105626625152 0 0.26660164492473198 -0.42150218520744809 0 0.27206571492222681 -0.41502427433416672 0 0.25834465052961392 -0.41196496969487773 0 0.27844475086434628 -0.42008249968918893 0 0.26660164492473198 -0.42150218520744809 0 0.27206571492222681 -0.41502427433416672 0 0.27081663500811198 -0.40520008615658132 0 0.27206571492222681 -0.41502427433416672 0 0.25834465052961392 -0.41196496969487773 0 0.25834465052961392 -0.41196496969487773 0 0.25675938249820729 -0.42906236834179229 0 0.24471655788437549 -0.41836465708289111 0 0.26660164492473198 -0.42150218520744809 0 0.25834465052961392 -0.41196496969487773 0 0.25675938249820729 -0.42906236834179229 0 0.25675938249820729 -0.42906236834179229 0 0.26225826081895931 -0.43553163761717179 0 0.24937758952868769 -0.43582476186075059 0 0.25675938249820729 -0.42906236834179229 0 0.26225826081895931 -0.43553163761717179 0 0.26930167735914629 -0.4333880303452663 0 0.25675938249820729 -0.42906236834179229 0 0.27821428364315981 -0.42912996774889278 0 0.26930167735914629 -0.4333880303452663 0 0.27111210296809168 -0.43642101817110968 0 0.27821428364315981 -0.42912996774889278 0 0.25675938249820729 -0.42906236834179229 0 0.26930167735914629 -0.4333880303452663 0 0.27821428364315981 -0.42912996774889278 0 0.26660164492473198 -0.42150218520744809 0 0.25675938249820729 -0.42906236834179229 0 0.27821428364315981 -0.42912996774889278 0 0.26225826081895931 -0.43553163761717179 0 0.26930167735914629 -0.4333880303452663 0 0.27111210296809168 -0.43642101817110968 0 0.26930167735914629 -0.4333880303452663 0 0.27111210296809168 -0.43642101817110968 0 0.27844475086434628 -0.42008249968918893 0 0.26660164492473198 -0.42150218520744809 0 0.27821428364315981 -0.42912996774889278 0 0.27111210296809168 -0.43642101817110968 0 0.27821428364315981 -0.42912996774889278 0 0.27851784514164207 -0.43605140350369348 0 0.27111210296809168 -0.43642101817110968 0 0.27821428364315981 -0.42912996774889278 0 0.27821428364315981 -0.42912996774889278 0 0.27851784514164207 -0.43605140350369348 0 0.28546936300596981 -0.42915282681778749 0 0.28546936300596981 -0.42915282681778749 0 0.28269717206150108 -0.44245749461713091 0 0.27851784514164207 -0.43605140350369348 0 0.28546936300596981 -0.42915282681778749 0 0.28269717206150108 -0.44245749461713091 0 0.28844378249660962 -0.43602848621063972 0 0.28546936300596981 -0.42915282681778749 0 0.28269717206150108 -0.44245749461713091 0 0.28844378249660962 -0.43602848621063972 0 0.29246087371645019 -0.42917485544311462 0 0.28546936300596981 -0.42915282681778749 0 0.28844378249660962 -0.43602848621063972 0 0.29246087371645019 -0.42917485544311462 0 0.29314772120251731 -0.44332876796452603 0 0.29246087371645019 -0.42917485544311462 0 0.29314772120251731 -0.44332876796452603 0 0.29246087371645019 -0.42917485544311462 0 0.30493236766246812 -0.436345934488445 0 0.29314772120251731 -0.44332876796452603 0 0.29246087371645019 -0.42917485544311462 0 0.29178274806564442 -0.41520067436951369 0 0.29246087371645019 -0.42917485544311462 0 0.29178274806564442 -0.41520067436951369 0 0.30279640574840933 -0.42221027087496837 0 0.27821428364315981 -0.42912996774889278 0 0.28546936300596981 -0.42915282681778749 0 0.28744958810085658 -0.4196490669458563 0 0.28546936300596981 -0.42915282681778749 0 0.28744958810085658 -0.4196490669458563 0 0.29246087371645019 -0.42917485544311462 0 0.28546936300596981 -0.42915282681778749 0 0.28744958810085658 -0.4196490669458563 0 0.27821428364315981 -0.42912996774889278 0 0.28744958810085658 -0.4196490669458563 0 0.27844475086434628 -0.42008249968918893 0 0.27821428364315981 -0.42912996774889278 0 0.28744958810085658 -0.4196490669458563 0 0.29246087371645019 -0.42917485544311462 0 0.28546936300596981 -0.42915282681778749 0 0.27821428364315981 -0.42912996774889278 0 0.28546936300596981 -0.42915282681778749 0 0.29113929267155558 -0.40194094561721161 0 0.28744958810085658 -0.4196490669458563 0 0.28264635626051132 -0.40952105626625152 0 0.27844475086434628 -0.42008249968918893 0 0.28744958810085658 -0.4196490669458563 0 0.28264635626051132 -0.40952105626625152 0 0.29113929267155558 -0.40194094561721161 0 0.28744958810085658 -0.4196490669458563 0 0.29113929267155558 -0.40194094561721161 0 0.28744958810085658 -0.4196490669458563 0 0.29178274806564442 -0.41520067436951369 0 0.29113929267155558 -0.40194094561721161 0 0.29178274806564442 -0.41520067436951369 0 0.29246087371645019 -0.42917485544311462 0 0.28744958810085658 -0.4196490669458563 0 0.29178274806564442 -0.41520067436951369 0 0.28744958810085658 -0.4196490669458563 0 0.29178274806564442 -0.41520067436951369 0 0.29178274806564442 -0.41520067436951369 0 0.30888278388740348 -0.41521004381282178 0 0.30279640574840933 -0.42221027087496837 0 0.31075796009052831 -0.39572085063997808 0 0.29178274806564442 -0.41520067436951369 0 0.30888278388740348 -0.41521004381282178 0 0.31805921732413212 -0.42925550987442379 0 0.29246087371645019 -0.42917485544311462 0 0.31805921732413212 -0.42925550987442379 0 0.29246087371645019 -0.42917485544311462 0 0.30279640574840933 -0.42221027087496837 0 0.31805921732413212 -0.42925550987442379 0 0.29246087371645019 -0.42917485544311462 0 0.30493236766246812 -0.436345934488445 0 0.31805921732413212 -0.42925550987442379 0 0.30888278388740348 -0.41521004381282178 0 0.30279640574840933 -0.42221027087496837 0 0.31606165840676581 -0.44362460467171588 0 0.30512612189178517 -0.45184566719406782 0 0.29314772120251731 -0.44332876796452603 0 0.31606165840676581 -0.44362460467171588 0 0.30493236766246812 -0.436345934488445 0 0.29314772120251731 -0.44332876796452603 0 0.30512612189178517 -0.45184566719406782 0 0.29394025903575932 -0.45966064860657702 0 0.29314772120251731 -0.44332876796452603 0 0.31606165840676581 -0.44362460467171588 0 0.29314772120251731 -0.44332876796452603 0 0.31537357137569311 -0.47573542319158041 0 0.31637589709399738 -0.45542627657340667 0 0.30512612189178517 -0.45184566719406782 0 0.31537357137569311 -0.47573542319158041 0 0.30512612189178517 -0.45184566719406782 0 0.31537357137569311 -0.47573542319158041 0 0.30512612189178517 -0.45184566719406782 0 0.29394025903575932 -0.45966064860657702 0 0.29394025903575932 -0.45966064860657702 0 0.28491455044924457 -0.45954411970608688 0 0.29473279686900039 -0.47599252924862812 0 0.29394025903575932 -0.45966064860657702 0 0.29473279686900039 -0.47599252924862812 0 0.28491455044924457 -0.45954411970608688 0 0.29473279686900039 -0.47599252924862812 0 0.29394025903575932 -0.45966064860657702 0 0.28491455044924457 -0.45954411970608688 0 0.29314772120251731 -0.44332876796452603 0 0.29314772120251731 -0.44332876796452603 0 0.28269717206150108 -0.44245749461713091 0 0.27509630402948781 -0.44309571016354632 0 0.29314772120251731 -0.44332876796452603 0 0.27509630402948781 -0.44309571016354632 0 0.28491455044924457 -0.45954411970608688 0 0.29314772120251731 -0.44332876796452603 0 0.27509630402948781 -0.44309571016354632 0 0.29394025903575932 -0.45966064860657702 0 0.29314772120251731 -0.44332876796452603 0 0.28844378249660962 -0.43602848621063972 0 0.29314772120251731 -0.44332876796452603 0 0.28269717206150108 -0.44245749461713091 0 0.27851784514164207 -0.43605140350369348 0 0.28269717206150108 -0.44245749461713091 0 0.27509630402948781 -0.44309571016354632 0 0.28491455044924457 -0.45954411970608688 0 0.27509630402948781 -0.44309571016354632 0 0.27111210296809168 -0.43642101817110968 0 0.27851784514164207 -0.43605140350369348 0 0.27509630402948781 -0.44309571016354632 0 0.27509630402948781 -0.44309571016354632 0 0.2647405517406643 -0.44296200936694391 0 0.26894138168338477 -0.45835658674643581 0 0.27509630402948781 -0.44309571016354632 0 0.2647405517406643 -0.44296200936694391 0 0.27111210296809168 -0.43642101817110968 0 0.27509630402948781 -0.44309571016354632 0 0.2647405517406643 -0.44296200936694391 0 0.26225826081895931 -0.43553163761717179 0 0.27111210296809168 -0.43642101817110968 0 0.2647405517406643 -0.44296200936694391 0 0.27111210296809168 -0.43642101817110968 0 0.27509630402948781 -0.44309571016354632 0 0.27111210296809168 -0.43642101817110968 0 0.2647405517406643 -0.44296200936694391 0 0.2647405517406643 -0.44296200936694391 0 0.23528251899697711 -0.44258168330907049 0 0.26225826081895931 -0.43553163761717179 0 0.2647405517406643 -0.44296200936694391 0 0.24937758952868769 -0.43582476186075059 0 0.2647405517406643 -0.44296200936694391 0 0.24642569303344669 -0.46176391886762419 0 0.2647405517406643 -0.44296200936694391 0 0.26894138168338477 -0.45835658674643581 0 0.24642569303344669 -0.46176391886762419 0 0.26894138168338477 -0.45835658674643581 0 0.25460761733926612 -0.48077428153223201 0 0.24642569303344669 -0.46176391886762419 0 0.28491455044924457 -0.45954411970608688 0 0.26894138168338477 -0.45835658674643581 0 0.27481125637505999 -0.47672941046381351 0 0.28491455044924457 -0.45954411970608688 0 0.27509630402948781 -0.44309571016354632 0 0.26894138168338477 -0.45835658674643581 0 0.26894138168338477 -0.45835658674643581 0 0.27481125637505999 -0.47672941046381351 0 0.25460761733926612 -0.48077428153223201 0 0.25460761733926612 -0.48077428153223201 0 0.26992155257213829 -0.5 0 0.24394529676999099 -0.5 0 0.27481125637505999 -0.47672941046381351 0 0.25460761733926612 -0.48077428153223201 0 0.26992155257213829 -0.5 0 0.27481125637505999 -0.47672941046381351 0 0.26992155257213829 -0.5 0 0.28423504578222791 -0.48826781330302371 0 0.2958978083742857 -0.500000000000002 0 0.29473279686900039 -0.47599252924862812 0 0.28423504578222791 -0.48826781330302371 0 0.2958978083742857 -0.500000000000002 0 0.29473279686900039 -0.47599252924862812 0 0.26992155257213829 -0.5 0 0.28423504578222791 -0.48826781330302371 0 0.2958978083742857 -0.500000000000002 0 0.27481125637505999 -0.47672941046381351 0 0.28423504578222791 -0.48826781330302371 0 0.29473279686900039 -0.47599252924862812 0 0.28491455044924457 -0.45954411970608688 0 0.27481125637505999 -0.47672941046381351 0 0.29473279686900039 -0.47599252924862812 0 0.31537357137569311 -0.47573542319158041 0 0.29473279686900039 -0.47599252924862812 0 0.30906313459206908 -0.49999999999999822 0 0.31537357137569311 -0.47573542319158041 0 0.29394025903575932 -0.45966064860657702 0 0.29473279686900039 -0.47599252924862812 0 0.2958978083742857 -0.500000000000002 0 0.29473279686900039 -0.47599252924862812 0 0.30906313459206908 -0.49999999999999822 0 0.29473279686900039 -0.47599252924862812 0 0.30906313459206908 -0.49999999999999822 0 0.32957540708980337 -0.28233484169300721 0 0.33350720058453531 -0.3067582988720306 0 0.34777854009225467 -0.29092059718385621 0 0.33350720058453531 -0.3067582988720306 0 0.31940688812320073 -0.32114172553523779 0 0.31236919290445669 -0.30090688950199113 0 0.32957540708980337 -0.28233484169300721 0 0.33350720058453531 -0.3067582988720306 0 0.31236919290445669 -0.30090688950199113 0 0.32957540708980337 -0.28233484169300721 0 0.31236919290445669 -0.30090688950199113 0 0.31219288969015102 -0.27103532748113379 0 0.32957540708980337 -0.28233484169300721 0 0.32740146312166057 -0.2615598439342075 0 0.31219288969015102 -0.27103532748113379 0 0.30987088180634448 -0.24125362874219619 0 0.32740146312166057 -0.2615598439342075 0 0.31219288969015102 -0.27103532748113379 0 0.33627474799740559 -0.24529035195854479 0 0.32740146312166057 -0.2615598439342075 0 0.34280143854843398 -0.26651154424247869 0 0.32957540708980337 -0.28233484169300721 0 0.32740146312166057 -0.2615598439342075 0 0.34280143854843398 -0.26651154424247869 0 0.32957540708980337 -0.28233484169300721 0 0.34280143854843398 -0.26651154424247869 0 0.34777854009225467 -0.29092059718385621 0 0.34280143854843398 -0.26651154424247869 0 0.35666834061529479 -0.27123260863895199 0 0.34777854009225467 -0.29092059718385621 0 0.3592550994650468 -0.24613366971849041 0 0.34280143854843398 -0.26651154424247869 0 0.35666834061529479 -0.27123260863895199 0 0.33627474799740559 -0.24529035195854479 0 0.3592550994650468 -0.24613366971849041 0 0.34280143854843398 -0.26651154424247869 0 0.3592550994650468 -0.24613366971849041 0 0.37962897743813367 -0.25651992395937562 0 0.37050420578859872 -0.26776837990911312 0 0.3592550994650468 -0.24613366971849041 0 0.35666834061529479 -0.27123260863895199 0 0.37050420578859872 -0.26776837990911312 0 0.3592550994650468 -0.24613366971849041 0 0.37050420578859872 -0.26776837990911312 0 0.35666834061529479 -0.27123260863895199 0 0.37050420578859872 -0.26776837990911312 0 0.36300241918213971 -0.28482885214082171 0 0.37050420578859872 -0.26776837990911312 0 0.37154850581208082 -0.284248057172719 0 0.36300241918213971 -0.28482885214082171 0 0.38175331211215058 -0.28940309009973592 0 0.37050420578859872 -0.26776837990911312 0 0.37154850581208082 -0.284248057172719 0 0.37154850581208082 -0.284248057172719 0 0.37093408616543422 -0.29499190654120538 0 0.36300241918213971 -0.28482885214082171 0 0.38175331211215058 -0.28940309009973592 0 0.37154850581208082 -0.284248057172719 0 0.37093408616543422 -0.29499190654120538 0 0.37093408616543422 -0.29499190654120538 0 0.36300241918213971 -0.28482885214082171 0 0.36107539554114298 -0.29693991331551067 0 0.35666834061529479 -0.27123260863895199 0 0.36300241918213971 -0.28482885214082171 0 0.34777854009225467 -0.29092059718385621 0 0.36300241918213971 -0.28482885214082171 0 0.34777854009225467 -0.29092059718385621 0 0.36107539554114298 -0.29693991331551067 0 0.33350720058453531 -0.3067582988720306 0 0.35617419542099171 -0.30797258542327188 0 0.3434221482530771 -0.31898036386437462 0 0.33350720058453531 -0.3067582988720306 0 0.34777854009225467 -0.29092059718385621 0 0.35617419542099171 -0.30797258542327188 0 0.34777854009225467 -0.29092059718385621 0 0.35617419542099171 -0.30797258542327188 0 0.36107539554114298 -0.29693991331551067 0 0.35617419542099171 -0.30797258542327188 0 0.36107539554114298 -0.29693991331551067 0 0.37214457168145071 -0.30742358830148531 0 0.38029466251644028 -0.29986647237510811 0 0.37093408616543422 -0.29499190654120538 0 0.37214457168145071 -0.30742358830148531 0 0.37093408616543422 -0.29499190654120538 0 0.36107539554114298 -0.29693991331551067 0 0.37214457168145071 -0.30742358830148531 0 0.35617419542099171 -0.30797258542327188 0 0.37214457168145071 -0.30742358830148531 0 0.36996172146423478 -0.32754273311982529 0 0.35617419542099171 -0.30797258542327188 0 0.36996172146423478 -0.32754273311982529 0 0.35306648032504262 -0.33228776260873261 0 0.38164260336710232 -0.31615744579396521 0 0.37214457168145071 -0.30742358830148531 0 0.36996172146423478 -0.32754273311982529 0 0.36996172146423478 -0.32754273311982529 0 0.35306648032504262 -0.33228776260873261 0 0.35731430246447682 -0.34983201697113597 0 0.37618485313497191 -0.35303141813195599 0 0.36996172146423478 -0.32754273311982529 0 0.35731430246447682 -0.34983201697113597 0 0.37618485313497191 -0.35303141813195599 0 0.36996172146423478 -0.32754273311982529 0 0.35306648032504262 -0.33228776260873261 0 0.35731430246447682 -0.34983201697113597 0 0.34168414680625769 -0.34452156241349458 0 0.35617419542099171 -0.30797258542327188 0 0.35306648032504262 -0.33228776260873261 0 0.3434221482530771 -0.31898036386437462 0 0.37618485313497191 -0.35303141813195599 0 0.38240798480570892 -0.37852010314408679 0 0.3567457423339877 -0.37092962175819427 0 0.37618485313497191 -0.35303141813195599 0 0.35731430246447682 -0.34983201697113597 0 0.3567457423339877 -0.37092962175819427 0 0.35731430246447682 -0.34983201697113597 0 0.33741189226114721 -0.35981876257024509 0 0.34168414680625769 -0.34452156241349458 0 0.35731430246447682 -0.34983201697113597 0 0.3567457423339877 -0.37092962175819427 0 0.33741189226114721 -0.35981876257024509 0 0.33846966771265258 -0.37695460337982112 0 0.3567457423339877 -0.37092962175819427 0 0.33741189226114721 -0.35981876257024509 0 0.33846966771265258 -0.37695460337982112 0 0.33741189226114721 -0.35981876257024509 0 0.31915821050206972 -0.37043664262910392 0 0.33741189226114721 -0.35981876257024509 0 0.34168414680625769 -0.34452156241349458 0 0.32813074893442251 -0.34418371868588848 0 0.33741189226114721 -0.35981876257024509 0 0.32813074893442251 -0.34418371868588848 0 0.32201112636252999 -0.3528096981888329 0 0.32201112636252999 -0.3528096981888329 0 0.31915821050206972 -0.37043664262910392 0 0.30987318817222509 -0.34571298684785262 0 0.32813074893442251 -0.34418371868588848 0 0.32201112636252999 -0.3528096981888329 0 0.31771908807833588 -0.34170101098267841 0 0.32201112636252999 -0.3528096981888329 0 0.31771908807833588 -0.34170101098267841 0 0.30987318817222509 -0.34571298684785262 0 0.33741189226114721 -0.35981876257024509 0 0.32201112636252999 -0.3528096981888329 0 0.31915821050206972 -0.37043664262910392 0 0.35306648032504262 -0.33228776260873261 0 0.3434221482530771 -0.31898036386437462 0 0.33232496317177118 -0.32984298873849771 0 0.33350720058453531 -0.3067582988720306 0 0.3434221482530771 -0.31898036386437462 0 0.33232496317177118 -0.32984298873849771 0 0.33350720058453531 -0.3067582988720306 0 0.33232496317177118 -0.32984298873849771 0 0.31940688812320073 -0.32114172553523779 0 0.35306648032504262 -0.33228776260873261 0 0.34168414680625769 -0.34452156241349458 0 0.33232496317177118 -0.32984298873849771 0 0.34168414680625769 -0.34452156241349458 0 0.32813074893442251 -0.34418371868588848 0 0.33232496317177118 -0.32984298873849771 0 0.32813074893442251 -0.34418371868588848 0 0.33232496317177118 -0.32984298873849771 0 0.32267668596175481 -0.33341785867055518 0 0.33232496317177118 -0.32984298873849771 0 0.32267668596175481 -0.33341785867055518 0 0.31940688812320073 -0.32114172553523779 0 0.32813074893442251 -0.34418371868588848 0 0.32267668596175481 -0.33341785867055518 0 0.31771908807833588 -0.34170101098267841 0 0.32267668596175481 -0.33341785867055518 0 0.31771908807833588 -0.34170101098267841 0 0.31294298630122958 -0.33429540854302747 0 0.31771908807833588 -0.34170101098267841 0 0.31168118685013108 -0.34100175600761939 0 0.30987318817222509 -0.34571298684785262 0 0.31771908807833588 -0.34170101098267841 0 0.31294298630122958 -0.33429540854302747 0 0.31168118685013108 -0.34100175600761939 0 0.32267668596175481 -0.33341785867055518 0 0.31294298630122958 -0.33429540854302747 0 0.31940688812320073 -0.32114172553523779 0 0.31294298630122958 -0.33429540854302747 0 0.31940688812320073 -0.32114172553523779 0 0.30601167809918312 -0.32095610648709572 0 0.31940688812320073 -0.32114172553523779 0 0.30601167809918312 -0.32095610648709572 0 0.31236919290445669 -0.30090688950199113 0 0.30601167809918312 -0.32095610648709572 0 0.29267099061500118 -0.31767693215293968 0 0.29602111265001879 -0.30165816726207401 0 0.30601167809918312 -0.32095610648709572 0 0.30423517195087751 -0.34071154513897461 0 0.29267099061500118 -0.31767693215293968 0 0.31294298630122958 -0.33429540854302747 0 0.30601167809918312 -0.32095610648709572 0 0.30570887717953288 -0.34364700841230278 0 0.30423517195087751 -0.34071154513897461 0 0.29267099061500118 -0.31767693215293968 0 0.30601167809918312 -0.32095610648709572 0 0.30570887717953288 -0.34364700841230278 0 0.30423517195087751 -0.34071154513897461 0 0.31294298630122958 -0.33429540854302747 0 0.31168118685013108 -0.34100175600761939 0 0.30570887717953288 -0.34364700841230278 0 0.31168118685013108 -0.34100175600761939 0 0.30570887717953288 -0.34364700841230278 0 0.30987318817222509 -0.34571298684785262 0 0.30570887717953288 -0.34364700841230278 0 0.30423517195087751 -0.34071154513897461 0 0.30570887717953288 -0.34364700841230278 0 0.30351258495694688 -0.34255739421730541 0 0.30423517195087751 -0.34071154513897461 0 0.30570887717953288 -0.34364700841230278 0 0.30351258495694688 -0.34255739421730541 0 0.30351258495694688 -0.34255739421730541 0 0.30423517195087751 -0.34071154513897461 0 0.30423517195087751 -0.34071154513897461 0 0.29267099061500118 -0.31767693215293968 0 0.27697346549350221 -0.32939093076003212 0 0.30351258495694688 -0.34255739421730541 0 0.27697346549350221 -0.32939093076003212 0 0.30351258495694688 -0.34255739421730541 0 0.30423517195087751 -0.34071154513897461 0 0.27697346549350221 -0.32939093076003212 0 0.30351258495694688 -0.34255739421730541 0 0.28388279232808111 -0.34879423229863538 0 0.27697346549350221 -0.32939093076003212 0 0.3096773386499212 -0.3813243078888065 0 0.31915821050206972 -0.37043664262910392 0 0.29938815419514908 -0.36235191135060729 0 0.29526372343335222 -0.38214642848390951 0 0.29938815419514908 -0.36235191135060729 0 0.30570887717953288 -0.34364700841230278 0 0.30351258495694688 -0.34255739421730541 0 0.29938815419514908 -0.36235191135060729 0 0.31915821050206972 -0.37043664262910392 0 0.30570887717953288 -0.34364700841230278 0 0.30987318817222509 -0.34571298684785262 0 0.30351258495694688 -0.34255739421730541 0 0.29938815419514908 -0.36235191135060729 0 0.29225796469017368 -0.35486586181932289 0 0.31915821050206972 -0.37043664262910392 0 0.30570887717953288 -0.34364700841230278 0 0.29938815419514908 -0.36235191135060729 0 0.31915821050206972 -0.37043664262910392 0 0.30570887717953288 -0.34364700841230278 0 0.30351258495694688 -0.34255739421730541 0 0.29938815419514908 -0.36235191135060729 0 0.30570887717953288 -0.34364700841230278 0 0.30987318817222509 -0.34571298684785262 0 0.29225796469017368 -0.35486586181932289 0 0.28388279232808111 -0.34879423229863538 0 0.2822483272805178 -0.36575990941074382 0 0.30351258495694688 -0.34255739421730541 0 0.29225796469017368 -0.35486586181932289 0 0.28388279232808111 -0.34879423229863538 0 0.29526372343335222 -0.38214642848390951 0 0.29938815419514908 -0.36235191135060729 0 0.2822483272805178 -0.36575990941074382 0 0.29938815419514908 -0.36235191135060729 0 0.29225796469017368 -0.35486586181932289 0 0.2822483272805178 -0.36575990941074382 0 0.27569670368188232 -0.38326726020642471 0 0.2822483272805178 -0.36575990941074382 0 0.26273855981799532 -0.37402085189451678 0 0.2822483272805178 -0.36575990941074382 0 0.26391134377156378 -0.35745418407105078 0 0.26273855981799532 -0.37402085189451678 0 0.28388279232808111 -0.34879423229863538 0 0.2690396956517056 -0.34420120372419399 0 0.26391134377156378 -0.35745418407105078 0 0.28388279232808111 -0.34879423229863538 0 0.2822483272805178 -0.36575990941074382 0 0.26391134377156378 -0.35745418407105078 0 0.26391134377156378 -0.35745418407105078 0 0.25139118101367519 -0.34116546776705792 0 0.24725496166677341 -0.36469484034826838 0 0.2690396956517056 -0.34420120372419399 0 0.26391134377156378 -0.35745418407105078 0 0.25139118101367519 -0.34116546776705792 0 0.26391134377156378 -0.35745418407105078 0 0.26273855981799532 -0.37402085189451678 0 0.24725496166677341 -0.36469484034826838 0 0.26273855981799532 -0.37402085189451678 0 0.24725496166677341 -0.36469484034826838 0 0.2462658744323834 -0.38197959250061342 0 0.27697346549350221 -0.32939093076003212 0 0.2504343460300561 -0.31622446730276171 0 0.27399568940133018 -0.31084845435951231 0 0.29267099061500118 -0.31767693215293968 0 0.27697346549350221 -0.32939093076003212 0 0.27399568940133018 -0.31084845435951231 0 0.2690396956517056 -0.34420120372419399 0 0.27697346549350221 -0.32939093076003212 0 0.25139118101367519 -0.34116546776705792 0 0.28388279232808111 -0.34879423229863538 0 0.2690396956517056 -0.34420120372419399 0 0.27697346549350221 -0.32939093076003212 0 0.27697346549350221 -0.32939093076003212 0 0.25139118101367519 -0.34116546776705792 0 0.2504343460300561 -0.31622446730276171 0 0.27697346549350221 -0.32939093076003212 0 0.2504343460300561 -0.31622446730276171 0 0.2504343460300561 -0.31622446730276171 0 0.25790403393649142 -0.29221016043342007 0 0.26868825863076801 -0.29933442507853231 0 0.2504343460300561 -0.31622446730276171 0 0.27399568940133018 -0.31084845435951231 0 0.26868825863076801 -0.29933442507853231 0 0.25790403393649142 -0.29221016043342007 0 0.26247779924518422 -0.27455948017448001 0 0.23862998452346509 -0.28454510211497241 0 0.25790403393649142 -0.29221016043342007 0 0.27122533838754692 -0.28910882128364879 0 0.26247779924518422 -0.27455948017448001 0 0.27122533838754692 -0.28910882128364879 0 0.28742349607482037 -0.28773318483823551 0 0.26247779924518422 -0.27455948017448001 0 0.27122533838754692 -0.28910882128364879 0 0.27963310405047059 -0.29170685589357598 0 0.28742349607482037 -0.28773318483823551 0 0.25790403393649142 -0.29221016043342007 0 0.27122533838754692 -0.28910882128364879 0 0.26868825863076801 -0.29933442507853231 0 0.27122533838754692 -0.28910882128364879 0 0.27963310405047059 -0.29170685589357598 0 0.26868825863076801 -0.29933442507853231 0 0.27963310405047059 -0.29170685589357598 0 0.27399568940133018 -0.31084845435951231 0 0.26868825863076801 -0.29933442507853231 0 0.29267099061500118 -0.31767693215293968 0 0.27963310405047059 -0.29170685589357598 0 0.29267099061500118 -0.31767693215293968 0 0.27963310405047059 -0.29170685589357598 0 0.27399568940133018 -0.31084845435951231 0 0.29267099061500118 -0.31767693215293968 0 0.27963310405047059 -0.29170685589357598 0 0.29602111265001879 -0.30165816726207401 0 0.27963310405047059 -0.29170685589357598 0 0.29602111265001879 -0.30165816726207401 0 0.28742349607482037 -0.28773318483823551 0 0.28742349607482037 -0.28773318483823551 0 0.31236919290445669 -0.30090688950199113 0 0.29602111265001879 -0.30165816726207401 0 0.28742349607482037 -0.28773318483823551 0 0.31236919290445669 -0.30090688950199113 0 0.28742349607482037 -0.28773318483823551 0 0.31236919290445669 -0.30090688950199113 0 0.2973859747586714 -0.27579116796592118 0 0.31236919290445669 -0.30090688950199113 0 0.31219288969015102 -0.27103532748113379 0 0.2973859747586714 -0.27579116796592118 0 0.30601167809918312 -0.32095610648709572 0 0.29602111265001879 -0.30165816726207401 0 0.31236919290445669 -0.30090688950199113 0 0.30987088180634448 -0.24125362874219619 0 0.29250997527574701 -0.24677647679701359 0 0.31219288969015102 -0.27103532748113379 0 0.29250997527574701 -0.24677647679701359 0 0.31219288969015102 -0.27103532748113379 0 0.2896735531526361 -0.26412531454105981 0 0.31219288969015102 -0.27103532748113379 0 0.2973859747586714 -0.27579116796592118 0 0.2896735531526361 -0.26412531454105981 0 0.2973859747586714 -0.27579116796592118 0 0.28192096152604101 -0.27231994505035018 0 0.2896735531526361 -0.26412531454105981 0 0.28742349607482037 -0.28773318483823551 0 0.2973859747586714 -0.27579116796592118 0 0.28192096152604101 -0.27231994505035018 0 0.29250997527574701 -0.24677647679701359 0 0.2896735531526361 -0.26412531454105981 0 0.27534065318434953 -0.25880162201512719 0 0.28192096152604101 -0.27231994505035018 0 0.2896735531526361 -0.26412531454105981 0 0.27534065318434953 -0.25880162201512719 0 0.27462122614518292 -0.24127539045551061 0 0.27534065318434953 -0.25880162201512719 0 0.25726365536858148 -0.25362034743760148 0 0.28742349607482037 -0.28773318483823551 0 0.26247779924518422 -0.27455948017448001 0 0.28192096152604101 -0.27231994505035018 0 0.27534065318434953 -0.25880162201512719 0 0.26247779924518422 -0.27455948017448001 0 0.28742349607482037 -0.28773318483823551 0 0.28192096152604101 -0.27231994505035018 0 0.26247779924518422 -0.27455948017448001 0 0.26247779924518422 -0.27455948017448001 0 0.23753210241554801 -0.26138577551072451 0 0.26247779924518422 -0.27455948017448001 0 0.25726365536858148 -0.25362034743760148 0 0.23753210241554801 -0.26138577551072451 0 0.27534065318434953 -0.25880162201512719 0 0.26247779924518422 -0.27455948017448001 0 0.25726365536858148 -0.25362034743760148 0 0.23753210241554801 -0.26138577551072451 0 0.24146341680214309 -0.24448521489457861 0 0.2264227451730553 -0.24971222362376699 0 0.25726365536858148 -0.25362034743760148 0 0.23753210241554801 -0.26138577551072451 0 0.24146341680214309 -0.24448521489457861 0 0.26247779924518422 -0.27455948017448001 0 0.23753210241554801 -0.26138577551072451 0 0.23862998452346509 -0.28454510211497241 0 0.23753210241554801 -0.26138577551072451 0 0.2162589501465873 -0.27468266641732147 0 0.23862998452346509 -0.28454510211497241 0 0.23753210241554801 -0.26138577551072451 0 0.2162589501465873 -0.27468266641732147 0 0.2264227451730553 -0.24971222362376699 0 0.21040399342164171 -0.25176681621351038 0 0.2162589501465873 -0.27468266641732147 0 0.2264227451730553 -0.24971222362376699 0 0.21040399342164171 -0.25176681621351038 0 0.2162589501465873 -0.27468266641732147 0 0.1934777637386868 -0.26196852324515157 0 0.2162589501465873 -0.27468266641732147 0 0.1966688692062398 -0.27921476679881868 0 0.1934777637386868 -0.26196852324515157 0 0.1966688692062398 -0.27921476679881868 0 0.1934777637386868 -0.26196852324515157 0 0.177394147168592 -0.28445233252858981 0 0.21040399342164171 -0.25176681621351038 0 0.1934777637386868 -0.26196852324515157 0 0.19936230214102421 -0.2479946931896729 0 0.1934777637386868 -0.26196852324515157 0 0.18957958600208469 -0.24548130840959781 0 0.18140855909891221 -0.24875385404173869 0 0.1934777637386868 -0.26196852324515157 0 0.18957958600208469 -0.24548130840959781 0 0.19936230214102421 -0.2479946931896729 0 0.19954461577109309 -0.29575554500421197 0 0.1961972522999722 -0.32216937387389732 0 0.17947015261898311 -0.31043279954087621 0 0.1966688692062398 -0.27921476679881868 0 0.19954461577109309 -0.29575554500421197 0 0.177394147168592 -0.28445233252858981 0 0.2162589501465873 -0.27468266641732147 0 0.19954461577109309 -0.29575554500421197 0 0.22389522656661021 -0.30305800384549131 0 0.2162589501465873 -0.27468266641732147 0 0.1966688692062398 -0.27921476679881868 0 0.19954461577109309 -0.29575554500421197 0 0.19954461577109309 -0.29575554500421197 0 0.22389522656661021 -0.30305800384549131 0 0.1961972522999722 -0.32216937387389732 0 0.2504343460300561 -0.31622446730276171 0 0.25790403393649142 -0.29221016043342007 0 0.23862998452346509 -0.28454510211497241 0 0.2504343460300561 -0.31622446730276171 0 0.22389522656661021 -0.30305800384549131 0 0.23862998452346509 -0.28454510211497241 0 0.2162589501465873 -0.27468266641732147 0 0.22389522656661021 -0.30305800384549131 0 0.23862998452346509 -0.28454510211497241 0 0.2504343460300561 -0.31622446730276171 0 0.22389522656661021 -0.30305800384549131 0 0.22389522656661021 -0.30305800384549131 0 0.23204811719291779 -0.33532479601063409 0 0.2125404456115573 -0.3333426100015644 0 0.2504343460300561 -0.31622446730276171 0 0.22389522656661021 -0.30305800384549131 0 0.23204811719291779 -0.33532479601063409 0 0.25139118101367519 -0.34116546776705792 0 0.2504343460300561 -0.31622446730276171 0 0.23204811719291779 -0.33532479601063409 0 0.25139118101367519 -0.34116546776705792 0 0.23204811719291779 -0.33532479601063409 0 0.23339586826354061 -0.3539524211851004 0 0.23204811719291779 -0.33532479601063409 0 0.2148142246021956 -0.35440494078226209 0 0.2125404456115573 -0.3333426100015644 0 0.24725496166677341 -0.36469484034826838 0 0.23339586826354061 -0.3539524211851004 0 0.22607167799098421 -0.37270743793131111 0 0.24725496166677341 -0.36469484034826838 0 0.22607167799098421 -0.37270743793131111 0 0.2462658744323834 -0.38197959250061342 0 0.25139118101367519 -0.34116546776705792 0 0.24725496166677341 -0.36469484034826838 0 0.23339586826354061 -0.3539524211851004 0 0.23204811719291779 -0.33532479601063409 0 0.23339586826354061 -0.3539524211851004 0 0.2148142246021956 -0.35440494078226209 0 0.23339586826354061 -0.3539524211851004 0 0.22607167799098421 -0.37270743793131111 0 0.2148142246021956 -0.35440494078226209 0 0.22607167799098421 -0.37270743793131111 0 0.2148142246021956 -0.35440494078226209 0 0.20089624558916569 -0.37097766955135358 0 0.2148142246021956 -0.35440494078226209 0 0.196995760569282 -0.35087166092684791 0 0.2125404456115573 -0.3333426100015644 0 0.2148142246021956 -0.35440494078226209 0 0.196995760569282 -0.35087166092684791 0 0.20089624558916569 -0.37097766955135358 0 0.196995760569282 -0.35087166092684791 0 0.20089624558916569 -0.37097766955135358 0 0.1768321188753432 -0.36690628541415632 0 0.22389522656661021 -0.30305800384549131 0 0.2125404456115573 -0.3333426100015644 0 0.1961972522999722 -0.32216937387389732 0 0.196995760569282 -0.35087166092684791 0 0.2125404456115573 -0.3333426100015644 0 0.1961972522999722 -0.32216937387389732 0 0.196995760569282 -0.35087166092684791 0 0.1961972522999722 -0.32216937387389732 0 0.1815461580693743 -0.3364132665531625 0 0.1815461580693743 -0.3364132665531625 0 0.1643579081553766 -0.3243843153562348 0 0.17947015261898311 -0.31043279954087621 0 0.1815461580693743 -0.3364132665531625 0 0.17947015261898311 -0.31043279954087621 0 0.1961972522999722 -0.32216937387389732 0 0.1815461580693743 -0.3364132665531625 0 0.17947015261898311 -0.31043279954087621 0 0.1815461580693743 -0.3364132665531625 0 0.16209568629271459 -0.34050931120228572 0 0.17381591925058279 -0.35045305017024581 0 0.16209568629271459 -0.34050931120228572 0 0.1643579081553766 -0.3243843153562348 0 0.1490492594086629 -0.33054926329457512 0 0.1815461580693743 -0.3364132665531625 0 0.16209568629271459 -0.34050931120228572 0 0.1643579081553766 -0.3243843153562348 0 0.1643579081553766 -0.3243843153562348 0 0.14785798951182749 -0.31747381703923983 0 0.15879613053988581 -0.31078255386998788 0 0.1643579081553766 -0.3243843153562348 0 0.17947015261898311 -0.31043279954087621 0 0.15879613053988581 -0.31078255386998788 0 0.196995760569282 -0.35087166092684791 0 0.1815461580693743 -0.3364132665531625 0 0.17381591925058279 -0.35045305017024581 0 0.196995760569282 -0.35087166092684791 0 0.1768321188753432 -0.36690628541415632 0 0.196995760569282 -0.35087166092684791 0 0.1768321188753432 -0.36690628541415632 0 0.17381591925058279 -0.35045305017024581 0 0.16209568629271459 -0.34050931120228572 0 0.17381591925058279 -0.35045305017024581 0 0.15160987244619981 -0.35756472675477641 0 0.1768321188753432 -0.36690628541415632 0 0.17381591925058279 -0.35045305017024581 0 0.15160987244619981 -0.35756472675477641 0 0.1768321188753432 -0.36690628541415632 0 0.15160987244619981 -0.35756472675477641 0 0.15666847718140431 -0.38294090990146468 0 0.1768321188753432 -0.36690628541415632 0 0.15666847718140431 -0.38294090990146468 0 0.15160987244619981 -0.35756472675477641 0 0.13564640110034021 -0.35912784543918008 0 0.13554014667972011 -0.37371994475541209 0 0.15160987244619981 -0.35756472675477641 0 0.13554014667972011 -0.37371994475541209 0 0.15666847718140431 -0.38294090990146468 0 0.16209568629271459 -0.34050931120228572 0 0.15160987244619981 -0.35756472675477641 0 0.1475882597035684 -0.34306743954738478 0 0.15160987244619981 -0.35756472675477641 0 0.1343114121946197 -0.3455365503022883 0 0.1475882597035684 -0.34306743954738478 0 0.15160987244619981 -0.35756472675477641 0 0.1343114121946197 -0.3455365503022883 0 0.13564640110034021 -0.35912784543918008 0 0.1343114121946197 -0.3455365503022883 0 0.1218367566819203 -0.34066885685305681 0 0.1211241730808211 -0.35969015994424403 0 0.1343114121946197 -0.3455365503022883 0 0.13564640110034021 -0.35912784543918008 0 0.1211241730808211 -0.35969015994424403 0 0.13564640110034021 -0.35912784543918008 0 0.13554014667972011 -0.37371994475541209 0 0.1211241730808211 -0.35969015994424403 0 0.1643579081553766 -0.3243843153562348 0 0.14785798951182749 -0.31747381703923983 0 0.1490492594086629 -0.33054926329457512 0 0.14785798951182749 -0.31747381703923983 0 0.1490492594086629 -0.33054926329457512 0 0.13601489266483169 -0.3229904494785929 0 0.16209568629271459 -0.34050931120228572 0 0.1490492594086629 -0.33054926329457512 0 0.1475882597035684 -0.34306743954738478 0 0.1490492594086629 -0.33054926329457512 0 0.1475882597035684 -0.34306743954738478 0 0.1353950678134421 -0.33468762657073647 0 0.1490492594086629 -0.33054926329457512 0 0.1353950678134421 -0.33468762657073647 0 0.13601489266483169 -0.3229904494785929 0 0.1343114121946197 -0.3455365503022883 0 0.1475882597035684 -0.34306743954738478 0 0.1353950678134421 -0.33468762657073647 0 0.1343114121946197 -0.3455365503022883 0 0.1353950678134421 -0.33468762657073647 0 0.1218367566819203 -0.34066885685305681 0 0.1353950678134421 -0.33468762657073647 0 0.12646864396445259 -0.32771949481933838 0 0.13601489266483169 -0.3229904494785929 0 0.1353950678134421 -0.33468762657073647 0 0.12646864396445259 -0.32771949481933838 0 0.1218367566819203 -0.34066885685305681 0 0.12646864396445259 -0.32771949481933838 0 0.13601489266483169 -0.3229904494785929 0 0.1236403595102975 -0.31726182602291142 0 0.14785798951182749 -0.31747381703923983 0 0.13601489266483169 -0.3229904494785929 0 0.13602289492267541 -0.31130305695836602 0 0.13601489266483169 -0.3229904494785929 0 0.13602289492267541 -0.31130305695836602 0 0.1236403595102975 -0.31726182602291142 0 0.127428615210958 -0.30550107704066293 0 0.13602289492267541 -0.31130305695836602 0 0.1236403595102975 -0.31726182602291142 0 0.127428615210958 -0.30550107704066293 0 0.13551093200295419 -0.30168473438614679 0 0.1256525224322369 -0.29448257816376899 0 0.127428615210958 -0.30550107704066293 0 0.13551093200295419 -0.30168473438614679 0 0.13602289492267541 -0.31130305695836602 0 0.13551093200295419 -0.30168473438614679 0 0.13602289492267541 -0.31130305695836602 0 0.14563569558381231 -0.30495269920752849 0 0.14563569558381231 -0.30495269920752849 0 0.1436119925904093 -0.29293491915627751 0 0.1604468518829657 -0.29816604611383052 0 0.14785798951182749 -0.31747381703923983 0 0.13602289492267541 -0.31130305695836602 0 0.14563569558381231 -0.30495269920752849 0 0.13551093200295419 -0.30168473438614679 0 0.14563569558381231 -0.30495269920752849 0 0.1436119925904093 -0.29293491915627751 0 0.14563569558381231 -0.30495269920752849 0 0.15879613053988581 -0.31078255386998788 0 0.1604468518829657 -0.29816604611383052 0 0.14785798951182749 -0.31747381703923983 0 0.14563569558381231 -0.30495269920752849 0 0.15879613053988581 -0.31078255386998788 0 0.1436119925904093 -0.29293491915627751 0 0.1604468518829657 -0.29816604611383052 0 0.15777299279611159 -0.28544097237972332 0 0.1436119925904093 -0.29293491915627751 0 0.15114809845108379 -0.28013278059363872 0 0.15777299279611159 -0.28544097237972332 0 0.1436119925904093 -0.29293491915627751 0 0.1436168584679525 -0.2836209543501686 0 0.1357133019824012 -0.28986653681351437 0 0.1436119925904093 -0.29293491915627751 0 0.1436168584679525 -0.2836209543501686 0 0.15114809845108379 -0.28013278059363872 0 0.1436168584679525 -0.2836209543501686 0 0.12997183443900701 -0.2884276955838429 0 0.14612074404546729 -0.27464986070998659 0 0.1436168584679525 -0.2836209543501686 0 0.1357133019824012 -0.28986653681351437 0 0.12997183443900701 -0.2884276955838429 0 0.1436119925904093 -0.29293491915627751 0 0.1256525224322369 -0.29448257816376899 0 0.12997183443900701 -0.2884276955838429 0 0.14612074404546729 -0.27464986070998659 0 0.1436119925904093 -0.29293491915627751 0 0.1357133019824012 -0.28986653681351437 0 0.1256525224322369 -0.29448257816376899 0 0.13551093200295419 -0.30168473438614679 0 0.1436119925904093 -0.29293491915627751 0 0.1256525224322369 -0.29448257816376899 0 0.1357133019824012 -0.28986653681351437 0 0.1256525224322369 -0.29448257816376899 0 0.12997183443900701 -0.2884276955838429 0 0.1256525224322369 -0.29448257816376899 0 0.12997183443900701 -0.2884276955838429 0 0.1225628758501054 -0.2947488287446996 0 0.1256525224322369 -0.29448257816376899 0 0.12997183443900701 -0.2884276955838429 0 0.12997183443900701 -0.2884276955838429 0 0.1233634239504731 -0.2874855776093414 0 0.1225628758501054 -0.2947488287446996 0 0.12997183443900701 -0.2884276955838429 0 0.1225628758501054 -0.2947488287446996 0 0.12997183443900701 -0.2884276955838429 0 0.1275993617664036 -0.28112518425861122 0 0.1233634239504731 -0.2874855776093414 0 0.12997183443900701 -0.2884276955838429 0 0.1275993617664036 -0.28112518425861122 0 0.13485463758425459 -0.27391652201106309 0 0.1275993617664036 -0.28112518425861122 0 0.1280966355330338 -0.27434446718476552 0 0.12144198577599689 -0.28043819023602667 0 0.12997183443900701 -0.2884276955838429 0 0.14612074404546729 -0.27464986070998659 0 0.1420233446603141 -0.27153369043062148 0 0.12997183443900701 -0.2884276955838429 0 0.13485463758425459 -0.27391652201106309 0 0.1420233446603141 -0.27153369043062148 0 0.12997183443900701 -0.2884276955838429 0 0.1420233446603141 -0.27153369043062148 0 0.1275993617664036 -0.28112518425861122 0 0.1280966355330338 -0.27434446718476552 0 0.13485463758425459 -0.27391652201106309 0 0.1280966355330338 -0.27434446718476552 0 0.13485463758425459 -0.27391652201106309 0 0.13350735252106491 -0.26509119559065258 0 0.1280966355330338 -0.27434446718476552 0 0.13350735252106491 -0.26509119559065258 0 0.123327112510175 -0.26381005316279871 0 0.13811143923488059 -0.26777882680588339 0 0.13485463758425459 -0.27391652201106309 0 0.13350735252106491 -0.26509119559065258 0 0.13811143923488059 -0.26777882680588339 0 0.13485463758425459 -0.27391652201106309 0 0.1420233446603141 -0.27153369043062148 0 0.13350735252106491 -0.26509119559065258 0 0.1338120645475761 -0.25178135897747889 0 0.123327112510175 -0.26381005316279871 0 0.13350735252106491 -0.26509119559065258 0 0.1338120645475761 -0.25178135897747889 0 0.1420604221738889 -0.26057389919119672 0 0.13811143923488059 -0.26777882680588339 0 0.13350735252106491 -0.26509119559065258 0 0.1420604221738889 -0.26057389919119672 0 0.15407485488162029 -0.25463968527739939 0 0.1420233446603141 -0.27153369043062148 0 0.1338120645475761 -0.25178135897747889 0 0.15081333679343489 -0.24957271686280691 0 0.1504037114514421 -0.26476637401943331 0 0.15407485488162029 -0.25463968527739939 0 0.1420233446603141 -0.27153369043062148 0 0.1420604221738889 -0.26057389919119672 0 0.15407485488162029 -0.25463968527739939 0 0.1420233446603141 -0.27153369043062148 0 0.1338120645475761 -0.25178135897747889 0 0.14898820642875321 -0.25263106074458241 0 0.15081333679343489 -0.24957271686280691 0 0.1420604221738889 -0.26057389919119672 0 0.14898820642875321 -0.25263106074458241 0 0.15407485488162029 -0.25463968527739939 0 0.1338120645475761 -0.25178135897747889 0 0.14898820642875321 -0.25263106074458241 0 0.1338120645475761 -0.25178135897747889 0 0.1420604221738889 -0.26057389919119672 0 0.14898820642875321 -0.25263106074458241 0 0.1504037114514421 -0.26476637401943331 0 0.15407485488162029 -0.25463968527739939 0 0.15854298516514259 -0.2623064548534918 0 0.1504037114514421 -0.26476637401943331 0 0.15545765769127859 -0.26765705275147811 0 0.15854298516514259 -0.2623064548534918 0 0.14898820642875321 -0.25263106074458241 0 0.15407485488162029 -0.25463968527739939 0 0.16416434830993021 -0.25348076251168611 0 0.14898820642875321 -0.25263106074458241 0 0.16416434830993021 -0.25348076251168611 0 0.15081333679343489 -0.24957271686280691 0 0.1436168584679525 -0.2836209543501686 0 0.14612074404546729 -0.27464986070998659 0 0.15114809845108379 -0.28013278059363872 0 0.13811143923488059 -0.26777882680588339 0 0.1420604221738889 -0.26057389919119672 0 0.1420233446603141 -0.27153369043062148 0 0.1504037114514421 -0.26476637401943331 0 0.1420233446603141 -0.27153369043062148 0 0.14774651714261711 -0.27061417123897102 0 0.14612074404546729 -0.27464986070998659 0 0.1420233446603141 -0.27153369043062148 0 0.14774651714261711 -0.27061417123897102 0 0.15545765769127859 -0.26765705275147811 0 0.1524382684132447 -0.27150675979584271 0 0.16044566573528521 -0.27204862233714472 0 0.14612074404546729 -0.27464986070998659 0 0.14774651714261711 -0.27061417123897102 0 0.1524382684132447 -0.27150675979584271 0 0.1504037114514421 -0.26476637401943331 0 0.14774651714261711 -0.27061417123897102 0 0.1524382684132447 -0.27150675979584271 0 0.1504037114514421 -0.26476637401943331 0 0.15545765769127859 -0.26765705275147811 0 0.1524382684132447 -0.27150675979584271 0 0.1524382684132447 -0.27150675979584271 0 0.15114809845108379 -0.28013278059363872 0 0.16044566573528521 -0.27204862233714472 0 0.14612074404546729 -0.27464986070998659 0 0.1524382684132447 -0.27150675979584271 0 0.15114809845108379 -0.28013278059363872 0 0.16044566573528521 -0.27204862233714472 0 0.16717305761943019 -0.26615200754944318 0 0.177394147168592 -0.28445233252858981 0 0.16044566573528521 -0.27204862233714472 0 0.177394147168592 -0.28445233252858981 0 0.15777299279611159 -0.28544097237972332 0 0.15114809845108379 -0.28013278059363872 0 0.16044566573528521 -0.27204862233714472 0 0.15777299279611159 -0.28544097237972332 0 0.15545765769127859 -0.26765705275147811 0 0.16044566573528521 -0.27204862233714472 0 0.15854298516514259 -0.2623064548534918 0 0.16044566573528521 -0.27204862233714472 0 0.16717305761943019 -0.26615200754944318 0 0.15854298516514259 -0.2623064548534918 0 0.15407485488162029 -0.25463968527739939 0 0.15854298516514259 -0.2623064548534918 0 0.16416434830993021 -0.25348076251168611 0 0.14898820642875321 -0.25263106074458241 0 0.16416434830993021 -0.25348076251168611 0 0.16416434830993021 -0.25348076251168611 0 0.15746623258843939 -0.24717962177743169 0 0.15081333679343489 -0.24957271686280691 0 0.16717305761943019 -0.26615200754944318 0 0.15854298516514259 -0.2623064548534918 0 0.16416434830993021 -0.25348076251168611 0 0.16717305761943019 -0.26615200754944318 0 0.16416434830993021 -0.25348076251168611 0 0.17531814171820079 -0.25847186551630352 0 0.1934777637386868 -0.26196852324515157 0 0.17531814171820079 -0.25847186551630352 0 0.18140855909891221 -0.24875385404173869 0 0.16717305761943019 -0.26615200754944318 0 0.17531814171820079 -0.25847186551630352 0 0.177394147168592 -0.28445233252858981 0 0.1934777637386868 -0.26196852324515157 0 0.17531814171820079 -0.25847186551630352 0 0.177394147168592 -0.28445233252858981 0 0.17531814171820079 -0.25847186551630352 0 0.177394147168592 -0.28445233252858981 0 0.177394147168592 -0.28445233252858981 0 0.17947015261898311 -0.31043279954087621 0 0.1604468518829657 -0.29816604611383052 0 0.19954461577109309 -0.29575554500421197 0 0.177394147168592 -0.28445233252858981 0 0.17947015261898311 -0.31043279954087621 0 0.177394147168592 -0.28445233252858981 0 0.17947015261898311 -0.31043279954087621 0 0.17947015261898311 -0.31043279954087621 0 0.15879613053988581 -0.31078255386998788 0 0.1604468518829657 -0.29816604611383052 0 0.177394147168592 -0.28445233252858981 0 0.1604468518829657 -0.29816604611383052 0 0.15777299279611159 -0.28544097237972332 0 0.19199278516569629 -0.5 0 0.1900164382224285 -0.48271496941050879 0 0.20545646434069309 -0.4787017342280358 0 0.1900164382224285 -0.48271496941050879 0 0.20545646434069309 -0.4787017342280358 0 0.18613842771148381 -0.46787851807202258 0 0.20545646434069309 -0.4787017342280358 0 0.2281108343262262 -0.48056582836830158 0 0.21973600360042431 -0.45949417383294189 0 0.20545646434069309 -0.4787017342280358 0 0.21796904096784361 -0.5 0 0.2281108343262262 -0.48056582836830158 0 0.19199278516569629 -0.5 0 0.20545646434069309 -0.4787017342280358 0 0.21796904096784361 -0.5 0 0.21796904096784361 -0.5 0 0.24394529676999099 -0.5 0 0.2281108343262262 -0.48056582836830158 0 0.25460761733926612 -0.48077428153223201 0 0.24394529676999099 -0.5 0 0.2281108343262262 -0.48056582836830158 0 0.2281108343262262 -0.48056582836830158 0 0.24642569303344669 -0.46176391886762419 0 0.25460761733926612 -0.48077428153223201 0 0.2281108343262262 -0.48056582836830158 0 0.24642569303344669 -0.46176391886762419 0 0.2281108343262262 -0.48056582836830158 0 0.21973600360042431 -0.45949417383294189 0 0.2323887624892686 -0.4611014010944845 0 0.21973600360042431 -0.45949417383294189 0 0.2323887624892686 -0.4611014010944845 0 0.23528251899697711 -0.44258168330907049 0 0.2281108343262262 -0.48056582836830158 0 0.2323887624892686 -0.4611014010944845 0 0.24642569303344669 -0.46176391886762419 0 0.2323887624892686 -0.4611014010944845 0 0.24642569303344669 -0.46176391886762419 0 0.23528251899697711 -0.44258168330907049 0 0.2647405517406643 -0.44296200936694391 0 0.23528251899697711 -0.44258168330907049 0 0.24937758952868769 -0.43582476186075059 0 0.2647405517406643 -0.44296200936694391 0 0.24642569303344669 -0.46176391886762419 0 0.23528251899697711 -0.44258168330907049 0 0.21973600360042431 -0.45949417383294189 0 0.23528251899697711 -0.44258168330907049 0 0.20582448625328989 -0.44220135725120002 0 0.23528251899697711 -0.44258168330907049 0 0.20582448625328989 -0.44220135725120002 0 0.23528251899697711 -0.44258168330907049 0 0.20582448625328989 -0.44220135725120002 0 0.22256526670295609 -0.43567624475563838 0 0.20545646434069309 -0.4787017342280358 0 0.21973600360042431 -0.45949417383294189 0 0.202602484605724 -0.45942999972385479 0 0.21973600360042431 -0.45949417383294189 0 0.20582448625328989 -0.44220135725120002 0 0.202602484605724 -0.45942999972385479 0 0.202602484605724 -0.45942999972385479 0 0.19228485390892139 -0.44832807257495588 0 0.18613842771148381 -0.46787851807202258 0 0.20545646434069309 -0.4787017342280358 0 0.202602484605724 -0.45942999972385479 0 0.18613842771148381 -0.46787851807202258 0 0.20582448625328989 -0.44220135725120002 0 0.202602484605724 -0.45942999972385479 0 0.19228485390892139 -0.44832807257495588 0 0.20582448625328989 -0.44220135725120002 0 0.19228485390892139 -0.44832807257495588 0 0.1986877949313606 -0.42882383702638299 0 0.19228485390892139 -0.44832807257495588 0 0.1986877949313606 -0.42882383702638299 0 0.183200271073473 -0.43641073338783498 0 0.1986877949313606 -0.42882383702638299 0 0.1816281482625339 -0.41415137017959991 0 0.183200271073473 -0.43641073338783498 0 0.20582455939560251 -0.41258395769508027 0 0.1950935246886642 -0.40110820421824778 0 0.1816281482625339 -0.41415137017959991 0 0.1986877949313606 -0.42882383702638299 0 0.20582455939560251 -0.41258395769508027 0 0.1816281482625339 -0.41415137017959991 0 0.20582455939560251 -0.41258395769508027 0 0.21384958020830239 -0.42892716952759119 0 0.2218345854540221 -0.41854111548045619 0 0.20582455939560251 -0.41258395769508027 0 0.2218345854540221 -0.41854111548045619 0 0.2220903860499629 -0.40641314768071007 0 0.1986877949313606 -0.42882383702638299 0 0.20582455939560251 -0.41258395769508027 0 0.21384958020830239 -0.42892716952759119 0 0.20582448625328989 -0.44220135725120002 0 0.21384958020830239 -0.42892716952759119 0 0.22256526670295609 -0.43567624475563838 0 0.20582448625328989 -0.44220135725120002 0 0.1986877949313606 -0.42882383702638299 0 0.21384958020830239 -0.42892716952759119 0 0.21384958020830239 -0.42892716952759119 0 0.22256526670295609 -0.43567624475563838 0 0.23530448135325491 -0.42899476893469179 0 0.21384958020830239 -0.42892716952759119 0 0.23530448135325491 -0.42899476893469179 0 0.21384958020830239 -0.42892716952759119 0 0.23530448135325491 -0.42899476893469179 0 0.2218345854540221 -0.41854111548045619 0 0.23528251899697711 -0.44258168330907049 0 0.22256526670295609 -0.43567624475563838 0 0.23530448135325491 -0.42899476893469179 0 0.25675938249820729 -0.42906236834179229 0 0.23530448135325491 -0.42899476893469179 0 0.23528251899697711 -0.44258168330907049 0 0.23530448135325491 -0.42899476893469179 0 0.24937758952868769 -0.43582476186075059 0 0.25675938249820729 -0.42906236834179229 0 0.23530448135325491 -0.42899476893469179 0 0.24471655788437549 -0.41836465708289111 0 0.25675938249820729 -0.42906236834179229 0 0.23530448135325491 -0.42899476893469179 0 0.24937758952868769 -0.43582476186075059 0 0.25834465052961392 -0.41196496969487773 0 0.24471655788437549 -0.41836465708289111 0 0.2415255849161019 -0.40609463635975013 0 0.23530448135325491 -0.42899476893469179 0 0.24471655788437549 -0.41836465708289111 0 0.23210392026298771 -0.41578653356420769 0 0.24471655788437549 -0.41836465708289111 0 0.23210392026298771 -0.41578653356420769 0 0.2415255849161019 -0.40609463635975013 0 0.23210392026298771 -0.41578653356420769 0 0.2220903860499629 -0.40641314768071007 0 0.2415255849161019 -0.40609463635975013 0 0.23530448135325491 -0.42899476893469179 0 0.23210392026298771 -0.41578653356420769 0 0.2218345854540221 -0.41854111548045619 0 0.23210392026298771 -0.41578653356420769 0 0.2218345854540221 -0.41854111548045619 0 0.2220903860499629 -0.40641314768071007 0 0.2220903860499629 -0.40641314768071007 0 0.2325848323457651 -0.39226733923237422 0 0.2415255849161019 -0.40609463635975013 0 0.2220903860499629 -0.40641314768071007 0 0.2325848323457651 -0.39226733923237422 0 0.20793944219493879 -0.39039719718598698 0 0.25113336278303172 -0.39639034007073559 0 0.2325848323457651 -0.39226733923237422 0 0.2415255849161019 -0.40609463635975013 0 0.25113336278303172 -0.39639034007073559 0 0.2325848323457651 -0.39226733923237422 0 0.2462658744323834 -0.38197959250061342 0 0.22607167799098421 -0.37270743793131111 0 0.2325848323457651 -0.39226733923237422 0 0.2462658744323834 -0.38197959250061342 0 0.22607167799098421 -0.37270743793131111 0 0.2325848323457651 -0.39226733923237422 0 0.20793944219493879 -0.39039719718598698 0 0.22607167799098421 -0.37270743793131111 0 0.20089624558916569 -0.37097766955135358 0 0.20793944219493879 -0.39039719718598698 0 0.20582455939560251 -0.41258395769508027 0 0.2220903860499629 -0.40641314768071007 0 0.20793944219493879 -0.39039719718598698 0 0.20793944219493879 -0.39039719718598698 0 0.1950935246886642 -0.40110820421824778 0 0.18397260247544159 -0.38969422049886882 0 0.20582455939560251 -0.41258395769508027 0 0.20793944219493879 -0.39039719718598698 0 0.1950935246886642 -0.40110820421824778 0 0.20089624558916569 -0.37097766955135358 0 0.20793944219493879 -0.39039719718598698 0 0.18397260247544159 -0.38969422049886882 0 0.20089624558916569 -0.37097766955135358 0 0.1768321188753432 -0.36690628541415632 0 0.18397260247544159 -0.38969422049886882 0 0.1768321188753432 -0.36690628541415632 0 0.18397260247544159 -0.38969422049886882 0 0.15666847718140431 -0.38294090990146468 0 0.1950935246886642 -0.40110820421824778 0 0.18397260247544159 -0.38969422049886882 0 0.1816281482625339 -0.41415137017959991 0 0.18397260247544159 -0.38969422049886882 0 0.16282522567504601 -0.40076461101477862 0 0.1816281482625339 -0.41415137017959991 0 0.18397260247544159 -0.38969422049886882 0 0.16282522567504601 -0.40076461101477862 0 0.15666847718140431 -0.38294090990146468 0 0.13554014667972011 -0.37371994475541209 0 0.15666847718140431 -0.38294090990146468 0 0.13650483548746539 -0.39897553438877298 0 0.13554014667972011 -0.37371994475541209 0 0.13650483548746539 -0.39897553438877298 0 0.11257503074115451 -0.38498649823446041 0 0.16282522567504601 -0.40076461101477862 0 0.13650483548746539 -0.39897553438877298 0 0.15535206496838491 -0.41806102010518609 0 0.16282522567504601 -0.40076461101477862 0 0.15666847718140431 -0.38294090990146468 0 0.13650483548746539 -0.39897553438877298 0 0.15666847718140431 -0.38294090990146468 0 0.13650483548746539 -0.39897553438877298 0 0.13650483548746539 -0.39897553438877298 0 0.15535206496838491 -0.41806102010518609 0 0.13513029091253781 -0.42041342615249999 0 0.13650483548746539 -0.39897553438877298 0 0.1163411937935266 -0.41501015887608139 0 0.13650483548746539 -0.39897553438877298 0 0.13513029091253781 -0.42041342615249999 0 0.1163411937935266 -0.41501015887608139 0 0.13513029091253781 -0.42041342615249999 0 0.15032059054535499 -0.43467939270726969 0 0.13254635452133279 -0.44085243440563188 0 0.13513029091253781 -0.42041342615249999 0 0.13254635452133279 -0.44085243440563188 0 0.1143868512917591 -0.43285467588419202 0 0.15535206496838491 -0.41806102010518609 0 0.13513029091253781 -0.42041342615249999 0 0.15032059054535499 -0.43467939270726969 0 0.15535206496838491 -0.41806102010518609 0 0.15032059054535499 -0.43467939270726969 0 0.16908223299646141 -0.42841704329178959 0 0.15032059054535499 -0.43467939270726969 0 0.16908223299646141 -0.42841704329178959 0 0.16335318746445779 -0.4445252196366028 0 0.16282522567504601 -0.40076461101477862 0 0.15535206496838491 -0.41806102010518609 0 0.1816281482625339 -0.41415137017959991 0 0.15535206496838491 -0.41806102010518609 0 0.16908223299646141 -0.42841704329178959 0 0.1816281482625339 -0.41415137017959991 0 0.16908223299646141 -0.42841704329178959 0 0.183200271073473 -0.43641073338783498 0 0.16335318746445779 -0.4445252196366028 0 0.16908223299646141 -0.42841704329178959 0 0.1816281482625339 -0.41415137017959991 0 0.183200271073473 -0.43641073338783498 0 0.183200271073473 -0.43641073338783498 0 0.1772803827575771 -0.45352317498248768 0 0.16335318746445779 -0.4445252196366028 0 0.19228485390892139 -0.44832807257495588 0 0.183200271073473 -0.43641073338783498 0 0.1772803827575771 -0.45352317498248768 0 0.19228485390892139 -0.44832807257495588 0 0.1772803827575771 -0.45352317498248768 0 0.18613842771148381 -0.46787851807202258 0 0.1772803827575771 -0.45352317498248768 0 0.18613842771148381 -0.46787851807202258 0 0.16548752239589951 -0.46480458862744461 0 0.16548752239589951 -0.46480458862744461 0 0.16335318746445779 -0.4445252196366028 0 0.1464594124089553 -0.4558072126519076 0 0.1772803827575771 -0.45352317498248768 0 0.16548752239589951 -0.46480458862744461 0 0.16335318746445779 -0.4445252196366028 0 0.15032059054535499 -0.43467939270726969 0 0.16335318746445779 -0.4445252196366028 0 0.1464594124089553 -0.4558072126519076 0 0.15032059054535499 -0.43467939270726969 0 0.13254635452133279 -0.44085243440563188 0 0.1464594124089553 -0.4558072126519076 0 0.13254635452133279 -0.44085243440563188 0 0.1274715551183096 -0.46736641087901343 0 0.1464594124089553 -0.4558072126519076 0 0.16548752239589951 -0.46480458862744461 0 0.1464594124089553 -0.4558072126519076 0 0.1467440422409298 -0.48368320543950499 0 0.1274715551183096 -0.46736641087901343 0 0.1467440422409298 -0.48368320543950499 0 0.12445287299781339 -0.48580957524003149 0 0.1274715551183096 -0.46736641087901343 0 0.1464594124089553 -0.4558072126519076 0 0.1467440422409298 -0.48368320543950499 0 0.1274715551183096 -0.46736641087901343 0 0.1467440422409298 -0.48368320543950499 0 0.1467440422409298 -0.48368320543950499 0 0.13861342094189541 -0.5 0 0.12445287299781339 -0.48580957524003149 0 0.1467440422409298 -0.48368320543950499 0 0.13861342094189541 -0.5 0 0.16601652936354891 -0.49999999999999789 0 0.1467440422409298 -0.48368320543950499 0 0.16601652936354891 -0.49999999999999789 0 0.1742528725293658 -0.48296598532830509 0 0.1467440422409298 -0.48368320543950499 0 0.16601652936354891 -0.49999999999999789 0 0.16548752239589951 -0.46480458862744461 0 0.1467440422409298 -0.48368320543950499 0 0.1742528725293658 -0.48296598532830509 0 0.18613842771148381 -0.46787851807202258 0 0.16548752239589951 -0.46480458862744461 0 0.1742528725293658 -0.48296598532830509 0 0.1900164382224285 -0.48271496941050879 0 0.18613842771148381 -0.46787851807202258 0 0.1742528725293658 -0.48296598532830509 0 0.19199278516569629 -0.5 0 0.16601652936354891 -0.49999999999999789 0 0.1742528725293658 -0.48296598532830509 0 0.19199278516569629 -0.5 0 0.1900164382224285 -0.48271496941050879 0 0.1742528725293658 -0.48296598532830509 0 0.067672963152933252 -0.5 0 0.070479040632291823 -0.48264211959480191 0 0.053020152767299072 -0.48801933676575959 0 0.067672963152933252 -0.5 0 0.070479040632291823 -0.48264211959480191 0 0.080327064833409109 -0.49320164294834518 0 0.064630060102032719 -0.47456076603106118 0 0.075246676549625066 -0.47305272083988897 0 0.070479040632291823 -0.48264211959480191 0 0.064630060102032719 -0.47456076603106118 0 0.075246676549625066 -0.47305272083988897 0 0.061795930812101732 -0.46820781613902701 0 0.075246676549625066 -0.47305272083988897 0 0.092517011764567517 -0.47378197497117353 0 0.089959488850471461 -0.49094383163907668 0 0.075246676549625066 -0.47305272083988897 0 0.070479040632291823 -0.48264211959480191 0 0.089959488850471461 -0.49094383163907668 0 0.075246676549625066 -0.47305272083988897 0 0.092517011764567517 -0.47378197497117353 0 0.083633368414380696 -0.46621164320728742 0 0.075246676549625066 -0.47305272083988897 0 0.089959488850471461 -0.49094383163907668 0 0.067672963152933252 -0.5 0 0.080327064833409109 -0.49320164294834518 0 0.097406857924120502 -0.499999999999999 0 0.080327064833409109 -0.49320164294834518 0 0.089959488850471461 -0.49094383163907668 0 0.097406857924120502 -0.499999999999999 0 0.070479040632291823 -0.48264211959480191 0 0.080327064833409109 -0.49320164294834518 0 0.089959488850471461 -0.49094383163907668 0 0.070479040632291823 -0.48264211959480191 0 0.089959488850471461 -0.49094383163907668 0 0.089959488850471461 -0.49094383163907668 0 0.097406857924120502 -0.499999999999999 0 0.089959488850471461 -0.49094383163907668 0 0.097406857924120502 -0.499999999999999 0 0.1112103125202419 -0.50000000000000022 0 0.089959488850471461 -0.49094383163907668 0 0.1052052932537345 -0.48462989700511527 0 0.1112103125202419 -0.50000000000000022 0 0.089959488850471461 -0.49094383163907668 0 0.1112103125202419 -0.50000000000000022 0 0.1052052932537345 -0.48462989700511527 0 0.1112103125202419 -0.50000000000000022 0 0.12445287299781339 -0.48580957524003149 0 0.13861342094189541 -0.5 0 0.1112103125202419 -0.50000000000000022 0 0.12445287299781339 -0.48580957524003149 0 0.1052052932537345 -0.48462989700511527 0 0.12445287299781339 -0.48580957524003149 0 0.10908141417361709 -0.46883823252096812 0 0.1274715551183096 -0.46736641087901343 0 0.12445287299781339 -0.48580957524003149 0 0.10908141417361709 -0.46883823252096812 0 0.092517011764567517 -0.47378197497117353 0 0.089959488850471461 -0.49094383163907668 0 0.1052052932537345 -0.48462989700511527 0 0.092517011764567517 -0.47378197497117353 0 0.1052052932537345 -0.48462989700511527 0 0.10908141417361709 -0.46883823252096812 0 0.092517011764567517 -0.47378197497117353 0 0.10908141417361709 -0.46883823252096812 0 0.090724871429903375 -0.45809280890615561 0 0.10908141417361709 -0.46883823252096812 0 0.1081990679956894 -0.4510496163185217 0 0.090724871429903375 -0.45809280890615561 0 0.1274715551183096 -0.46736641087901343 0 0.10908141417361709 -0.46883823252096812 0 0.1081990679956894 -0.4510496163185217 0 0.1274715551183096 -0.46736641087901343 0 0.1081990679956894 -0.4510496163185217 0 0.13254635452133279 -0.44085243440563188 0 0.1274715551183096 -0.46736641087901343 0 0.1081990679956894 -0.4510496163185217 0 0.13254635452133279 -0.44085243440563188 0 0.1081990679956894 -0.4510496163185217 0 0.1143868512917591 -0.43285467588419202 0 0.1081990679956894 -0.4510496163185217 0 0.09424645164530171 -0.44210268425789312 0 0.090724871429903375 -0.45809280890615561 0 0.1081990679956894 -0.4510496163185217 0 0.09424645164530171 -0.44210268425789312 0 0.1143868512917591 -0.43285467588419202 0 0.09424645164530171 -0.44210268425789312 0 0.078924008128618786 -0.44927425917818692 0 0.090724871429903375 -0.45809280890615561 0 0.09424645164530171 -0.44210268425789312 0 0.078924008128618786 -0.44927425917818692 0 0.079815715379254276 -0.43713965414436617 0 0.092517011764567517 -0.47378197497117353 0 0.090724871429903375 -0.45809280890615561 0 0.083633368414380696 -0.46621164320728742 0 0.075246676549625066 -0.47305272083988897 0 0.083633368414380696 -0.46621164320728742 0 0.07604491391342684 -0.45991906811193117 0 0.090724871429903375 -0.45809280890615561 0 0.083633368414380696 -0.46621164320728742 0 0.07604491391342684 -0.45991906811193117 0 0.078924008128618786 -0.44927425917818692 0 0.090724871429903375 -0.45809280890615561 0 0.07604491391342684 -0.45991906811193117 0 0.075246676549625066 -0.47305272083988897 0 0.07604491391342684 -0.45991906811193117 0 0.060533864248779268 -0.45516161004070088 0 0.075246676549625066 -0.47305272083988897 0 0.060533864248779268 -0.45516161004070088 0 0.061795930812101732 -0.46820781613902701 0 0.078924008128618786 -0.44927425917818692 0 0.07604491391342684 -0.45991906811193117 0 0.066742638013750744 -0.45361708446569943 0 0.075246676549625066 -0.47305272083988897 0 0.060533864248779268 -0.45516161004070088 0 0.07604491391342684 -0.45991906811193117 0 0.066742638013750744 -0.45361708446569943 0 0.060533864248779268 -0.45516161004070088 0 0.066742638013750744 -0.45361708446569943 0 0.060533864248779268 -0.45516161004070088 0 0.066742638013750744 -0.45361708446569943 0 0.070851891070507364 -0.4429924727175758 0 0.060604784186928162 -0.44219524034701829 0 0.066742638013750744 -0.45361708446569943 0 0.060604784186928162 -0.44219524034701829 0 0.060533864248779268 -0.45516161004070088 0 0.070851891070507364 -0.4429924727175758 0 0.068700271916894928 -0.43290455926873739 0 0.060604784186928162 -0.44219524034701829 0 0.078924008128618786 -0.44927425917818692 0 0.070851891070507364 -0.4429924727175758 0 0.079815715379254276 -0.43713965414436617 0 0.070851891070507364 -0.4429924727175758 0 0.068700271916894928 -0.43290455926873739 0 0.079815715379254276 -0.43713965414436617 0 0.078924008128618786 -0.44927425917818692 0 0.066742638013750744 -0.45361708446569943 0 0.070851891070507364 -0.4429924727175758 0 0.068700271916894928 -0.43290455926873739 0 0.078113452497016317 -0.41994308157894578 0 0.079815715379254276 -0.43713965414436617 0 0.068700271916894928 -0.43290455926873739 0 0.078113452497016317 -0.41994308157894578 0 0.058719347470543831 -0.42372109043242612 0 0.068700271916894928 -0.43290455926873739 0 0.058719347470543831 -0.42372109043242612 0 0.060604784186928162 -0.44219524034701829 0 0.078113452497016317 -0.41994308157894578 0 0.070468827029821934 -0.40290810194725279 0 0.058719347470543831 -0.42372109043242612 0 0.078113452497016317 -0.41994308157894578 0 0.093810327587010828 -0.40408349715757252 0 0.070468827029821934 -0.40290810194725279 0 0.078113452497016317 -0.41994308157894578 0 0.096321857990668808 -0.42533267408736197 0 0.093810327587010828 -0.40408349715757252 0 0.078113452497016317 -0.41994308157894578 0 0.079815715379254276 -0.43713965414436617 0 0.096321857990668808 -0.42533267408736197 0 0.09424645164530171 -0.44210268425789312 0 0.079815715379254276 -0.43713965414436617 0 0.096321857990668808 -0.42533267408736197 0 0.09424645164530171 -0.44210268425789312 0 0.096321857990668808 -0.42533267408736197 0 0.1143868512917591 -0.43285467588419202 0 0.096321857990668808 -0.42533267408736197 0 0.1143868512917591 -0.43285467588419202 0 0.1163411937935266 -0.41501015887608139 0 0.13513029091253781 -0.42041342615249999 0 0.1143868512917591 -0.43285467588419202 0 0.1163411937935266 -0.41501015887608139 0 0.096321857990668808 -0.42533267408736197 0 0.1163411937935266 -0.41501015887608139 0 0.093810327587010828 -0.40408349715757252 0 0.1163411937935266 -0.41501015887608139 0 0.093810327587010828 -0.40408349715757252 0 0.11257503074115451 -0.38498649823446041 0 0.13650483548746539 -0.39897553438877298 0 0.1163411937935266 -0.41501015887608139 0 0.11257503074115451 -0.38498649823446041 0 0.11257503074115451 -0.38498649823446041 0 0.085185771917526548 -0.37977283474271561 0 0.10079201747098269 -0.36412242239479142 0 0.093810327587010828 -0.40408349715757252 0 0.11257503074115451 -0.38498649823446041 0 0.085185771917526548 -0.37977283474271561 0 0.093810327587010828 -0.40408349715757252 0 0.085185771917526548 -0.37977283474271561 0 0.070468827029821934 -0.40290810194725279 0 0.085185771917526548 -0.37977283474271561 0 0.070468827029821934 -0.40290810194725279 0 0.057841008155207027 -0.38245658693310142 0 0.070468827029821934 -0.40290810194725279 0 0.057841008155207027 -0.38245658693310142 0 0.049143054551627013 -0.40747152083875582 0 0.057841008155207027 -0.38245658693310142 0 0.043656632087297011 -0.39232656597616861 0 0.049143054551627013 -0.40747152083875582 0 0.043656632087297011 -0.39232656597616861 0 0.028999000949789959 -0.40147898970888801 0 0.049143054551627013 -0.40747152083875582 0 0.043656632087297011 -0.39232656597616861 0 0.028999000949789959 -0.40147898970888801 0 0.032111139506758431 -0.37191992684122582 0 0.057841008155207027 -0.38245658693310142 0 0.043656632087297011 -0.39232656597616861 0 0.032111139506758431 -0.37191992684122582 0 0.011472045166716269 -0.38952867199447438 0 0.032111139506758431 -0.37191992684122582 0 0.011472045166716269 -0.38952867199447438 0 0.028999000949789959 -0.40147898970888801 0 0.032111139506758431 -0.37191992684122582 0 0.011472045166716269 -0.38952867199447438 0 0.032111139506758431 -0.37191992684122582 0 0.0095024714850780283 -0.37458082262515818 0 -0.0042332821090469977 -0.36931681778231101 0 -0.0014384839491562609 -0.38294108750953337 0 0.0095024714850780283 -0.37458082262515818 0 -0.0014384839491562609 -0.38294108750953337 0 0.011472045166716269 -0.38952867199447438 0 0.0095024714850780283 -0.37458082262515818 0 -0.0091670491733258502 -0.407137417147723 0 0.011472045166716269 -0.38952867199447438 0 0.005108664055598287 -0.40528738143041459 0 0.011472045166716269 -0.38952867199447438 0 0.005108664055598287 -0.40528738143041459 0 0.01434864661312045 -0.40656634948070969 0 -0.0091670491733258502 -0.407137417147723 0 0.011472045166716269 -0.38952867199447438 0 0.011472045166716269 -0.38952867199447438 0 0.028999000949789959 -0.40147898970888801 0 0.01434864661312045 -0.40656634948070969 0 0.028999000949789959 -0.40147898970888801 0 0.01434864661312045 -0.40656634948070969 0 0.016816745003192791 -0.42357542462247538 0 0.028999000949789959 -0.40147898970888801 0 0.016816745003192791 -0.42357542462247538 0 0.038035624732997701 -0.42318917072202022 0 0.01434864661312045 -0.40656634948070969 0 0.0037810136158822729 -0.41791708709875131 0 0.016816745003192791 -0.42357542462247538 0 0.005108664055598287 -0.40528738143041459 0 0.01434864661312045 -0.40656634948070969 0 0.0037810136158822729 -0.41791708709875131 0 0.00079488181500260609 -0.42987501851034571 0 0.016816745003192791 -0.42357542462247538 0 0.0068165806591294316 -0.44348526320397952 0 0.0037810136158822729 -0.41791708709875131 0 0.00079488181500260609 -0.42987501851034571 0 0.016816745003192791 -0.42357542462247538 0 0.016816745003192791 -0.42357542462247538 0 0.038035624732997701 -0.42318917072202022 0 0.02666676983233552 -0.44312735458325581 0 0.016816745003192791 -0.42357542462247538 0 0.02666676983233552 -0.44312735458325581 0 0.0068165806591294316 -0.44348526320397952 0 0.038035624732997701 -0.42318917072202022 0 0.047868830590497097 -0.43976064414632088 0 0.02666676983233552 -0.44312735458325581 0 0.028999000949789959 -0.40147898970888801 0 0.038035624732997701 -0.42318917072202022 0 0.049143054551627013 -0.40747152083875582 0 0.070468827029821934 -0.40290810194725279 0 0.049143054551627013 -0.40747152083875582 0 0.058719347470543831 -0.42372109043242612 0 0.038035624732997701 -0.42318917072202022 0 0.049143054551627013 -0.40747152083875582 0 0.058719347470543831 -0.42372109043242612 0 0.058719347470543831 -0.42372109043242612 0 0.047868830590497097 -0.43976064414632088 0 0.060604784186928162 -0.44219524034701829 0 0.038035624732997701 -0.42318917072202022 0 0.058719347470543831 -0.42372109043242612 0 0.047868830590497097 -0.43976064414632088 0 0.047868830590497097 -0.43976064414632088 0 0.060533864248779268 -0.45516161004070088 0 0.03684497090434212 -0.46105457747661138 0 0.047868830590497097 -0.43976064414632088 0 0.060533864248779268 -0.45516161004070088 0 0.047868830590497097 -0.43976064414632088 0 0.060604784186928162 -0.44219524034701829 0 0.060533864248779268 -0.45516161004070088 0 0.060533864248779268 -0.45516161004070088 0 0.03684497090434212 -0.46105457747661138 0 0.060533864248779268 -0.45516161004070088 0 0.052543339594833843 -0.46469110280171649 0 0.03684497090434212 -0.46105457747661138 0 0.060533864248779268 -0.45516161004070088 0 0.061795930812101732 -0.46820781613902701 0 0.052543339594833843 -0.46469110280171649 0 0.052543339594833843 -0.46469110280171649 0 0.03684497090434212 -0.46105457747661138 0 0.050998592414112261 -0.47434040755052698 0 0.047868830590497097 -0.43976064414632088 0 0.03684497090434212 -0.46105457747661138 0 0.02666676983233552 -0.44312735458325581 0 0.02666676983233552 -0.44312735458325581 0 0.0068165806591294316 -0.44348526320397952 0 0.013156077559905371 -0.46694754491252372 0 -0.0057475739345891896 -0.4549207533069245 0 0.0068165806591294316 -0.44348526320397952 0 0.013156077559905371 -0.46694754491252372 0 0.03684497090434212 -0.46105457747661138 0 0.02666676983233552 -0.44312735458325581 0 0.013156077559905371 -0.46694754491252372 0 0.03684497090434212 -0.46105457747661138 0 0.013156077559905371 -0.46694754491252372 0 0.03684497090434212 -0.46105457747661138 0 0.013156077559905371 -0.46694754491252372 0 0.032323810821201983 -0.4810656019103603 0 0.013156077559905371 -0.46694754491252372 0 0.0082051736105589468 -0.5 0 0.032323810821201983 -0.4810656019103603 0 -0.01053281578453142 -0.47284051234843588 0 0.013156077559905371 -0.46694754491252372 0 0.0082051736105589468 -0.5 0 -0.01053281578453142 -0.47284051234843588 0 0.013156077559905371 -0.46694754491252372 0 0.0082051736105589468 -0.5 0 0.037939068381746099 -0.5 0 0.032323810821201983 -0.4810656019103603 0 0.037939068381746099 -0.5 0 0.032323810821201983 -0.4810656019103603 0 0.053020152767299072 -0.48801933676575959 0 0.032323810821201983 -0.4810656019103603 0 0.050998592414112261 -0.47434040755052698 0 0.053020152767299072 -0.48801933676575959 0 0.03684497090434212 -0.46105457747661138 0 0.032323810821201983 -0.4810656019103603 0 0.050998592414112261 -0.47434040755052698 0 0.070479040632291823 -0.48264211959480191 0 0.050998592414112261 -0.47434040755052698 0 0.064630060102032719 -0.47456076603106118 0 0.070479040632291823 -0.48264211959480191 0 0.050998592414112261 -0.47434040755052698 0 0.070479040632291823 -0.48264211959480191 0 0.050998592414112261 -0.47434040755052698 0 0.053020152767299072 -0.48801933676575959 0 0.064630060102032719 -0.47456076603106118 0 0.061795930812101732 -0.46820781613902701 0 0.050998592414112261 -0.47434040755052698 0 0.061795930812101732 -0.46820781613902701 0 0.052543339594833843 -0.46469110280171649 0 0.050998592414112261 -0.47434040755052698 0 0.067672963152933252 -0.5 0 0.037939068381746099 -0.5 0 0.053020152767299072 -0.48801933676575959 0 0.087473163936891085 -0.29777268792509082 0 0.081564451789839787 -0.2785545792295161 0 0.1018918429625556 -0.28221661660282987 0 0.087473163936891085 -0.29777268792509082 0 0.081564451789839787 -0.2785545792295161 0 0.087473163936891085 -0.29777268792509082 0 0.067853695646582016 -0.28620356249784679 0 0.081564451789839787 -0.2785545792295161 0 0.087473163936891085 -0.29777268792509082 0 0.071339674350402019 -0.30608447369461589 0 0.075597518235181557 -0.31257595346091949 0 0.087473163936891085 -0.29777268792509082 0 0.098187962191818287 -0.30489187491565878 0 0.094028422526884897 -0.31909369138147992 0 0.087473163936891085 -0.29777268792509082 0 0.094028422526884897 -0.31909369138147992 0 0.075597518235181557 -0.31257595346091949 0 0.087473163936891085 -0.29777268792509082 0 0.094028422526884897 -0.31909369138147992 0 0.087473163936891085 -0.29777268792509082 0 0.071339674350402019 -0.30608447369461589 0 0.060560524715249003 -0.30009188710746898 0 0.087473163936891085 -0.29777268792509082 0 0.060560524715249003 -0.30009188710746898 0 0.071339674350402019 -0.30608447369461589 0 0.075597518235181557 -0.31257595346091949 0 0.061727490514286158 -0.31389736628498438 0 0.071339674350402019 -0.30608447369461589 0 0.061727490514286158 -0.31389736628498438 0 0.060560524715249003 -0.30009188710746898 0 0.067853695646582016 -0.28620356249784679 0 0.059116804960237683 -0.29062940211096661 0 0.060560524715249003 -0.30009188710746898 0 0.087473163936891085 -0.29777268792509082 0 0.067853695646582016 -0.28620356249784679 0 0.060560524715249003 -0.30009188710746898 0 0.066214989649419603 -0.27316028682740479 0 0.075655739642787975 -0.2593364705339416 0 0.081564451789839787 -0.2785545792295161 0 0.067853695646582016 -0.28620356249784679 0 0.066214989649419603 -0.27316028682740479 0 0.081564451789839787 -0.2785545792295161 0 0.066214989649419603 -0.27316028682740479 0 0.075655739642787975 -0.2593364705339416 0 0.05341834128670471 -0.26222533989734959 0 0.075655739642787975 -0.2593364705339416 0 0.05341834128670471 -0.26222533989734959 0 0.071841433176306951 -0.24693042426755701 0 0.075655739642787975 -0.2593364705339416 0 0.05341834128670471 -0.26222533989734959 0 0.075655739642787975 -0.2593364705339416 0 0.071841433176306951 -0.24693042426755701 0 0.075655739642787975 -0.2593364705339416 0 0.097033033634931737 -0.25655933767435479 0 0.087503871482331325 -0.24918859503345439 0 0.075655739642787975 -0.2593364705339416 0 0.087704679779763817 -0.26614109232216421 0 0.097033033634931737 -0.25655933767435479 0 0.075655739642787975 -0.2593364705339416 0 0.071841433176306951 -0.24693042426755701 0 0.087503871482331325 -0.24918859503345439 0 0.075655739642787975 -0.2593364705339416 0 0.097033033634931737 -0.25655933767435479 0 0.075655739642787975 -0.2593364705339416 0 0.081564451789839787 -0.2785545792295161 0 0.081564451789839787 -0.2785545792295161 0 0.096565494051495782 -0.27011398185084429 0 0.1018918429625556 -0.28221661660282987 0 0.075655739642787975 -0.2593364705339416 0 0.081564451789839787 -0.2785545792295161 0 0.087704679779763817 -0.26614109232216421 0 0.081564451789839787 -0.2785545792295161 0 0.087704679779763817 -0.26614109232216421 0 0.096565494051495782 -0.27011398185084429 0 0.11343381581407461 -0.27807896693227868 0 0.1097056353048949 -0.26812745810770261 0 0.1018918429625556 -0.28221661660282987 0 0.096565494051495782 -0.27011398185084429 0 0.1097056353048949 -0.26812745810770261 0 0.1018918429625556 -0.28221661660282987 0 0.097033033634931737 -0.25655933767435479 0 0.11542254909125391 -0.25417034832591701 0 0.09726841460880753 -0.24973530510077291 0 0.097033033634931737 -0.25655933767435479 0 0.11542254909125391 -0.25417034832591701 0 0.1097056353048949 -0.26812745810770261 0 0.097033033634931737 -0.25655933767435479 0 0.11542254909125391 -0.25417034832591701 0 0.1155402395781918 -0.2507583320391269 0 0.09726841460880753 -0.24973530510077291 0 0.097033033634931737 -0.25655933767435479 0 0.087503871482331325 -0.24918859503345439 0 0.09726841460880753 -0.24973530510077291 0 0.097033033634931737 -0.25655933767435479 0 0.09726841460880753 -0.24973530510077291 0 0.096565494051495782 -0.27011398185084429 0 0.097033033634931737 -0.25655933767435479 0 0.087704679779763817 -0.26614109232216421 0 0.096565494051495782 -0.27011398185084429 0 0.097033033634931737 -0.25655933767435479 0 0.096565494051495782 -0.27011398185084429 0 0.097033033634931737 -0.25655933767435479 0 0.1097056353048949 -0.26812745810770261 0 0.1338120645475761 -0.25178135897747889 0 0.1155402395781918 -0.2507583320391269 0 0.11542254909125391 -0.25417034832591701 0 0.1155402395781918 -0.2507583320391269 0 0.11542254909125391 -0.25417034832591701 0 0.09726841460880753 -0.24973530510077291 0 0.1338120645475761 -0.25178135897747889 0 0.1155402395781918 -0.2507583320391269 0 0.1338120645475761 -0.25178135897747889 0 0.11542254909125391 -0.25417034832591701 0 0.123327112510175 -0.26381005316279871 0 0.1338120645475761 -0.25178135897747889 0 0.11542254909125391 -0.25417034832591701 0 0.11542254909125391 -0.25417034832591701 0 0.123327112510175 -0.26381005316279871 0 0.1097056353048949 -0.26812745810770261 0 0.11343381581407461 -0.27807896693227868 0 0.1097056353048949 -0.26812745810770261 0 0.119201036987635 -0.27295982712471439 0 0.1280966355330338 -0.27434446718476552 0 0.123327112510175 -0.26381005316279871 0 0.119201036987635 -0.27295982712471439 0 0.123327112510175 -0.26381005316279871 0 0.1097056353048949 -0.26812745810770261 0 0.119201036987635 -0.27295982712471439 0 0.11343381581407461 -0.27807896693227868 0 0.119201036987635 -0.27295982712471439 0 0.12144198577599689 -0.28043819023602667 0 0.1280966355330338 -0.27434446718476552 0 0.119201036987635 -0.27295982712471439 0 0.12144198577599689 -0.28043819023602667 0 0.1225628758501054 -0.2947488287446996 0 0.10501801989349829 -0.29626075833489562 0 0.12144198577599689 -0.28043819023602667 0 0.1233634239504731 -0.2874855776093414 0 0.1139532624844367 -0.28782333961704598 0 0.1275993617664036 -0.28112518425861122 0 0.12144198577599689 -0.28043819023602667 0 0.1233634239504731 -0.2874855776093414 0 0.1225628758501054 -0.2947488287446996 0 0.1139532624844367 -0.28782333961704598 0 0.10501801989349829 -0.29626075833489562 0 0.1233634239504731 -0.2874855776093414 0 0.1225628758501054 -0.2947488287446996 0 0.1139532624844367 -0.28782333961704598 0 0.1256525224322369 -0.29448257816376899 0 0.1225628758501054 -0.2947488287446996 0 0.11343381581407461 -0.27807896693227868 0 0.12144198577599689 -0.28043819023602667 0 0.1139532624844367 -0.28782333961704598 0 0.11343381581407461 -0.27807896693227868 0 0.1139532624844367 -0.28782333961704598 0 0.1018918429625556 -0.28221661660282987 0 0.1139532624844367 -0.28782333961704598 0 0.1018918429625556 -0.28221661660282987 0 0.10501801989349829 -0.29626075833489562 0 0.087473163936891085 -0.29777268792509082 0 0.1018918429625556 -0.28221661660282987 0 0.10501801989349829 -0.29626075833489562 0 0.087473163936891085 -0.29777268792509082 0 0.10501801989349829 -0.29626075833489562 0 0.087473163936891085 -0.29777268792509082 0 0.10501801989349829 -0.29626075833489562 0 0.098187962191818287 -0.30489187491565878 0 0.098187962191818287 -0.30489187491565878 0 0.10829564918849539 -0.30692126006309001 0 0.094028422526884897 -0.31909369138147992 0 0.10501801989349829 -0.29626075833489562 0 0.098187962191818287 -0.30489187491565878 0 0.10829564918849539 -0.30692126006309001 0 0.10829564918849539 -0.30692126006309001 0 0.11665503897845669 -0.30709539838653632 0 0.10765755552467721 -0.31970821860930398 0 0.1225628758501054 -0.2947488287446996 0 0.10501801989349829 -0.29626075833489562 0 0.10829564918849539 -0.30692126006309001 0 0.1225628758501054 -0.2947488287446996 0 0.10829564918849539 -0.30692126006309001 0 0.1225628758501054 -0.2947488287446996 0 0.10829564918849539 -0.30692126006309001 0 0.11665503897845669 -0.30709539838653632 0 0.127428615210958 -0.30550107704066293 0 0.1256525224322369 -0.29448257816376899 0 0.11665503897845669 -0.30709539838653632 0 0.1256525224322369 -0.29448257816376899 0 0.11665503897845669 -0.30709539838653632 0 0.1256525224322369 -0.29448257816376899 0 0.1225628758501054 -0.2947488287446996 0 0.11665503897845669 -0.30709539838653632 0 0.127428615210958 -0.30550107704066293 0 0.11665503897845669 -0.30709539838653632 0 0.1236403595102975 -0.31726182602291142 0 0.1236403595102975 -0.31726182602291142 0 0.1156667707943719 -0.32879233033577338 0 0.10765755552467721 -0.31970821860930398 0 0.11665503897845669 -0.30709539838653632 0 0.1236403595102975 -0.31726182602291142 0 0.10765755552467721 -0.31970821860930398 0 0.11665503897845669 -0.30709539838653632 0 0.10765755552467721 -0.31970821860930398 0 0.1156667707943719 -0.32879233033577338 0 0.1048460875680276 -0.32950050860128433 0 0.10765755552467721 -0.31970821860930398 0 0.12646864396445259 -0.32771949481933838 0 0.1236403595102975 -0.31726182602291142 0 0.1156667707943719 -0.32879233033577338 0 0.12646864396445259 -0.32771949481933838 0 0.1218367566819203 -0.34066885685305681 0 0.1156667707943719 -0.32879233033577338 0 0.1218367566819203 -0.34066885685305681 0 0.1156667707943719 -0.32879233033577338 0 0.1082494064665878 -0.33928340961487857 0 0.1156667707943719 -0.32879233033577338 0 0.1048460875680276 -0.32950050860128433 0 0.1082494064665878 -0.33928340961487857 0 0.1048460875680276 -0.32950050860128433 0 0.1082494064665878 -0.33928340961487857 0 0.097004582427965266 -0.33631516769786107 0 0.1082494064665878 -0.33928340961487857 0 0.097004582427965266 -0.33631516769786107 0 0.093814972832634291 -0.34820918954221819 0 0.1048460875680276 -0.32950050860128433 0 0.097004582427965266 -0.33631516769786107 0 0.096073069581201237 -0.32574391368982941 0 0.096073069581201237 -0.32574391368982941 0 0.094028422526884897 -0.31909369138147992 0 0.10765755552467721 -0.31970821860930398 0 0.096073069581201237 -0.32574391368982941 0 0.094028422526884897 -0.31909369138147992 0 0.10829564918849539 -0.30692126006309001 0 0.094028422526884897 -0.31909369138147992 0 0.10829564918849539 -0.30692126006309001 0 0.094028422526884897 -0.31909369138147992 0 0.10765755552467721 -0.31970821860930398 0 0.1048460875680276 -0.32950050860128433 0 0.096073069581201237 -0.32574391368982941 0 0.10765755552467721 -0.31970821860930398 0 0.13554014667972011 -0.37371994475541209 0 0.11257503074115451 -0.38498649823446041 0 0.1211241730808211 -0.35969015994424403 0 0.11257503074115451 -0.38498649823446041 0 0.1211241730808211 -0.35969015994424403 0 0.10079201747098269 -0.36412242239479142 0 0.1211241730808211 -0.35969015994424403 0 0.1091752126596531 -0.3513855426967849 0 0.10079201747098269 -0.36412242239479142 0 0.1218367566819203 -0.34066885685305681 0 0.1211241730808211 -0.35969015994424403 0 0.1091752126596531 -0.3513855426967849 0 0.1218367566819203 -0.34066885685305681 0 0.1082494064665878 -0.33928340961487857 0 0.1091752126596531 -0.3513855426967849 0 0.1091752126596531 -0.3513855426967849 0 0.093814972832634291 -0.34820918954221819 0 0.10079201747098269 -0.36412242239479142 0 0.1082494064665878 -0.33928340961487857 0 0.1091752126596531 -0.3513855426967849 0 0.093814972832634291 -0.34820918954221819 0 0.085185771917526548 -0.37977283474271561 0 0.10079201747098269 -0.36412242239479142 0 0.076425374258651049 -0.36036916924143869 0 0.093814972832634291 -0.34820918954221819 0 0.076425374258651049 -0.36036916924143869 0 0.073389328186842753 -0.33670243653472848 0 0.093814972832634291 -0.34820918954221819 0 0.10079201747098269 -0.36412242239479142 0 0.076425374258651049 -0.36036916924143869 0 0.076425374258651049 -0.36036916924143869 0 0.073389328186842753 -0.33670243653472848 0 0.052750233846800589 -0.35431118168797721 0 0.073389328186842753 -0.33670243653472848 0 0.052750233846800589 -0.35431118168797721 0 0.085185771917526548 -0.37977283474271561 0 0.057841008155207027 -0.38245658693310142 0 0.076425374258651049 -0.36036916924143869 0 0.094028422526884897 -0.31909369138147992 0 0.073389328186842753 -0.33670243653472848 0 0.096073069581201237 -0.32574391368982941 0 0.094028422526884897 -0.31909369138147992 0 0.073389328186842753 -0.33670243653472848 0 0.094028422526884897 -0.31909369138147992 0 0.073389328186842753 -0.33670243653472848 0 0.072651274237206992 -0.32234881883649769 0 0.094028422526884897 -0.31909369138147992 0 0.072651274237206992 -0.32234881883649769 0 0.075597518235181557 -0.31257595346091949 0 0.097004582427965266 -0.33631516769786107 0 0.096073069581201237 -0.32574391368982941 0 0.073389328186842753 -0.33670243653472848 0 0.097004582427965266 -0.33631516769786107 0 0.093814972832634291 -0.34820918954221819 0 0.073389328186842753 -0.33670243653472848 0 0.073389328186842753 -0.33670243653472848 0 0.072651274237206992 -0.32234881883649769 0 0.058513611722839573 -0.32947464652037622 0 0.072651274237206992 -0.32234881883649769 0 0.061727490514286158 -0.31389736628498438 0 0.058513611722839573 -0.32947464652037622 0 0.072651274237206992 -0.32234881883649769 0 0.075597518235181557 -0.31257595346091949 0 0.061727490514286158 -0.31389736628498438 0 0.061727490514286158 -0.31389736628498438 0 0.048871722081095123 -0.31851038162196682 0 0.053524671366835877 -0.30640407556079952 0 0.048871722081095123 -0.31851038162196682 0 0.058513611722839573 -0.32947464652037622 0 0.042608717461976538 -0.3312298768594002 0 0.061727490514286158 -0.31389736628498438 0 0.048871722081095123 -0.31851038162196682 0 0.058513611722839573 -0.32947464652037622 0 0.073389328186842753 -0.33670243653472848 0 0.058513611722839573 -0.32947464652037622 0 0.052750233846800589 -0.35431118168797721 0 0.058513611722839573 -0.32947464652037622 0 0.042608717461976538 -0.3312298768594002 0 0.052750233846800589 -0.35431118168797721 0 0.042608717461976538 -0.3312298768594002 0 0.032201100374313327 -0.3403185580786573 0 0.052750233846800589 -0.35431118168797721 0 0.042608717461976538 -0.3312298768594002 0 0.032201100374313327 -0.3403185580786573 0 0.02803274898307424 -0.32856413603580631 0 0.042608717461976538 -0.3312298768594002 0 0.035004108339948901 -0.31633090919971779 0 0.02803274898307424 -0.32856413603580631 0 0.048871722081095123 -0.31851038162196682 0 0.035004108339948901 -0.31633090919971779 0 0.042659306472636778 -0.3047174731171407 0 0.048871722081095123 -0.31851038162196682 0 0.042608717461976538 -0.3312298768594002 0 0.035004108339948901 -0.31633090919971779 0 0.057841008155207027 -0.38245658693310142 0 0.052750233846800589 -0.35431118168797721 0 0.032111139506758431 -0.37191992684122582 0 0.057841008155207027 -0.38245658693310142 0 0.076425374258651049 -0.36036916924143869 0 0.052750233846800589 -0.35431118168797721 0 0.032201100374313327 -0.3403185580786573 0 0.052750233846800589 -0.35431118168797721 0 0.023184557849655049 -0.35200766470484768 0 0.052750233846800589 -0.35431118168797721 0 0.032111139506758431 -0.37191992684122582 0 0.052750233846800589 -0.35431118168797721 0 0.032111139506758431 -0.37191992684122582 0 0.023184557849655049 -0.35200766470484768 0 0.032111139506758431 -0.37191992684122582 0 0.023184557849655049 -0.35200766470484768 0 0.010345294108568969 -0.36081801354288939 0 0.032111139506758431 -0.37191992684122582 0 0.010345294108568969 -0.36081801354288939 0 0.0095024714850780283 -0.37458082262515818 0 -0.0019921573348008 -0.35014241775074068 0 0.023184557849655049 -0.35200766470484768 0 0.014429243730060239 -0.33547993110525531 0 -0.0019921573348008 -0.35014241775074068 0 0.023184557849655049 -0.35200766470484768 0 0.010345294108568969 -0.36081801354288939 0 -0.0019921573348008 -0.35014241775074068 0 -0.0042332821090469977 -0.36931681778231101 0 0.010345294108568969 -0.36081801354288939 0 -0.0042332821090469977 -0.36931681778231101 0 0.010345294108568969 -0.36081801354288939 0 0.0095024714850780283 -0.37458082262515818 0 0.035004108339948901 -0.31633090919971779 0 0.02803274898307424 -0.32856413603580631 0 0.015526697491276621 -0.31392901685578528 0 0.02803274898307424 -0.32856413603580631 0 0.014429243730060239 -0.33547993110525531 0 0.015526697491276621 -0.31392901685578528 0 0.032201100374313327 -0.3403185580786573 0 0.023184557849655049 -0.35200766470484768 0 0.014429243730060239 -0.33547993110525531 0 0.032201100374313327 -0.3403185580786573 0 0.02803274898307424 -0.32856413603580631 0 0.014429243730060239 -0.33547993110525531 0 -0.008605873932596356 -0.33624452634938418 0 -0.0019921573348008 -0.35014241775074068 0 0.014429243730060239 -0.33547993110525531 0 -0.008605873932596356 -0.33624452634938418 0 0.014429243730060239 -0.33547993110525531 0 0.0035141492887302548 -0.32519051246028208 0 0.014429243730060239 -0.33547993110525531 0 0.0035141492887302548 -0.32519051246028208 0 0.015526697491276621 -0.31392901685578528 0 -0.0093546214437348063 -0.3154421594820554 0 0.0035141492887302548 -0.32519051246028208 0 0.015526697491276621 -0.31392901685578528 0 -0.0093546214437348063 -0.3154421594820554 0 0.015526697491276621 -0.31392901685578528 0 0.0025702240157044749 -0.30194718224499639 0 0.015526697491276621 -0.31392901685578528 0 0.0025702240157044749 -0.30194718224499639 0 0.018894421690538499 -0.29417828297256371 0 0.0025702240157044749 -0.30194718224499639 0 0.001953977901653102 -0.28749824366549498 0 0.018894421690538499 -0.29417828297256371 0 0.001953977901653102 -0.28749824366549498 0 0.018894421690538499 -0.29417828297256371 0 0.015670532879786751 -0.2762907948651831 0 0.018894421690538499 -0.29417828297256371 0 0.030268242974381541 -0.30296892509516138 0 0.036539995597899583 -0.28735292316580879 0 0.018894421690538499 -0.29417828297256371 0 0.036539995597899583 -0.28735292316580879 0 0.015670532879786751 -0.2762907948651831 0 0.015526697491276621 -0.31392901685578528 0 0.018894421690538499 -0.29417828297256371 0 0.030268242974381541 -0.30296892509516138 0 0.035004108339948901 -0.31633090919971779 0 0.015526697491276621 -0.31392901685578528 0 0.030268242974381541 -0.30296892509516138 0 0.030268242974381541 -0.30296892509516138 0 0.042659306472636778 -0.3047174731171407 0 0.036539995597899583 -0.28735292316580879 0 0.035004108339948901 -0.31633090919971779 0 0.030268242974381541 -0.30296892509516138 0 0.042659306472636778 -0.3047174731171407 0 0.042659306472636778 -0.3047174731171407 0 0.036539995597899583 -0.28735292316580879 0 0.051747098475659753 -0.29673762405939008 0 0.051747098475659753 -0.29673762405939008 0 0.052582719881183543 -0.27948148197836992 0 0.051747098475659753 -0.29673762405939008 0 0.059116804960237683 -0.29062940211096661 0 0.052582719881183543 -0.27948148197836992 0 0.036539995597899583 -0.28735292316580879 0 0.051747098475659753 -0.29673762405939008 0 0.052582719881183543 -0.27948148197836992 0 0.067853695646582016 -0.28620356249784679 0 0.059116804960237683 -0.29062940211096661 0 0.052582719881183543 -0.27948148197836992 0 0.051747098475659753 -0.29673762405939008 0 0.059116804960237683 -0.29062940211096661 0 0.060560524715249003 -0.30009188710746898 0 0.051747098475659753 -0.29673762405939008 0 0.060560524715249003 -0.30009188710746898 0 0.053524671366835877 -0.30640407556079952 0 0.061727490514286158 -0.31389736628498438 0 0.060560524715249003 -0.30009188710746898 0 0.053524671366835877 -0.30640407556079952 0 0.048871722081095123 -0.31851038162196682 0 0.042659306472636778 -0.3047174731171407 0 0.053524671366835877 -0.30640407556079952 0 0.042659306472636778 -0.3047174731171407 0 0.051747098475659753 -0.29673762405939008 0 0.053524671366835877 -0.30640407556079952 0 0.05341834128670471 -0.26222533989734959 0 0.054455146400998369 -0.2408146193913096 0 0.05341834128670471 -0.26222533989734959 0 0.041504830166615332 -0.24909079072316551 0 0.054455146400998369 -0.2408146193913096 0 0.05341834128670471 -0.26222533989734959 0 0.052582719881183543 -0.27948148197836992 0 0.066214989649419603 -0.27316028682740479 0 0.05341834128670471 -0.26222533989734959 0 0.052582719881183543 -0.27948148197836992 0 0.067853695646582016 -0.28620356249784679 0 0.066214989649419603 -0.27316028682740479 0 0.052582719881183543 -0.27948148197836992 0 0.05341834128670471 -0.26222533989734959 0 0.052582719881183543 -0.27948148197836992 0 0.028317708997288939 -0.2654861731325095 0 0.036539995597899583 -0.28735292316580879 0 0.052582719881183543 -0.27948148197836992 0 0.028317708997288939 -0.2654861731325095 0 0.028317708997288939 -0.2654861731325095 0 0.026822654761378281 -0.24010580347910071 0 0.041504830166615332 -0.24909079072316551 0 0.05341834128670471 -0.26222533989734959 0 0.028317708997288939 -0.2654861731325095 0 0.041504830166615332 -0.24909079072316551 0 0.05341834128670471 -0.26222533989734959 0 0.028317708997288939 -0.2654861731325095 0 0.028317708997288939 -0.2654861731325095 0 0.01150473642008854 -0.25100487296640661 0 0.026822654761378281 -0.24010580347910071 0 0.028317708997288939 -0.2654861731325095 0 0.015670532879786751 -0.2762907948651831 0 0.0049597396345670026 -0.26452376434945218 0 0.036539995597899583 -0.28735292316580879 0 0.028317708997288939 -0.2654861731325095 0 0.015670532879786751 -0.2762907948651831 0 -0.002131649244152236 -0.27375645946249172 0 0.015670532879786751 -0.2762907948651831 0 0.0049597396345670026 -0.26452376434945218 0 -0.002131649244152236 -0.27375645946249172 0 0.001953977901653102 -0.28749824366549498 0 0.015670532879786751 -0.2762907948651831 0 -0.0050603712554523096 -0.25502580822232418 0 0.01150473642008854 -0.25100487296640661 0 0.0049597396345670026 -0.26452376434945218 0 0.028317708997288939 -0.2654861731325095 0 0.01150473642008854 -0.25100487296640661 0 0.0049597396345670026 -0.26452376434945218 0 -0.0050603712554523096 -0.25502580822232418 0 -0.0012779613340340411 -0.24176494305706761 0 0.01150473642008854 -0.25100487296640661 0 -0.0012779613340340411 -0.24176494305706761 0 0.01150473642008854 -0.25100487296640661 0 0.01227448810303049 -0.23689425083746071 0 -0.0012779613340340411 -0.24176494305706761 0 -0.0016127085748020571 -0.22712480654777251 0 0.01227448810303049 -0.23689425083746071 0 -0.0016127085748020571 -0.22712480654777251 0 0.01227448810303049 -0.23689425083746071 0 0.01698840492239578 -0.2228903554452914 0 -0.0016127085748020571 -0.22712480654777251 0 0.01698840492239578 -0.2228903554452914 0 0.0064561243882930407 -0.21561537692257879 0 0.01227448810303049 -0.23689425083746071 0 0.01698840492239578 -0.2228903554452914 0 0.026822654761378281 -0.24010580347910071 0 0.01698840492239578 -0.2228903554452914 0 0.026822654761378281 -0.24010580347910071 0 0.034262553780134708 -0.21981152268886431 0 0.01150473642008854 -0.25100487296640661 0 0.01227448810303049 -0.23689425083746071 0 0.026822654761378281 -0.24010580347910071 0 -0.0048422933519348798 -0.20657909219758999 0 0.01498437965793468 -0.2009023489100171 0 0.0039750345954989988 -0.18651425943902311 0 0.01498437965793468 -0.2009023489100171 0 0.019555974831457788 -0.18489329081675979 0 0.0039750345954989988 -0.18651425943902311 0 -0.0048422933519348798 -0.20657909219758999 0 0.01498437965793468 -0.2009023489100171 0 0.0064561243882930407 -0.21561537692257879 0 0.01498437965793468 -0.2009023489100171 0 0.0064561243882930407 -0.21561537692257879 0 0.022166629418003729 -0.2118345471400416 0 0.01698840492239578 -0.2228903554452914 0 0.0064561243882930407 -0.21561537692257879 0 0.022166629418003729 -0.2118345471400416 0 -0.0016127085748020571 -0.22712480654777251 0 -0.0048422933519348798 -0.20657909219758999 0 0.0064561243882930407 -0.21561537692257879 0 0.01698840492239578 -0.2228903554452914 0 0.022166629418003729 -0.2118345471400416 0 0.034262553780134708 -0.21981152268886431 0 0.01498437965793468 -0.2009023489100171 0 0.022166629418003729 -0.2118345471400416 0 0.031897636722889637 -0.2043381853445167 0 0.022166629418003729 -0.2118345471400416 0 0.031897636722889637 -0.2043381853445167 0 0.034262553780134708 -0.21981152268886431 0 0.01498437965793468 -0.2009023489100171 0 0.027972004457906641 -0.19290593557317351 0 0.019555974831457788 -0.18489329081675979 0 0.01498437965793468 -0.2009023489100171 0 0.027972004457906641 -0.19290593557317351 0 0.031897636722889637 -0.2043381853445167 0 0.056528756629579638 -0.1979931783792292 0 0.033889281643562412 -0.17857272488157999 0 0.027972004457906641 -0.19290593557317351 0 0.03953274943368866 -0.19582312791299369 0 0.033889281643562412 -0.17857272488157999 0 0.03953274943368866 -0.19582312791299369 0 0.044202360045936313 -0.20737869318372881 0 0.056528756629579638 -0.1979931783792292 0 0.03953274943368866 -0.19582312791299369 0 0.056528756629579638 -0.1979931783792292 0 0.033889281643562412 -0.17857272488157999 0 0.027972004457906641 -0.19290593557317351 0 0.03953274943368866 -0.19582312791299369 0 0.031897636722889637 -0.2043381853445167 0 0.03953274943368866 -0.19582312791299369 0 0.044202360045936313 -0.20737869318372881 0 0.031897636722889637 -0.2043381853445167 0 0.044202360045936313 -0.20737869318372881 0 0.034262553780134708 -0.21981152268886431 0 0.055491951515289413 -0.2194038988852694 0 0.044202360045936313 -0.20737869318372881 0 0.031897636722889637 -0.2043381853445167 0 0.034262553780134708 -0.21981152268886431 0 0.058246448850680657 -0.19946663842738771 0 0.055491951515289413 -0.2194038988852694 0 0.066041136181110544 -0.21386160323267189 0 0.056528756629579638 -0.1979931783792292 0 0.055491951515289413 -0.2194038988852694 0 0.058246448850680657 -0.19946663842738771 0 0.056528756629579638 -0.1979931783792292 0 0.055491951515289413 -0.2194038988852694 0 0.044202360045936313 -0.20737869318372881 0 0.056528756629579638 -0.1979931783792292 0 0.055491951515289413 -0.2194038988852694 0 0.056528756629579638 -0.1979931783792292 0 0.057329549479635908 -0.18145626931170691 0 0.056528756629579638 -0.1979931783792292 0 0.065123946871468164 -0.19127238357693871 0 0.057329549479635908 -0.18145626931170691 0 0.058246448850680657 -0.19946663842738771 0 0.056528756629579638 -0.1979931783792292 0 0.065123946871468164 -0.19127238357693871 0 0.058246448850680657 -0.19946663842738771 0 0.056528756629579638 -0.1979931783792292 0 0.041504830166615332 -0.24909079072316551 0 0.041828765002810943 -0.233037808058844 0 0.054455146400998369 -0.2408146193913096 0 0.026822654761378281 -0.24010580347910071 0 0.041504830166615332 -0.24909079072316551 0 0.041828765002810943 -0.233037808058844 0 0.041828765002810943 -0.233037808058844 0 0.034262553780134708 -0.21981152268886431 0 0.055491951515289413 -0.2194038988852694 0 0.026822654761378281 -0.24010580347910071 0 0.041828765002810943 -0.233037808058844 0 0.034262553780134708 -0.21981152268886431 0 0.055491951515289413 -0.2194038988852694 0 0.054455146400998369 -0.2408146193913096 0 0.070056056729074334 -0.23044917593339351 0 0.055491951515289413 -0.2194038988852694 0 0.054455146400998369 -0.2408146193913096 0 0.041828765002810943 -0.233037808058844 0 0.055491951515289413 -0.2194038988852694 0 0.054455146400998369 -0.2408146193913096 0 0.05341834128670471 -0.26222533989734959 0 0.054455146400998369 -0.2408146193913096 0 0.071841433176306951 -0.24693042426755701 0 0.071841433176306951 -0.24693042426755701 0 0.078351655706027534 -0.24017870186704479 0 0.070056056729074334 -0.23044917593339351 0 0.054455146400998369 -0.2408146193913096 0 0.071841433176306951 -0.24693042426755701 0 0.070056056729074334 -0.23044917593339351 0 0.078351655706027534 -0.24017870186704479 0 0.084005261436397555 -0.23414661223377431 0 0.070056056729074334 -0.23044917593339351 0 0.071841433176306951 -0.24693042426755701 0 0.078351655706027534 -0.24017870186704479 0 0.087503871482331325 -0.24918859503345439 0 0.084005261436397555 -0.23414661223377431 0 0.09726841460880753 -0.24973530510077291 0 0.098224276789357245 -0.22202348732504129 0 0.078351655706027534 -0.24017870186704479 0 0.087503871482331325 -0.24918859503345439 0 0.084005261436397555 -0.23414661223377431 0 0.087503871482331325 -0.24918859503345439 0 0.084005261436397555 -0.23414661223377431 0 0.09726841460880753 -0.24973530510077291 0 0.087503871482331325 -0.24918859503345439 0 0.09726841460880753 -0.24973530510077291 0 0.084005261436397555 -0.23414661223377431 0 0.077944909524616218 -0.21644665818138251 0 0.098224276789357245 -0.22202348732504129 0 0.084005261436397555 -0.23414661223377431 0 0.070056056729074334 -0.23044917593339351 0 0.077944909524616218 -0.21644665818138251 0 0.070056056729074334 -0.23044917593339351 0 0.066041136181110544 -0.21386160323267189 0 0.077944909524616218 -0.21644665818138251 0 0.055491951515289413 -0.2194038988852694 0 0.070056056729074334 -0.23044917593339351 0 0.066041136181110544 -0.21386160323267189 0 0.058246448850680657 -0.19946663842738771 0 0.066041136181110544 -0.21386160323267189 0 0.071428190199665467 -0.20133585635874521 0 0.066041136181110544 -0.21386160323267189 0 0.077944909524616218 -0.21644665818138251 0 0.071428190199665467 -0.20133585635874521 0 0.058246448850680657 -0.19946663842738771 0 0.065123946871468164 -0.19127238357693871 0 0.071428190199665467 -0.20133585635874521 0 0.065123946871468164 -0.19127238357693871 0 0.071428190199665467 -0.20133585635874521 0 0.077775677467109644 -0.1894438906232867 0 0.077775677467109644 -0.1894438906232867 0 0.085264727641627694 -0.2009309552866074 0 0.087035172899110766 -0.18202416968187909 0 0.085264727641627694 -0.2009309552866074 0 0.099180138969906934 -0.19431166954930951 0 0.087035172899110766 -0.18202416968187909 0 0.071428190199665467 -0.20133585635874521 0 0.077775677467109644 -0.1894438906232867 0 0.085264727641627694 -0.2009309552866074 0 0.077944909524616218 -0.21644665818138251 0 0.085264727641627694 -0.2009309552866074 0 0.098224276789357245 -0.22202348732504129 0 0.077944909524616218 -0.21644665818138251 0 0.071428190199665467 -0.20133585635874521 0 0.085264727641627694 -0.2009309552866074 0 0.085264727641627694 -0.2009309552866074 0 0.099180138969906934 -0.19431166954930951 0 0.098224276789357245 -0.22202348732504129 0 0.099180138969906934 -0.19431166954930951 0 0.11354412200005309 -0.20878294345574169 0 0.098224276789357245 -0.22202348732504129 0 0.099180138969906934 -0.19431166954930951 0 0.098224276789357245 -0.22202348732504129 0 0.099180138969906934 -0.19431166954930951 0 0.1232396379011078 -0.1927549034493776 0 0.1116878195257827 -0.17967737761147759 0 0.099180138969906934 -0.19431166954930951 0 0.1232396379011078 -0.1927549034493776 0 0.11354412200005309 -0.20878294345574169 0 0.1232396379011078 -0.1927549034493776 0 0.11354412200005309 -0.20878294345574169 0 0.1296813367821156 -0.2112782106774091 0 0.11354412200005309 -0.20878294345574169 0 0.11925867152865099 -0.22395178641925401 0 0.1296813367821156 -0.2112782106774091 0 0.11354412200005309 -0.20878294345574169 0 0.11925867152865099 -0.22395178641925401 0 0.098224276789357245 -0.22202348732504129 0 0.11925867152865099 -0.22395178641925401 0 0.1115141746540584 -0.23685798868452451 0 0.098224276789357245 -0.22202348732504129 0 0.11925867152865099 -0.22395178641925401 0 0.1115141746540584 -0.23685798868452451 0 0.12727927076528461 -0.2378210325384271 0 0.1155402395781918 -0.2507583320391269 0 0.1115141746540584 -0.23685798868452451 0 0.12727927076528461 -0.2378210325384271 0 0.09726841460880753 -0.24973530510077291 0 0.098224276789357245 -0.22202348732504129 0 0.1115141746540584 -0.23685798868452451 0 0.09726841460880753 -0.24973530510077291 0 0.098224276789357245 -0.22202348732504129 0 0.1155402395781918 -0.2507583320391269 0 0.1115141746540584 -0.23685798868452451 0 0.09726841460880753 -0.24973530510077291 0 0.1006234008225292 -0.15246943509712671 0 0.1001360011504572 -0.16659985177357781 0 0.083956960864695562 -0.1482839632705675 0 0.093837558922739497 -0.14264619108299431 0 0.1006234008225292 -0.15246943509712671 0 0.1028307954559992 -0.13579239345953559 0 0.1006234008225292 -0.15246943509712671 0 0.1028307954559992 -0.13579239345953559 0 0.1133439292462652 -0.14669813101470161 0 0.1006234008225292 -0.15246943509712671 0 0.1133439292462652 -0.14669813101470161 0 0.1122920085546638 -0.16227381202107721 0 0.093837558922739497 -0.14264619108299431 0 0.1028307954559992 -0.13579239345953559 0 0.086025777066828416 -0.13071312073542821 0 0.1028307954559992 -0.13579239345953559 0 0.086025777066828416 -0.13071312073542821 0 0.1003755091591467 -0.120365047089626 0 0.1028307954559992 -0.13579239345953559 0 0.1110772144577262 -0.12607447494648069 0 0.1003755091591467 -0.120365047089626 0 0.1028307954559992 -0.13579239345953559 0 0.1110772144577262 -0.12607447494648069 0 0.1195920268695274 -0.13435801890873961 0 0.1028307954559992 -0.13579239345953559 0 0.1195920268695274 -0.13435801890873961 0 0.1133439292462652 -0.14669813101470161 0 0.1110772144577262 -0.12607447494648069 0 0.1195920268695274 -0.13435801890873961 0 0.125059882544757 -0.1243050716586782 0 0.1195920268695274 -0.13435801890873961 0 0.1133439292462652 -0.14669813101470161 0 0.12550759679471971 -0.14428239988351421 0 0.1133439292462652 -0.14669813101470161 0 0.1238726331408222 -0.15597973401630799 0 0.1122920085546638 -0.16227381202107721 0 0.1133439292462652 -0.14669813101470161 0 0.1238726331408222 -0.15597973401630799 0 0.12550759679471971 -0.14428239988351421 0 0.1122920085546638 -0.16227381202107721 0 0.1240882674421261 -0.17221834261327171 0 0.1116878195257827 -0.17967737761147759 0 0.1238726331408222 -0.15597973401630799 0 0.1122920085546638 -0.16227381202107721 0 0.1240882674421261 -0.17221834261327171 0 0.1232396379011078 -0.1927549034493776 0 0.1240882674421261 -0.17221834261327171 0 0.1116878195257827 -0.17967737761147759 0 0.1232396379011078 -0.1927549034493776 0 0.1116878195257827 -0.17967737761147759 0 0.099180138969906934 -0.19431166954930951 0 0.1116878195257827 -0.17967737761147759 0 0.1001360011504572 -0.16659985177357781 0 0.099180138969906934 -0.19431166954930951 0 0.1001360011504572 -0.16659985177357781 0 0.099180138969906934 -0.19431166954930951 0 0.1001360011504572 -0.16659985177357781 0 0.087035172899110766 -0.18202416968187909 0 0.1116878195257827 -0.17967737761147759 0 0.1001360011504572 -0.16659985177357781 0 0.1122920085546638 -0.16227381202107721 0 0.1116878195257827 -0.17967737761147759 0 0.1001360011504572 -0.16659985177357781 0 0.1006234008225292 -0.15246943509712671 0 0.1122920085546638 -0.16227381202107721 0 0.1001360011504572 -0.16659985177357781 0 0.1006234008225292 -0.15246943509712671 0 0.1001360011504572 -0.16659985177357781 0 0.1001360011504572 -0.16659985177357781 0 0.083956960864695562 -0.1482839632705675 0 0.1001360011504572 -0.16659985177357781 0 0.079225084705666013 -0.1675683830972868 0 0.083956960864695562 -0.1482839632705675 0 0.077775677467109644 -0.1894438906232867 0 0.087035172899110766 -0.18202416968187909 0 0.070769962292113645 -0.17944740942254711 0 0.079225084705666013 -0.1675683830972868 0 0.087035172899110766 -0.18202416968187909 0 0.070769962292113645 -0.17944740942254711 0 0.1001360011504572 -0.16659985177357781 0 0.079225084705666013 -0.1675683830972868 0 0.087035172899110766 -0.18202416968187909 0 0.065123946871468164 -0.19127238357693871 0 0.077775677467109644 -0.1894438906232867 0 0.070769962292113645 -0.17944740942254711 0 0.065123946871468164 -0.19127238357693871 0 0.070769962292113645 -0.17944740942254711 0 0.057329549479635908 -0.18145626931170691 0 0.079225084705666013 -0.1675683830972868 0 0.069844290743162202 -0.15572535069481899 0 0.058130342329691373 -0.1649193602441846 0 0.079225084705666013 -0.1675683830972868 0 0.069844290743162202 -0.15572535069481899 0 0.083956960864695562 -0.1482839632705675 0 0.079225084705666013 -0.1675683830972868 0 0.070769962292113645 -0.17944740942254711 0 0.058130342329691373 -0.1649193602441846 0 0.069844290743162202 -0.15572535069481899 0 0.065690713085214791 -0.1421362209973312 0 0.083956960864695562 -0.1482839632705675 0 0.069844290743162202 -0.15572535069481899 0 0.065690713085214791 -0.1421362209973312 0 0.055338914955394031 -0.1557955185274518 0 0.093837558922739497 -0.14264619108299431 0 0.1006234008225292 -0.15246943509712671 0 0.083956960864695562 -0.1482839632705675 0 0.083956960864695562 -0.1482839632705675 0 0.086025777066828416 -0.13071312073542821 0 0.067777920578933518 -0.1299680747675574 0 0.093837558922739497 -0.14264619108299431 0 0.083956960864695562 -0.1482839632705675 0 0.086025777066828416 -0.13071312073542821 0 0.083956960864695562 -0.1482839632705675 0 0.067777920578933518 -0.1299680747675574 0 0.065690713085214791 -0.1421362209973312 0 0.083956960864695562 -0.1482839632705675 0 0.067777920578933518 -0.1299680747675574 0 0.086025777066828416 -0.13071312073542821 0 0.067777920578933518 -0.1299680747675574 0 0.076734835755005087 -0.11970758577673089 0 0.067777920578933518 -0.1299680747675574 0 0.053441304474890289 -0.13464385441717969 0 0.05399936433302991 -0.12122894057442581 0 0.053441304474890289 -0.13464385441717969 0 0.041268264505893618 -0.12924178955595211 0 0.05399936433302991 -0.12122894057442581 0 0.065690713085214791 -0.1421362209973312 0 0.067777920578933518 -0.1299680747675574 0 0.053441304474890289 -0.13464385441717969 0 0.065690713085214791 -0.1421362209973312 0 0.055338914955394031 -0.1557955185274518 0 0.0384702598713796 -0.15064424619063199 0 0.065690713085214791 -0.1421362209973312 0 0.0384702598713796 -0.15064424619063199 0 0.065690713085214791 -0.1421362209973312 0 0.053441304474890289 -0.13464385441717969 0 0.0384702598713796 -0.15064424619063199 0 0.053441304474890289 -0.13464385441717969 0 0.0384702598713796 -0.15064424619063199 0 0.041268264505893618 -0.12924178955595211 0 0.0384702598713796 -0.15064424619063199 0 0.041268264505893618 -0.12924178955595211 0 0.015842377588640461 -0.12995768139491151 0 0.057329549479635908 -0.18145626931170691 0 0.058130342329691373 -0.1649193602441846 0 0.056528756629579638 -0.1979931783792292 0 0.057329549479635908 -0.18145626931170691 0 0.033889281643562412 -0.17857272488157999 0 0.070769962292113645 -0.17944740942254711 0 0.057329549479635908 -0.18145626931170691 0 0.058130342329691373 -0.1649193602441846 0 0.057329549479635908 -0.18145626931170691 0 0.058130342329691373 -0.1649193602441846 0 0.04455896874752216 -0.16555241451029229 0 0.069844290743162202 -0.15572535069481899 0 0.055338914955394031 -0.1557955185274518 0 0.058130342329691373 -0.1649193602441846 0 0.055338914955394031 -0.1557955185274518 0 0.058130342329691373 -0.1649193602441846 0 0.04455896874752216 -0.16555241451029229 0 0.055338914955394031 -0.1557955185274518 0 0.0384702598713796 -0.15064424619063199 0 0.04455896874752216 -0.16555241451029229 0 0.0384702598713796 -0.15064424619063199 0 0.031574010555557599 -0.1635538019881777 0 0.04455896874752216 -0.16555241451029229 0 0.031574010555557599 -0.1635538019881777 0 0.04455896874752216 -0.16555241451029229 0 0.033889281643562412 -0.17857272488157999 0 0.057329549479635908 -0.18145626931170691 0 0.04455896874752216 -0.16555241451029229 0 0.033889281643562412 -0.17857272488157999 0 0.033889281643562412 -0.17857272488157999 0 0.019555974831457788 -0.18489329081675979 0 0.017860935761059481 -0.17540941327727391 0 0.033889281643562412 -0.17857272488157999 0 0.017860935761059481 -0.17540941327727391 0 0.018922444694438611 -0.16573396598117041 0 0.027972004457906641 -0.19290593557317351 0 0.033889281643562412 -0.17857272488157999 0 0.019555974831457788 -0.18489329081675979 0 0.033889281643562412 -0.17857272488157999 0 0.018922444694438611 -0.16573396598117041 0 0.0384702598713796 -0.15064424619063199 0 0.031574010555557599 -0.1635538019881777 0 0.011249806657544249 -0.1591522713839319 0 0.031574010555557599 -0.1635538019881777 0 0.018922444694438611 -0.16573396598117041 0 0.011249806657544249 -0.1591522713839319 0 0.031574010555557599 -0.1635538019881777 0 0.033889281643562412 -0.17857272488157999 0 0.018922444694438611 -0.16573396598117041 0 0.018922444694438611 -0.16573396598117041 0 0.011249806657544249 -0.1591522713839319 0 0.0051361497124387812 -0.16106315607433669 0 0.018922444694438611 -0.16573396598117041 0 0.0051361497124387812 -0.16106315607433669 0 0.018922444694438611 -0.16573396598117041 0 0.011249806657544249 -0.1591522713839319 0 0.011249806657544249 -0.1591522713839319 0 0.0051361497124387812 -0.16106315607433669 0 0.011249806657544249 -0.1591522713839319 0 0.0051361497124387812 -0.16106315607433669 0 0.00014451492137988051 -0.1496259991592768 0 -0.001198061652550745 -0.17280609881212911 0 0.0051361497124387812 -0.16106315607433669 0 0.0083362452288298274 -0.17396118646513589 0 0.018922444694438611 -0.16573396598117041 0 0.0051361497124387812 -0.16106315607433669 0 0.0083362452288298274 -0.17396118646513589 0 0.017860935761059481 -0.17540941327727391 0 0.018922444694438611 -0.16573396598117041 0 0.0083362452288298274 -0.17396118646513589 0 0.019555974831457788 -0.18489329081675979 0 0.017860935761059481 -0.17540941327727391 0 0.0083362452288298274 -0.17396118646513589 0 -0.001198061652550745 -0.17280609881212911 0 0.0083362452288298274 -0.17396118646513589 0 0.0039750345954989988 -0.18651425943902311 0 0.019555974831457788 -0.18489329081675979 0 0.0083362452288298274 -0.17396118646513589 0 0.0039750345954989988 -0.18651425943902311 0 0.041268264505893618 -0.12924178955595211 0 0.015842377588640461 -0.12995768139491151 0 0.0384702598713796 -0.15064424619063199 0 0.015842377588640461 -0.12995768139491151 0 0.011224689942066299 -0.1440107542725246 0 0.0384702598713796 -0.15064424619063199 0 0.011249806657544249 -0.1591522713839319 0 0.011224689942066299 -0.1440107542725246 0 0.0384702598713796 -0.15064424619063199 0 0.011249806657544249 -0.1591522713839319 0 -0.0095835093286126792 -0.13067357323387099 0 0.011224689942066299 -0.1440107542725246 0 0.00014451492137988051 -0.1496259991592768 0 0.011249806657544249 -0.1591522713839319 0 0.00014451492137988051 -0.1496259991592768 0 0.011249806657544249 -0.1591522713839319 0 0.011224689942066299 -0.1440107542725246 0 0.00014451492137988051 -0.1496259991592768 0 -0.0095835093286126792 -0.13067357323387099 0 0.015842377588640461 -0.12995768139491151 0 -0.0095835093286126792 -0.13067357323387099 0 0.015842377588640461 -0.12995768139491151 0 0.011224689942066299 -0.1440107542725246 0 -0.004447001458793981 -0.1103644265276268 0 -0.0095835093286126792 -0.13067357323387099 0 0.015842377588640461 -0.12995768139491151 0 -0.004447001458793981 -0.1103644265276268 0 0.015842377588640461 -0.12995768139491151 0 0.019064047731892519 -0.1027428983621612 0 0.015842377588640461 -0.12995768139491151 0 0.019064047731892519 -0.1027428983621612 0 0.037106240101941267 -0.1127949235512794 0 0.019064047731892519 -0.1027428983621612 0 0.037234516137291472 -0.08975442686183864 0 0.037106240101941267 -0.1127949235512794 0 -0.004447001458793981 -0.1103644265276268 0 0.019064047731892519 -0.1027428983621612 0 -0.0041979068999104599 -0.092692987180200151 0 -0.004447001458793981 -0.1103644265276268 0 0.019064047731892519 -0.1027428983621612 0 -0.0041979068999104599 -0.092692987180200151 0 0.003886405537072308 -0.074985287574065307 0 0.019828086476746741 -0.084468472620665633 0 -0.0041979068999104599 -0.092692987180200151 0 0.019064047731892519 -0.1027428983621612 0 0.019828086476746741 -0.084468472620665633 0 0.003886405537072308 -0.074985287574065307 0 0.028295076817156449 -0.069568801619081161 0 0.019828086476746741 -0.084468472620665633 0 0.003886405537072308 -0.074985287574065307 0 0.028295076817156449 -0.069568801619081161 0 0.01833358543460277 -0.05641701057889667 0 0.019064047731892519 -0.1027428983621612 0 0.019828086476746741 -0.084468472620665633 0 0.037234516137291472 -0.08975442686183864 0 0.028295076817156449 -0.069568801619081161 0 0.019828086476746741 -0.084468472620665633 0 0.037234516137291472 -0.08975442686183864 0 0.028295076817156449 -0.069568801619081161 0 0.037234516137291472 -0.08975442686183864 0 0.056852127489792813 -0.07490730178705754 0 0.028295076817156449 -0.069568801619081161 0 0.056852127489792813 -0.07490730178705754 0 0.043412112850471737 -0.054930671915401803 0 0.056852127489792813 -0.07490730178705754 0 0.043412112850471737 -0.054930671915401803 0 0.062505798999464707 -0.060826586793076412 0 0.056852127489792813 -0.07490730178705754 0 0.055228870314899682 -0.103843804558387 0 0.070281085843191191 -0.093817275438188408 0 0.037234516137291472 -0.08975442686183864 0 0.056852127489792813 -0.07490730178705754 0 0.055228870314899682 -0.103843804558387 0 0.055228870314899682 -0.103843804558387 0 0.05399936433302991 -0.12122894057442581 0 0.037106240101941267 -0.1127949235512794 0 0.055228870314899682 -0.103843804558387 0 0.05399936433302991 -0.12122894057442581 0 0.065906963652981487 -0.1182248878619804 0 0.041268264505893618 -0.12924178955595211 0 0.05399936433302991 -0.12122894057442581 0 0.037106240101941267 -0.1127949235512794 0 0.041268264505893618 -0.12924178955595211 0 0.015842377588640461 -0.12995768139491151 0 0.037106240101941267 -0.1127949235512794 0 0.037234516137291472 -0.08975442686183864 0 0.055228870314899682 -0.103843804558387 0 0.037106240101941267 -0.1127949235512794 0 0.030110906951190688 -0.01173386609504996 0 0.0045774522161646097 -0.0093144947699853528 0 0.019230231732056138 -0.023667566818530359 0 0.018044735406519189 -0.0027914786915071068 0 0.030110906951190688 -0.01173386609504996 0 0.0045774522161646097 -0.0093144947699853528 0 0.035622497167505339 0.0063925700628825917 0 0.018044735406519189 -0.0027914786915071068 0 0.030110906951190688 -0.01173386609504996 0 0.030110906951190688 -0.01173386609504996 0 0.0045774522161646097 -0.0093144947699853528 0 0.018044735406519189 -0.0027914786915071068 0 0.002394805847480138 -0.0071764921779012506 0 0.0045774522161646097 -0.0093144947699853528 0 0.0006213327713558641 -0.0089396406014967747 0 0.0045774522161646097 -0.0093144947699853528 0 0.0014199230119024339 -0.021574900853890581 0 0.002394805847480138 -0.0071764921779012506 0 0.0006213327713558641 -0.0089396406014967747 0 0.0045774522161646097 -0.0093144947699853528 0 0.0006213327713558641 -0.0089396406014967747 0 0.0045774522161646097 -0.0093144947699853528 0 -0.001488115343110989 -0.0087397640735148233 0 0.002394805847480138 -0.0071764921779012506 0 0.0006213327713558641 -0.0089396406014967747 0 0.002394805847480138 -0.0071764921779012506 0 0.0006213327713558641 -0.0089396406014967747 0 0.002394805847480138 -0.0071764921779012506 0 0.0045774522161646097 -0.0093144947699853528 0 0.0045774522161646097 -0.0093144947699853528 0 0.019230231732056138 -0.023667566818530359 0 0.0045774522161646097 -0.0093144947699853528 0 0.0014199230119024339 -0.021574900853890581 0 0.019230231732056138 -0.023667566818530359 0 0.0014199230119024339 -0.021574900853890581 0 0.0083973707027768379 -0.030855929703784798 0 0.019230231732056138 -0.023667566818530359 0 -0.003476286599935095 -0.036271506326322138 0 0.0014199230119024339 -0.021574900853890581 0 0.0083973707027768379 -0.030855929703784798 0 0.030110906951190688 -0.01173386609504996 0 0.019230231732056138 -0.023667566818530359 0 0.031518170358815163 -0.024102367719011381 0 0.019230231732056138 -0.023667566818530359 0 0.033883011247947889 -0.038020638867075192 0 0.031518170358815163 -0.024102367719011381 0 0.019230231732056138 -0.023667566818530359 0 0.033883011247947889 -0.038020638867075192 0 0.01494251690265052 -0.041372340822573933 0 0.01833358543460277 -0.05641701057889667 0 0.033883011247947889 -0.038020638867075192 0 0.019230231732056138 -0.023667566818530359 0 0.01494251690265052 -0.041372340822573933 0 0.033883011247947889 -0.038020638867075192 0 -0.003476286599935095 -0.036271506326322138 0 -0.00022463716734756899 -0.054496453091326037 0 0.01494251690265052 -0.041372340822573933 0 -0.003476286599935095 -0.036271506326322138 0 0.0083973707027768379 -0.030855929703784798 0 0.01494251690265052 -0.041372340822573933 0 0.0083973707027768379 -0.030855929703784798 0 0.019230231732056138 -0.023667566818530359 0 0.01494251690265052 -0.041372340822573933 0 -0.00022463716734756899 -0.054496453091326037 0 0.003886405537072308 -0.074985287574065307 0 0.01833358543460277 -0.05641701057889667 0 -0.00022463716734756899 -0.054496453091326037 0 0.01494251690265052 -0.041372340822573933 0 0.01833358543460277 -0.05641701057889667 0 0.028295076817156449 -0.069568801619081161 0 0.01833358543460277 -0.05641701057889667 0 0.043412112850471737 -0.054930671915401803 0 0.01833358543460277 -0.05641701057889667 0 0.043412112850471737 -0.054930671915401803 0 0.033883011247947889 -0.038020638867075192 0 0.043412112850471737 -0.054930671915401803 0 0.059769218069649313 -0.045902054602901338 0 0.062505798999464707 -0.060826586793076412 0 0.043412112850471737 -0.054930671915401803 0 0.059769218069649313 -0.045902054602901338 0 0.051344651808144813 -0.03456126235542302 0 0.051344651808144813 -0.03456126235542302 0 0.056061594203691133 -0.025076371103657479 0 0.065665228365204262 -0.034364577790676212 0 0.059769218069649313 -0.045902054602901338 0 0.051344651808144813 -0.03456126235542302 0 0.065665228365204262 -0.034364577790676212 0 0.043412112850471737 -0.054930671915401803 0 0.051344651808144813 -0.03456126235542302 0 0.033883011247947889 -0.038020638867075192 0 0.051344651808144813 -0.03456126235542302 0 0.033883011247947889 -0.038020638867075192 0 0.042848531504065902 -0.022987399095390042 0 0.030110906951190688 -0.01173386609504996 0 0.042848531504065902 -0.022987399095390042 0 0.055644361686216767 -0.014153237420114781 0 0.033883011247947889 -0.038020638867075192 0 0.031518170358815163 -0.024102367719011381 0 0.042848531504065902 -0.022987399095390042 0 0.030110906951190688 -0.01173386609504996 0 0.031518170358815163 -0.024102367719011381 0 0.042848531504065902 -0.022987399095390042 0 0.051344651808144813 -0.03456126235542302 0 0.042848531504065902 -0.022987399095390042 0 0.056061594203691133 -0.025076371103657479 0 0.056061594203691133 -0.025076371103657479 0 0.064805197654823885 -0.019315378856683371 0 0.065665228365204262 -0.034364577790676212 0 0.056061594203691133 -0.025076371103657479 0 0.055644361686216767 -0.014153237420114781 0 0.064805197654823885 -0.019315378856683371 0 0.042848531504065902 -0.022987399095390042 0 0.056061594203691133 -0.025076371103657479 0 0.055644361686216767 -0.014153237420114781 0 0.055644361686216767 -0.014153237420114781 0 0.058196269712748661 -0.0010094984802769141 0 0.069352637037845374 -0.0058266927155855106 0 0.055644361686216767 -0.014153237420114781 0 0.058196269712748661 -0.0010094984802769141 0 0.045210290485040869 -0.0034719151203993228 0 0.030110906951190688 -0.01173386609504996 0 0.055644361686216767 -0.014153237420114781 0 0.045210290485040869 -0.0034719151203993228 0 0.035622497167505339 0.0063925700628825917 0 0.030110906951190688 -0.01173386609504996 0 0.045210290485040869 -0.0034719151203993228 0 0.030110906951190688 -0.01173386609504996 0 0.055644361686216767 -0.014153237420114781 0 0.096167504599054904 0.0042442054759202954 0 0.081717153665888317 -0.0025063239881197622 0 0.095472413630543998 -0.0072730453323191883 0 0.081717153665888317 -0.0025063239881197622 0 0.081177816421242804 -0.016572608745179591 0 0.095472413630543998 -0.0072730453323191883 0 0.055644361686216767 -0.014153237420114781 0 0.081177816421242804 -0.016572608745179591 0 0.055644361686216767 -0.014153237420114781 0 0.069352637037845374 -0.0058266927155855106 0 0.081177816421242804 -0.016572608745179591 0 0.070381517258247442 0.0054324954822656396 0 0.081717153665888317 -0.0025063239881197622 0 0.069352637037845374 -0.0058266927155855106 0 0.070381517258247442 0.0054324954822656396 0 0.058196269712748661 -0.0010094984802769141 0 0.069352637037845374 -0.0058266927155855106 0 0.081717153665888317 -0.0025063239881197622 0 0.069352637037845374 -0.0058266927155855106 0 0.081177816421242804 -0.016572608745179591 0 0.064805197654823885 -0.019315378856683371 0 0.085712771491518958 -0.038211511484016539 0 0.065665228365204262 -0.034364577790676212 0 0.064805197654823885 -0.019315378856683371 0 0.076287907678157074 -0.023986159701047009 0 0.081177816421242804 -0.016572608745179591 0 0.055644361686216767 -0.014153237420114781 0 0.064805197654823885 -0.019315378856683371 0 0.081177816421242804 -0.016572608745179591 0 0.064805197654823885 -0.019315378856683371 0 0.076287907678157074 -0.023986159701047009 0 0.085712771491518958 -0.038211511484016539 0 0.064805197654823885 -0.019315378856683371 0 0.085712771491518958 -0.038211511484016539 0 0.076287907678157074 -0.023986159701047009 0 0.090532384742726735 -0.027505059676875141 0 0.085712771491518958 -0.038211511484016539 0 0.076287907678157074 -0.023986159701047009 0 0.085712771491518958 -0.038211511484016539 0 0.081177816421242804 -0.016572608745179591 0 0.090532384742726735 -0.027505059676875141 0 0.1067112711562688 -0.01899198007024441 0 0.076287907678157074 -0.023986159701047009 0 0.081177816421242804 -0.016572608745179591 0 0.090532384742726735 -0.027505059676875141 0 0.090532384742726735 -0.027505059676875141 0 0.085712771491518958 -0.038211511484016539 0 0.102772156966446 -0.039763038383888151 0 0.085712771491518958 -0.038211511484016539 0 0.07267749436203183 -0.048188407729665747 0 0.085132366133298415 -0.052458296335176707 0 0.085712771491518958 -0.038211511484016539 0 0.065665228365204262 -0.034364577790676212 0 0.07267749436203183 -0.048188407729665747 0 0.059769218069649313 -0.045902054602901338 0 0.065665228365204262 -0.034364577790676212 0 0.07267749436203183 -0.048188407729665747 0 0.059769218069649313 -0.045902054602901338 0 0.07267749436203183 -0.048188407729665747 0 0.062505798999464707 -0.060826586793076412 0 0.07267749436203183 -0.048188407729665747 0 0.062505798999464707 -0.060826586793076412 0 0.07727958311305537 -0.057367419372147309 0 0.085712771491518958 -0.038211511484016539 0 0.098207536939253007 -0.057070397666300149 0 0.07727958311305537 -0.057367419372147309 0 0.085132366133298415 -0.052458296335176707 0 0.088807886296056321 -0.06442462200908719 0 0.085712771491518958 -0.038211511484016539 0 0.085132366133298415 -0.052458296335176707 0 0.098207536939253007 -0.057070397666300149 0 0.07267749436203183 -0.048188407729665747 0 0.07727958311305537 -0.057367419372147309 0 0.085132366133298415 -0.052458296335176707 0 0.085132366133298415 -0.052458296335176707 0 0.098207536939253007 -0.057070397666300149 0 0.088807886296056321 -0.06442462200908719 0 0.085712771491518958 -0.038211511484016539 0 0.1060355466537841 -0.056579106778484822 0 0.085712771491518958 -0.038211511484016539 0 0.098207536939253007 -0.057070397666300149 0 0.1060355466537841 -0.056579106778484822 0 0.098207536939253007 -0.057070397666300149 0 0.1060355466537841 -0.056579106778484822 0 0.1035330678577871 -0.060408744014543561 0 0.1060355466537841 -0.056579106778484822 0 0.1035330678577871 -0.060408744014543561 0 0.1060355466537841 -0.056579106778484822 0 0.12407046944405239 -0.056682210957894767 0 0.1194833752947594 -0.035999389823432593 0 0.1060355466537841 -0.056579106778484822 0 0.1194833752947594 -0.035999389823432593 0 0.102772156966446 -0.039763038383888151 0 0.1060355466537841 -0.056579106778484822 0 0.1194833752947594 -0.035999389823432593 0 0.1194833752947594 -0.035999389823432593 0 0.102772156966446 -0.039763038383888151 0 0.1067112711562688 -0.01899198007024441 0 0.085712771491518958 -0.038211511484016539 0 0.1060355466537841 -0.056579106778484822 0 0.102772156966446 -0.039763038383888151 0 0.090532384742726735 -0.027505059676875141 0 0.102772156966446 -0.039763038383888151 0 0.1067112711562688 -0.01899198007024441 0 0.081177816421242804 -0.016572608745179591 0 0.1067112711562688 -0.01899198007024441 0 0.1194833752947594 -0.035999389823432593 0 0.119688443476294 -0.020419382492060888 0 0.13293120393573529 -0.01541967286838083 0 0.1194833752947594 -0.035999389823432593 0 0.1067112711562688 -0.01899198007024441 0 0.119688443476294 -0.020419382492060888 0 0.119688443476294 -0.020419382492060888 0 0.1196279235184127 -0.011266487206185741 0 0.13293120393573529 -0.01541967286838083 0 0.1067112711562688 -0.01899198007024441 0 0.119688443476294 -0.020419382492060888 0 0.1196279235184127 -0.011266487206185741 0 0.1067112711562688 -0.01899198007024441 0 0.1196279235184127 -0.011266487206185741 0 0.11158832231026521 -0.002538519333972472 0 0.12681727907172599 0.0028609529651058472 0 0.1196279235184127 -0.011266487206185741 0 0.11158832231026521 -0.002538519333972472 0 0.081177816421242804 -0.016572608745179591 0 0.1067112711562688 -0.01899198007024441 0 0.095472413630543998 -0.0072730453323191883 0 0.1067112711562688 -0.01899198007024441 0 0.11158832231026521 -0.002538519333972472 0 0.095472413630543998 -0.0072730453323191883 0 0.096167504599054904 0.0042442054759202954 0 0.11158832231026521 -0.002538519333972472 0 0.095472413630543998 -0.0072730453323191883 0 0.088205186756687592 -0.098499163401079406 0 0.088306584707542421 -0.11364295246223539 0 0.1041297467101449 -0.10443009357677931 0 0.088205186756687592 -0.098499163401079406 0 0.088306584707542421 -0.11364295246223539 0 0.074368452797441906 -0.1081427041937684 0 0.086025777066828416 -0.13071312073542821 0 0.088306584707542421 -0.11364295246223539 0 0.1003755091591467 -0.120365047089626 0 0.086025777066828416 -0.13071312073542821 0 0.088306584707542421 -0.11364295246223539 0 0.076734835755005087 -0.11970758577673089 0 0.088306584707542421 -0.11364295246223539 0 0.076734835755005087 -0.11970758577673089 0 0.074368452797441906 -0.1081427041937684 0 0.076734835755005087 -0.11970758577673089 0 0.065906963652981487 -0.1182248878619804 0 0.074368452797441906 -0.1081427041937684 0 0.055228870314899682 -0.103843804558387 0 0.065906963652981487 -0.1182248878619804 0 0.074368452797441906 -0.1081427041937684 0 0.067777920578933518 -0.1299680747675574 0 0.076734835755005087 -0.11970758577673089 0 0.065906963652981487 -0.1182248878619804 0 0.067777920578933518 -0.1299680747675574 0 0.05399936433302991 -0.12122894057442581 0 0.065906963652981487 -0.1182248878619804 0 0.088205186756687592 -0.098499163401079406 0 0.070281085843191191 -0.093817275438188408 0 0.074368452797441906 -0.1081427041937684 0 0.055228870314899682 -0.103843804558387 0 0.070281085843191191 -0.093817275438188408 0 0.074368452797441906 -0.1081427041937684 0 0.056852127489792813 -0.07490730178705754 0 0.078967107604769243 -0.081534257868326937 0 0.056852127489792813 -0.07490730178705754 0 0.070281085843191191 -0.093817275438188408 0 0.078967107604769243 -0.081534257868326937 0 0.062505798999464707 -0.060826586793076412 0 0.07727958311305537 -0.057367419372147309 0 0.078967107604769243 -0.081534257868326937 0 0.056852127489792813 -0.07490730178705754 0 0.062505798999464707 -0.060826586793076412 0 0.078967107604769243 -0.081534257868326937 0 0.07727958311305537 -0.057367419372147309 0 0.088807886296056321 -0.06442462200908719 0 0.078967107604769243 -0.081534257868326937 0 0.088807886296056321 -0.06442462200908719 0 0.078967107604769243 -0.081534257868326937 0 0.094886380824945021 -0.074739832907536372 0 0.088205186756687592 -0.098499163401079406 0 0.078967107604769243 -0.081534257868326937 0 0.10108208771974569 -0.088161213949596334 0 0.078967107604769243 -0.081534257868326937 0 0.10108208771974569 -0.088161213949596334 0 0.088205186756687592 -0.098499163401079406 0 0.070281085843191191 -0.093817275438188408 0 0.078967107604769243 -0.081534257868326937 0 0.078967107604769243 -0.081534257868326937 0 0.10108208771974569 -0.088161213949596334 0 0.094886380824945021 -0.074739832907536372 0 0.10108208771974569 -0.088161213949596334 0 0.094886380824945021 -0.074739832907536372 0 0.1107023023869871 -0.07592928384858362 0 0.1060355466537841 -0.056579106778484822 0 0.1035330678577871 -0.060408744014543561 0 0.1107023023869871 -0.07592928384858362 0 0.098151026611810355 -0.068041034107876819 0 0.094886380824945021 -0.074739832907536372 0 0.1107023023869871 -0.07592928384858362 0 0.098207536939253007 -0.057070397666300149 0 0.1107023023869871 -0.07592928384858362 0 0.098207536939253007 -0.057070397666300149 0 0.098151026611810355 -0.068041034107876819 0 0.1107023023869871 -0.07592928384858362 0 0.098207536939253007 -0.057070397666300149 0 0.1035330678577871 -0.060408744014543561 0 0.1107023023869871 -0.07592928384858362 0 0.088807886296056321 -0.06442462200908719 0 0.098151026611810355 -0.068041034107876819 0 0.094886380824945021 -0.074739832907536372 0 0.098207536939253007 -0.057070397666300149 0 0.088807886296056321 -0.06442462200908719 0 0.098151026611810355 -0.068041034107876819 0 0.1060355466537841 -0.056579106778484822 0 0.1107023023869871 -0.07592928384858362 0 0.12599115970317629 -0.074614863284063901 0 0.1060355466537841 -0.056579106778484822 0 0.12599115970317629 -0.074614863284063901 0 0.1060355466537841 -0.056579106778484822 0 0.12407046944405239 -0.056682210957894767 0 0.12599115970317629 -0.074614863284063901 0 0.1107023023869871 -0.07592928384858362 0 0.1231970678347219 -0.094788170030866675 0 0.10108208771974569 -0.088161213949596334 0 0.1231970678347219 -0.094788170030866675 0 0.10108208771974569 -0.088161213949596334 0 0.1107023023869871 -0.07592928384858362 0 0.1231970678347219 -0.094788170030866675 0 0.1107023023869871 -0.07592928384858362 0 0.1231970678347219 -0.094788170030866675 0 0.12599115970317629 -0.074614863284063901 0 0.1231970678347219 -0.094788170030866675 0 0.1041297467101449 -0.10443009357677931 0 0.1165495357793246 -0.11537146045311671 0 0.10108208771974569 -0.088161213949596334 0 0.1231970678347219 -0.094788170030866675 0 0.1041297467101449 -0.10443009357677931 0 0.088205186756687592 -0.098499163401079406 0 0.10108208771974569 -0.088161213949596334 0 0.1041297467101449 -0.10443009357677931 0 0.1110772144577262 -0.12607447494648069 0 0.1003755091591467 -0.120365047089626 0 0.1165495357793246 -0.11537146045311671 0 0.088306584707542421 -0.11364295246223539 0 0.1041297467101449 -0.10443009357677931 0 0.1003755091591467 -0.120365047089626 0 0.1041297467101449 -0.10443009357677931 0 0.1003755091591467 -0.120365047089626 0 0.1165495357793246 -0.11537146045311671 0 0.1110772144577262 -0.12607447494648069 0 0.1165495357793246 -0.11537146045311671 0 0.125059882544757 -0.1243050716586782 0 0.1165495357793246 -0.11537146045311671 0 0.125059882544757 -0.1243050716586782 0 0.13570225296767791 -0.1136627830916173 0 0.125059882544757 -0.1243050716586782 0 0.13570225296767791 -0.1136627830916173 0 0.13351042007077771 -0.13535464583232679 0 0.13570225296767791 -0.1136627830916173 0 0.14916210969568239 -0.1144869233999513 0 0.14820743810063461 -0.13253739615236759 0 0.13570225296767791 -0.1136627830916173 0 0.14820743810063461 -0.13253739615236759 0 0.14916210969568239 -0.1144869233999513 0 0.1659023858019596 -0.11068637629522381 0 0.14820743810063461 -0.13253739615236759 0 0.13570225296767791 -0.1136627830916173 0 0.14916210969568239 -0.1144869233999513 0 0.1438387705826743 -0.1009736450727655 0 0.14916210969568239 -0.1144869233999513 0 0.1438387705826743 -0.1009736450727655 0 0.1659023858019596 -0.11068637629522381 0 0.1438387705826743 -0.1009736450727655 0 0.14594677275256851 -0.092650619789643215 0 0.1659023858019596 -0.11068637629522381 0 0.14594677275256851 -0.092650619789643215 0 0.1659023858019596 -0.11068637629522381 0 0.1231970678347219 -0.094788170030866675 0 0.1438387705826743 -0.1009736450727655 0 0.14594677275256851 -0.092650619789643215 0 0.1231970678347219 -0.094788170030866675 0 0.1438387705826743 -0.1009736450727655 0 0.1231970678347219 -0.094788170030866675 0 0.13570225296767791 -0.1136627830916173 0 0.1231970678347219 -0.094788170030866675 0 0.13570225296767791 -0.1136627830916173 0 0.1438387705826743 -0.1009736450727655 0 0.1231970678347219 -0.094788170030866675 0 0.1165495357793246 -0.11537146045311671 0 0.13570225296767791 -0.1136627830916173 0 0.12599115970317629 -0.074614863284063901 0 0.14324551520284479 -0.074303388514748908 0 0.14594677275256851 -0.092650619789643215 0 0.12599115970317629 -0.074614863284063901 0 0.14594677275256851 -0.092650619789643215 0 0.1231970678347219 -0.094788170030866675 0 0.12599115970317629 -0.074614863284063901 0 0.14594677275256851 -0.092650619789643215 0 0.13274812921261911 -0.06482196831319062 0 0.14324551520284479 -0.074303388514748908 0 0.14208920836164879 -0.057453001683217583 0 0.12407046944405239 -0.056682210957894767 0 0.13274812921261911 -0.06482196831319062 0 0.12599115970317629 -0.074614863284063901 0 0.13274812921261911 -0.06482196831319062 0 0.12599115970317629 -0.074614863284063901 0 0.14324551520284479 -0.074303388514748908 0 0.14324551520284479 -0.074303388514748908 0 0.1577676676713505 -0.070958881179004327 0 0.14208920836164879 -0.057453001683217583 0 0.14324551520284479 -0.074303388514748908 0 0.15552700132703259 -0.084480842179265062 0 0.1577676676713505 -0.070958881179004327 0 0.14594677275256851 -0.092650619789643215 0 0.15552700132703259 -0.084480842179265062 0 0.16270751108717671 -0.093919671838121624 0 0.14324551520284479 -0.074303388514748908 0 0.14594677275256851 -0.092650619789643215 0 0.15552700132703259 -0.084480842179265062 0 0.15552700132703259 -0.084480842179265062 0 0.1577676676713505 -0.070958881179004327 0 0.17317205283599571 -0.083245500938658068 0 0.15552700132703259 -0.084480842179265062 0 0.17317205283599571 -0.083245500938658068 0 0.16270751108717671 -0.093919671838121624 0 0.17317205283599571 -0.083245500938658068 0 0.1732436498299591 -0.098484742462365965 0 0.16270751108717671 -0.093919671838121624 0 0.1577676676713505 -0.070958881179004327 0 0.17329006297225849 -0.067144545014819187 0 0.17317205283599571 -0.083245500938658068 0 0.1577676676713505 -0.070958881179004327 0 0.17329006297225849 -0.067144545014819187 0 0.16114266970546481 -0.055348584155622209 0 0.17329006297225849 -0.067144545014819187 0 0.18660459660722059 -0.07121356670435669 0 0.17317205283599571 -0.083245500938658068 0 0.17329006297225849 -0.067144545014819187 0 0.18660459660722059 -0.07121356670435669 0 0.18383722960737159 -0.053734604093409272 0 0.18660459660722059 -0.07121356670435669 0 0.17317205283599571 -0.083245500938658068 0 0.19163234817905089 -0.084272585639399919 0 0.17317205283599571 -0.083245500938658068 0 0.18448732685510821 -0.096160788283265797 0 0.19163234817905089 -0.084272585639399919 0 0.17317205283599571 -0.083245500938658068 0 0.18448732685510821 -0.096160788283265797 0 0.1732436498299591 -0.098484742462365965 0 0.18448732685510821 -0.096160788283265797 0 0.1732436498299591 -0.098484742462365965 0 0.1799489725695555 -0.1084113749565605 0 0.1732436498299591 -0.098484742462365965 0 0.1799489725695555 -0.1084113749565605 0 0.1659023858019596 -0.11068637629522381 0 0.18448732685510821 -0.096160788283265797 0 0.1799489725695555 -0.1084113749565605 0 0.19189947738255089 -0.11079770296415201 0 0.1799489725695555 -0.1084113749565605 0 0.1659023858019596 -0.11068637629522381 0 0.18392927920566929 -0.12697896821793581 0 0.1659023858019596 -0.11068637629522381 0 0.18392927920566929 -0.12697896821793581 0 0.1799489725695555 -0.1084113749565605 0 0.19189947738255089 -0.11079770296415201 0 0.18392927920566929 -0.12697896821793581 0 0.1659023858019596 -0.11068637629522381 0 0.17135699408012309 -0.1393121638749876 0 0.1732436498299591 -0.098484742462365965 0 0.1659023858019596 -0.11068637629522381 0 0.16270751108717671 -0.093919671838121624 0 0.14594677275256851 -0.092650619789643215 0 0.1659023858019596 -0.11068637629522381 0 0.16270751108717671 -0.093919671838121624 0 0.1659023858019596 -0.11068637629522381 0 0.16270751108717671 -0.093919671838121624 0 0.1463790325767105 0.0051600440866713393 0 0.13293120393573529 -0.01541967286838083 0 0.14494909117168939 -0.01571097116995826 0 0.1463790325767105 0.0051600440866713393 0 0.15462421245165581 -0.0058893527151400796 0 0.14494909117168939 -0.01571097116995826 0 0.1463790325767105 0.0051600440866713393 0 0.14494909117168939 -0.01571097116995826 0 0.15462421245165581 -0.0058893527151400796 0 0.14494909117168939 -0.01571097116995826 0 0.1598580582920249 -0.020425916519869049 0 0.1463790325767105 0.0051600440866713393 0 0.12681727907172599 0.0028609529651058472 0 0.13293120393573529 -0.01541967286838083 0 0.1463790325767105 0.0051600440866713393 0 0.13293120393573529 -0.01541967286838083 0 0.12681727907172599 0.0028609529651058472 0 0.1196279235184127 -0.011266487206185741 0 0.13293120393573529 -0.01541967286838083 0 0.13293120393573529 -0.01541967286838083 0 0.14494909117168939 -0.01571097116995826 0 0.1435191497666691 -0.036581986426587887 0 0.1194833752947594 -0.035999389823432593 0 0.13293120393573529 -0.01541967286838083 0 0.1435191497666691 -0.036581986426587887 0 0.1194833752947594 -0.035999389823432593 0 0.13293120393573529 -0.01541967286838083 0 0.14494909117168939 -0.01571097116995826 0 0.1435191497666691 -0.036581986426587887 0 0.14494909117168939 -0.01571097116995826 0 0.1435191497666691 -0.036581986426587887 0 0.1598580582920249 -0.020425916519869049 0 0.1194833752947594 -0.035999389823432593 0 0.1435191497666691 -0.036581986426587887 0 0.13229055071678239 -0.046679147222783213 0 0.12407046944405239 -0.056682210957894767 0 0.1194833752947594 -0.035999389823432593 0 0.13229055071678239 -0.046679147222783213 0 0.1435191497666691 -0.036581986426587887 0 0.13229055071678239 -0.046679147222783213 0 0.14208920836164879 -0.057453001683217583 0 0.12407046944405239 -0.056682210957894767 0 0.13229055071678239 -0.046679147222783213 0 0.14208920836164879 -0.057453001683217583 0 0.12407046944405239 -0.056682210957894767 0 0.13274812921261911 -0.06482196831319062 0 0.14208920836164879 -0.057453001683217583 0 0.1577676676713505 -0.070958881179004327 0 0.14208920836164879 -0.057453001683217583 0 0.16114266970546481 -0.055348584155622209 0 0.1435191497666691 -0.036581986426587887 0 0.14208920836164879 -0.057453001683217583 0 0.1435191497666691 -0.036581986426587887 0 0.14208920836164879 -0.057453001683217583 0 0.16114266970546481 -0.055348584155622209 0 0.16114266970546481 -0.055348584155622209 0 0.18383722960737159 -0.053734604093409272 0 0.16867226584066319 -0.036111154955617203 0 0.17329006297225849 -0.067144545014819187 0 0.16114266970546481 -0.055348584155622209 0 0.18383722960737159 -0.053734604093409272 0 0.18383722960737159 -0.053734604093409272 0 0.16867226584066319 -0.036111154955617203 0 0.1895671539671433 -0.037285104408639982 0 0.1435191497666691 -0.036581986426587887 0 0.16114266970546481 -0.055348584155622209 0 0.16867226584066319 -0.036111154955617203 0 0.1435191497666691 -0.036581986426587887 0 0.16867226584066319 -0.036111154955617203 0 0.1598580582920249 -0.020425916519869049 0 0.16867226584066319 -0.036111154955617203 0 0.1598580582920249 -0.020425916519869049 0 0.17626464034529979 -0.01218273843611789 0 0.16867226584066319 -0.036111154955617203 0 0.17626464034529979 -0.01218273843611789 0 0.19288185645158881 -0.018686415508600542 0 0.16867226584066319 -0.036111154955617203 0 0.19288185645158881 -0.018686415508600542 0 0.16867226584066319 -0.036111154955617203 0 0.19288185645158881 -0.018686415508600542 0 0.1895671539671433 -0.037285104408639982 0 0.1913914811785945 0.0015479160267864781 0 0.177795833794237 0.0058736288592868176 0 0.17626464034529979 -0.01218273843611789 0 0.177795833794237 0.0058736288592868176 0 0.17626464034529979 -0.01218273843611789 0 0.16638725000284621 -0.0041024332455818144 0 0.1913914811785945 0.0015479160267864781 0 0.17626464034529979 -0.01218273843611789 0 0.19288185645158881 -0.018686415508600542 0 0.15462421245165581 -0.0058893527151400796 0 0.1598580582920249 -0.020425916519869049 0 0.16638725000284621 -0.0041024332455818144 0 0.1598580582920249 -0.020425916519869049 0 0.17626464034529979 -0.01218273843611789 0 0.16638725000284621 -0.0041024332455818144 0 0.15628357420278671 0.003810722324721363 0 0.15462421245165581 -0.0058893527151400796 0 0.16638725000284621 -0.0041024332455818144 0 0.21709144706251299 -0.0012616760615819459 0 0.19288185645158881 -0.018686415508600542 0 0.21709144706251299 -0.0012616760615819459 0 0.19288185645158881 -0.018686415508600542 0 0.21106230177929311 -0.016930390785221641 0 0.21709144706251299 -0.0012616760615819459 0 0.21106230177929311 -0.016930390785221641 0 0.21880732635032871 -0.001449260780306197 0 0.21106230177929311 -0.016930390785221641 0 0.22385231661827831 -0.017244899007901549 0 0.21880732635032871 -0.001449260780306197 0 0.21991949691130641 0.00077379957079282309 0 0.21709144706251299 -0.0012616760615819459 0 0.21991949691130641 0.00077379957079282309 0 0.21709144706251299 -0.0012616760615819459 0 0.21880732635032871 -0.001449260780306197 0 0.21709144706251299 -0.0012616760615819459 0 0.21880732635032871 -0.001449260780306197 0 0.21106230177929311 -0.016930390785221641 0 0.21880732635032871 -0.001449260780306197 0 0.1913914811785945 0.0015479160267864781 0 0.21709144706251299 -0.0012616760615819459 0 0.19288185645158881 -0.018686415508600542 0 0.19288185645158881 -0.018686415508600542 0 0.21106230177929311 -0.016930390785221641 0 0.2033172772082579 -0.032411520790137288 0 0.19288185645158881 -0.018686415508600542 0 0.2033172772082579 -0.032411520790137288 0 0.1895671539671433 -0.037285104408639982 0 0.21106230177929311 -0.016930390785221641 0 0.2033172772082579 -0.032411520790137288 0 0.21106230177929311 -0.016930390785221641 0 0.21701755041282189 -0.032304719396535099 0 0.2033172772082579 -0.032411520790137288 0 0.21106230177929311 -0.016930390785221641 0 0.21701755041282189 -0.032304719396535099 0 0.22385231661827831 -0.017244899007901549 0 0.21701755041282189 -0.032304719396535099 0 0.21047104707744299 -0.044055030933792823 0 0.21970932447173591 -0.041885045690610363 0 0.21047104707744299 -0.044055030933792823 0 0.2163169812201669 -0.048151654183774213 0 0.21970932447173591 -0.041885045690610363 0 0.21047104707744299 -0.044055030933792823 0 0.2033172772082579 -0.032411520790137288 0 0.19912714072783499 -0.045481826695435601 0 0.21701755041282189 -0.032304719396535099 0 0.21047104707744299 -0.044055030933792823 0 0.2033172772082579 -0.032411520790137288 0 0.2033172772082579 -0.032411520790137288 0 0.1895671539671433 -0.037285104408639982 0 0.19912714072783499 -0.045481826695435601 0 0.18383722960737159 -0.053734604093409272 0 0.1895671539671433 -0.037285104408639982 0 0.19912714072783499 -0.045481826695435601 0 0.18383722960737159 -0.053734604093409272 0 0.19912714072783499 -0.045481826695435601 0 0.20031667673944939 -0.057421141152823332 0 0.18383722960737159 -0.053734604093409272 0 0.20031667673944939 -0.057421141152823332 0 0.19584992287481651 -0.066326971565447423 0 0.19912714072783499 -0.045481826695435601 0 0.20031667673944939 -0.057421141152823332 0 0.20701231567461709 -0.051722697756719387 0 0.20031667673944939 -0.057421141152823332 0 0.21110366793748389 -0.058962871247726333 0 0.20754781500579161 -0.067167929918243774 0 0.20031667673944939 -0.057421141152823332 0 0.20701231567461709 -0.051722697756719387 0 0.21110366793748389 -0.058962871247726333 0 0.21047104707744299 -0.044055030933792823 0 0.19912714072783499 -0.045481826695435601 0 0.20701231567461709 -0.051722697756719387 0 0.21047104707744299 -0.044055030933792823 0 0.20701231567461709 -0.051722697756719387 0 0.21404304589087411 -0.052692618753818851 0 0.20701231567461709 -0.051722697756719387 0 0.21404304589087411 -0.052692618753818851 0 0.21110366793748389 -0.058962871247726333 0 0.21047104707744299 -0.044055030933792823 0 0.21404304589087411 -0.052692618753818851 0 0.2163169812201669 -0.048151654183774213 0 0.21404304589087411 -0.052692618753818851 0 0.2163169812201669 -0.048151654183774213 0 0.22104450744061471 -0.053973921356874788 0 0.21404304589087411 -0.052692618753818851 0 0.21720125996139161 -0.057407354338342383 0 0.22104450744061471 -0.053973921356874788 0 0.21720125996139161 -0.057407354338342383 0 0.21110366793748389 -0.058962871247726333 0 0.2190710203991128 -0.066761103999133015 0 0.21404304589087411 -0.052692618753818851 0 0.21720125996139161 -0.057407354338342383 0 0.21110366793748389 -0.058962871247726333 0 0.22259109842381891 -0.056331752972584533 0 0.24466000719816181 -0.052572806154117767 0 0.23359814963938669 -0.073112384460560717 0 0.22259109842381891 -0.056331752972584533 0 0.2190710203991128 -0.066761103999133015 0 0.21720125996139161 -0.057407354338342383 0 0.22259109842381891 -0.056331752972584533 0 0.2190710203991128 -0.066761103999133015 0 0.21720125996139161 -0.057407354338342383 0 0.22259109842381891 -0.056331752972584533 0 0.22104450744061471 -0.053973921356874788 0 0.22259109842381891 -0.056331752972584533 0 0.22104450744061471 -0.053973921356874788 0 0.2163169812201669 -0.048151654183774213 0 0.22104450744061471 -0.053973921356874788 0 0.21970932447173591 -0.041885045690610363 0 0.25572186475693609 -0.032033227847674262 0 0.24466000719816181 -0.052572806154117767 0 0.2314560627619717 -0.030066475819188941 0 0.22259109842381891 -0.056331752972584533 0 0.24466000719816181 -0.052572806154117767 0 0.2314560627619717 -0.030066475819188941 0 0.22259109842381891 -0.056331752972584533 0 0.2314560627619717 -0.030066475819188941 0 0.22259109842381891 -0.056331752972584533 0 0.22104450744061471 -0.053973921356874788 0 0.2314560627619717 -0.030066475819188941 0 0.22104450744061471 -0.053973921356874788 0 0.21970932447173591 -0.041885045690610363 0 0.2314560627619717 -0.030066475819188941 0 0.21701755041282189 -0.032304719396535099 0 0.21970932447173591 -0.041885045690610363 0 0.2314560627619717 -0.030066475819188941 0 0.22385231661827831 -0.017244899007901549 0 0.2314560627619717 -0.030066475819188941 0 0.2403210271001277 -0.0038011986657945939 0 0.21701755041282189 -0.032304719396535099 0 0.22385231661827831 -0.017244899007901549 0 0.2314560627619717 -0.030066475819188941 0 0.25159771702699008 -0.014371615300676641 0 0.2314560627619717 -0.030066475819188941 0 0.2403210271001277 -0.0038011986657945939 0 0.25572186475693609 -0.032033227847674262 0 0.25159771702699008 -0.014371615300676641 0 0.2314560627619717 -0.030066475819188941 0 0.2314560627619717 -0.030066475819188941 0 0.2403210271001277 -0.0038011986657945939 0 0.2403210271001277 -0.0038011986657945939 0 0.21880732635032871 -0.001449260780306197 0 0.21991949691130641 0.00077379957079282309 0 0.2403210271001277 -0.0038011986657945939 0 0.21880732635032871 -0.001449260780306197 0 0.22385231661827831 -0.017244899007901549 0 0.2403210271001277 -0.0038011986657945939 0 0.21880732635032871 -0.001449260780306197 0 0.21991949691130641 0.00077379957079282309 0 0.21880732635032871 -0.001449260780306197 0 0.20659325823048899 -0.099029874252906047 0 0.21655448612892231 -0.108466948295262 0 0.2034485844213379 -0.1104083252764293 0 0.20659325823048899 -0.099029874252906047 0 0.21858698215692479 -0.095058636804357027 0 0.21655448612892231 -0.108466948295262 0 0.20659325823048899 -0.099029874252906047 0 0.21858698215692479 -0.095058636804357027 0 0.21076223576946701 -0.091385441013354662 0 0.21237619803781799 -0.123978557377612 0 0.2034485844213379 -0.1104083252764293 0 0.19857579603009881 -0.123745354966356 0 0.21655448612892231 -0.108466948295262 0 0.21237619803781799 -0.123978557377612 0 0.2034485844213379 -0.1104083252764293 0 0.19857579603009881 -0.123745354966356 0 0.19189947738255089 -0.11079770296415201 0 0.18392927920566929 -0.12697896821793581 0 0.2034485844213379 -0.1104083252764293 0 0.19857579603009881 -0.123745354966356 0 0.19189947738255089 -0.11079770296415201 0 0.18448732685510821 -0.096160788283265797 0 0.19189947738255089 -0.11079770296415201 0 0.19704440529688971 -0.097808096169463843 0 0.2034485844213379 -0.1104083252764293 0 0.19189947738255089 -0.11079770296415201 0 0.19704440529688971 -0.097808096169463843 0 0.20659325823048899 -0.099029874252906047 0 0.2034485844213379 -0.1104083252764293 0 0.19704440529688971 -0.097808096169463843 0 0.20659325823048899 -0.099029874252906047 0 0.19704440529688971 -0.097808096169463843 0 0.20377507451519661 -0.086639367611932153 0 0.18448732685510821 -0.096160788283265797 0 0.19704440529688971 -0.097808096169463843 0 0.19163234817905089 -0.084272585639399919 0 0.19163234817905089 -0.084272585639399919 0 0.20020732292815921 -0.075382335334988601 0 0.20377507451519661 -0.086639367611932153 0 0.19704440529688971 -0.097808096169463843 0 0.19163234817905089 -0.084272585639399919 0 0.20377507451519661 -0.086639367611932153 0 0.18660459660722059 -0.07121356670435669 0 0.18383722960737159 -0.053734604093409272 0 0.19584992287481651 -0.066326971565447423 0 0.18660459660722059 -0.07121356670435669 0 0.20020732292815921 -0.075382335334988601 0 0.19584992287481651 -0.066326971565447423 0 0.18660459660722059 -0.07121356670435669 0 0.19163234817905089 -0.084272585639399919 0 0.20020732292815921 -0.075382335334988601 0 0.20031667673944939 -0.057421141152823332 0 0.19584992287481651 -0.066326971565447423 0 0.20754781500579161 -0.067167929918243774 0 0.20020732292815921 -0.075382335334988601 0 0.19584992287481651 -0.066326971565447423 0 0.20754781500579161 -0.067167929918243774 0 0.20020732292815921 -0.075382335334988601 0 0.20754781500579161 -0.067167929918243774 0 0.21182278070176411 -0.07642901816315241 0 0.21182278070176411 -0.07642901816315241 0 0.2190710203991128 -0.066761103999133015 0 0.22185546860341471 -0.076890537193463129 0 0.21110366793748389 -0.058962871247726333 0 0.20754781500579161 -0.067167929918243774 0 0.2190710203991128 -0.066761103999133015 0 0.20754781500579161 -0.067167929918243774 0 0.21182278070176411 -0.07642901816315241 0 0.2190710203991128 -0.066761103999133015 0 0.20377507451519661 -0.086639367611932153 0 0.21076223576946701 -0.091385441013354662 0 0.2156201083762905 -0.085211377739258853 0 0.20659325823048899 -0.099029874252906047 0 0.20377507451519661 -0.086639367611932153 0 0.21076223576946701 -0.091385441013354662 0 0.21182278070176411 -0.07642901816315241 0 0.20377507451519661 -0.086639367611932153 0 0.2156201083762905 -0.085211377739258853 0 0.20020732292815921 -0.075382335334988601 0 0.21182278070176411 -0.07642901816315241 0 0.20377507451519661 -0.086639367611932153 0 0.21182278070176411 -0.07642901816315241 0 0.2156201083762905 -0.085211377739258853 0 0.22185546860341471 -0.076890537193463129 0 0.21858698215692479 -0.095058636804357027 0 0.21076223576946701 -0.091385441013354662 0 0.2156201083762905 -0.085211377739258853 0 0.21858698215692479 -0.095058636804357027 0 0.22254221780738029 -0.08612048538839856 0 0.22945301150852729 -0.089618177888440453 0 0.21858698215692479 -0.095058636804357027 0 0.2156201083762905 -0.085211377739258853 0 0.22254221780738029 -0.08612048538839856 0 0.22254221780738029 -0.08612048538839856 0 0.22667762447946821 -0.081336379644961862 0 0.22945301150852729 -0.089618177888440453 0 0.2156201083762905 -0.085211377739258853 0 0.22254221780738029 -0.08612048538839856 0 0.22185546860341471 -0.076890537193463129 0 0.22254221780738029 -0.08612048538839856 0 0.22667762447946821 -0.081336379644961862 0 0.22185546860341471 -0.076890537193463129 0 0.22667762447946821 -0.081336379644961862 0 0.22945301150852729 -0.089618177888440453 0 0.232130230341555 -0.075838006554786702 0 0.22259109842381891 -0.056331752972584533 0 0.23359814963938669 -0.073112384460560717 0 0.22259109842381891 -0.056331752972584533 0 0.22559767577824291 -0.070341033318702742 0 0.23359814963938669 -0.073112384460560717 0 0.22259109842381891 -0.056331752972584533 0 0.2190710203991128 -0.066761103999133015 0 0.22559767577824291 -0.070341033318702742 0 0.2190710203991128 -0.066761103999133015 0 0.22559767577824291 -0.070341033318702742 0 0.22185546860341471 -0.076890537193463129 0 0.22559767577824291 -0.070341033318702742 0 0.22185546860341471 -0.076890537193463129 0 0.226513327956856 -0.076031742247647013 0 0.22667762447946821 -0.081336379644961862 0 0.22185546860341471 -0.076890537193463129 0 0.226513327956856 -0.076031742247647013 0 0.22559767577824291 -0.070341033318702742 0 0.232130230341555 -0.075838006554786702 0 0.23359814963938669 -0.073112384460560717 0 0.22667762447946821 -0.081336379644961862 0 0.226513327956856 -0.076031742247647013 0 0.232130230341555 -0.075838006554786702 0 0.232130230341555 -0.075838006554786702 0 0.23359814963938669 -0.073112384460560717 0 0.22559767577824291 -0.070341033318702742 0 0.226513327956856 -0.076031742247647013 0 0.232130230341555 -0.075838006554786702 0 0.25578894406637898 -0.071814983055159112 0 0.24466000719816181 -0.052572806154117767 0 0.23359814963938669 -0.073112384460560717 0 0.24466000719816181 -0.052572806154117767 0 0.23359814963938669 -0.073112384460560717 0 0.232130230341555 -0.075838006554786702 0 0.23359814963938669 -0.073112384460560717 0 0.248052431344363 -0.095148438437639593 0 0.25578894406637898 -0.071814983055159112 0 0.23359814963938669 -0.073112384460560717 0 0.248052431344363 -0.095148438437639593 0 0.23359814963938669 -0.073112384460560717 0 0.248052431344363 -0.095148438437639593 0 0.22945301150852729 -0.089618177888440453 0 0.232130230341555 -0.075838006554786702 0 0.248052431344363 -0.095148438437639593 0 0.22945301150852729 -0.089618177888440453 0 0.248052431344363 -0.095148438437639593 0 0.23028066412444251 -0.1035134914659659 0 0.248052431344363 -0.095148438437639593 0 0.23028066412444251 -0.1035134914659659 0 0.24260121657943401 -0.11258968035378961 0 0.21858698215692479 -0.095058636804357027 0 0.21655448612892231 -0.108466948295262 0 0.23028066412444251 -0.1035134914659659 0 0.21858698215692479 -0.095058636804357027 0 0.22945301150852729 -0.089618177888440453 0 0.23028066412444251 -0.1035134914659659 0 0.21655448612892231 -0.108466948295262 0 0.21237619803781799 -0.123978557377612 0 0.22804122980252159 -0.1188128045943018 0 0.21655448612892231 -0.108466948295262 0 0.23028066412444251 -0.1035134914659659 0 0.22804122980252159 -0.1188128045943018 0 0.23028066412444251 -0.1035134914659659 0 0.22804122980252159 -0.1188128045943018 0 0.24260121657943401 -0.11258968035378961 0 0.26250671304934198 -0.1171844924147165 0 0.24260121657943401 -0.11258968035378961 0 0.2441250445765018 -0.1282891748563233 0 0.22804122980252159 -0.1188128045943018 0 0.24260121657943401 -0.11258968035378961 0 0.2441250445765018 -0.1282891748563233 0 0.2441250445765018 -0.1282891748563233 0 0.23903729808979979 -0.1497956366535709 0 0.2244889389359962 -0.13749465980780429 0 0.26140577643439422 -0.14332992145424359 0 0.2441250445765018 -0.1282891748563233 0 0.23903729808979979 -0.1497956366535709 0 0.26140577643439422 -0.14332992145424359 0 0.23903729808979979 -0.1497956366535709 0 0.24727016264961249 -0.1692414738038848 0 0.23903729808979979 -0.1497956366535709 0 0.2244889389359962 -0.13749465980780429 0 0.2199830660130864 -0.1595641520633625 0 0.22804122980252159 -0.1188128045943018 0 0.2441250445765018 -0.1282891748563233 0 0.2244889389359962 -0.13749465980780429 0 0.21237619803781799 -0.123978557377612 0 0.22804122980252159 -0.1188128045943018 0 0.2244889389359962 -0.13749465980780429 0 0.21237619803781799 -0.123978557377612 0 0.2244889389359962 -0.13749465980780429 0 0.2019561726093779 -0.14327156014064921 0 0.21237619803781799 -0.123978557377612 0 0.19857579603009881 -0.123745354966356 0 0.2019561726093779 -0.14327156014064921 0 0.2244889389359962 -0.13749465980780429 0 0.2019561726093779 -0.14327156014064921 0 0.2199830660130864 -0.1595641520633625 0 0.2019561726093779 -0.14327156014064921 0 0.2199830660130864 -0.1595641520633625 0 0.2019561726093779 -0.14327156014064921 0 0.2047419039749544 -0.16383627848553101 0 0.2199830660130864 -0.1595641520633625 0 0.2019561726093779 -0.14327156014064921 0 0.1858442134446858 -0.1403981851473228 0 0.18613440788357311 -0.15203004835571851 0 0.2019561726093779 -0.14327156014064921 0 0.2047419039749544 -0.16383627848553101 0 0.18613440788357311 -0.15203004835571851 0 0.19857579603009881 -0.123745354966356 0 0.2019561726093779 -0.14327156014064921 0 0.18392927920566929 -0.12697896821793581 0 0.2019561726093779 -0.14327156014064921 0 0.18392927920566929 -0.12697896821793581 0 0.2019561726093779 -0.14327156014064921 0 0.1858442134446858 -0.1403981851473228 0 0.18392927920566929 -0.12697896821793581 0 0.20143056513873611 -0.17998665641699849 0 0.18945430304214239 -0.18113699365130109 0 0.1956775580667883 -0.19315745649050381 0 0.20143056513873611 -0.17998665641699849 0 0.18945430304214239 -0.18113699365130109 0 0.19108557901044451 -0.16803916485973749 0 0.19108557901044451 -0.16803916485973749 0 0.2047419039749544 -0.16383627848553101 0 0.18613440788357311 -0.15203004835571851 0 0.20143056513873611 -0.17998665641699849 0 0.19108557901044451 -0.16803916485973749 0 0.2047419039749544 -0.16383627848553101 0 0.2047419039749544 -0.16383627848553101 0 0.21987806867346529 -0.181539582491408 0 0.2199830660130864 -0.1595641520633625 0 0.20143056513873611 -0.17998665641699849 0 0.2047419039749544 -0.16383627848553101 0 0.21987806867346529 -0.181539582491408 0 0.20143056513873611 -0.17998665641699849 0 0.21987806867346529 -0.181539582491408 0 0.21026993533039931 -0.19452922539566581 0 0.21987806867346529 -0.181539582491408 0 0.2199830660130864 -0.1595641520633625 0 0.23800995941679501 -0.17585674398607579 0 0.21987806867346529 -0.181539582491408 0 0.23800995941679501 -0.17585674398607579 0 0.2331345488648309 -0.19515302615352589 0 0.2199830660130864 -0.1595641520633625 0 0.23800995941679501 -0.17585674398607579 0 0.23903729808979979 -0.1497956366535709 0 0.2199830660130864 -0.1595641520633625 0 0.23506515458377289 -0.16194558534122611 0 0.2199830660130864 -0.1595641520633625 0 0.23506515458377289 -0.16194558534122611 0 0.23800995941679501 -0.17585674398607579 0 0.23903729808979979 -0.1497956366535709 0 0.23506515458377289 -0.16194558534122611 0 0.24727016264961249 -0.1692414738038848 0 0.23506515458377289 -0.16194558534122611 0 0.24727016264961249 -0.1692414738038848 0 0.23800995941679501 -0.17585674398607579 0 0.24727016264961249 -0.1692414738038848 0 0.2331345488648309 -0.19515302615352589 0 0.24727016264961249 -0.1692414738038848 0 0.23800995941679501 -0.17585674398607579 0 0.2331345488648309 -0.19515302615352589 0 0.25115080808597218 -0.18349252771031549 0 0.24727016264961249 -0.1692414738038848 0 0.2331345488648309 -0.19515302615352589 0 0.25294493867930001 -0.1971512634910503 0 0.25115080808597218 -0.18349252771031549 0 0.2331345488648309 -0.19515302615352589 0 0.25294493867930001 -0.1971512634910503 0 0.23924146656863479 -0.21600942233651971 0 0.2331345488648309 -0.19515302615352589 0 0.25948399805722178 -0.21095426616987389 0 0.23924146656863479 -0.21600942233651971 0 0.23924146656863479 -0.21600942233651971 0 0.218998935080048 -0.22106457850316641 0 0.21946760776481619 -0.20450875509018021 0 0.2331345488648309 -0.19515302615352589 0 0.218998935080048 -0.22106457850316641 0 0.2331345488648309 -0.19515302615352589 0 0.218998935080048 -0.22106457850316641 0 0.23924146656863479 -0.21600942233651971 0 0.2331345488648309 -0.19515302615352589 0 0.218998935080048 -0.22106457850316641 0 0.21946760776481619 -0.20450875509018021 0 0.22068754015837791 -0.19393264728269499 0 0.2331345488648309 -0.19515302615352589 0 0.21987806867346529 -0.181539582491408 0 0.22068754015837791 -0.19393264728269499 0 0.2331345488648309 -0.19515302615352589 0 0.25406429941061343 -0.23112732810889039 0 0.24146341680214309 -0.24448521489457861 0 0.23197262628044979 -0.22995906340082059 0 0.25406429941061343 -0.23112732810889039 0 0.23924146656863479 -0.21600942233651971 0 0.23197262628044979 -0.22995906340082059 0 0.23924146656863479 -0.21600942233651971 0 0.218998935080048 -0.22106457850316641 0 0.23197262628044979 -0.22995906340082059 0 0.218998935080048 -0.22106457850316641 0 0.23197262628044979 -0.22995906340082059 0 0.2174712270181591 -0.22386497246011361 0 0.23197262628044979 -0.22995906340082059 0 0.22090538197196211 -0.23599380530564679 0 0.2174712270181591 -0.22386497246011361 0 0.23197262628044979 -0.22995906340082059 0 0.2264227451730553 -0.24971222362376699 0 0.22090538197196211 -0.23599380530564679 0 0.24146341680214309 -0.24448521489457861 0 0.23197262628044979 -0.22995906340082059 0 0.2264227451730553 -0.24971222362376699 0 0.21040399342164171 -0.25176681621351038 0 0.2264227451730553 -0.24971222362376699 0 0.22090538197196211 -0.23599380530564679 0 0.21040399342164171 -0.25176681621351038 0 0.22090538197196211 -0.23599380530564679 0 0.20830595876386901 -0.23638945826593061 0 0.21040399342164171 -0.25176681621351038 0 0.20830595876386901 -0.23638945826593061 0 0.19936230214102421 -0.2479946931896729 0 0.22090538197196211 -0.23599380530564679 0 0.20830595876386901 -0.23638945826593061 0 0.2144511399868903 -0.2312706685566866 0 0.218998935080048 -0.22106457850316641 0 0.19612053567392879 -0.2267779885035914 0 0.218998935080048 -0.22106457850316641 0 0.19612053567392879 -0.2267779885035914 0 0.2105383011147646 -0.21819048542197941 0 0.218998935080048 -0.22106457850316641 0 0.20576090592389351 -0.2270860010417686 0 0.19612053567392879 -0.2267779885035914 0 0.20830595876386901 -0.23638945826593061 0 0.20576090592389351 -0.2270860010417686 0 0.20182830522270101 -0.2319599292687276 0 0.20830595876386901 -0.23638945826593061 0 0.20576090592389351 -0.2270860010417686 0 0.2144511399868903 -0.2312706685566866 0 0.22090538197196211 -0.23599380530564679 0 0.2144511399868903 -0.2312706685566866 0 0.2174712270181591 -0.22386497246011361 0 0.20576090592389351 -0.2270860010417686 0 0.2144511399868903 -0.2312706685566866 0 0.21346905720863779 -0.2258257771414271 0 0.2144511399868903 -0.2312706685566866 0 0.21346905720863779 -0.2258257771414271 0 0.2174712270181591 -0.22386497246011361 0 0.218998935080048 -0.22106457850316641 0 0.20576090592389351 -0.2270860010417686 0 0.21346905720863779 -0.2258257771414271 0 0.218998935080048 -0.22106457850316641 0 0.21346905720863779 -0.2258257771414271 0 0.2174712270181591 -0.22386497246011361 0 0.218998935080048 -0.22106457850316641 0 0.2174712270181591 -0.22386497246011361 0 0.19612053567392879 -0.2267779885035914 0 0.2105383011147646 -0.21819048542197941 0 0.20425053182178279 -0.21841625855527369 0 0.19777000223886329 -0.21875233346220549 0 0.19612053567392879 -0.2267779885035914 0 0.20425053182178279 -0.21841625855527369 0 0.19777000223886329 -0.21875233346220549 0 0.19393270034329779 -0.22126915535208849 0 0.19612053567392879 -0.2267779885035914 0 0.19393270034329779 -0.22126915535208849 0 0.18772081891462031 -0.22518952661427791 0 0.19612053567392879 -0.2267779885035914 0 0.19393270034329779 -0.22126915535208849 0 0.18772081891462031 -0.22518952661427791 0 0.19411944454577909 -0.214356772828279 0 0.19612053567392879 -0.2267779885035914 0 0.19712582052911259 -0.23758626926361981 0 0.1871717184338115 -0.23640941086597769 0 0.19612053567392879 -0.2267779885035914 0 0.20182830522270101 -0.2319599292687276 0 0.19712582052911259 -0.23758626926361981 0 0.20576090592389351 -0.2270860010417686 0 0.19612053567392879 -0.2267779885035914 0 0.20182830522270101 -0.2319599292687276 0 0.20830595876386901 -0.23638945826593061 0 0.19712582052911259 -0.23758626926361981 0 0.19936230214102421 -0.2479946931896729 0 0.20830595876386901 -0.23638945826593061 0 0.20182830522270101 -0.2319599292687276 0 0.19712582052911259 -0.23758626926361981 0 0.19712582052911259 -0.23758626926361981 0 0.18957958600208469 -0.24548130840959781 0 0.1871717184338115 -0.23640941086597769 0 0.19712582052911259 -0.23758626926361981 0 0.18957958600208469 -0.24548130840959781 0 0.19936230214102421 -0.2479946931896729 0 0.21026993533039931 -0.19452922539566581 0 0.2106024981415649 -0.2056222994823437 0 0.20186537415214451 -0.20478020160934601 0 0.21987806867346529 -0.181539582491408 0 0.22068754015837791 -0.19393264728269499 0 0.21026993533039931 -0.19452922539566581 0 0.21946760776481619 -0.20450875509018021 0 0.22068754015837791 -0.19393264728269499 0 0.21026993533039931 -0.19452922539566581 0 0.21946760776481619 -0.20450875509018021 0 0.21026993533039931 -0.19452922539566581 0 0.2106024981415649 -0.2056222994823437 0 0.21946760776481619 -0.20450875509018021 0 0.218998935080048 -0.22106457850316641 0 0.21566385185952111 -0.2138241496878262 0 0.21946760776481619 -0.20450875509018021 0 0.21566385185952111 -0.2138241496878262 0 0.21365056347845579 -0.2115327797359787 0 0.21946760776481619 -0.20450875509018021 0 0.21365056347845579 -0.2115327797359787 0 0.2106024981415649 -0.2056222994823437 0 0.218998935080048 -0.22106457850316641 0 0.21566385185952111 -0.2138241496878262 0 0.2105383011147646 -0.21819048542197941 0 0.21566385185952111 -0.2138241496878262 0 0.21365056347845579 -0.2115327797359787 0 0.2105383011147646 -0.21819048542197941 0 0.2105383011147646 -0.21819048542197941 0 0.20775900998200869 -0.21276053558054769 0 0.20425053182178279 -0.21841625855527369 0 0.21365056347845579 -0.2115327797359787 0 0.2105383011147646 -0.21819048542197941 0 0.20775900998200869 -0.21276053558054769 0 0.20775900998200869 -0.21276053558054769 0 0.20425053182178279 -0.21841625855527369 0 0.20156851284219721 -0.21282904574896491 0 0.20775900998200869 -0.21276053558054769 0 0.20186537415214451 -0.20478020160934601 0 0.20156851284219721 -0.21282904574896491 0 0.20775900998200869 -0.21276053558054769 0 0.2106024981415649 -0.2056222994823437 0 0.20186537415214451 -0.20478020160934601 0 0.21365056347845579 -0.2115327797359787 0 0.20775900998200869 -0.21276053558054769 0 0.2106024981415649 -0.2056222994823437 0 0.20186537415214451 -0.20478020160934601 0 0.19411944454577909 -0.214356772828279 0 0.19348214685029161 -0.20221454249066079 0 0.18772081891462031 -0.22518952661427791 0 0.19411944454577909 -0.214356772828279 0 0.18226621063645451 -0.19656373903451449 0 0.20186537415214451 -0.20478020160934601 0 0.20156851284219721 -0.21282904574896491 0 0.19411944454577909 -0.214356772828279 0 0.19411944454577909 -0.214356772828279 0 0.19348214685029161 -0.20221454249066079 0 0.18226621063645451 -0.19656373903451449 0 0.19777000223886329 -0.21875233346220549 0 0.20425053182178279 -0.21841625855527369 0 0.20156851284219721 -0.21282904574896491 0 0.19777000223886329 -0.21875233346220549 0 0.20156851284219721 -0.21282904574896491 0 0.19411944454577909 -0.214356772828279 0 0.19777000223886329 -0.21875233346220549 0 0.19393270034329779 -0.22126915535208849 0 0.19411944454577909 -0.214356772828279 0 0.19348214685029161 -0.20221454249066079 0 0.1956775580667883 -0.19315745649050381 0 0.18226621063645451 -0.19656373903451449 0 0.20186537415214451 -0.20478020160934601 0 0.19348214685029161 -0.20221454249066079 0 0.1956775580667883 -0.19315745649050381 0 0.21026993533039931 -0.19452922539566581 0 0.20186537415214451 -0.20478020160934601 0 0.1956775580667883 -0.19315745649050381 0 0.20143056513873611 -0.17998665641699849 0 0.21026993533039931 -0.19452922539566581 0 0.1956775580667883 -0.19315745649050381 0 0.18945430304214239 -0.18113699365130109 0 0.1956775580667883 -0.19315745649050381 0 0.18226621063645451 -0.19656373903451449 0 0.18226621063645451 -0.19656373903451449 0 0.1715432114556068 -0.21122996104898861 0 0.16984428664340401 -0.18996852359395999 0 0.18772081891462031 -0.22518952661427791 0 0.18226621063645451 -0.19656373903451449 0 0.1715432114556068 -0.21122996104898861 0 0.18772081891462031 -0.22518952661427791 0 0.18226621063645451 -0.19656373903451449 0 0.1715432114556068 -0.21122996104898861 0 0.1573322870795833 -0.20789039819694149 0 0.1623168744573055 -0.22287573648660611 0 0.1573322870795833 -0.20789039819694149 0 0.1623168744573055 -0.22287573648660611 0 0.1522967848894444 -0.22083493224417339 0 0.1715432114556068 -0.21122996104898861 0 0.1573322870795833 -0.20789039819694149 0 0.16984428664340401 -0.18996852359395999 0 0.1573322870795833 -0.20789039819694149 0 0.16984428664340401 -0.18996852359395999 0 0.15597410852767299 -0.19239463322910441 0 0.1715432114556068 -0.21122996104898861 0 0.16984428664340401 -0.18996852359395999 0 0.16984428664340401 -0.18996852359395999 0 0.15597410852767299 -0.19239463322910441 0 0.1614518955362341 -0.18261220584938501 0 0.17531814171820079 -0.25847186551630352 0 0.18140855909891221 -0.24875385404173869 0 0.17324213626780979 -0.23249139850401729 0 0.17531814171820079 -0.25847186551630352 0 0.17324213626780979 -0.23249139850401729 0 0.18140855909891221 -0.24875385404173869 0 0.182482909248532 -0.24101033857802051 0 0.17324213626780979 -0.23249139850401729 0 0.18957958600208469 -0.24548130840959781 0 0.18140855909891221 -0.24875385404173869 0 0.182482909248532 -0.24101033857802051 0 0.18957958600208469 -0.24548130840959781 0 0.182482909248532 -0.24101033857802051 0 0.1871717184338115 -0.23640941086597769 0 0.182482909248532 -0.24101033857802051 0 0.1871717184338115 -0.23640941086597769 0 0.17324213626780979 -0.23249139850401729 0 0.18772081891462031 -0.22518952661427791 0 0.19612053567392879 -0.2267779885035914 0 0.17324213626780979 -0.23249139850401729 0 0.19612053567392879 -0.2267779885035914 0 0.1871717184338115 -0.23640941086597769 0 0.17324213626780979 -0.23249139850401729 0 0.1715432114556068 -0.21122996104898861 0 0.17324213626780979 -0.23249139850401729 0 0.19612053567392879 -0.2267779885035914 0 0.17324213626780979 -0.23249139850401729 0 0.18772081891462031 -0.22518952661427791 0 0.1715432114556068 -0.21122996104898861 0 0.17324213626780979 -0.23249139850401729 0 0.1715432114556068 -0.21122996104898861 0 0.17324213626780979 -0.23249139850401729 0 0.1623168744573055 -0.22287573648660611 0 0.1623168744573055 -0.22287573648660611 0 0.15535209141549861 -0.22942801887575409 0 0.1522967848894444 -0.22083493224417339 0 0.1623168744573055 -0.22287573648660611 0 0.16254320702155209 -0.2351632361734422 0 0.15535209141549861 -0.22942801887575409 0 0.17324213626780979 -0.23249139850401729 0 0.16254320702155209 -0.2351632361734422 0 0.17324213626780979 -0.23249139850401729 0 0.1623168744573055 -0.22287573648660611 0 0.16254320702155209 -0.2351632361734422 0 0.16416434830993021 -0.25348076251168611 0 0.17531814171820079 -0.25847186551630352 0 0.17324213626780979 -0.23249139850401729 0 0.16416434830993021 -0.25348076251168611 0 0.17324213626780979 -0.23249139850401729 0 0.16097870724125449 -0.24292032119762011 0 0.17324213626780979 -0.23249139850401729 0 0.16254320702155209 -0.2351632361734422 0 0.16097870724125449 -0.24292032119762011 0 0.16254320702155209 -0.2351632361734422 0 0.16097870724125449 -0.24292032119762011 0 0.15390853800913809 -0.24274468653761391 0 0.16416434830993021 -0.25348076251168611 0 0.16097870724125449 -0.24292032119762011 0 0.15746623258843939 -0.24717962177743169 0 0.16097870724125449 -0.24292032119762011 0 0.15746623258843939 -0.24717962177743169 0 0.15390853800913809 -0.24274468653761391 0 0.1338120645475761 -0.25178135897747889 0 0.14143480209138451 -0.24391931440815429 0 0.15081333679343489 -0.24957271686280691 0 0.14143480209138451 -0.24391931440815429 0 0.14954523601732381 -0.23656141158161401 0 0.13965007243053049 -0.2272862619181428 0 0.14143480209138451 -0.24391931440815429 0 0.15081333679343489 -0.24957271686280691 0 0.14892547822782029 -0.24319953234754729 0 0.15746623258843939 -0.24717962177743169 0 0.15081333679343489 -0.24957271686280691 0 0.15390853800913809 -0.24274468653761391 0 0.15081333679343489 -0.24957271686280691 0 0.15390853800913809 -0.24274468653761391 0 0.14892547822782029 -0.24319953234754729 0 0.16254320702155209 -0.2351632361734422 0 0.15390853800913809 -0.24274468653761391 0 0.14954523601732381 -0.23656141158161401 0 0.15390853800913809 -0.24274468653761391 0 0.14892547822782029 -0.24319953234754729 0 0.14954523601732381 -0.23656141158161401 0 0.14143480209138451 -0.24391931440815429 0 0.14892547822782029 -0.24319953234754729 0 0.14954523601732381 -0.23656141158161401 0 0.14954523601732381 -0.23656141158161401 0 0.15535209141549861 -0.22942801887575409 0 0.13965007243053049 -0.2272862619181428 0 0.15535209141549861 -0.22942801887575409 0 0.1522967848894444 -0.22083493224417339 0 0.13965007243053049 -0.2272862619181428 0 0.16254320702155209 -0.2351632361734422 0 0.14954523601732381 -0.23656141158161401 0 0.15535209141549861 -0.22942801887575409 0 0.1522967848894444 -0.22083493224417339 0 0.13965007243053049 -0.2272862619181428 0 0.14214428324753289 -0.2154529738929884 0 0.11925867152865099 -0.22395178641925401 0 0.13965007243053049 -0.2272862619181428 0 0.12727927076528461 -0.2378210325384271 0 0.11925867152865099 -0.22395178641925401 0 0.13965007243053049 -0.2272862619181428 0 0.1296813367821156 -0.2112782106774091 0 0.14143480209138451 -0.24391931440815429 0 0.13965007243053049 -0.2272862619181428 0 0.12727927076528461 -0.2378210325384271 0 0.1338120645475761 -0.25178135897747889 0 0.1155402395781918 -0.2507583320391269 0 0.12727927076528461 -0.2378210325384271 0 0.1338120645475761 -0.25178135897747889 0 0.14143480209138451 -0.24391931440815429 0 0.12727927076528461 -0.2378210325384271 0 0.1472064603361167 -0.20247602688276969 0 0.14541013119376039 -0.19094925991957609 0 0.13560729147637779 -0.19666813964102769 0 0.1472064603361167 -0.20247602688276969 0 0.14541013119376039 -0.19094925991957609 0 0.15597410852767299 -0.19239463322910441 0 0.14541013119376039 -0.19094925991957609 0 0.15597410852767299 -0.19239463322910441 0 0.15149562072024261 -0.18002206604153331 0 0.1573322870795833 -0.20789039819694149 0 0.1472064603361167 -0.20247602688276969 0 0.15597410852767299 -0.19239463322910441 0 0.1573322870795833 -0.20789039819694149 0 0.1472064603361167 -0.20247602688276969 0 0.14214428324753289 -0.2154529738929884 0 0.1573322870795833 -0.20789039819694149 0 0.1522967848894444 -0.22083493224417339 0 0.14214428324753289 -0.2154529738929884 0 0.1472064603361167 -0.20247602688276969 0 0.14214428324753289 -0.2154529738929884 0 0.1296813367821156 -0.2112782106774091 0 0.1472064603361167 -0.20247602688276969 0 0.1296813367821156 -0.2112782106774091 0 0.13560729147637779 -0.19666813964102769 0 0.13965007243053049 -0.2272862619181428 0 0.14214428324753289 -0.2154529738929884 0 0.1296813367821156 -0.2112782106774091 0 0.1232396379011078 -0.1927549034493776 0 0.1296813367821156 -0.2112782106774091 0 0.13560729147637779 -0.19666813964102769 0 0.14541013119376039 -0.19094925991957609 0 0.13560729147637779 -0.19666813964102769 0 0.1367671749083921 -0.18318543380344571 0 0.1232396379011078 -0.1927549034493776 0 0.13560729147637779 -0.19666813964102769 0 0.1367671749083921 -0.18318543380344571 0 0.1232396379011078 -0.1927549034493776 0 0.1240882674421261 -0.17221834261327171 0 0.1367671749083921 -0.18318543380344571 0 0.1240882674421261 -0.17221834261327171 0 0.1367671749083921 -0.18318543380344571 0 0.13968624526684381 -0.1663096509244866 0 0.14541013119376039 -0.19094925991957609 0 0.1367671749083921 -0.18318543380344571 0 0.15149562072024261 -0.18002206604153331 0 0.1367671749083921 -0.18318543380344571 0 0.15149562072024261 -0.18002206604153331 0 0.13968624526684381 -0.1663096509244866 0 0.15149562072024261 -0.18002206604153331 0 0.15438358984087761 -0.16681526513507461 0 0.15901421514929279 -0.17490695601163531 0 0.13968624526684381 -0.1663096509244866 0 0.137218974646206 -0.14902146964549531 0 0.15110583492258711 -0.15411329859263981 0 0.15438358984087761 -0.16681526513507461 0 0.15110583492258711 -0.15411329859263981 0 0.16298457853711951 -0.16119870976526179 0 0.15149562072024261 -0.18002206604153331 0 0.15438358984087761 -0.16681526513507461 0 0.13968624526684381 -0.1663096509244866 0 0.15438358984087761 -0.16681526513507461 0 0.13968624526684381 -0.1663096509244866 0 0.15110583492258711 -0.15411329859263981 0 0.1238726331408222 -0.15597973401630799 0 0.13968624526684381 -0.1663096509244866 0 0.137218974646206 -0.14902146964549531 0 0.1238726331408222 -0.15597973401630799 0 0.1240882674421261 -0.17221834261327171 0 0.13968624526684381 -0.1663096509244866 0 0.1238726331408222 -0.15597973401630799 0 0.12550759679471971 -0.14428239988351421 0 0.137218974646206 -0.14902146964549531 0 0.12550759679471971 -0.14428239988351421 0 0.137218974646206 -0.14902146964549531 0 0.13351042007077771 -0.13535464583232679 0 0.13570225296767791 -0.1136627830916173 0 0.13351042007077771 -0.13535464583232679 0 0.14820743810063461 -0.13253739615236759 0 0.137218974646206 -0.14902146964549531 0 0.13351042007077771 -0.13535464583232679 0 0.14820743810063461 -0.13253739615236759 0 0.1195920268695274 -0.13435801890873961 0 0.125059882544757 -0.1243050716586782 0 0.13351042007077771 -0.13535464583232679 0 0.1195920268695274 -0.13435801890873961 0 0.12550759679471971 -0.14428239988351421 0 0.13351042007077771 -0.13535464583232679 0 0.14820743810063461 -0.13253739615236759 0 0.15110583492258711 -0.15411329859263981 0 0.1632605781546366 -0.14974645590444771 0 0.137218974646206 -0.14902146964549531 0 0.14820743810063461 -0.13253739615236759 0 0.15110583492258711 -0.15411329859263981 0 0.1632605781546366 -0.14974645590444771 0 0.17135699408012309 -0.1393121638749876 0 0.1768116023582888 -0.16793795145475099 0 0.15110583492258711 -0.15411329859263981 0 0.1632605781546366 -0.14974645590444771 0 0.16298457853711951 -0.16119870976526179 0 0.14820743810063461 -0.13253739615236759 0 0.1632605781546366 -0.14974645590444771 0 0.17135699408012309 -0.1393121638749876 0 0.1659023858019596 -0.11068637629522381 0 0.14820743810063461 -0.13253739615236759 0 0.17135699408012309 -0.1393121638749876 0 0.1659023858019596 -0.11068637629522381 0 0.17135699408012309 -0.1393121638749876 0 0.18392927920566929 -0.12697896821793581 0 0.17135699408012309 -0.1393121638749876 0 0.1858442134446858 -0.1403981851473228 0 0.18392927920566929 -0.12697896821793581 0 0.17135699408012309 -0.1393121638749876 0 0.1768116023582888 -0.16793795145475099 0 0.17135699408012309 -0.1393121638749876 0 0.18613440788357311 -0.15203004835571851 0 0.1768116023582888 -0.16793795145475099 0 0.17135699408012309 -0.1393121638749876 0 0.1858442134446858 -0.1403981851473228 0 0.18613440788357311 -0.15203004835571851 0 0.19108557901044451 -0.16803916485973749 0 0.18613440788357311 -0.15203004835571851 0 0.1768116023582888 -0.16793795145475099 0 0.18226621063645451 -0.19656373903451449 0 0.16984428664340401 -0.18996852359395999 0 0.1768116023582888 -0.16793795145475099 0 0.18945430304214239 -0.18113699365130109 0 0.19108557901044451 -0.16803916485973749 0 0.1768116023582888 -0.16793795145475099 0 0.18226621063645451 -0.19656373903451449 0 0.1768116023582888 -0.16793795145475099 0 0.18945430304214239 -0.18113699365130109 0 0.18226621063645451 -0.19656373903451449 0 0.1768116023582888 -0.16793795145475099 0 0.16984428664340401 -0.18996852359395999 0 0.1681453618312011 -0.16870708613893129 0 0.16984428664340401 -0.18996852359395999 0 0.1768116023582888 -0.16793795145475099 0 0.1681453618312011 -0.16870708613893129 0 0.16984428664340401 -0.18996852359395999 0 0.1614518955362341 -0.18261220584938501 0 0.1681453618312011 -0.16870708613893129 0 0.15597410852767299 -0.19239463322910441 0 0.15149562072024261 -0.18002206604153331 0 0.1614518955362341 -0.18261220584938501 0 0.1614518955362341 -0.18261220584938501 0 0.15901421514929279 -0.17490695601163531 0 0.1681453618312011 -0.16870708613893129 0 0.15149562072024261 -0.18002206604153331 0 0.1614518955362341 -0.18261220584938501 0 0.15901421514929279 -0.17490695601163531 0 0.15438358984087761 -0.16681526513507461 0 0.16298457853711951 -0.16119870976526179 0 0.1681453618312011 -0.16870708613893129 0 0.15438358984087761 -0.16681526513507461 0 0.15901421514929279 -0.17490695601163531 0 0.1681453618312011 -0.16870708613893129 0 0.1632605781546366 -0.14974645590444771 0 0.1768116023582888 -0.16793795145475099 0 0.16298457853711951 -0.16119870976526179 0 0.1768116023582888 -0.16793795145475099 0 0.16298457853711951 -0.16119870976526179 0 0.1681453618312011 -0.16870708613893129 0 
</DataArray>
</Points>
<Cells>
<DataArray type="UInt32" Name="connectivity" format="ascii">
0 1 2 3 4 5 6 7 8 9 10 11 12 13 14 15 16 17 18 19 20 21 22 23 24 25 26 27 28 29 30 31 32 33 34 35 36 37 38 39 40 41 42 43 44 45 46 47 48 49 50 51 52 53 54 55 56 57 58 59 60 61 62 63 64 65 66 67 68 69 70 71 72 73 74 75 76 77 78 79 80 81 82 83 84 85 86 87 88 89 90 91 92 93 94 95 96 97 98 99 100 101 102 103 104 105 106 107 108 109 110 111 112 113 114 115 116 117 118 119 120 121 122 123 124 125 126 127 128 129 130 131 132 133 134 135 136 137 138 139 140 141 142 143 144 145 146 147 148 149 150 151 152 153 154 155 156 157 158 159 160 161 162 163 164 165 166 167 168 169 170 171 172 173 174 175 176 177 178 179 180 181 182 183 184 185 186 187 188 189 190 191 192 193 194 195 196 197 198 199 200 201 202 203 204 205 206 207 208 209 210 211 212 213 214 215 216 217 218 219 220 221 222 223 224 225 226 227 228 229 230 231 232 233 234 235 236 237 238 239 240 241 242 243 244 245 246 247 248 249 250 251 252 253 254 255 256 257 258 259 260 261 262 263 264 265 266 267 268 269 270 271 272 273 274 275 276 277 278 279 280 281 282 283 284 285 286 287 288 289 290 291 292 293 294 295 296 297 298 299 300 301 302 303 304 305 306 307 308 309 310 311 312 313 314 315 316 317 318 319 320 321 322 323 324 325 326 327 328 329 330 331 332 333 334 335 336 337 338 339 340 341 342 343 344 345 346 347 348 349 350 351 352 353 354 355 356 357 358 359 360 361 362 363 364 365 366 367 368 369 370 371 372 373 374 375 376 377 378 379 380 381 382 383 384 385 386 387 388 389 390 391 392 393 394 395 396 397 398 399 400 401 402 403 404 405 406 407 408 409 410 411 412 413 414 415 416 417 418 419 420 421 422 423 424 425 426 427 428 429 430 431 432 433 434 435 436 437 438 439 440 441 442 443 444 445 446 447 448 449 450 451 452 453 454 455 456 457 458 459 460 461 462 463 464 465 466 467 468 469 470 471 472 473 474 475 476 477 478 479 480 481 482 483 484 485 486 487 488 489 490 491 492 493 494 495 496 497 498 499 500 501 502 503 504 505 506 507 508 509 510 511 512 513 514 515 516 517 518 519 520 521 522 523 524 525 526 527 528 529 530 531 532 533 534 535 536 537 538 539 540 541 542 543 544 545 546 547 548 549 550 551 552 553 554 555 556 557 558 559 560 561 562 563 564 565 566 567 568 569 570 571 572 573 574 575 576 577 578 579 580 581 582 583 584 585 586 587 588 589 590 591 592 593 594 595 596 597 598 599 600 601 602 603 604 605 606 607 608 609 610 611 612 613 614 615 616 617 618 619 620 621 622 623 624 625 626 627 628 629 630 631 632 633 634 635 636 637 638 639 640 641 642 643 644 645 646 647 648 649 650 651 652 653 654 655 656 657 658 659 660 661 662 663 664 665 666 667 668 669 670 671 672 673 674 675 676 677 678 679 680 681 682 683 684 685 686 687 688 689 690 691 692 693 694 695 696 697 698 699 700 701 702 703 704 705 706 707 708 709 710 711 712 713 714 715 716 717 718 719 720 721 722 723 724 725 726 727 728 729 730 731 732 733 734 735 736 737 738 739 740 741 742 743 744 745 746 747 748 749 750 751 752 753 754 755 756 757 758 759 760 761 762 763 764 765 766 767 768 769 770 771 772 773 774 775 776 777 778 779 780 781 782 783 784 785 786 787 788 789 790 791 792 793 794 795 796 797 798 799 800 801 802 803 804 805 806 807 808 809 810 811 812 813 814 815 816 817 818 819 820 821 822 823 824 825 826 827 828 829 830 831 832 833 834 835 836 837 838 839 840 841 842 843 844 845 846 847 848 849 850 851 852 853 854 855 856 857 858 859 860 861 862 863 864 865 866 867 868 869 870 871 872 873 874 875 876 877 878 879 880 881 882 883 884 885 886 887 888 889 890 891 892 893 894 895 896 897 898 899 900 901 902 903 904 905 906 907 908 909 910 911 912 913 914 915 916 917 918 919 920 921 922 923 924 925 926 927 928 929 930 931 932 933 934 935 936 937 938 939 940 941 942 943 944 945 946 947 948 949 950 951 952 953 954 955 956 957 958 959 960 961 962 963 964 965 966 967 968 969 970 971 972 973 974 975 976 977 978 979 980 981 982 983 984 985 986 987 988 989 990 991 992 993 994 995 996 997 998 999 1000 1001 1002 1003 1004 1005 1006 1007 1008 1009 1010 1011 1012 1013 1014 1015 1016 1017 1018 1019 1020 1021 1022 1023 1024 1025 1026 1027 1028 1029 1030 1031 1032 1033 1034 1035 1036 1037 1038 1039 1040 1041 1042 1043 1044 1045 1046 1047 1048 1049 1050 1051 1052 1053 1054 1055 1056 1057 1058 1059 1060 1061 1062 1063 1064 1065 1066 1067 1068 1069 1070 1071 1072 1073 1074 1075 1076 1077 1078 1079 1080 1081 1082 1083 1084 1085 1086 1087 1088 1089 1090 1091 1092 1093 1094 1095 1096 1097 1098 1099 1100 1101 1102 1103 1104 1105 1106 1107 1108 1109 1110 1111 1112 1113 1114 1115 1116 1117 1118 1119 1120 1121 1122 1123 1124 1125 1126 1127 1128 1129 1130 1131 1132 1133 1134 1135 1136 1137 1138 1139 1140 1141 1142 1143 1144 1145 1146 1147 1148 1149 1150 1151 1152 1153 1154 1155 1156 1157 1158 1159 1160 1161 1162 1163 1164 1165 1166 1167 1168 1169 1170 1171 1172 1173 1174 1175 1176 1177 1178 1179 1180 1181 1182 1183 1184 1185 1186 1187 1188 1189 1190 1191 1192 1193 1194 1195 1196 1197 1198 1199 1200 1201 1202 1203 1204 1205 1206 1207 1208 1209 1210 1211 1212 1213 1214 1215 1216 1217 1218 1219 1220 1221 1222 1223 1224 1225 1226 1227 1228 1229 1230 1231 1232 1233 1234 1235 1236 1237 1238 1239 1240 1241 1242 1243 1244 1245 1246 1247 1248 1249 1250 1251 1252 1253 1254 1255 1256 1257 1258 1259 1260 1261 1262 1263 1264 1265 1266 1267 1268 1269 1270 1271 1272 1273 1274 1275 1276 1277 1278 1279 1280 1281 1282 1283 1284 1285 1286 1287 1288 1289 1290 1291 1292 1293 1294 1295 1296 1297 1298 1299 1300 1301 1302 1303 1304 1305 1306 1307 1308 1309 1310 1311 1312 1313 1314 1315 1316 1317 1318 1319 1320 1321 1322 1323 1324 1325 1326 1327 1328 1329 1330 1331 1332 1333 1334 1335 1336 1337 1338 1339 1340 1341 1342 1343 1344 1345 1346 1347 1348 1349 1350 1351 1352 1353 1354 1355 1356 1357 1358 1359 1360 1361 1362 1363 1364 1365 1366 1367 1368 1369 1370 1371 1372 1373 1374 1375 1376 1377 1378 1379 1380 1381 1382 1383 1384 1385 1386 1387 1388 1389 1390 1391 1392 1393 1394 1395 1396 1397 1398 1399 1400 1401 1402 1403 1404 1405 1406 1407 1408 1409 1410 1411 1412 1413 1414 1415 1416 1417 1418 1419 1420 1421 1422 1423 1424 1425 1426 1427 1428 1429 1430 1431 1432 1433 1434 1435 1436 1437 1438 1439 1440 1441 1442 1443 1444 1445 1446 1447 1448 1449 1450 1451 1452 1453 1454 1455 1456 1457 1458 1459 1460 1461 1462 1463 1464 1465 1466 1467 1468 1469 1470 1471 1472 1473 1474 1475 1476 1477 1478 1479 1480 1481 1482 1483 1484 1485 1486 1487 1488 1489 1490 1491 1492 1493 1494 1495 1496 1497 1498 1499 1500 1501 1502 1503 1504 1505 1506 1507 1508 1509 1510 1511 1512 1513 1514 1515 1516 1517 1518 1519 1520 1521 1522 1523 1524 1525 1526 1527 1528 1529 1530 1531 1532 1533 1534 1535 1536 1537 1538 1539 1540 1541 1542 1543 1544 1545 1546 1547 1548 1549 1550 1551 1552 1553 1554 1555 1556 1557 1558 1559 1560 1561 1562 1563 1564 1565 1566 1567 1568 1569 1570 1571 1572 1573 1574 1575 1576 1577 1578 1579 1580 1581 1582 1583 1584 1585 1586 1587 1588 1589 1590 1591 1592 1593 1594 1595 1596 1597 1598 1599 1600 1601 1602 1603 1604 1605 1606 1607 1608 1609 1610 1611 1612 1613 1614 1615 1616 1617 1618 1619 1620 1621 1622 1623 1624 1625 1626 1627 1628 1629 1630 1631 1632 1633 1634 1635 1636 1637 1638 1639 1640 1641 1642 1643 1644 1645 1646 1647 1648 1649 1650 1651 1652 1653 1654 1655 1656 1657 1658 1659 1660 1661 1662 1663 1664 1665 1666 1667 1668 1669 1670 1671 1672 1673 1674 1675 1676 1677 1678 1679 1680 1681 1682 1683 1684 1685 1686 1687 1688 1689 1690 1691 1692 1693 1694 1695 1696 1697 1698 1699 1700 1701 1702 1703 1704 1705 1706 1707 1708 1709 1710 1711 1712 1713 1714 1715 1716 1717 1718 1719 1720 1721 1722 1723 1724 1725 1726 1727 1728 1729 1730 1731 1732 1733 1734 1735 1736 1737 1738 1739 1740 1741 1742 1743 1744 1745 1746 1747 1748 1749 1750 1751 1752 1753 1754 1755 1756 1757 1758 1759 1760 1761 1762 1763 1764 1765 1766 1767 1768 1769 1770 1771 1772 1773 1774 1775 1776 1777 1778 1779 1780 1781 1782 1783 1784 1785 1786 1787 1788 1789 1790 1791 1792 1793 1794 1795 1796 1797 1798 1799 1800 1801 1802 1803 1804 1805 1806 1807 1808 1809 1810 1811 1812 1813 1814 1815 1816 1817 1818 1819 1820 1821 1822 1823 1824 1825 1826 1827 1828 1829 1830 1831 1832 1833 1834 1835 1836 1837 1838 1839 1840 1841 1842 1843 1844 1845 1846 1847 1848 1849 1850 1851 1852 1853 1854 1855 1856 1857 1858 1859 1860 1861 1862 1863 1864 1865 1866 1867 1868 1869 1870 1871 1872 1873 1874 1875 1876 1877 1878 1879 1880 1881 1882 1883 1884 1885 1886 1887 1888 1889 1890 1891 1892 1893 1894 1895 1896 1897 1898 1899 1900 1901 1902 1903 1904 1905 1906 1907 1908 1909 1910 1911 1912 1913 1914 1915 1916 1917 1918 1919 1920 1921 1922 1923 1924 1925 1926 1927 1928 1929 1930 1931 1932 1933 1934 1935 1936 1937 1938 1939 1940 1941 1942 1943 1944 1945 1946 1947 1948 1949 1950 1951 1952 1953 1954 1955 1956 1957 1958 1959 1960 1961 1962 1963 1964 1965 1966 1967 1968 1969 1970 1971 1972 1973 1974 1975 1976 1977 1978 1979 1980 1981 1982 1983 1984 1985 1986 1987 1988 1989 1990 1991 1992 1993 1994 1995 1996 1997 1998 1999 2000 2001 2002 2003 2004 2005 2006 2007 2008 2009 2010 2011 2012 2013 2014 2015 2016 2017 2018 2019 2020 2021 2022 2023 2024 2025 2026 2027 2028 2029 2030 2031 2032 2033 2034 2035 2036 2037 2038 2039 2040 2041 2042 2043 2044 2045 2046 2047 2048 2049 2050 2051 2052 2053 2054 2055 2056 2057 2058 2059 2060 2061 2062 2063 2064 2065 2066 2067 2068 2069 2070 2071 2072 2073 2074 2075 2076 2077 2078 2079 2080 2081 2082 2083 2084 2085 2086 2087 2088 2089 2090 2091 2092 2093 2094 2095 2096 2097 2098 2099 2100 2101 2102 2103 2104 2105 2106 2107 2108 2109 2110 2111 2112 2113 2114 2115 2116 2117 2118 2119 2120 2121 2122 2123 2124 2125 2126 2127 2128 2129 2130 2131 2132 2133 2134 2135 2136 2137 2138 2139 2140 2141 2142 2143 2144 2145 2146 2147 2148 2149 2150 2151 2152 2153 2154 2155 2156 2157 2158 2159 2160 2161 2162 2163 2164 2165 2166 2167 2168 2169 2170 2171 2172 2173 2174 2175 2176 2177 2178 2179 2180 2181 2182 2183 2184 2185 2186 2187 2188 2189 2190 2191 2192 2193 2194 2195 2196 2197 2198 2199 2200 2201 2202 2203 2204 2205 2206 2207 2208 2209 2210 2211 2212 2213 2214 2215 2216 2217 2218 2219 2220 2221 2222 2223 2224 2225 2226 2227 2228 2229 2230 2231 2232 2233 2234 2235 2236 2237 2238 2239 2240 2241 2242 2243 2244 2245 2246 2247 2248 2249 2250 2251 2252 2253 2254 2255 2256 2257 2258 2259 2260 2261 2262 2263 2264 2265 2266 2267 2268 2269 2270 2271 2272 2273 2274 2275 2276 2277 2278 2279 2280 2281 2282 2283 2284 2285 2286 2287 2288 2289 2290 2291 2292 2293 2294 2295 2296 2297 2298 2299 2300 2301 2302 2303 2304 2305 2306 2307 2308 2309 2310 2311 2312 2313 2314 2315 2316 2317 2318 2319 2320 2321 2322 2323 2324 2325 2326 2327 2328 2329 2330 2331 2332 2333 2334 2335 2336 2337 2338 2339 2340 2341 2342 2343 2344 2345 2346 2347 2348 2349 2350 2351 2352 2353 2354 2355 2356 2357 2358 2359 2360 2361 2362 2363 2364 2365 2366 2367 2368 2369 2370 2371 2372 2373 2374 2375 2376 2377 2378 2379 2380 2381 2382 2383 2384 2385 2386 2387 2388 2389 2390 2391 2392 2393 2394 2395 2396 2397 2398 2399 2400 2401 2402 2403 2404 2405 2406 2407 2408 2409 2410 2411 2412 2413 2414 2415 2416 2417 2418 2419 2420 2421 2422 2423 2424 2425 2426 2427 2428 2429 2430 2431 2432 2433 2434 2435 2436 2437 2438 2439 2440 2441 2442 2443 2444 2445 2446 2447 2448 2449 2450 2451 2452 2453 2454 2455 2456 2457 2458 2459 2460 2461 2462 2463 2464 2465 2466 2467 2468 2469 2470 2471 2472 2473 2474 2475 2476 2477 2478 2479 2480 2481 2482 2483 2484 2485 2486 2487 2488 2489 2490 2491 2492 2493 2494 2495 2496 2497 2498 2499 2500 2501 2502 2503 2504 2505 2506 2507 2508 2509 2510 2511 2512 2513 2514 2515 2516 2517 2518 2519 2520 2521 2522 2523 2524 2525 2526 2527 2528 2529 2530 2531 2532 2533 2534 2535 2536 2537 2538 2539 2540 2541 2542 2543 2544 2545 2546 2547 2548 2549 2550 2551 2552 2553 2554 2555 2556 2557 2558 2559 2560 2561 2562 2563 2564 2565 2566 2567 2568 2569 2570 2571 2572 2573 2574 2575 2576 2577 2578 2579 2580 2581 2582 2583 2584 2585 2586 2587 2588 2589 2590 2591 2592 2593 2594 2595 2596 2597 2598 2599 2600 2601 2602 2603 2604 2605 2606 2607 2608 2609 2610 2611 2612 2613 2614 2615 2616 2617 2618 2619 2620 2621 2622 2623 2624 2625 2626 2627 2628 2629 2630 2631 2632 2633 2634 2635 2636 2637 2638 2639 2640 2641 2642 2643 2644 2645 2646 2647 2648 2649 2650 2651 2652 2653 2654 2655 2656 2657 2658 2659 2660 2661 2662 2663 2664 2665 2666 2667 2668 2669 2670 2671 2672 2673 2674 2675 2676 2677 2678 2679 2680 2681 2682 2683 2684 2685 2686 2687 2688 2689 2690 2691 2692 2693 2694 2695 2696 2697 2698 2699 2700 2701 2702 2703 2704 2705 2706 2707 2708 2709 2710 2711 2712 2713 2714 2715 2716 2717 2718 2719 2720 2721 2722 2723 2724 2725 2726 2727 2728 2729 2730 2731 2732 2733 2734 2735 2736 2737 2738 2739 2740 2741 2742 2743 2744 2745 2746 2747 2748 2749 2750 2751 2752 2753 2754 2755 2756 2757 2758 2759 2760 2761 2762 2763 2764 2765 2766 2767 2768 2769 2770 2771 2772 2773 2774 2775 2776 2777 2778 2779 2780 2781 2782 2783 2784 2785 2786 2787 2788 2789 2790 2791 2792 2793 2794 2795 2796 2797 2798 2799 2800 2801 2802 2803 2804 2805 2806 2807 2808 2809 2810 2811 2812 2813 2814 2815 2816 2817 2818 2819 2820 2821 2822 2823 2824 2825 2826 2827 2828 2829 2830 2831 2832 2833 2834 2835 2836 2837 2838 2839 2840 2841 2842 2843 2844 2845 2846 2847 2848 2849 2850 2851 2852 2853 2854 2855 2856 2857 2858 2859 2860 2861 2862 2863 2864 2865 2866 2867 2868 2869 2870 2871 2872 2873 2874 2875 2876 2877 2878 2879 2880 2881 2882 2883 2884 2885 2886 2887 2888 2889 2890 2891 2892 2893 2894 2895 2896 2897 2898 2899 2900 2901 2902 2903 2904 2905 2906 2907 2908 2909 2910 2911 2912 2913 2914 2915 2916 2917 2918 2919 2920 2921 2922 2923 2924 2925 2926 2927 2928 2929 2930 2931 2932 2933 2934 2935 2936 2937 2938 2939 2940 2941 2942 2943 2944 2945 2946 2947 2948 2949 2950 2951 2952 2953 2954 2955 2956 2957 2958 2959 2960 2961 2962 2963 2964 2965 2966 2967 2968 2969 2970 2971 2972 2973 2974 2975 2976 2977 2978 2979 2980 2981 2982 2983 2984 2985 2986 2987 2988 2989 2990 2991 2992 2993 2994 2995 2996 2997 2998 2999 3000 3001 3002 3003 3004 3005 3006 3007 3008 3009 3010 3011 3012 3013 3014 3015 3016 3017 3018 3019 3020 3021 3022 3023 3024 3025 3026 3027 3028 3029 3030 3031 3032 3033 3034 3035 3036 3037 3038 3039 3040 3041 3042 3043 3044 3045 3046 3047 3048 3049 3050 3051 3052 3053 3054 3055 3056 3057 3058 3059 3060 3061 3062 3063 3064 3065 3066 3067 3068 3069 3070 3071 3072 3073 3074 3075 3076 3077 3078 3079 3080 3081 3082 3083 3084 3085 3086 3087 3088 3089 3090 3091 3092 3093 3094 3095 3096 3097 3098 3099 3100 3101 3102 3103 3104 3105 3106 3107 3108 3109 3110 3111 3112 3113 3114 3115 3116 3117 3118 3119 3120 3121 3122 3123 3124 3125 3126 3127 3128 3129 3130 3131 3132 3133 3134 3135 3136 3137 3138 3139 3140 3141 3142 3143 3144 3145 3146 3147 3148 3149 3150 3151 3152 3153 3154 3155 3156 3157 3158 3159 3160 3161 3162 3163 3164 3165 3166 3167 3168 3169 3170 3171 3172 3173 3174 3175 3176 3177 3178 3179 3180 3181 3182 3183 3184 3185 3186 3187 3188 3189 3190 3191 3192 3193 3194 3195 3196 3197 3198 3199 3200 3201 3202 3203 3204 3205 3206 3207 3208 3209 3210 3211 3212 3213 3214 3215 3216 3217 3218 3219 3220 3221 3222 3223 3224 3225 3226 3227 3228 3229 3230 3231 3232 3233 3234 3235 3236 3237 3238 3239 3240 3241 3242 3243 3244 3245 3246 3247 3248 3249 3250 3251 3252 3253 3254 3255 3256 3257 3258 3259 3260 3261 3262 3263 3264 3265 3266 3267 3268 3269 3270 3271 3272 3273 3274 3275 3276 3277 3278 3279 3280 3281 3282 3283 3284 3285 3286 3287 3288 3289 3290 3291 3292 3293 3294 3295 3296 3297 3298 3299 3300 3301 3302 3303 3304 3305 3306 3307 3308 3309 3310 3311 3312 3313 3314 3315 3316 3317 3318 3319 3320 3321 3322 3323 3324 3325 3326 3327 3328 3329 3330 3331 3332 3333 3334 3335 3336 3337 3338 3339 3340 3341 3342 3343 3344 3345 3346 3347 3348 3349 3350 3351 3352 3353 3354 3355 3356 3357 3358 3359 3360 3361 3362 3363 3364 3365 3366 3367 3368 3369 3370 3371 3372 3373 3374 3375 3376 3377 3378 3379 3380 3381 3382 3383 3384 3385 3386 3387 3388 3389 3390 3391 3392 3393 3394 3395 3396 3397 3398 3399 3400 3401 3402 3403 3404 3405 3406 3407 3408 3409 3410 3411 3412 3413 3414 3415 3416 3417 3418 3419 3420 3421 3422 3423 3424 3425 3426 3427 3428 3429 3430 3431 3432 3433 3434 3435 3436 3437 3438 3439 3440 3441 3442 3443 3444 3445 3446 3447 3448 3449 3450 3451 3452 3453 3454 3455 3456 3457 3458 3459 3460 3461 3462 3463 3464 3465 3466 3467 3468 3469 3470 3471 3472 3473 3474 3475 3476 3477 3478 3479 3480 3481 3482 3483 3484 3485 3486 3487 3488 3489 3490 3491 3492 3493 3494 3495 3496 3497 3498 3499 3500 3501 3502 3503 3504 3505 3506 3507 3508 3509 3510 3511 3512 3513 3514 3515 3516 3517 3518 3519 3520 3521 3522 3523 3524 3525 3526 3527 3528 3529 3530 3531 3532 3533 3534 3535 3536 3537 3538 3539 3540 3541 3542 3543 3544 3545 3546 3547 3548 3549 3550 3551 3552 3553 3554 3555 3556 3557 3558 3559 3560 3561 3562 3563 3564 3565 3566 3567 3568 3569 3570 3571 3572 3573 3574 3575 3576 3577 3578 3579 3580 3581 3582 3583 3584 3585 3586 3587 3588 3589 3590 3591 3592 3593 3594 3595 3596 3597 3598 3599 3600 3601 3602 3603 3604 3605 3606 3607 3608 3609 3610 3611 3612 3613 3614 3615 3616 3617 3618 3619 3620 3621 3622 3623 3624 3625 3626 3627 3628 3629 3630 3631 3632 3633 3634 3635 3636 3637 3638 3639 3640 3641 3642 3643 3644 3645 3646 3647 3648 3649 3650 3651 3652 3653 3654 3655 3656 3657 3658 3659 3660 3661 3662 3663 3664 3665 3666 3667 3668 3669 3670 3671 3672 3673 3674 3675 3676 3677 3678 3679 3680 3681 3682 3683 3684 3685 3686 3687 3688 3689 3690 3691 3692 3693 3694 3695 3696 3697 3698 3699 3700 3701 3702 3703 3704 3705 3706 3707 3708 3709 3710 3711 3712 3713 3714 3715 3716 3717 3718 3719 3720 3721 3722 3723 3724 3725 3726 3727 3728 3729 3730 3731 3732 3733 3734 3735 3736 3737 3738 3739 3740 3741 3742 3743 3744 3745 3746 3747 3748 3749 3750 3751 3752 3753 3754 3755 3756 3757 3758 3759 3760 3761 3762 3763 3764 3765 3766 3767 3768 3769 3770 3771 3772 3773 3774 3775 3776 3777 3778 3779 3780 3781 3782 3783 3784 3785 3786 3787 3788 3789 3790 3791 3792 3793 3794 3795 3796 3797 3798 3799 3800 3801 3802 3803 3804 3805 3806 3807 3808 3809 3810 3811 3812 3813 3814 3815 3816 3817 3818 3819 3820 3821 3822 3823 3824 3825 3826 3827 3828 3829 3830 3831 3832 3833 3834 3835 3836 3837 3838 3839 3840 3841 3842 3843 3844 3845 3846 3847 3848 3849 3850 3851 3852 3853 3854 3855 3856 3857 3858 3859 3860 3861 3862 3863 3864 3865 3866 3867 3868 3869 3870 3871 3872 3873 3874 3875 3876 3877 3878 3879 3880 3881 3882 3883 3884 3885 3886 3887 3888 3889 3890 3891 3892 3893 3894 3895 3896 3897 3898 3899 3900 3901 3902 3903 3904 3905 3906 3907 3908 3909 3910 3911 3912 3913 3914 3915 3916 3917 3918 3919 3920 3921 3922 3923 3924 3925 3926 3927 3928 3929 3930 3931 3932 3933 3934 3935 3936 3937 3938 3939 3940 3941 3942 3943 3944 3945 3946 3947 3948 3949 3950 3951 3952 3953 3954 3955 3956 3957 3958 3959 3960 3961 3962 3963 3964 3965 3966 3967 3968 3969 3970 3971 3972 3973 3974 3975 3976 3977 3978 3979 3980 3981 3982 3983 3984 3985 3986 3987 3988 3989 3990 3991 3992 3993 3994 3995 3996 3997 3998 3999 4000 4001 4002 4003 4004 4005 4006 4007 4008 4009 4010 4011 4012 4013 4014 4015 4016 4017 4018 4019 4020 4021 4022 4023 4024 4025 4026 4027 4028 4029 4030 4031 4032 4033 4034 4035 4036 4037 4038 4039 4040 4041 4042 4043 4044 4045 4046 4047 4048 4049 4050 4051 4052 4053 4054 4055 4056 4057 4058 4059 4060 4061 4062 4063 4064 4065 4066 4067 4068 4069 4070 4071 4072 4073 4074 4075 4076 4077 4078 4079 4080 4081 4082 4083 4084 4085 4086 4087 4088 4089 4090 4091 4092 4093 4094 4095 4096 4097 4098 4099 4100 4101 4102 4103 4104 4105 4106 4107 4108 4109 4110 4111 4112 4113 4114 4115 4116 4117 4118 4119 4120 4121 4122 4123 4124 4125 4126 4127 4128 4129 4130 4131 4132 4133 4134 4135 4136 4137 4138 4139 4140 4141 4142 4143 4144 4145 4146 4147 4148 4149 4150 4151 4152 4153 4154 4155 4156 4157 4158 4159 4160 4161 4162 4163 4164 4165 4166 4167 4168 4169 4170 4171 4172 4173 4174 4175 4176 4177 4178 4179 4180 4181 4182 4183 4184 4185 4186 4187 4188 4189 4190 4191 4192 4193 4194 4195 4196 4197 4198 4199 4200 4201 4202 4203 4204 4205 4206 4207 4208 4209 4210 4211 4212 4213 4214 4215 4216 4217 4218 4219 4220 4221 4222 4223 4224 4225 4226 4227 4228 4229 4230 4231 4232 4233 4234 4235 4236 4237 4238 4239 4240 4241 4242 4243 4244 4245 4246 4247 4248 4249 4250 4251 4252 4253 4254 4255 4256 4257 4258 4259 4260 4261 4262 4263 4264 4265 4266 4267 4268 4269 4270 4271 4272 4273 4274 4275 4276 4277 4278 4279 4280 4281 4282 4283 4284 4285 4286 4287 4288 4289 4290 4291 4292 4293 4294 4295 4296 4297 4298 4299 4300 4301 4302 4303 4304 4305 4306 4307 4308 4309 4310 4311 4312 4313 4314 4315 4316 4317 4318 4319 4320 4321 4322 4323 4324 4325 4326 4327 4328 4329 4330 4331 4332 4333 4334 4335 4336 4337 4338 4339 4340 4341 4342 4343 4344 4345 4346 4347 4348 4349 4350 4351 4352 4353 4354 4355 4356 4357 4358 4359 4360 4361 4362 4363 4364 4365 4366 4367 4368 4369 4370 4371 4372 4373 4374 4375 4376 4377 4378 4379 4380 4381 4382 4383 4384 4385 4386 4387 4388 4389 4390 4391 4392 4393 4394 4395 4396 4397 4398 4399 4400 4401 4402 4403 4404 4405 4406 4407 4408 4409 4410 4411 4412 4413 4414 4415 4416 4417 4418 4419 4420 4421 4422 4423 4424 4425 4426 4427 4428 4429 4430 4431 4432 4433 4434 4435 4436 4437 4438 4439 4440 4441 4442 4443 4444 4445 4446 4447 4448 4449 4450 4451 4452 4453 4454 4455 4456 4457 4458 4459 4460 4461 4462 4463 4464 4465 4466 4467 4468 4469 4470 4471 4472 4473 4474 4475 4476 4477 4478 4479 4480 4481 4482 4483 4484 4485 4486 4487 4488 4489 4490 4491 4492 4493 4494 4495 4496 4497 4498 4499 4500 4501 4502 4503 4504 4505 4506 4507 4508 4509 4510 4511 4512 4513 4514 4515 4516 4517 4518 4519 4520 4521 4522 4523 4524 4525 4526 4527 4528 4529 4530 4531 4532 4533 4534 4535 4536 4537 4538 4539 4540 4541 4542 4543 4544 4545 4546 4547 4548 4549 4550 4551 4552 4553 4554 4555 4556 4557 4558 4559 4560 4561 4562 4563 4564 4565 4566 4567 4568 4569 4570 4571 4572 4573 4574 4575 4576 4577 4578 4579 4580 4581 4582 4583 4584 4585 4586 4587 4588 4589 4590 4591 4592 4593 4594 4595 4596 4597 4598 4599 4600 4601 4602 4603 4604 4605 4606 4607 4608 4609 4610 4611 4612 4613 4614 4615 4616 4617 4618 4619 4620 4621 4622 4623 4624 4625 4626 4627 4628 4629 4630 4631 4632 4633 4634 4635 4636 4637 4638 4639 4640 4641 4642 4643 4644 4645 4646 4647 4648 4649 4650 4651 4652 4653 4654 4655 4656 4657 4658 4659 4660 4661 4662 4663 4664 4665 4666 4667 4668 4669 4670 4671 4672 4673 4674 4675 4676 4677 4678 4679 4680 4681 4682 4683 4684 4685 4686 4687 4688 4689 4690 4691 4692 4693 4694 4695 4696 4697 4698 4699 4700 4701 4702 4703 4704 4705 4706 4707 4708 4709 4710 4711 4712 4713 4714 4715 4716 4717 4718 4719 4720 4721 4722 4723 4724 4725 4726 4727 4728 4729 4730 4731 4732 4733 4734 4735 4736 4737 4738 4739 4740 4741 4742 4743 4744 4745 4746 4747 4748 4749 4750 4751 4752 4753 4754 4755 4756 4757 4758 4759 4760 4761 4762 4763 4764 4765 4766 4767 4768 4769 4770 4771 4772 4773 4774 4775 4776 4777 4778 4779 4780 4781 4782 4783 4784 4785 4786 4787 4788 4789 4790 4791 4792 4793 4794 4795 4796 4797 4798 4799 4800 4801 4802 4803 4804 4805 4806 4807 4808 4809 4810 4811 4812 4813 4814 4815 4816 4817 4818 4819 4820 4821 4822 4823 4824 4825 4826 4827 4828 4829 4830 4831 4832 4833 4834 4835 4836 4837 4838 4839 4840 4841 4842 4843 4844 4845 4846 4847 4848 4849 4850 4851 4852 4853 4854 4855 4856 4857 4858 4859 4860 4861 4862 4863 4864 4865 4866 4867 4868 4869 4870 4871 4872 4873 4874 4875 4876 4877 4878 4879 4880 4881 4882 4883 4884 4885 4886 4887 4888 4889 4890 4891 4892 4893 4894 4895 4896 4897 4898 4899 4900 4901 4902 4903 4904 4905 4906 4907 4908 4909 4910 4911 4912 4913 4914 4915 4916 4917 4918 4919 4920 4921 4922 4923 4924 4925 4926 4927 4928 4929 4930 4931 4932 4933 4934 4935 4936 4937 4938 4939 4940 4941 4942 4943 4944 4945 4946 4947 4948 4949 4950 4951 4952 4953 4954 4955 4956 4957 4958 4959 4960 4961 4962 4963 4964 4965 4966 4967 4968 4969 4970 4971 4972 4973 4974 4975 4976 4977 4978 4979 4980 4981 4982 4983 4984 4985 4986 4987 4988 4989 4990 4991 4992 4993 4994 4995 4996 4997 4998 4999 5000 5001 5002 5003 5004 5005 5006 5007 5008 5009 5010 5011 5012 5013 5014 5015 5016 5017 5018 5019 5020 5021 5022 5023 5024 5025 5026 5027 5028 5029 5030 5031 5032 5033 5034 5035 5036 5037 5038 5039 5040 5041 5042 5043 5044 5045 5046 5047 5048 5049 5050 5051 5052 5053 5054 5055 5056 5057 5058 5059 5060 5061 5062 5063 5064 5065 5066 5067 5068 5069 5070 5071 5072 5073 5074 5075 5076 5077 5078 5079 5080 5081 5082 5083 5084 5085 5086 5087 5088 5089 5090 5091 5092 5093 5094 5095 5096 5097 5098 5099 5100 5101 5102 5103 5104 5105 5106 5107 5108 5109 5110 5111 5112 5113 5114 5115 5116 5117 5118 5119 5120 5121 5122 5123 5124 5125 5126 5127 5128 5129 5130 5131 5132 5133 5134 5135 5136 5137 5138 5139 5140 5141 5142 5143 5144 5145 5146 5147 5148 5149 5150 5151 5152 5153 5154 5155 5156 5157 5158 5159 5160 5161 5162 5163 5164 5165 5166 5167 5168 5169 5170 5171 5172 5173 5174 5175 5176 5177 5178 5179 5180 5181 5182 5183 5184 5185 5186 5187 5188 5189 5190 5191 5192 5193 5194 5195 5196 5197 5198 5199 5200 5201 5202 5203 5204 5205 5206 5207 5208 5209 5210 5211 5212 5213 5214 5215 5216 5217 5218 5219 5220 5221 5222 5223 5224 5225 5226 5227 5228 5229 5230 5231 5232 5233 5234 5235 5236 5237 5238 5239 5240 5241 5242 5243 5244 5245 5246 5247 5248 5249 5250 5251 5252 5253 5254 5255 5256 5257 5258 5259 5260 5261 5262 5263 5264 5265 5266 5267 5268 5269 5270 5271 5272 5273 5274 5275 5276 5277 5278 5279 5280 5281 5282 5283 5284 5285 5286 5287 5288 5289 5290 5291 5292 5293 5294 5295 5296 5297 5298 5299 5300 5301 5302 5303 5304 5305 5306 5307 5308 5309 5310 5311 5312 5313 5314 5315 5316 5317 5318 5319 5320 5321 5322 5323 5324 5325 5326 5327 5328 5329 5330 5331 5332 5333 5334 5335 5336 5337 5338 5339 5340 5341 5342 5343 5344 5345 5346 5347 5348 5349 5350 5351 5352 5353 5354 5355 5356 5357 5358 5359 5360 5361 5362 5363 5364 5365 5366 5367 5368 5369 5370 5371 5372 5373 5374 5375 5376 5377 5378 5379 5380 5381 5382 5383 5384 5385 5386 5387 5388 5389 5390 5391 5392 5393 5394 5395 5396 5397 5398 5399 5400 5401 5402 5403 5404 5405 5406 5407 5408 5409 5410 5411 5412 5413 5414 5415 5416 5417 5418 5419 5420 5421 5422 5423 5424 5425 5426 5427 5428 5429 5430 5431 5432 5433 5434 5435 5436 5437 5438 5439 5440 5441 5442 5443 5444 5445 5446 5447 5448 5449 5450 5451 5452 5453 5454 5455 5456 5457 5458 5459 5460 5461 5462 5463 5464 5465 5466 5467 5468 5469 5470 5471 5472 5473 5474 5475 5476 5477 5478 5479 5480 5481 5482 5483 5484 5485 5486 5487 5488 5489 5490 5491 5492 5493 5494 5495 5496 5497 5498 5499 5500 5501 5502 5503 5504 5505 5506 5507 5508 5509 5510 5511 5512 5513 5514 5515 5516 5517 5518 5519 5520 5521 5522 5523 5524 5525 5526 5527 5528 5529 5530 5531 5532 5533 5534 5535 5536 5537 5538 5539 5540 5541 5542 5543 5544 5545 5546 5547 5548 5549 5550 5551 5552 5553 5554 5555 5556 5557 5558 5559 5560 5561 5562 5563 5564 5565 5566 5567 5568 5569 5570 5571 5572 5573 5574 5575 5576 5577 5578 5579 5580 5581 5582 5583 5584 5585 5586 5587 5588 5589 5590 5591 5592 5593 5594 5595 5596 5597 5598 5599 5600 5601 5602 5603 5604 5605 5606 5607 5608 5609 5610 5611 5612 5613 5614 5615 5616 5617 5618 5619 5620 5621 5622 5623 5624 5625 5626 5627 5628 5629 5630 5631 5632 5633 5634 5635 5636 5637 5638 5639 5640 5641 5642 5643 5644 5645 5646 5647 5648 5649 5650 5651 5652 5653 5654 5655 5656 5657 5658 5659 5660 5661 5662 5663 5664 5665 5666 5667 5668 5669 5670 5671 5672 5673 5674 5675 5676 5677 5678 5679 5680 5681 5682 5683 5684 5685 5686 5687 5688 5689 5690 5691 5692 5693 5694 5695 5696 5697 5698 5699 5700 5701 5702 5703 5704 5705 5706 5707 5708 5709 5710 5711 5712 5713 5714 5715 5716 5717 5718 5719 5720 5721 5722 5723 5724 5725 5726 5727 5728 5729 5730 5731 5732 5733 5734 5735 5736 5737 5738 5739 5740 5741 5742 5743 5744 5745 5746 5747 5748 5749 5750 5751 5752 5753 5754 5755 5756 5757 5758 5759 5760 5761 5762 5763 5764 5765 5766 5767 5768 5769 5770 5771 5772 5773 5774 5775 5776 5777 5778 5779 5780 5781 5782 5783 5784 5785 5786 5787 5788 5789 5790 5791 5792 5793 5794 5795 5796 5797 5798 5799 5800 5801 5802 5803 5804 5805 5806 5807 5808 5809 5810 5811 5812 5813 5814 5815 5816 5817 5818 5819 5820 5821 5822 5823 5824 5825 5826 5827 5828 5829 5830 5831 5832 5833 5834 5835 5836 5837 5838 5839 5840 5841 5842 5843 5844 5845 5846 5847 5848 5849 5850 5851 5852 5853 5854 5855 5856 5857 5858 5859 5860 5861 5862 5863 5864 5865 5866 5867 5868 5869 5870 5871 5872 5873 5874 5875 5876 5877 5878 5879 5880 5881 5882 5883 5884 5885 5886 5887 5888 5889 5890 5891 5892 5893 5894 5895 5896 5897 5898 5899 5900 5901 5902 5903 5904 5905 5906 5907 5908 5909 5910 5911 5912 5913 5914 5915 5916 5917 5918 5919 5920 5921 5922 5923 5924 5925 5926 5927 5928 5929 5930 5931 5932 5933 5934 5935 5936 5937 5938 5939 5940 5941 5942 5943 5944 5945 5946 5947 5948 5949 5950 5951 5952 5953 5954 5955 5956 5957 5958 5959 5960 5961 5962 5963 5964 5965 5966 5967 5968 5969 5970 5971 5972 5973 5974 5975 5976 5977 5978 5979 5980 5981 5982 5983 5984 5985 5986 5987 5988 5989 5990 5991 5992 5993 5994 5995 5996 5997 5998 5999 6000 6001 6002 6003 6004 6005 6006 6007 6008 6009 6010 6011 6012 6013 6014 6015 6016 6017 6018 6019 6020 6021 6022 6023 6024 6025 6026 6027 6028 6029 6030 6031 6032 6033 6034 6035 6036 6037 6038 6039 6040 6041 6042 6043 6044 6045 6046 6047 6048 6049 6050 6051 6052 6053 6054 6055 6056 6057 6058 6059 6060 6061 6062 6063 6064 6065 6066 6067 6068 6069 6070 6071 6072 6073 6074 6075 6076 6077 6078 6079 6080 6081 6082 6083 6084 6085 6086 6087 6088 6089 6090 6091 6092 6093 6094 6095 6096 6097 6098 6099 6100 6101 6102 6103 6104 6105 6106 6107 6108 6109 6110 6111 6112 6113 6114 6115 6116 6117 6118 6119 6120 6121 6122 6123 6124 6125 6126 6127 6128 6129 6130 6131 6132 6133 6134 6135 6136 6137 6138 6139 6140 6141 6142 6143 6144 6145 6146 6147 6148 6149 6150 6151 6152 6153 6154 6155 6156 6157 6158 6159 6160 6161 6162 6163 6164 6165 6166 6167 6168 6169 6170 6171 6172 6173 6174 6175 6176 6177 6178 6179 6180 6181 6182 6183 6184 6185 6186 6187 6188 6189 6190 6191 6192 6193 6194 6195 6196 6197 6198 6199 6200 6201 6202 6203 6204 6205 6206 6207 6208 6209 6210 6211 6212 6213 6214 6215 6216 6217 6218 6219 6220 6221 6222 6223 6224 6225 6226 6227 6228 6229 6230 6231 6232 6233 6234 6235 6236 6237 6238 6239 6240 6241 6242 6243 6244 6245 6246 6247 6248 6249 6250 6251 6252 6253 6254 6255 6256 6257 6258 6259 6260 6261 6262 6263 6264 6265 6266 6267 6268 6269 6270 6271 6272 6273 6274 6275 6276 6277 6278 6279 6280 6281 6282 6283 6284 6285 6286 6287 6288 6289 6290 6291 6292 6293 6294 6295 6296 6297 6298 6299 6300 6301 6302 6303 6304 6305 6306 6307 6308 6309 6310 6311 6312 6313 6314 6315 6316 6317 6318 6319 6320 6321 6322 6323 6324 6325 6326 6327 6328 6329 6330 6331 6332 6333 6334 6335 6336 6337 6338 6339 6340 6341 6342 6343 6344 6345 6346 6347 6348 6349 6350 6351 6352 6353 6354 6355 6356 6357 6358 6359 6360 6361 6362 6363 6364 6365 6366 6367 6368 6369 6370 6371 6372 6373 6374 6375 6376 6377 6378 6379 6380 6381 6382 6383 6384 6385 6386 6387 6388 6389 6390 6391 6392 6393 6394 6395 6396 6397 6398 6399 6400 6401 6402 6403 6404 6405 6406 6407 6408 6409 6410 6411 6412 6413 6414 6415 6416 6417 6418 6419 6420 6421 6422 6423 6424 6425 6426 6427 6428 6429 6430 6431 6432 6433 6434 6435 6436 6437 6438 6439 6440 6441 6442 6443 6444 6445 6446 6447 6448 6449 6450 6451 6452 6453 6454 6455 6456 6457 6458 6459 6460 6461 6462 6463 6464 6465 6466 6467 6468 6469 6470 6471 6472 6473 6474 6475 6476 6477 6478 6479 6480 6481 6482 6483 6484 6485 6486 6487 6488 6489 6490 6491 6492 6493 6494 6495 6496 6497 6498 6499 6500 6501 6502 6503 6504 6505 6506 6507 6508 6509 6510 6511 6512 6513 6514 6515 6516 6517 6518 6519 6520 6521 6522 6523 6524 6525 6526 6527 6528 6529 6530 6531 6532 6533 6534 6535 6536 6537 6538 6539 6540 6541 6542 6543 6544 6545 6546 6547 6548 6549 6550 6551 6552 6553 6554 6555 6556 6557 6558 6559 6560 6561 6562 6563 6564 6565 6566 6567 6568 6569 6570 6571 6572 6573 6574 6575 6576 6577 6578 6579 6580 6581 6582 6583 6584 6585 6586 6587 6588 6589 6590 6591 6592 6593 6594 6595 6596 6597 6598 6599 6600 6601 6602 6603 6604 6605 6606 6607 6608 6609 6610 6611 6612 6613 6614 6615 6616 6617 6618 6619 6620 6621 6622 6623 6624 6625 6626 6627 6628 6629 6630 6631 6632 6633 6634 6635 6636 6637 6638 6639 6640 6641 6642 6643 6644 6645 6646 6647 6648 6649 6650 6651 6652 6653 6654 6655 6656 6657 6658 6659 6660 6661 6662 6663 6664 6665 6666 6667 6668 6669 6670 6671 6672 6673 6674 6675 6676 6677 6678 6679 6680 6681 6682 6683 6684 6685 6686 6687 6688 6689 6690 6691 6692 6693 6694 6695 6696 6697 6698 6699 6700 6701 6702 6703 6704 6705 6706 6707 6708 6709 6710 6711 6712 6713 6714 6715 6716 6717 6718 6719 6720 6721 6722 6723 6724 6725 6726 6727 6728 6729 6730 6731 6732 6733 6734 6735 6736 6737 6738 6739 6740 6741 6742 6743 6744 6745 6746 6747 6748 6749 6750 6751 6752 6753 6754 6755 6756 6757 6758 6759 6760 6761 6762 6763 6764 6765 6766 6767 6768 6769 6770 6771 6772 6773 6774 6775 6776 6777 6778 6779 6780 6781 6782 6783 6784 6785 6786 6787 6788 6789 6790 6791 6792 6793 6794 6795 6796 6797 6798 6799 6800 6801 6802 6803 6804 6805 6806 6807 6808 6809 6810 6811 6812 6813 6814 6815 6816 6817 6818 6819 6820 6821 6822 6823 6824 6825 6826 6827 6828 6829 6830 6831 6832 6833 6834 6835 6836 6837 6838 6839 6840 6841 6842 6843 6844 6845 6846 6847 6848 6849 6850 6851 6852 6853 6854 6855 6856 6857 6858 6859 6860 6861 6862 6863 6864 6865 6866 6867 6868 6869 6870 6871 6872 6873 6874 6875 6876 6877 6878 6879 6880 6881 6882 6883 6884 6885 6886 6887 6888 6889 6890 6891 6892 6893 6894 6895 6896 6897 6898 6899 6900 6901 6902 6903 6904 6905 6906 6907 6908 6909 6910 6911 6912 6913 6914 6915 6916 6917 6918 6919 6920 6921 6922 6923 6924 6925 6926 6927 6928 6929 6930 6931 6932 6933 6934 6935 6936 6937 6938 6939 6940 6941 6942 6943 6944 6945 6946 6947 6948 6949 6950 6951 6952 6953 6954 6955 6956 6957 6958 6959 6960 6961 6962 6963 6964 6965 6966 6967 6968 6969 6970 6971 6972 6973 6974 6975 6976 6977 6978 6979 6980 6981 6982 6983 6984 6985 6986 6987 6988 6989 6990 6991 6992 6993 6994 6995 6996 6997 6998 6999 7000 7001 7002 7003 7004 7005 7006 7007 7008 7009 7010 7011 7012 7013 7014 7015 7016 7017 7018 7019 7020 7021 7022 7023 7024 7025 7026 7027 7028 7029 7030 7031 7032 7033 7034 7035 7036 7037 7038 7039 7040 7041 7042 7043 7044 7045 7046 7047 7048 7049 7050 7051 7052 7053 7054 7055 7056 7057 7058 7059 7060 7061 7062 7063 7064 7065 7066 7067 7068 7069 7070 7071 7072 7073 7074 7075 7076 7077 7078 7079 7080 7081 7082 7083 7084 7085 7086 7087 7088 7089 7090 7091 7092 7093 7094 7095 7096 7097 7098 7099 7100 7101 7102 7103 7104 7105 7106 7107 7108 7109 7110 7111 7112 7113 7114 7115 7116 7117 7118 7119 7120 7121 7122 7123 7124 7125 7126 7127 7128 7129 7130 7131 7132 7133 7134 7135 7136 7137 7138 7139 7140 7141 7142 7143 7144 7145 7146 7147 7148 7149 7150 7151 7152 7153 7154 7155 7156 7157 7158 7159 7160 7161 7162 7163 7164 7165 7166 7167 7168 7169 7170 7171 7172 7173 7174 7175 7176 7177 7178 7179 7180 7181 7182 7183 7184 7185 7186 7187 7188 7189 7190 7191 7192 7193 7194 7195 7196 7197 7198 7199 7200 7201 7202 7203 7204 7205 7206 7207 7208 7209 7210 7211 7212 7213 7214 7215 7216 7217 7218 7219 7220 7221 7222 7223 7224 7225 7226 7227 7228 7229 7230 7231 7232 7233 7234 7235 7236 7237 7238 7239 7240 7241 7242 7243 7244 7245 7246 7247 7248 7249 7250 7251 7252 7253 7254 7255 7256 7257 7258 7259 7260 7261 7262 7263 7264 7265 7266 7267 7268 7269 7270 7271 7272 7273 7274 7275 7276 7277 7278 7279 7280 7281 7282 7283 7284 7285 7286 7287 7288 7289 7290 7291 7292 7293 7294 7295 7296 7297 7298 7299 7300 7301 7302 7303 7304 7305 7306 7307 7308 7309 7310 7311 7312 7313 7314 7315 7316 7317 7318 7319 7320 7321 7322 7323 7324 7325 7326 7327 7328 7329 7330 7331 7332 7333 7334 7335 7336 7337 7338 7339 7340 7341 7342 7343 7344 7345 7346 7347 7348 7349 7350 7351 7352 7353 7354 7355 7356 7357 7358 7359 7360 7361 7362 7363 7364 7365 7366 7367 7368 7369 7370 7371 7372 7373 7374 7375 7376 7377 7378 7379 7380 7381 7382 7383 7384 7385 7386 7387 7388 7389 7390 7391 7392 7393 7394 7395 7396 7397 7398 7399 7400 7401 7402 7403 7404 7405 7406 7407 7408 7409 7410 7411 7412 7413 7414 7415 7416 7417 7418 7419 7420 7421 7422 7423 7424 7425 7426 7427 7428 7429 7430 7431 7432 7433 7434 7435 7436 7437 7438 7439 7440 7441 7442 7443 7444 7445 7446 7447 7448 7449 7450 7451 7452 7453 7454 7455 7456 7457 7458 7459 7460 7461 7462 7463 7464 7465 7466 7467 7468 7469 7470 7471 7472 7473 7474 7475 7476 7477 7478 7479 7480 7481 7482 7483 7484 7485 7486 7487 7488 7489 7490 7491 7492 7493 7494 7495 7496 7497 7498 7499 7500 7501 7502 7503 7504 7505 7506 7507 7508 7509 7510 7511 7512 7513 7514 7515 7516 7517 7518 7519 7520 7521 7522 7523 7524 7525 7526 7527 7528 7529 7530 7531 7532 7533 7534 7535 7536 7537 7538 7539 7540 7541 7542 7543 7544 7545 7546 7547 7548 7549 7550 7551 7552 7553 7554 7555 7556 7557 7558 7559 7560 7561 7562 7563 7564 7565 7566 7567 7568 7569 7570 7571 7572 7573 7574 7575 7576 7577 7578 7579 7580 7581 7582 7583 7584 7585 7586 7587 7588 7589 7590 7591 7592 7593 7594 7595 7596 7597 7598 7599 7600 7601 7602 7603 7604 7605 7606 7607 7608 7609 7610 7611 7612 7613 7614 7615 7616 7617 7618 7619 7620 7621 7622 7623 7624 7625 7626 7627 7628 7629 7630 7631 7632 7633 7634 7635 7636 7637 7638 7639 7640 7641 7642 7643 7644 7645 7646 7647 7648 7649 7650 7651 7652 7653 7654 7655 7656 7657 7658 7659 7660 7661 7662 7663 7664 7665 7666 7667 7668 7669 7670 7671 7672 7673 7674 7675 7676 7677 7678 7679 7680 7681 7682 7683 7684 7685 7686 7687 7688 7689 7690 7691 7692 7693 7694 7695 7696 7697 7698 7699 7700 7701 7702 7703 7704 7705 7706 7707 7708 7709 7710 7711 7712 7713 7714 7715 7716 7717 7718 7719 7720 7721 7722 7723 7724 7725 7726 7727 7728 7729 7730 7731 7732 7733 7734 7735 7736 7737 7738 7739 7740 7741 7742 7743 7744 7745 7746 7747 7748 7749 7750 7751 7752 7753 7754 7755 7756 7757 7758 7759 7760 7761 7762 7763 7764 7765 7766 7767 7768 7769 7770 7771 7772 7773 7774 7775 7776 7777 7778 7779 7780 7781 7782 7783 7784 7785 7786 7787 7788 7789 7790 7791 7792 7793 7794 7795 7796 7797 7798 7799 7800 7801 7802 7803 7804 7805 7806 7807 7808 7809 7810 7811 7812 7813 7814 7815 7816 7817 7818 7819 7820 7821 7822 7823 7824 7825 7826 7827 7828 7829 7830 7831 7832 7833 7834 7835 7836 7837 7838 7839 7840 7841 7842 7843 7844 7845 7846 7847 7848 7849 7850 7851 7852 7853 7854 7855 7856 7857 7858 7859 7860 7861 7862 7863 7864 7865 7866 7867 7868 7869 7870 7871 7872 7873 7874 7875 7876 7877 7878 7879 7880 7881 7882 7883 7884 7885 7886 7887 7888 7889 7890 7891 7892 7893 7894 7895 7896 7897 7898 7899 7900 7901 7902 7903 7904 7905 7906 7907 7908 7909 7910 7911 7912 7913 7914 7915 7916 7917 7918 7919 7920 7921 7922 7923 7924 7925 7926 7927 7928 7929 7930 7931 7932 7933 7934 7935 7936 7937 7938 7939 7940 7941 7942 7943 7944 7945 7946 7947 7948 7949 7950 7951 7952 7953 7954 7955 7956 7957 7958 7959 7960 7961 7962 7963 7964 7965 7966 7967 7968 7969 7970 7971 7972 7973 7974 7975 7976 7977 7978 7979 7980 7981 7982 7983 7984 7985 7986 7987 7988 7989 7990 7991 7992 7993 7994 7995 7996 7997 7998 7999 8000 8001 8002 8003 8004 8005 8006 8007 8008 8009 8010 8011 8012 8013 8014 8015 8016 8017 8018 8019 8020 8021 8022 8023 8024 8025 8026 8027 8028 8029 8030 8031 8032 8033 8034 8035 8036 8037 8038 8039 8040 8041 8042 8043 8044 8045 8046 8047 8048 8049 8050 8051 8052 8053 8054 8055 8056 8057 8058 8059 8060 8061 8062 8063 8064 8065 8066 8067 8068 8069 8070 8071 8072 8073 8074 8075 8076 8077 8078 8079 8080 8081 8082 8083 8084 8085 8086 8087 8088 8089 8090 8091 8092 8093 8094 8095 8096 8097 8098 8099 8100 8101 8102 8103 8104 8105 8106 8107 8108 8109 8110 8111 8112 8113 8114 8115 8116 8117 8118 8119 8120 8121 8122 8123 8124 8125 8126 8127 8128 8129 8130 8131 8132 8133 8134 8135 8136 8137 8138 8139 8140 8141 8142 8143 8144 8145 8146 8147 8148 8149 8150 8151 8152 8153 8154 8155 8156 8157 8158 8159 8160 8161 8162 8163 8164 8165 8166 8167 8168 8169 8170 8171 8172 8173 8174 8175 8176 8177 8178 8179 8180 8181 8182 8183 8184 8185 8186 8187 8188 8189 8190 8191 8192 8193 8194 8195 8196 8197 8198 8199 8200 8201 8202 8203 8204 8205 8206 8207 8208 8209 8210 8211 8212 8213 8214 8215 8216 8217 8218 8219 8220 8221 8222 8223 8224 8225 8226 8227 8228 8229 8230 8231 8232 8233 8234 8235 8236 8237 8238 8239 8240 8241 8242 8243 8244 8245 8246 8247 8248 8249 8250 8251 8252 8253 8254 8255 8256 8257 8258 8259 8260 8261 8262 8263 8264 8265 8266 8267 8268 8269 8270 8271 8272 8273 8274 8275 8276 8277 8278 8279 8280 8281 8282 8283 8284 8285 8286 8287 8288 8289 8290 8291 8292 8293 8294 8295 8296 8297 8298 8299 8300 8301 8302 8303 8304 8305 8306 8307 8308 8309 8310 8311 8312 8313 8314 8315 8316 8317 8318 8319 8320 8321 8322 8323 8324 8325 8326 8327 8328 8329 8330 8331 8332 8333 8334 8335 8336 8337 8338 8339 8340 8341 8342 8343 8344 8345 8346 8347 8348 8349 8350 8351 8352 8353 8354 8355 8356 8357 8358 8359 8360 8361 8362 8363 8364 8365 8366 8367 8368 8369 8370 8371 8372 8373 8374 8375 8376 8377 8378 8379 8380 8381 8382 8383 8384 8385 8386 8387 8388 8389 8390 8391 8392 8393 8394 8395 8396 8397 8398 8399 8400 8401 8402 8403 8404 8405 8406 8407 8408 8409 8410 8411 8412 8413 8414 8415 8416 8417 8418 8419 8420 8421 8422 8423 8424 8425 8426 8427 8428 8429 8430 8431 8432 8433 8434 8435 8436 8437 8438 8439 8440 8441 8442 8443 8444 8445 8446 8447 8448 8449 8450 8451 8452 8453 8454 8455 8456 8457 8458 8459 8460 8461 8462 8463 8464 8465 8466 8467 8468 8469 8470 8471 8472 8473 8474 8475 8476 8477 8478 8479 8480 8481 8482 8483 8484 8485 8486 8487 8488 8489 8490 8491 8492 8493 8494 8495 8496 8497 8498 8499 8500 8501 8502 8503 8504 8505 8506 8507 8508 8509 8510 8511 8512 8513 8514 8515 8516 8517 8518 8519 8520 8521 8522 8523 8524 8525 8526 8527 8528 8529 8530 8531 8532 8533 8534 8535 8536 8537 8538 8539 8540 8541 8542 8543 8544 8545 8546 8547 8548 8549 8550 8551 8552 8553 8554 8555 8556 8557 8558 8559 8560 8561 8562 8563 8564 8565 8566 8567 8568 8569 8570 8571 8572 8573 8574 8575 8576 8577 8578 8579 8580 8581 8582 8583 8584 8585 8586 8587 8588 8589 8590 8591 8592 8593 8594 8595 8596 8597 8598 8599 8600 8601 8602 8603 8604 8605 8606 8607 8608 8609 8610 8611 8612 8613 8614 8615 8616 8617 8618 8619 8620 8621 8622 8623 8624 8625 8626 8627 8628 8629 8630 8631 8632 8633 8634 8635 8636 8637 8638 8639 8640 8641 8642 8643 8644 8645 8646 8647 8648 8649 8650 8651 8652 8653 8654 8655 8656 8657 8658 8659 8660 8661 8662 8663 8664 8665 8666 8667 8668 8669 8670 8671 8672 8673 8674 8675 8676 8677 8678 8679 8680 8681 8682 8683 8684 8685 8686 8687 8688 8689 8690 8691 8692 8693 8694 8695 8696 8697 8698 8699 8700 8701 8702 8703 8704 8705 8706 8707 8708 8709 8710 8711 8712 8713 8714 8715 8716 8717 8718 8719 8720 8721 8722 8723 8724 8725 8726 8727 8728 8729 8730 8731 8732 8733 8734 8735 8736 8737 8738 8739 8740 8741 8742 8743 8744 8745 8746 8747 8748 8749 8750 8751 8752 8753 8754 8755 8756 8757 8758 8759 8760 8761 8762 8763 8764 8765 8766 8767 8768 8769 8770 8771 8772 8773 8774 8775 8776 8777 8778 8779 8780 8781 8782 8783 8784 8785 8786 8787 8788 8789 8790 8791 8792 8793 8794 8795 8796 8797 8798 8799 8800 8801 8802 8803 8804 8805 8806 8807 8808 8809 8810 8811 8812 8813 8814 8815 8816 8817 8818 8819 8820 8821 8822 8823 8824 8825 8826 8827 8828 8829 8830 8831 8832 8833 8834 8835 8836 8837 8838 8839 8840 8841 8842 8843 8844 8845 8846 8847 8848 8849 8850 8851 8852 8853 8854 8855 8856 8857 8858 8859 8860 8861 8862 8863 8864 8865 8866 8867 8868 8869 8870 8871 8872 8873 8874 8875 8876 8877 8878 8879 8880 8881 8882 8883 8884 8885 8886 8887 8888 8889 8890 8891 8892 8893 8894 8895 8896 8897 8898 8899 8900 8901 8902 8903 8904 8905 8906 8907 8908 8909 8910 8911 8912 8913 8914 8915 8916 8917 8918 8919 8920 8921 8922 8923 8924 8925 8926 8927 8928 8929 8930 8931 8932 8933 8934 8935 8936 8937 8938 8939 8940 8941 8942 8943 8944 8945 8946 8947 8948 8949 8950 8951 8952 8953 8954 8955 8956 8957 8958 8959 8960 8961 8962 8963 8964 8965 8966 8967 8968 8969 8970 8971 8972 8973 8974 8975 8976 8977 8978 8979 8980 8981 8982 8983 8984 8985 8986 8987 8988 8989 8990 8991 8992 8993 8994 8995 8996 8997 8998 8999 9000 9001 9002 9003 9004 9005 9006 9007 9008 9009 9010 9011 9012 9013 9014 9015 9016 9017 9018 9019 9020 9021 9022 9023 9024 9025 9026 9027 9028 9029 9030 9031 9032 9033 9034 9035 9036 9037 9038 9039 9040 9041 9042 9043 9044 9045 9046 9047 9048 9049 9050 9051 9052 9053 9054 9055 9056 9057 9058 9059 9060 9061 9062 9063 9064 9065 9066 9067 9068 9069 9070 9071 9072 9073 9074 9075 9076 9077 9078 9079 9080 9081 9082 9083 9084 9085 9086 9087 9088 9089 9090 9091 9092 9093 9094 9095 9096 9097 9098 9099 9100 9101 9102 9103 9104 9105 9106 9107 9108 9109 9110 9111 9112 9113 9114 9115 9116 9117 9118 9119 9120 9121 9122 9123 9124 9125 9126 9127 9128 9129 9130 9131 9132 9133 9134 9135 9136 9137 9138 9139 9140 9141 9142 9143 9144 9145 9146 9147 9148 9149 9150 9151 9152 9153 9154 9155 9156 9157 9158 9159 9160 9161 9162 9163 9164 9165 9166 9167 9168 9169 9170 9171 9172 9173 9174 9175 9176 9177 9178 9179 9180 9181 9182 9183 9184 9185 9186 9187 9188 9189 9190 9191 9192 9193 9194 9195 9196 9197 9198 9199 9200 9201 9202 9203 9204 9205 9206 9207 9208 9209 9210 9211 9212 9213 9214 9215 9216 9217 9218 9219 9220 9221 9222 9223 9224 9225 9226 9227 9228 9229 9230 9231 9232 9233 9234 9235 9236 9237 9238 9239 9240 9241 9242 9243 9244 9245 9246 9247 9248 9249 9250 9251 9252 9253 9254 9255 9256 9257 9258 9259 9260 9261 9262 9263 9264 9265 9266 9267 9268 9269 9270 9271 9272 9273 9274 9275 9276 9277 9278 9279 9280 9281 9282 9283 9284 9285 9286 9287 9288 9289 9290 9291 9292 9293 9294 9295 9296 9297 9298 9299 9300 9301 9302 9303 9304 9305 9306 9307 9308 9309 9310 9311 9312 9313 9314 9315 9316 9317 9318 9319 9320 9321 9322 9323 9324 9325 9326 9327 9328 9329 9330 9331 9332 9333 9334 9335 9336 9337 9338 9339 9340 9341 9342 9343 9344 9345 9346 9347 9348 9349 9350 9351 9352 9353 9354 9355 9356 9357 9358 9359 9360 9361 9362 9363 9364 9365 9366 9367 9368 9369 9370 9371 9372 9373 9374 9375 9376 9377 9378 9379 9380 9381 9382 9383 9384 9385 9386 9387 9388 9389 9390 9391 9392 9393 9394 9395 9396 9397 9398 9399 9400 9401 9402 9403 9404 9405 9406 9407 9408 9409 9410 9411 9412 9413 9414 9415 9416 9417 9418 9419 9420 9421 9422 9423 9424 9425 9426 9427 9428 9429 9430 9431 9432 9433 9434 9435 9436 9437 9438 9439 9440 9441 9442 9443 9444 9445 9446 9447 9448 9449 9450 9451 9452 9453 9454 9455 9456 9457 9458 9459 9460 9461 9462 9463 9464 9465 9466 9467 9468 9469 9470 9471 9472 9473 9474 9475 9476 9477 9478 9479 9480 9481 9482 9483 9484 9485 9486 9487 9488 9489 9490 9491 9492 9493 9494 9495 9496 9497 9498 9499 9500 9501 9502 9503 9504 9505 9506 9507 9508 9509 9510 9511 9512 9513 9514 9515 9516 9517 9518 9519 9520 9521 9522 9523 9524 9525 9526 9527 9528 9529 9530 9531 9532 9533 9534 9535 9536 9537 9538 9539 9540 9541 9542 9543 9544 9545 9546 9547 9548 9549 9550 9551 9552 9553 9554 9555 9556 9557 9558 9559 9560 9561 9562 9563 9564 9565 9566 9567 9568 9569 9570 9571 9572 9573 9574 9575 9576 9577 9578 9579 9580 9581 9582 9583 9584 9585 9586 9587 9588 9589 9590 9591 9592 9593 9594 9595 9596 9597 9598 9599 9600 9601 9602 9603 9604 9605 9606 9607 9608 9609 9610 9611 9612 9613 9614 9615 9616 9617 9618 9619 9620 9621 9622 9623 9624 9625 9626 9627 9628 9629 9630 9631 9632 9633 9634 9635 9636 9637 9638 9639 9640 9641 9642 9643 9644 9645 9646 9647 9648 9649 9650 9651 9652 9653 9654 9655 9656 9657 9658 9659 9660 9661 9662 9663 9664 9665 9666 9667 9668 9669 9670 9671 9672 9673 9674 9675 9676 9677 9678 9679 9680 9681 9682 9683 9684 9685 9686 9687 9688 9689 9690 9691 9692 9693 9694 9695 9696 9697 9698 9699 9700 9701 9702 9703 9704 9705 9706 9707 9708 9709 9710 9711 9712 9713 9714 9715 9716 9717 9718 9719 9720 9721 9722 9723 9724 9725 9726 9727 9728 9729 9730 9731 9732 9733 9734 9735 9736 9737 9738 9739 9740 9741 9742 9743 9744 9745 9746 9747 9748 9749 9750 9751 9752 9753 9754 9755 9756 9757 9758 9759 9760 9761 9762 9763 9764 9765 9766 9767 9768 9769 9770 9771 9772 9773 9774 9775 9776 9777 9778 9779 9780 9781 9782 9783 9784 9785 9786 9787 9788 9789 9790 9791 9792 9793 9794 9795 9796 9797 9798 9799 9800 9801 9802 9803 9804 9805 9806 9807 9808 9809 9810 9811 9812 9813 9814 9815 9816 9817 9818 9819 9820 9821 9822 9823 9824 9825 9826 9827 9828 9829 9830 9831 9832 9833 9834 9835 9836 9837 9838 9839 9840 9841 9842 9843 9844 9845 9846 9847 9848 9849 9850 9851 9852 9853 9854 9855 9856 9857 9858 9859 9860 9861 9862 9863 9864 9865 9866 9867 9868 9869 9870 9871 9872 9873 9874 9875 9876 9877 9878 9879 9880 9881 9882 9883 9884 9885 9886 9887 9888 9889 9890 9891 9892 9893 9894 9895 9896 9897 9898 9899 9900 9901 9902 9903 9904 9905 9906 9907 9908 9909 9910 9911 9912 9913 9914 9915 9916 9917 9918 9919 9920 9921 9922 9923 9924 9925 9926 9927 9928 9929 9930 9931 9932 9933 9934 9935 9936 9937 9938 9939 9940 9941 9942 9943 9944 9945 9946 9947 9948 9949 9950 9951 9952 9953 9954 9955 9956 9957 9958 9959 9960 9961 9962 9963 9964 9965 9966 9967 9968 9969 9970 9971 9972 9973 9974 9975 9976 9977 9978 9979 9980 9981 9982 9983 9984 9985 9986 9987 9988 9989 9990 9991 9992 9993 9994 9995 9996 9997 9998 9999 10000 10001 10002 10003 10004 10005 10006 10007 10008 10009 10010 10011 10012 10013 10014 10015 10016 10017 10018 10019 10020 10021 10022 10023 10024 10025 10026 10027 10028 10029 10030 10031 10032 10033 10034 10035 10036 10037 10038 10039 10040 10041 10042 10043 10044 10045 10046 10047 10048 10049 10050 10051 10052 10053 10054 10055 10056 10057 10058 10059 10060 10061 10062 10063 10064 10065 10066 10067 10068 10069 10070 10071 10072 10073 10074 10075 10076 10077 10078 10079 10080 10081 10082 10083 10084 10085 10086 10087 10088 10089 10090 10091 10092 10093 10094 10095 10096 10097 10098 10099 10100 10101 10102 10103 10104 10105 10106 10107 10108 10109 10110 10111 10112 10113 10114 10115 10116 10117 10118 10119 10120 10121 10122 10123 10124 10125 10126 10127 10128 10129 10130 10131 10132 10133 10134 10135 10136 10137 10138 10139 10140 10141 10142 10143 10144 10145 10146 10147 10148 10149 10150 10151 10152 10153 10154 10155 10156 10157 10158 10159 10160 10161 10162 10163 10164 10165 10166 10167 10168 10169 10170 10171 10172 10173 10174 10175 10176 10177 10178 10179 10180 10181 10182 10183 10184 10185 10186 10187 10188 10189 10190 10191 10192 10193 10194 10195 10196 10197 10198 10199 10200 10201 10202 10203 10204 10205 10206 10207 10208 10209 10210 10211 10212 10213 10214 10215 10216 10217 10218 10219 10220 10221 10222 10223 10224 10225 10226 10227 10228 10229 10230 10231 10232 10233 10234 10235 10236 10237 10238 10239 10240 10241 10242 10243 10244 10245 10246 10247 10248 10249 10250 10251 10252 10253 10254 10255 10256 10257 10258 10259 10260 10261 10262 10263 10264 10265 10266 10267 10268 10269 10270 10271 10272 10273 10274 10275 10276 10277 10278 10279 10280 10281 10282 10283 10284 10285 10286 10287 10288 10289 10290 10291 10292 10293 10294 10295 10296 10297 10298 10299 10300 10301 10302 10303 10304 10305 10306 10307 10308 10309 10310 10311 10312 10313 10314 10315 10316 10317 10318 10319 10320 10321 10322 10323 10324 10325 10326 10327 10328 10329 10330 10331 10332 10333 10334 10335 10336 10337 10338 10339 10340 10341 10342 10343 10344 10345 10346 10347 10348 10349 10350 10351 10352 10353 10354 10355 10356 10357 10358 10359 10360 10361 10362 10363 10364 10365 10366 10367 10368 10369 10370 10371 10372 10373 10374 10375 10376 10377 10378 10379 10380 10381 10382 10383 10384 10385 10386 10387 10388 10389 10390 10391 10392 10393 10394 10395 10396 10397 10398 10399 10400 10401 10402 10403 10404 10405 10406 10407 10408 10409 10410 10411 10412 10413 10414 10415 10416 10417 10418 10419 10420 10421 10422 10423 10424 10425 10426 10427 10428 10429 10430 10431 10432 10433 10434 10435 10436 10437 10438 10439 10440 10441 10442 10443 10444 10445 10446 10447 10448 10449 10450 10451 10452 10453 10454 10455 10456 10457 10458 10459 10460 10461 10462 10463 10464 10465 10466 10467 10468 10469 10470 10471 10472 10473 10474 10475 10476 10477 10478 10479 10480 10481 10482 10483 10484 10485 10486 10487 10488 10489 10490 10491 10492 10493 10494 10495 10496 10497 10498 10499 10500 10501 10502 10503 10504 10505 10506 10507 10508 10509 10510 10511 10512 10513 10514 10515 10516 10517 10518 10519 10520 10521 10522 10523 10524 10525 10526 10527 10528 10529 10530 10531 10532 10533 10534 10535 10536 10537 10538 10539 10540 10541 10542 10543 10544 10545 10546 10547 10548 10549 10550 10551 10552 10553 10554 10555 10556 10557 10558 10559 10560 10561 10562 10563 10564 10565 10566 10567 10568 10569 10570 10571 10572 10573 10574 10575 10576 10577 10578 10579 10580 10581 10582 10583 10584 10585 10586 10587 10588 10589 10590 10591 10592 10593 10594 10595 10596 10597 10598 10599 10600 10601 10602 10603 10604 10605 10606 10607 10608 10609 10610 10611 10612 10613 10614 10615 10616 10617 10618 10619 10620 10621 10622 10623 10624 10625 10626 10627 10628 10629 10630 10631 10632 10633 10634 10635 10636 10637 10638 10639 10640 10641 10642 10643 10644 10645 10646 10647 10648 10649 10650 10651 10652 10653 10654 10655 10656 10657 10658 10659 10660 10661 10662 10663 10664 10665 10666 10667 10668 10669 10670 10671 10672 10673 10674 10675 10676 10677 10678 10679 10680 10681 10682 10683 10684 10685 10686 10687 10688 10689 10690 10691 10692 10693 10694 10695 10696 10697 10698 10699 10700 10701 10702 10703 10704 10705 10706 10707 10708 10709 10710 10711 10712 10713 10714 10715 10716 10717 10718 10719 10720 10721 10722 10723 10724 10725 10726 10727 10728 10729 10730 10731 10732 10733 10734 10735 10736 10737 10738 10739 10740 10741 10742 10743 10744 10745 10746 10747 10748 10749 10750 10751 10752 10753 10754 10755 10756 10757 10758 10759 10760 10761 10762 10763 10764 10765 10766 10767 10768 10769 10770 10771 10772 10773 10774 10775 10776 10777 10778 10779 10780 10781 10782 10783 10784 10785 10786 10787 10788 10789 10790 10791 10792 10793 10794 10795 10796 10797 10798 10799 10800 10801 10802 10803 10804 10805 10806 10807 10808 10809 10810 10811 10812 10813 10814 10815 10816 10817 10818 10819 10820 10821 10822 10823 10824 10825 10826 10827 10828 10829 10830 10831 10832 10833 10834 10835 10836 10837 10838 10839 10840 10841 10842 10843 10844 10845 10846 10847 10848 10849 10850 10851 10852 10853 10854 10855 10856 10857 10858 10859 10860 10861 10862 10863 10864 10865 10866 10867 10868 10869 10870 10871 10872 10873 10874 10875 10876 10877 10878 10879 10880 10881 10882 10883 10884 10885 10886 10887 10888 10889 10890 10891 10892 10893 10894 10895 10896 10897 10898 10899 10900 10901 10902 10903 10904 10905 10906 10907 10908 10909 10910 10911 10912 10913 10914 10915 10916 10917 10918 10919 10920 10921 10922 10923 10924 10925 10926 10927 10928 10929 10930 10931 10932 10933 10934 10935 10936 10937 10938 10939 10940 10941 10942 10943 10944 10945 10946 10947 10948 10949 10950 10951 10952 10953 10954 10955 10956 10957 10958 10959 10960 10961 10962 10963 10964 10965 10966 10967 10968 10969 10970 10971 10972 10973 10974 10975 10976 10977 10978 10979 10980 10981 10982 10983 10984 10985 10986 10987 10988 10989 10990 10991 10992 10993 10994 10995 10996 10997 10998 10999 11000 11001 11002 11003 11004 11005 11006 11007 11008 11009 11010 11011 11012 11013 11014 11015 11016 11017 11018 11019 11020 11021 11022 11023 11024 11025 11026 11027 11028 11029 11030 11031 11032 11033 11034 11035 11036 11037 11038 11039 11040 11041 11042 11043 11044 11045 11046 11047 11048 11049 11050 11051 11052 11053 11054 11055 11056 11057 11058 11059 11060 11061 11062 11063 11064 11065 11066 11067 11068 11069 11070 11071 11072 11073 11074 11075 11076 11077 11078 11079 11080 11081 11082 11083 11084 11085 11086 11087 11088 11089 11090 11091 11092 11093 11094 11095 11096 11097 11098 11099 11100 11101 11102 11103 11104 11105 11106 11107 11108 11109 11110 11111 11112 11113 11114 11115 11116 11117 11118 11119 11120 11121 11122 11123 11124 11125 11126 11127 11128 11129 11130 11131 11132 11133 11134 11135 11136 11137 11138 11139 11140 11141 11142 11143 11144 11145 11146 11147 11148 11149 11150 11151 11152 11153 11154 11155 11156 11157 11158 11159 11160 11161 11162 11163 11164 11165 11166 11167 11168 11169 11170 11171 11172 11173 11174 11175 11176 11177 11178 11179 11180 11181 11182 11183 11184 11185 11186 11187 11188 11189 11190 11191 11192 11193 11194 11195 11196 11197 11198 11199 11200 11201 11202 11203 11204 11205 11206 11207 11208 11209 11210 11211 11212 11213 11214 11215 11216 11217 11218 11219 11220 11221 11222 11223 11224 11225 11226 11227 11228 11229 11230 11231 11232 11233 11234 11235 11236 11237 11238 11239 11240 11241 11242 11243 11244 11245 11246 11247 11248 11249 11250 11251 11252 11253 11254 11255 11256 11257 11258 11259 11260 11261 11262 11263 11264 11265 11266 11267 11268 11269 11270 11271 11272 11273 11274 11275 11276 11277 11278 11279 11280 11281 11282 11283 11284 11285 11286 11287 11288 11289 11290 11291 11292 11293 11294 11295 11296 11297 11298 11299 11300 11301 11302 11303 11304 11305 11306 11307 11308 11309 11310 11311 11312 11313 11314 11315 11316 11317 11318 11319 11320 11321 11322 11323 11324 11325 11326 11327 11328 11329 11330 11331 11332 11333 11334 11335 11336 11337 11338 11339 11340 11341 11342 11343 11344 11345 11346 11347 11348 11349 11350 11351 11352 11353 11354 11355 11356 11357 11358 11359 11360 11361 11362 11363 11364 11365 11366 11367 11368 11369 11370 11371 11372 11373 11374 11375 11376 11377 11378 11379 11380 11381 11382 11383 11384 11385 11386 11387 11388 11389 11390 11391 11392 11393 11394 11395 11396 11397 11398 11399 11400 11401 11402 11403 11404 11405 11406 11407 11408 11409 11410 11411 11412 11413 11414 11415 11416 11417 11418 11419 11420 11421 11422 11423 11424 11425 11426 11427 11428 11429 11430 11431 11432 11433 11434 11435 11436 11437 11438 11439 11440 11441 11442 11443 11444 11445 11446 11447 11448 11449 11450 11451 11452 11453 11454 11455 11456 11457 11458 11459 11460 11461 11462 11463 11464 11465 11466 11467 11468 11469 11470 11471 11472 11473 11474 11475 11476 11477 11478 11479 11480 11481 11482 11483 11484 11485 11486 11487 11488 11489 11490 11491 11492 11493 11494 11495 11496 11497 11498 11499 11500 11501 11502 11503 11504 11505 11506 11507 11508 11509 11510 11511 11512 11513 11514 11515 11516 11517 11518 11519 11520 11521 11522 11523 11524 11525 11526 11527 11528 11529 11530 11531 11532 11533 11534 11535 11536 11537 11538 11539 11540 11541 11542 11543 11544 11545 11546 11547 11548 11549 11550 11551 11552 11553 11554 11555 11556 11557 11558 11559 11560 11561 11562 11563 11564 11565 11566 11567 11568 11569 11570 11571 11572 11573 11574 11575 11576 11577 11578 11579 11580 11581 11582 11583 11584 11585 11586 11587 11588 11589 11590 11591 11592 11593 11594 11595 11596 11597 11598 11599 11600 11601 11602 11603 11604 11605 11606 11607 11608 11609 11610 11611 11612 11613 11614 11615 11616 11617 11618 11619 11620 11621 11622 11623 11624 11625 11626 11627 11628 11629 11630 11631 11632 11633 11634 11635 11636 11637 11638 11639 11640 11641 11642 11643 11644 11645 11646 11647 11648 11649 11650 11651 11652 11653 11654 11655 11656 11657 11658 11659 11660 11661 11662 11663 11664 11665 11666 11667 11668 11669 11670 11671 11672 11673 11674 11675 11676 11677 11678 11679 11680 11681 11682 11683 11684 11685 11686 11687 11688 11689 11690 11691 11692 11693 11694 11695 11696 11697 11698 11699 11700 11701 11702 11703 11704 11705 11706 11707 11708 11709 11710 11711 11712 11713 11714 11715 11716 11717 11718 11719 11720 11721 11722 11723 11724 11725 11726 11727 11728 11729 11730 11731 11732 11733 11734 11735 11736 11737 11738 11739 11740 11741 11742 11743 11744 11745 11746 11747 11748 11749 11750 11751 11752 11753 11754 11755 11756 11757 11758 11759 11760 11761 11762 11763 11764 11765 11766 11767 11768 11769 11770 11771 11772 11773 11774 11775 11776 11777 11778 11779 11780 11781 11782 11783 11784 11785 11786 11787 11788 11789 11790 11791 11792 11793 11794 11795 11796 11797 11798 11799 11800 11801 11802 11803 11804 11805 11806 11807 11808 11809 11810 11811 11812 11813 11814 11815 11816 11817 11818 11819 11820 11821 11822 11823 11824 11825 11826 11827 11828 11829 11830 11831 11832 11833 11834 11835 11836 11837 11838 11839 11840 11841 11842 11843 11844 11845 11846 11847 11848 11849 11850 11851 11852 11853 11854 11855 11856 11857 11858 11859 11860 11861 11862 11863 11864 11865 11866 11867 11868 11869 11870 11871 11872 11873 11874 11875 11876 11877 11878 11879 11880 11881 11882 11883 11884 11885 11886 11887 11888 11889 11890 11891 11892 11893 11894 11895 11896 11897 11898 11899 11900 11901 11902 11903 11904 11905 11906 11907 11908 11909 11910 11911 11912 11913 11914 11915 11916 11917 11918 11919 11920 11921 11922 11923 11924 11925 11926 11927 11928 11929 11930 11931 11932 11933 11934 11935 11936 11937 11938 11939 11940 11941 11942 11943 11944 11945 11946 11947 11948 11949 11950 11951 11952 11953 11954 11955 11956 11957 11958 11959 11960 11961 11962 11963 11964 11965 11966 11967 11968 11969 11970 11971 11972 11973 11974 11975 11976 11977 11978 11979 11980 11981 11982 11983 11984 11985 11986 11987 11988 11989 11990 11991 11992 11993 11994 11995 11996 11997 11998 11999 12000 12001 12002 12003 12004 12005 12006 12007 12008 12009 12010 12011 12012 12013 12014 12015 12016 12017 12018 12019 12020 12021 12022 12023 12024 12025 12026 12027 12028 12029 12030 12031 12032 12033 12034 12035 12036 12037 12038 12039 12040 12041 12042 12043 12044 12045 12046 12047 12048 12049 12050 12051 12052 12053 12054 12055 12056 12057 12058 12059 12060 12061 12062 12063 12064 12065 12066 12067 12068 12069 12070 12071 12072 12073 12074 12075 12076 12077 12078 12079 12080 12081 12082 12083 12084 12085 12086 12087 12088 12089 12090 12091 12092 12093 12094 12095 12096 12097 12098 12099 12100 12101 12102 12103 12104 12105 12106 12107 12108 12109 12110 12111 12112 12113 12114 12115 12116 12117 12118 12119 12120 12121 12122 12123 12124 12125 12126 12127 12128 12129 12130 12131 12132 12133 12134 12135 12136 12137 12138 12139 12140 12141 12142 12143 12144 12145 12146 12147 12148 12149 12150 12151 12152 12153 12154 12155 12156 12157 12158 12159 12160 12161 12162 12163 12164 12165 12166 12167 12168 12169 12170 12171 12172 12173 12174 12175 12176 12177 12178 12179 12180 12181 12182 12183 12184 12185 12186 12187 12188 12189 12190 12191 12192 12193 12194 12195 12196 12197 12198 12199 12200 12201 12202 12203 12204 12205 12206 12207 12208 12209 12210 12211 12212 12213 12214 12215 12216 12217 12218 12219 12220 12221 12222 12223 12224 12225 12226 12227 12228 12229 12230 12231 12232 12233 12234 12235 12236 12237 12238 12239 12240 12241 12242 12243 12244 12245 12246 12247 12248 12249 12250 12251 12252 12253 12254 12255 12256 12257 12258 12259 12260 12261 12262 12263 12264 12265 12266 12267 12268 12269 12270 12271 12272 12273 12274 12275 12276 12277 12278 12279 12280 12281 12282 12283 12284 12285 12286 12287 12288 12289 12290 12291 12292 12293 12294 12295 12296 12297 12298 12299 12300 12301 12302 12303 12304 12305 12306 12307 12308 12309 12310 12311 12312 12313 12314 12315 12316 12317 12318 12319 12320 12321 12322 12323 12324 12325 12326 12327 12328 12329 12330 12331 12332 12333 12334 12335 12336 12337 12338 12339 12340 12341 12342 12343 12344 12345 12346 12347 12348 12349 12350 12351 12352 12353 12354 12355 12356 12357 12358 12359 12360 12361 12362 12363 12364 12365 12366 12367 12368 12369 12370 12371 12372 12373 12374 12375 12376 12377 12378 12379 12380 12381 12382 12383 12384 12385 12386 12387 12388 12389 12390 12391 12392 12393 12394 12395 12396 12397 12398 12399 12400 12401 12402 12403 12404 12405 12406 12407 12408 12409 12410 12411 12412 12413 12414 12415 12416 12417 12418 12419 12420 12421 12422 12423 12424 12425 12426 12427 12428 12429 12430 12431 12432 12433 12434 12435 12436 12437 12438 12439 12440 12441 12442 12443 12444 12445 12446 12447 12448 12449 12450 12451 12452 12453 12454 12455 12456 12457 12458 12459 12460 12461 12462 12463 12464 12465 12466 12467 12468 12469 12470 12471 12472 12473 12474 12475 12476 12477 12478 12479 12480 12481 12482 12483 12484 12485 12486 12487 12488 12489 12490 12491 12492 12493 12494 12495 12496 12497 12498 12499 12500 12501 12502 12503 12504 12505 12506 12507 12508 12509 12510 12511 12512 12513 12514 12515 12516 12517 12518 12519 12520 12521 12522 12523 12524 12525 12526 12527 12528 12529 12530 12531 12532 12533 12534 12535 12536 12537 12538 12539 12540 12541 12542 12543 12544 12545 12546 12547 12548 12549 12550 12551 12552 12553 12554 12555 12556 12557 12558 12559 12560 12561 12562 12563 12564 12565 12566 12567 12568 12569 12570 12571 12572 12573 12574 12575 12576 12577 12578 12579 12580 12581 12582 12583 12584 12585 12586 12587 12588 12589 12590 12591 12592 12593 12594 12595 12596 12597 12598 12599 12600 12601 12602 12603 12604 12605 12606 12607 12608 12609 12610 12611 12612 12613 12614 12615 12616 12617 12618 12619 12620 12621 12622 12623 12624 12625 12626 12627 12628 12629 12630 12631 12632 12633 12634 12635 12636 12637 12638 12639 12640 12641 12642 12643 12644 12645 12646 12647 12648 12649 12650 12651 12652 12653 12654 12655 12656 12657 12658 12659 12660 12661 12662 12663 12664 12665 12666 12667 12668 12669 12670 12671 12672 12673 12674 12675 12676 12677 12678 12679 12680 12681 12682 12683 12684 12685 12686 12687 12688 12689 12690 12691 12692 12693 12694 12695 12696 12697 12698 12699 12700 12701 12702 12703 12704 12705 12706 12707 12708 12709 12710 12711 12712 12713 12714 12715 12716 12717 12718 12719 12720 12721 12722 12723 12724 12725 12726 12727 12728 12729 12730 12731 12732 12733 12734 12735 12736 12737 12738 12739 12740 12741 12742 12743 12744 12745 12746 12747 12748 12749 12750 12751 12752 12753 12754 12755 12756 12757 12758 12759 12760 12761 12762 12763 12764 12765 12766 12767 12768 12769 12770 12771 12772 12773 12774 12775 12776 12777 12778 12779 12780 12781 12782 12783 12784 12785 12786 12787 12788 12789 12790 12791 12792 12793 12794 12795 12796 12797 12798 12799 12800 12801 12802 12803 12804 12805 12806 12807 12808 12809 12810 12811 12812 12813 12814 12815 12816 12817 12818 12819 12820 12821 12822 12823 12824 12825 12826 12827 12828 12829 12830 12831 12832 12833 12834 12835 12836 12837 12838 12839 12840 12841 12842 12843 12844 12845 12846 12847 12848 12849 12850 12851 12852 12853 12854 12855 12856 12857 12858 12859 12860 12861 12862 12863 12864 12865 12866 12867 12868 12869 12870 12871 12872 12873 12874 12875 12876 12877 12878 12879 12880 12881 12882 12883 12884 12885 12886 12887 12888 12889 12890 12891 12892 12893 12894 12895 12896 12897 12898 12899 12900 12901 12902 12903 12904 12905 12906 12907 12908 12909 12910 12911 12912 12913 12914 12915 12916 12917 12918 12919 12920 12921 12922 12923 12924 12925 12926 12927 12928 12929 12930 12931 12932 12933 12934 12935 12936 12937 12938 12939 12940 12941 12942 12943 12944 12945 12946 12947 12948 12949 12950 12951 12952 12953 12954 12955 12956 12957 12958 12959 12960 12961 12962 12963 12964 12965 12966 12967 12968 12969 12970 12971 12972 12973 12974 12975 12976 12977 12978 12979 12980 12981 12982 12983 12984 12985 12986 12987 12988 12989 12990 12991 12992 12993 12994 12995 12996 12997 12998 12999 13000 13001 13002 13003 13004 13005 13006 13007 13008 13009 13010 13011 13012 13013 13014 13015 13016 13017 13018 13019 13020 13021 13022 13023 13024 13025 13026 13027 13028 13029 13030 13031 13032 13033 13034 13035 13036 13037 13038 13039 13040 13041 13042 13043 13044 13045 13046 13047 13048 13049 13050 13051 13052 13053 13054 13055 13056 13057 13058 13059 13060 13061 13062 13063 13064 13065 13066 13067 13068 13069 13070 13071 13072 13073 13074 13075 13076 13077 13078 13079 13080 13081 13082 13083 13084 13085 13086 13087 13088 13089 13090 13091 13092 13093 13094 13095 13096 13097 13098 13099 13100 13101 13102 13103 13104 13105 13106 13107 13108 13109 13110 13111 13112 13113 13114 13115 13116 13117 13118 13119 13120 13121 13122 13123 13124 13125 13126 13127 13128 13129 13130 13131 13132 13133 13134 13135 13136 13137 13138 13139 13140 13141 13142 13143 13144 13145 13146 13147 13148 13149 13150 13151 13152 13153 13154 13155 13156 13157 13158 13159 13160 13161 13162 13163 13164 13165 13166 13167 13168 13169 13170 13171 13172 13173 13174 13175 13176 13177 13178 13179 13180 13181 13182 13183 13184 13185 13186 13187 13188 13189 13190 13191 13192 13193 13194 13195 13196 13197 13198 13199 13200 13201 13202 13203 13204 13205 13206 13207 13208 13209 13210 13211 13212 13213 13214 13215 13216 13217 13218 13219 13220 13221 13222 13223 13224 13225 13226 13227 13228 13229 13230 13231 13232 13233 13234 13235 13236 13237 13238 13239 13240 13241 13242 13243 13244 13245 13246 13247 13248 13249 13250 13251 13252 13253 13254 13255 13256 13257 13258 13259 13260 13261 13262 13263 13264 13265 13266 13267 13268 13269 13270 13271 13272 13273 13274 13275 13276 13277 13278 13279 13280 13281 13282 13283 13284 13285 13286 13287 13288 13289 13290 13291 13292 13293 13294 13295 13296 13297 13298 13299 13300 13301 13302 13303 13304 13305 13306 13307 13308 13309 13310 13311 13312 13313 13314 13315 13316 13317 13318 13319 13320 13321 13322 13323 13324 13325 13326 13327 13328 13329 13330 13331 13332 13333 13334 13335 13336 13337 13338 13339 13340 13341 13342 13343 13344 13345 13346 13347 13348 13349 13350 13351 13352 13353 13354 13355 13356 13357 13358 13359 13360 13361 13362 13363 13364 13365 13366 13367 13368 13369 13370 13371 13372 13373 13374 13375 13376 13377 13378 13379 13380 13381 13382 13383 13384 13385 13386 13387 13388 13389 13390 13391 13392 13393 13394 13395 13396 13397 13398 13399 13400 13401 13402 13403 13404 13405 13406 13407 13408 13409 13410 13411 13412 13413 13414 13415 13416 13417 13418 13419 13420 13421 13422 13423 13424 13425 13426 13427 13428 13429 13430 13431 13432 13433 13434 13435 13436 13437 13438 13439 13440 13441 13442 13443 13444 13445 13446 13447 13448 13449 13450 13451 13452 13453 13454 13455 13456 13457 13458 13459 13460 13461 13462 13463 13464 13465 13466 13467 13468 13469 13470 13471 13472 13473 13474 13475 13476 13477 13478 13479 13480 13481 13482 13483 13484 13485 13486 13487 13488 13489 13490 13491 13492 13493 13494 13495 13496 13497 13498 13499 13500 13501 13502 13503 13504 13505 13506 13507 13508 13509 13510 13511 13512 13513 13514 13515 13516 13517 13518 13519 13520 13521 13522 13523 13524 13525 13526 13527 13528 13529 13530 13531 13532 13533 13534 13535 13536 13537 13538 13539 13540 13541 13542 13543 13544 13545 13546 13547 13548 13549 13550 13551 13552 13553 13554 13555 13556 13557 13558 13559 13560 13561 13562 13563 13564 13565 13566 13567 13568 13569 13570 13571 13572 13573 13574 13575 13576 13577 13578 13579 13580 13581 13582 13583 13584 13585 13586 13587 13588 13589 13590 13591 13592 13593 13594 13595 13596 13597 13598 13599 13600 13601 13602 13603 13604 13605 13606 13607 13608 13609 13610 13611 13612 13613 13614 13615 13616 13617 13618 13619 13620 13621 13622 13623 13624 13625 13626 13627 13628 13629 13630 13631 13632 13633 13634 13635 13636 13637 13638 13639 13640 13641 13642 13643 13644 13645 13646 13647 13648 13649 13650 13651 13652 13653 13654 13655 13656 13657 13658 13659 13660 13661 13662 13663 13664 13665 13666 13667 13668 13669 13670 13671 13672 13673 13674 13675 13676 13677 13678 13679 13680 13681 13682 13683 13684 13685 13686 13687 13688 13689 13690 13691 13692 13693 13694 13695 13696 13697 13698 13699 13700 13701 13702 13703 13704 13705 13706 13707 13708 13709 13710 13711 13712 13713 13714 13715 13716 13717 13718 13719 13720 13721 13722 13723 13724 13725 13726 13727 13728 13729 13730 13731 13732 13733 13734 13735 13736 13737 13738 13739 13740 13741 13742 13743 13744 13745 13746 13747 13748 13749 13750 13751 13752 13753 13754 13755 13756 13757 13758 13759 13760 13761 13762 13763 13764 13765 13766 13767 13768 13769 13770 13771 13772 13773 13774 13775 13776 13777 13778 13779 13780 13781 13782 13783 13784 13785 13786 13787 13788 13789 13790 13791 13792 13793 13794 13795 13796 13797 13798 13799 13800 13801 13802 13803 13804 13805 13806 13807 13808 13809 13810 13811 13812 13813 13814 13815 13816 13817 13818 13819 13820 13821 13822 13823 13824 13825 13826 13827 13828 13829 13830 13831 13832 13833 13834 13835 13836 13837 13838 13839 13840 13841 13842 13843 13844 13845 13846 13847 13848 13849 13850 13851 13852 13853 13854 13855 13856 13857 13858 13859 13860 13861 13862 13863 13864 13865 13866 13867 13868 13869 13870 13871 13872 13873 13874 13875 13876 13877 13878 13879 13880 13881 13882 13883 13884 13885 13886 13887 13888 13889 13890 13891 13892 13893 13894 13895 13896 13897 13898 13899 13900 13901 13902 13903 13904 13905 13906 13907 13908 13909 13910 13911 13912 13913 13914 13915 13916 13917 13918 13919 13920 13921 13922 13923 13924 13925 13926 13927 13928 13929 13930 13931 13932 13933 13934 13935 13936 13937 13938 13939 13940 13941 13942 13943 13944 13945 13946 13947 13948 13949 13950 13951 13952 13953 13954 13955 13956 13957 13958 13959 13960 13961 13962 13963 13964 13965 13966 13967 13968 13969 13970 13971 13972 13973 13974 13975 13976 13977 13978 13979 13980 13981 13982 13983 13984 13985 13986 13987 13988 13989 13990 13991 13992 13993 13994 13995 13996 13997 13998 13999 14000 14001 14002 14003 14004 14005 14006 14007 14008 14009 14010 14011 14012 14013 14014 14015 14016 14017 14018 14019 14020 14021 14022 14023 14024 14025 14026 14027 14028 14029 14030 14031 14032 14033 14034 14035 14036 14037 14038 14039 14040 14041 14042 14043 14044 14045 14046 14047 14048 14049 14050 14051 14052 14053 14054 14055 14056 14057 14058 14059 14060 14061 14062 14063 14064 14065 14066 14067 14068 14069 14070 14071 14072 14073 14074 14075 14076 14077 14078 14079 14080 14081 14082 14083 14084 14085 14086 14087 14088 14089 14090 14091 14092 14093 14094 14095 14096 14097 14098 14099 14100 14101 14102 14103 14104 14105 14106 14107 14108 14109 14110 14111 14112 14113 14114 14115 14116 14117 14118 14119 14120 14121 14122 14123 14124 14125 14126 14127 14128 14129 14130 14131 14132 14133 14134 14135 14136 14137 14138 14139 14140 14141 14142 14143 14144 14145 14146 14147 14148 14149 14150 14151 14152 14153 14154 14155 14156 14157 14158 14159 14160 14161 14162 14163 14164 14165 14166 14167 14168 14169 14170 14171 14172 14173 14174 14175 14176 14177 14178 14179 14180 14181 14182 14183 14184 14185 14186 14187 14188 14189 14190 14191 14192 14193 14194 14195 14196 14197 14198 14199 14200 14201 14202 14203 14204 14205 14206 14207 14208 14209 14210 14211 14212 14213 14214 14215 14216 14217 14218 14219 14220 14221 14222 14223 14224 14225 14226 14227 14228 14229 14230 14231 14232 14233 14234 14235 14236 14237 14238 14239 14240 14241 14242 14243 14244 14245 14246 14247 14248 14249 14250 14251 14252 14253 14254 14255 14256 14257 14258 14259 14260 14261 14262 14263 14264 14265 14266 14267 14268 14269 14270 14271 14272 14273 14274 14275 14276 14277 14278 14279 14280 14281 14282 14283 14284 14285 14286 14287 14288 14289 14290 14291 14292 14293 14294 14295 14296 14297 14298 14299 14300 14301 14302 14303 14304 14305 14306 14307 14308 14309 14310 14311 14312 14313 14314 14315 14316 14317 14318 14319 14320 14321 14322 14323 14324 14325 14326 14327 14328 14329 14330 14331 14332 14333 14334 14335 14336 14337 14338 14339 14340 14341 14342 14343 14344 14345 14346 14347 14348 14349 14350 14351 14352 14353 14354 14355 14356 14357 14358 14359 14360 14361 14362 14363 14364 14365 14366 14367 14368 14369 14370 14371 14372 14373 14374 14375 14376 14377 14378 14379 14380 14381 14382 14383 14384 14385 14386 14387 14388 14389 14390 14391 14392 14393 14394 14395 14396 14397 14398 14399 14400 14401 14402 14403 14404 14405 14406 14407 14408 14409 14410 14411 14412 14413 14414 14415 14416 14417 14418 14419 14420 14421 14422 14423 14424 14425 14426 14427 14428 14429 14430 14431 14432 14433 14434 14435 14436 14437 14438 14439 14440 14441 14442 14443 14444 14445 14446 14447 14448 14449 14450 14451 14452 14453 14454 14455 14456 14457 14458 14459 14460 14461 14462 14463 14464 14465 14466 14467 14468 14469 14470 14471 14472 14473 14474 14475 14476 14477 14478 14479 14480 14481 14482 14483 14484 14485 14486 14487 14488 14489 14490 14491 14492 14493 14494 14495 14496 14497 14498 14499 14500 14501 14502 14503 14504 14505 14506 14507 14508 14509 14510 14511 14512 14513 14514 14515 14516 14517 14518 14519 14520 14521 14522 14523 14524 14525 14526 14527 14528 14529 14530 14531 14532 14533 14534 14535 14536 14537 14538 14539 14540 14541 14542 14543 14544 14545 14546 14547 14548 14549 14550 14551 14552 14553 14554 14555 14556 14557 14558 14559 14560 14561 14562 14563 14564 14565 14566 14567 14568 14569 14570 14571 14572 14573 14574 14575 14576 14577 14578 14579 14580 14581 14582 14583 14584 14585 14586 14587 14588 14589 14590 14591 14592 14593 14594 14595 14596 14597 14598 14599 14600 14601 14602 14603 14604 14605 14606 14607 14608 14609 14610 14611 14612 14613 14614 14615 14616 14617 14618 14619 14620 14621 14622 14623 14624 14625 14626 14627 14628 14629 14630 14631 14632 14633 14634 14635 14636 14637 14638 14639 14640 14641 14642 14643 14644 14645 14646 14647 14648 14649 14650 14651 14652 14653 14654 14655 14656 14657 14658 14659 14660 14661 14662 14663 14664 14665 14666 14667 14668 14669 14670 14671 14672 14673 14674 14675 14676 14677 14678 14679 14680 14681 14682 14683 14684 14685 14686 14687 14688 14689 14690 14691 14692 14693 14694 14695 14696 14697 14698 14699 14700 14701 14702 14703 14704 14705 14706 14707 14708 14709 14710 14711 14712 14713 14714 14715 14716 14717 14718 14719 14720 14721 14722 14723 14724 14725 14726 14727 14728 14729 14730 14731 14732 14733 14734 14735 14736 14737 14738 14739 14740 14741 14742 14743 14744 14745 14746 14747 14748 14749 14750 14751 14752 14753 14754 14755 14756 14757 14758 14759 14760 14761 14762 14763 14764 14765 14766 14767 14768 14769 14770 14771 14772 14773 14774 14775 14776 14777 14778 14779 14780 14781 14782 14783 14784 14785 14786 14787 14788 14789 14790 14791 14792 14793 14794 14795 14796 14797 14798 14799 14800 14801 14802 14803 14804 14805 14806 14807 14808 14809 14810 14811 14812 14813 14814 14815 14816 14817 14818 14819 14820 14821 14822 14823 14824 14825 14826 14827 14828 14829 14830 14831 14832 14833 14834 14835 14836 14837 14838 14839 14840 14841 14842 14843 14844 14845 14846 14847 14848 14849 14850 14851 14852 14853 14854 14855 14856 14857 14858 14859 14860 14861 14862 14863 14864 14865 14866 14867 14868 14869 14870 14871 14872 14873 14874 14875 14876 14877 14878 14879 14880 14881 14882 14883 14884 14885 14886 14887 14888 14889 14890 14891 14892 14893 14894 14895 14896 14897 14898 14899 14900 14901 14902 14903 14904 14905 14906 14907 14908 14909 14910 14911 14912 14913 14914 14915 14916 14917 14918 14919 14920 14921 14922 14923 14924 14925 14926 14927 14928 14929 14930 14931 14932 14933 14934 14935 14936 14937 14938 14939 14940 14941 14942 14943 14944 14945 14946 14947 14948 14949 14950 14951 14952 14953 14954 14955 14956 14957 14958 14959 14960 14961 14962 14963 14964 14965 14966 14967 14968 14969 14970 14971 14972 14973 14974 14975 14976 14977 14978 14979 14980 14981 14982 14983 14984 14985 14986 14987 14988 14989 14990 14991 14992 14993 14994 14995 14996 14997 14998 14999 15000 15001 15002 15003 15004 15005 15006 15007 15008 15009 15010 15011 15012 15013 15014 15015 15016 15017 15018 15019 15020 15021 15022 15023 15024 15025 15026 15027 15028 15029 15030 15031 15032 15033 15034 15035 15036 15037 15038 15039 15040 15041 15042 15043 15044 15045 15046 15047 15048 15049 15050 15051 15052 15053 15054 15055 15056 15057 15058 15059 15060 15061 15062 15063 15064 15065 15066 15067 15068 15069 15070 15071 15072 15073 15074 15075 15076 15077 15078 15079 15080 15081 15082 15083 15084 15085 15086 15087 15088 15089 15090 15091 15092 15093 15094 15095 15096 15097 15098 15099 15100 15101 15102 15103 15104 15105 15106 15107 15108 15109 15110 15111 15112 15113 15114 15115 15116 15117 15118 15119 15120 15121 15122 15123 15124 15125 15126 15127 15128 15129 15130 15131 15132 15133 15134 15135 15136 15137 15138 15139 15140 15141 15142 15143 15144 15145 15146 15147 15148 15149 15150 15151 15152 15153 15154 15155 15156 15157 15158 15159 15160 15161 15162 15163 15164 15165 15166 15167 15168 15169 15170 15171 15172 15173 15174 15175 15176 15177 15178 15179 15180 15181 15182 15183 15184 15185 15186 15187 15188 15189 15190 15191 15192 15193 15194 15195 15196 15197 15198 15199 15200 15201 15202 15203 15204 15205 15206 15207 15208 15209 15210 15211 15212 15213 15214 15215 15216 15217 15218 15219 15220 15221 15222 15223 15224 15225 15226 15227 15228 15229 15230 15231 15232 15233 15234 15235 15236 15237 15238 15239 15240 15241 15242 15243 15244 15245 15246 15247 15248 15249 15250 15251 15252 15253 15254 15255 15256 15257 15258 15259 15260 15261 15262 15263 15264 15265 15266 15267 15268 15269 15270 15271 15272 15273 15274 15275 15276 15277 15278 15279 15280 15281 15282 15283 15284 15285 15286 15287 15288 15289 15290 15291 15292 15293 15294 15295 15296 15297 15298 15299 15300 15301 15302 15303 15304 15305 15306 15307 15308 15309 15310 15311 15312 15313 15314 15315 15316 15317 15318 15319 15320 15321 15322 15323 15324 15325 15326 15327 15328 15329 15330 15331 15332 15333 15334 15335 15336 15337 15338 15339 15340 15341 15342 15343 15344 15345 15346 15347 15348 15349 15350 15351 15352 15353 15354 15355 15356 15357 15358 15359 15360 15361 15362 15363 15364 15365 15366 15367 15368 15369 15370 15371 15372 15373 15374 15375 15376 15377 15378 15379 15380 15381 15382 15383 15384 15385 15386 15387 15388 15389 15390 15391 15392 15393 15394 15395 15396 15397 15398 15399 15400 15401 15402 15403 15404 15405 15406 15407 15408 15409 15410 15411 15412 15413 15414 15415 15416 15417 15418 15419 15420 15421 15422 15423 15424 15425 15426 15427 15428 15429 15430 15431 15432 15433 15434 15435 15436 15437 15438 15439 15440 15441 15442 15443 15444 15445 15446 15447 15448 15449 15450 15451 15452 15453 15454 15455 15456 15457 15458 15459 15460 15461 15462 15463 15464 15465 15466 15467 15468 15469 15470 15471 15472 15473 15474 15475 15476 15477 15478 15479 15480 15481 15482 15483 15484 15485 15486 15487 15488 15489 15490 15491 15492 15493 15494 15495 15496 15497 15498 15499 15500 15501 15502 15503 15504 15505 15506 15507 15508 15509 15510 15511 15512 15513 15514 15515 15516 15517 15518 15519 15520 15521 15522 15523 15524 15525 15526 15527 15528 15529 15530 15531 15532 15533 15534 15535 15536 15537 15538 15539 15540 15541 15542 15543 15544 15545 15546 15547 15548 15549 15550 15551 15552 15553 15554 15555 15556 15557 15558 15559 15560 15561 15562 15563 15564 15565 15566 15567 15568 15569 15570 15571 15572 15573 15574 15575 15576 15577 15578 15579 15580 15581 15582 15583 15584 15585 15586 15587 15588 15589 15590 15591 15592 15593 15594 15595 15596 15597 15598 15599 15600 15601 15602 15603 15604 15605 15606 15607 15608 15609 15610 15611 15612 15613 15614 15615 15616 15617 15618 15619 15620 15621 15622 15623 15624 15625 15626 15627 15628 15629 15630 15631 15632 15633 15634 15635 15636 15637 15638 15639 15640 15641 15642 15643 15644 15645 15646 15647 15648 15649 15650 15651 15652 15653 15654 15655 15656 15657 15658 15659 15660 15661 15662 15663 15664 15665 15666 15667 15668 15669 15670 15671 15672 15673 15674 15675 15676 15677 15678 15679 15680 15681 15682 15683 15684 15685 15686 15687 15688 15689 15690 15691 15692 15693 15694 15695 15696 15697 15698 15699 15700 15701 15702 15703 15704 15705 15706 15707 15708 15709 15710 15711 15712 15713 15714 15715 15716 15717 15718 15719 15720 15721 15722 15723 15724 15725 15726 15727 15728 15729 15730 15731 15732 15733 15734 15735 15736 15737 15738 15739 15740 15741 15742 15743 15744 15745 15746 15747 15748 15749 15750 15751 15752 15753 15754 15755 15756 15757 15758 15759 15760 15761 15762 15763 15764 15765 15766 15767 15768 15769 15770 15771 15772 15773 15774 15775 15776 15777 15778 15779 15780 15781 15782 15783 15784 15785 15786 15787 15788 15789 15790 15791 15792 15793 15794 15795 15796 15797 15798 15799 15800 15801 15802 15803 15804 15805 15806 15807 15808 15809 15810 15811 15812 15813 15814 15815 15816 15817 15818 15819 15820 15821 15822 15823 15824 15825 15826 15827 15828 15829 15830 15831 15832 15833 15834 15835 15836 15837 15838 15839 15840 15841 15842 15843 15844 15845 15846 15847 15848 15849 15850 15851 15852 15853 15854 15855 15856 15857 15858 15859 15860 15861 15862 15863 15864 15865 15866 15867 15868 15869 15870 15871 15872 15873 15874 15875 15876 15877 15878 15879 15880 15881 15882 15883 15884 15885 15886 15887 15888 15889 15890 15891 15892 15893 15894 15895 15896 15897 15898 15899 15900 15901 15902 15903 15904 15905 15906 15907 15908 15909 15910 15911 15912 15913 15914 15915 15916 15917 15918 15919 15920 15921 15922 15923 15924 15925 15926 15927 15928 15929 15930 15931 15932 15933 15934 15935 15936 15937 15938 15939 15940 15941 15942 15943 15944 15945 15946 15947 15948 15949 15950 15951 15952 15953 15954 15955 15956 15957 15958 15959 15960 15961 15962 15963 15964 15965 15966 15967 15968 15969 15970 15971 15972 15973 15974 15975 15976 15977 15978 15979 15980 15981 15982 15983 15984 15985 15986 15987 15988 15989 15990 15991 15992 15993 15994 15995 15996 15997 15998 15999 16000 16001 16002 16003 16004 16005 16006 16007 16008 16009 16010 16011 16012 16013 16014 16015 16016 16017 16018 16019 16020 16021 16022 16023 16024 16025 16026 16027 16028 16029 16030 16031 16032 16033 16034 16035 16036 16037 16038 16039 16040 16041 16042 16043 16044 16045 16046 16047 16048 16049 16050 16051 16052 16053 16054 16055 16056 16057 16058 16059 16060 16061 16062 16063 16064 16065 16066 16067 16068 16069 16070 16071 16072 16073 16074 16075 16076 16077 16078 16079 16080 16081 16082 16083 16084 16085 16086 16087 16088 16089 16090 16091 16092 16093 16094 16095 16096 16097 16098 16099 16100 16101 16102 16103 16104 16105 16106 16107 16108 16109 16110 16111 16112 16113 16114 16115 16116 16117 16118 16119 16120 16121 16122 16123 16124 16125 16126 16127 16128 16129 16130 16131 16132 16133 16134 16135 16136 16137 16138 16139 16140 16141 16142 16143 16144 16145 16146 16147 16148 16149 16150 16151 16152 16153 16154 16155 16156 16157 16158 16159 16160 16161 16162 16163 16164 16165 16166 16167 16168 16169 16170 16171 16172 16173 16174 16175 16176 16177 16178 16179 16180 16181 16182 16183 16184 16185 16186 16187 16188 16189 16190 16191 16192 16193 16194 16195 16196 16197 16198 16199 16200 16201 16202 16203 16204 16205 16206 16207 16208 16209 16210 16211 16212 16213 16214 16215 16216 16217 16218 16219 16220 16221 16222 16223 16224 16225 16226 16227 16228 16229 16230 16231 16232 16233 16234 16235 16236 16237 16238 16239 16240 16241 16242 16243 16244 16245 16246 16247 16248 16249 16250 16251 16252 16253 16254 16255 16256 16257 16258 16259 16260 16261 16262 16263 16264 16265 16266 16267 16268 16269 16270 16271 16272 16273 16274 16275 16276 16277 16278 16279 16280 16281 16282 16283 16284 16285 16286 16287 16288 16289 16290 16291 16292 16293 16294 16295 16296 16297 16298 16299 16300 16301 16302 16303 16304 16305 16306 16307 16308 16309 16310 16311 16312 16313 16314 16315 16316 16317 16318 16319 16320 16321 16322 16323 16324 16325 16326 16327 16328 16329 16330 16331 16332 16333 16334 16335 16336 16337 16338 16339 16340 16341 16342 16343 16344 16345 16346 16347 16348 16349 16350 16351 16352 16353 16354 16355 16356 16357 16358 16359 16360 16361 16362 16363 16364 16365 16366 16367 16368 16369 16370 16371 16372 16373 16374 16375 16376 16377 16378 16379 16380 16381 16382 16383 16384 16385 16386 16387 16388 16389 16390 16391 16392 16393 16394 16395 16396 16397 16398 16399 16400 16401 16402 16403 16404 16405 16406 16407 16408 16409 16410 16411 16412 16413 16414 16415 16416 16417 16418 16419 16420 16421 16422 16423 16424 16425 16426 16427 16428 16429 16430 16431 16432 16433 16434 16435 16436 16437 16438 16439 16440 16441 16442 16443 16444 16445 16446 16447 16448 16449 16450 16451 16452 16453 16454 16455 16456 16457 16458 16459 16460 16461 16462 16463 16464 16465 16466 16467 16468 16469 16470 16471 16472 16473 16474 16475 16476 16477 16478 16479 16480 16481 16482 16483 16484 16485 16486 16487 16488 16489 16490 16491 16492 16493 16494 16495 16496 16497 16498 16499 16500 16501 16502 16503 16504 16505 16506 16507 16508 16509 16510 16511 16512 16513 16514 16515 16516 16517 16518 16519 16520 16521 16522 16523 16524 16525 16526 16527 16528 16529 16530 16531 16532 16533 16534 16535 16536 16537 16538 16539 16540 16541 16542 16543 16544 16545 16546 16547 16548 16549 16550 16551 16552 16553 16554 16555 16556 16557 16558 16559 16560 16561 16562 16563 16564 16565 16566 16567 16568 16569 16570 16571 16572 16573 16574 16575 16576 16577 16578 16579 16580 16581 16582 16583 16584 16585 16586 16587 16588 16589 16590 16591 16592 16593 16594 16595 16596 16597 16598 16599 16600 16601 16602 16603 16604 16605 16606 16607 16608 16609 16610 16611 16612 16613 16614 16615 16616 16617 16618 16619 16620 16621 16622 16623 16624 16625 16626 16627 16628 16629 16630 16631 16632 16633 16634 16635 16636 16637 16638 16639 16640 16641 16642 16643 16644 16645 16646 16647 16648 16649 16650 16651 16652 16653 16654 16655 16656 16657 16658 16659 16660 16661 16662 16663 16664 16665 16666 16667 16668 16669 16670 16671 16672 16673 16674 16675 16676 16677 16678 16679 16680 16681 16682 16683 16684 16685 16686 16687 16688 16689 16690 16691 16692 16693 16694 16695 16696 16697 16698 16699 16700 16701 16702 16703 16704 16705 16706 16707 16708 16709 16710 16711 16712 16713 16714 16715 16716 16717 16718 16719 16720 16721 16722 16723 16724 16725 16726 16727 16728 16729 16730 16731 16732 16733 16734 16735 16736 16737 16738 16739 16740 16741 16742 16743 16744 16745 16746 16747 16748 16749 16750 16751 16752 16753 16754 16755 16756 16757 16758 16759 16760 16761 16762 16763 16764 16765 16766 16767 16768 16769 16770 16771 16772 16773 16774 16775 16776 16777 16778 16779 16780 16781 16782 16783 16784 16785 16786 16787 16788 16789 16790 16791 16792 16793 16794 16795 16796 16797 16798 16799 16800 16801 16802 16803 16804 16805 16806 16807 16808 16809 16810 16811 16812 16813 16814 16815 16816 16817 16818 16819 16820 16821 16822 16823 16824 16825 16826 16827 16828 16829 16830 16831 16832 16833 16834 16835 16836 16837 16838 16839 16840 16841 16842 16843 16844 16845 16846 16847 16848 16849 16850 16851 16852 16853 16854 16855 16856 16857 16858 16859 16860 16861 16862 16863 16864 16865 16866 16867 16868 16869 16870 16871 16872 16873 16874 16875 16876 16877 16878 16879 16880 16881 16882 16883 16884 16885 16886 16887 16888 16889 16890 16891 16892 16893 16894 16895 16896 16897 16898 16899 16900 16901 16902 16903 16904 16905 16906 16907 16908 16909 16910 16911 16912 16913 16914 16915 16916 16917 16918 16919 16920 16921 16922 16923 16924 16925 16926 16927 16928 16929 16930 16931 16932 16933 16934 16935 16936 16937 16938 16939 16940 16941 16942 16943 16944 16945 16946 16947 16948 16949 16950 16951 16952 16953 16954 16955 16956 16957 16958 16959 16960 16961 16962 16963 16964 16965 16966 16967 16968 16969 16970 16971 16972 16973 16974 16975 16976 16977 16978 16979 16980 16981 16982 16983 16984 16985 16986 16987 16988 16989 16990 16991 16992 16993 16994 16995 16996 16997 16998 16999 17000 17001 17002 17003 17004 17005 17006 17007 17008 17009 17010 17011 17012 17013 17014 17015 17016 17017 17018 17019 17020 17021 17022 17023 17024 17025 17026 17027 17028 17029 17030 17031 17032 17033 17034 17035 17036 17037 17038 17039 17040 17041 17042 17043 17044 17045 17046 17047 17048 17049 17050 17051 17052 17053 17054 17055 17056 17057 17058 17059 17060 17061 17062 17063 17064 17065 17066 17067 17068 17069 17070 17071 17072 17073 17074 17075 17076 17077 17078 17079 17080 17081 17082 17083 17084 17085 17086 17087 17088 17089 17090 17091 17092 17093 17094 17095 17096 17097 17098 17099 17100 17101 17102 17103 17104 17105 17106 17107 17108 17109 17110 17111 17112 17113 17114 17115 17116 17117 17118 17119 17120 17121 17122 17123 17124 17125 17126 17127 17128 17129 17130 17131 17132 17133 17134 17135 17136 17137 17138 17139 17140 17141 17142 17143 17144 17145 17146 17147 17148 17149 17150 17151 17152 17153 17154 17155 17156 17157 17158 17159 17160 17161 17162 17163 17164 17165 17166 17167 17168 17169 17170 17171 17172 17173 17174 17175 17176 17177 17178 17179 17180 17181 17182 17183 17184 17185 17186 17187 17188 17189 17190 17191 17192 17193 17194 17195 17196 17197 17198 17199 17200 17201 17202 17203 17204 17205 17206 17207 17208 17209 17210 17211 17212 17213 17214 17215 17216 17217 17218 17219 17220 17221 17222 17223 17224 17225 17226 17227 17228 17229 17230 17231 17232 17233 17234 17235 17236 17237 17238 17239 17240 17241 17242 17243 17244 17245 17246 17247 17248 17249 17250 17251 17252 17253 17254 17255 17256 17257 17258 17259 17260 17261 17262 17263 17264 17265 17266 17267 17268 17269 17270 17271 17272 17273 17274 17275 17276 17277 17278 17279 17280 17281 17282 17283 17284 17285 17286 17287 17288 17289 17290 17291 17292 17293 17294 17295 17296 17297 17298 17299 17300 17301 17302 17303 17304 17305 17306 17307 17308 17309 17310 17311 17312 17313 17314 17315 17316 17317 17318 17319 17320 17321 17322 17323 17324 17325 17326 17327 17328 17329 17330 17331 17332 17333 17334 17335 17336 17337 17338 17339 17340 17341 17342 17343 17344 17345 17346 17347 17348 17349 17350 17351 17352 17353 17354 17355 17356 17357 17358 17359 17360 17361 17362 17363 17364 17365 17366 17367 17368 17369 17370 17371 17372 17373 17374 17375 17376 17377 17378 17379 17380 17381 17382 17383 17384 17385 17386 17387 17388 17389 17390 17391 17392 17393 17394 17395 17396 17397 17398 17399 17400 17401 17402 17403 17404 17405 17406 17407 17408 17409 17410 17411 17412 17413 17414 17415 17416 17417 17418 17419 17420 17421 17422 17423 17424 17425 17426 17427 17428 17429 17430 17431 17432 17433 17434 17435 17436 17437 17438 17439 17440 17441 17442 17443 17444 17445 17446 17447 17448 17449 17450 17451 17452 17453 17454 17455 17456 17457 17458 17459 17460 17461 17462 17463 17464 17465 17466 17467 17468 17469 17470 17471 17472 17473 17474 17475 17476 17477 17478 17479 17480 17481 17482 17483 17484 17485 17486 17487 17488 17489 17490 17491 17492 17493 17494 17495 17496 17497 17498 17499 17500 17501 17502 17503 17504 17505 17506 17507 17508 17509 17510 17511 17512 17513 17514 17515 17516 17517 17518 17519 17520 17521 17522 17523 17524 17525 17526 17527 17528 17529 17530 17531 17532 17533 17534 17535 17536 17537 17538 17539 17540 17541 17542 17543 17544 17545 17546 17547 17548 17549 17550 17551 17552 17553 17554 17555 17556 17557 17558 17559 17560 17561 17562 17563 17564 17565 17566 17567 17568 17569 17570 17571 17572 17573 17574 17575 17576 17577 17578 17579 17580 17581 17582 17583 17584 17585 17586 17587 17588 17589 17590 17591 17592 17593 17594 17595 17596 17597 17598 17599 17600 17601 17602 17603 17604 17605 17606 17607 17608 17609 17610 17611 17612 17613 17614 17615 17616 17617 17618 17619 17620 17621 17622 17623 17624 17625 17626 17627 17628 17629 17630 17631 17632 17633 17634 17635 17636 17637 17638 17639 17640 17641 17642 17643 17644 17645 17646 17647 17648 17649 17650 17651 17652 17653 17654 17655 17656 17657 17658 17659 17660 17661 17662 17663 17664 17665 17666 17667 17668 17669 17670 17671 17672 17673 17674 17675 17676 17677 17678 17679 17680 17681 17682 17683 17684 17685 17686 17687 17688 17689 17690 17691 17692 17693 17694 17695 17696 17697 17698 17699 17700 17701 17702 17703 17704 17705 17706 17707 17708 17709 17710 17711 17712 17713 17714 17715 17716 17717 17718 17719 17720 17721 17722 17723 17724 17725 17726 17727 17728 17729 17730 17731 17732 17733 17734 17735 17736 17737 17738 17739 17740 17741 17742 17743 17744 17745 17746 17747 17748 17749 17750 17751 17752 17753 17754 17755 17756 17757 17758 17759 17760 17761 17762 17763 17764 17765 17766 17767 17768 17769 17770 17771 17772 17773 17774 17775 17776 17777 17778 17779 17780 17781 17782 17783 17784 17785 17786 17787 17788 17789 17790 17791 17792 17793 17794 17795 17796 17797 17798 17799 17800 17801 17802 17803 17804 17805 17806 17807 17808 17809 17810 17811 17812 17813 17814 17815 17816 17817 17818 17819 17820 17821 17822 17823 17824 17825 17826 17827 17828 17829 17830 17831 17832 17833 17834 17835 17836 17837 17838 17839 17840 17841 17842 17843 17844 17845 17846 17847 17848 17849 17850 17851 17852 17853 17854 17855 17856 17857 17858 17859 17860 17861 17862 17863 17864 17865 17866 17867 17868 17869 17870 17871 17872 17873 17874 17875 17876 17877 17878 17879 17880 17881 17882 17883 17884 17885 17886 17887 17888 17889 17890 17891 17892 17893 17894 17895 17896 17897 17898 17899 17900 17901 17902 17903 17904 17905 17906 17907 17908 17909 17910 17911 17912 17913 17914 17915 17916 17917 17918 17919 17920 17921 17922 17923 17924 17925 17926 17927 17928 17929 17930 17931 17932 17933 17934 17935 17936 17937 17938 17939 17940 17941 17942 17943 17944 17945 17946 17947 17948 17949 17950 17951 17952 17953 17954 17955 17956 17957 17958 17959 17960 17961 17962 17963 17964 17965 17966 17967 17968 17969 17970 17971 17972 17973 17974 17975 17976 17977 17978 17979 17980 17981 17982 17983 17984 17985 17986 17987 17988 17989 17990 17991 17992 17993 17994 17995 17996 17997 17998 17999 18000 18001 18002 18003 18004 18005 18006 18007 18008 18009 18010 18011 18012 18013 18014 18015 18016 18017 18018 18019 18020 18021 18022 18023 18024 18025 18026 18027 18028 18029 18030 18031 18032 18033 18034 18035 18036 18037 18038 18039 18040 18041 18042 18043 18044 18045 18046 18047 18048 18049 18050 18051 18052 18053 18054 18055 18056 18057 18058 18059 18060 18061 18062 18063 18064 18065 18066 18067 18068 18069 18070 18071 18072 18073 18074 18075 18076 18077 18078 18079 18080 18081 18082 18083 18084 18085 18086 18087 18088 18089 18090 18091 18092 18093 18094 18095 18096 18097 18098 18099 18100 18101 18102 18103 18104 18105 18106 18107 18108 18109 18110 18111 18112 18113 18114 18115 18116 18117 18118 18119 18120 18121 18122 18123 18124 18125 18126 18127 18128 18129 18130 18131 18132 18133 18134 18135 18136 18137 18138 18139 18140 18141 18142 18143 18144 18145 18146 18147 18148 18149 18150 18151 18152 18153 18154 18155 18156 18157 18158 18159 18160 18161 18162 18163 18164 18165 18166 18167 18168 18169 18170 18171 18172 18173 18174 18175 18176 18177 18178 18179 18180 18181 18182 18183 18184 18185 18186 18187 18188 18189 18190 18191 18192 18193 18194 18195 18196 18197 18198 18199 18200 18201 18202 18203 18204 18205 18206 18207 18208 18209 18210 18211 18212 18213 18214 18215 18216 18217 18218 18219 18220 18221 18222 18223 18224 18225 18226 18227 18228 18229 18230 18231 18232 18233 18234 18235 18236 18237 18238 18239 18240 18241 18242 18243 18244 18245 18246 18247 18248 18249 18250 18251 18252 18253 18254 18255 18256 18257 18258 18259 18260 18261 18262 18263 18264 18265 18266 18267 18268 18269 18270 18271 18272 18273 18274 18275 18276 18277 18278 18279 18280 18281 18282 18283 18284 18285 18286 18287 18288 18289 18290 18291 18292 18293 18294 18295 18296 18297 18298 18299 18300 18301 18302 18303 18304 18305 18306 18307 18308 18309 18310 18311 18312 18313 18314 18315 18316 18317 18318 18319 18320 18321 18322 18323 18324 18325 18326 18327 18328 18329 18330 18331 18332 18333 18334 18335 18336 18337 18338 18339 18340 18341 18342 18343 18344 18345 18346 18347 18348 18349 18350 18351 18352 18353 18354 18355 18356 18357 18358 18359 18360 18361 18362 18363 18364 18365 18366 18367 18368 18369 18370 18371 18372 18373 18374 18375 18376 18377 18378 18379 18380 18381 18382 18383 18384 18385 18386 18387 18388 18389 18390 18391 18392 18393 18394 18395 18396 18397 18398 18399 18400 18401 18402 18403 18404 18405 18406 18407 18408 18409 18410 18411 18412 18413 18414 18415 18416 18417 18418 18419 18420 18421 18422 18423 18424 18425 18426 18427 18428 18429 18430 18431 18432 18433 18434 18435 18436 18437 18438 18439 18440 18441 18442 18443 18444 18445 18446 18447 18448 18449 18450 18451 18452 18453 18454 18455 18456 18457 18458 18459 18460 18461 18462 18463 18464 18465 18466 18467 18468 18469 18470 18471 18472 18473 18474 18475 18476 18477 18478 18479 18480 18481 18482 18483 18484 18485 18486 18487 18488 18489 18490 18491 18492 18493 18494 18495 18496 18497 18498 18499 18500 18501 18502 18503 18504 18505 18506 18507 18508 18509 18510 18511 18512 18513 18514 18515 18516 18517 18518 18519 18520 18521 18522 18523 18524 18525 18526 18527 18528 18529 18530 18531 18532 18533 18534 18535 18536 18537 18538 18539 18540 18541 18542 18543 18544 18545 18546 18547 18548 18549 18550 18551 18552 18553 18554 18555 18556 18557 18558 18559 18560 18561 18562 18563 18564 18565 18566 18567 18568 18569 18570 18571 18572 18573 18574 18575 18576 18577 18578 18579 18580 18581 18582 18583 18584 18585 18586 18587 18588 18589 18590 18591 18592 18593 18594 18595 18596 18597 18598 18599 18600 18601 18602 18603 18604 18605 18606 18607 18608 18609 18610 18611 18612 18613 18614 18615 18616 18617 18618 18619 18620 18621 18622 18623 18624 18625 18626 18627 18628 18629 18630 18631 18632 18633 18634 18635 18636 18637 18638 18639 18640 18641 18642 18643 18644 18645 18646 18647 18648 18649 18650 18651 18652 18653 18654 18655 18656 18657 18658 18659 18660 18661 18662 18663 18664 18665 18666 18667 18668 18669 18670 18671 18672 18673 18674 18675 18676 18677 18678 18679 18680 18681 18682 18683 18684 18685 18686 18687 18688 18689 18690 18691 18692 18693 18694 18695 18696 18697 18698 18699 18700 18701 18702 18703 18704 18705 18706 18707 18708 18709 18710 18711 18712 18713 18714 18715 18716 18717 18718 18719 18720 18721 18722 18723 18724 18725 18726 18727 18728 18729 18730 18731 18732 18733 18734 18735 18736 18737 18738 18739 18740 18741 18742 18743 18744 18745 18746 18747 18748 18749 18750 18751 18752 18753 18754 18755 18756 18757 18758 18759 18760 18761 18762 18763 18764 18765 18766 18767 18768 18769 18770 18771 18772 18773 18774 18775 18776 18777 18778 18779 18780 18781 18782 18783 18784 18785 18786 18787 18788 18789 18790 18791 18792 18793 18794 18795 18796 18797 18798 18799 18800 18801 18802 18803 18804 18805 18806 18807 18808 18809 18810 18811 18812 18813 18814 18815 18816 18817 18818 18819 18820 18821 18822 18823 18824 18825 18826 18827 18828 18829 18830 18831 18832 18833 18834 18835 18836 18837 18838 18839 18840 18841 18842 18843 18844 18845 18846 18847 18848 18849 18850 18851 18852 18853 18854 18855 18856 18857 18858 18859 18860 18861 18862 18863 18864 18865 18866 18867 18868 18869 18870 18871 18872 18873 18874 18875 18876 18877 18878 18879 18880 18881 18882 18883 18884 18885 18886 18887 18888 18889 18890 18891 18892 18893 18894 18895 18896 18897 18898 18899 18900 18901 18902 18903 18904 18905 18906 18907 18908 18909 18910 18911 18912 18913 18914 18915 18916 18917 18918 18919 18920 18921 18922 18923 18924 18925 18926 18927 18928 18929 18930 18931 18932 18933 18934 18935 18936 18937 18938 18939 18940 18941 18942 18943 18944 18945 18946 18947 18948 18949 18950 18951 18952 18953 18954 18955 18956 18957 18958 18959 18960 18961 18962 18963 18964 18965 18966 18967 18968 18969 18970 18971 18972 18973 18974 18975 18976 18977 18978 18979 18980 18981 18982 18983 18984 18985 18986 18987 18988 18989 18990 18991 18992 18993 18994 18995 18996 18997 18998 18999 19000 19001 19002 19003 19004 19005 19006 19007 19008 19009 19010 19011 19012 19013 19014 19015 19016 19017 19018 19019 19020 19021 19022 19023 19024 19025 19026 19027 19028 19029 19030 19031 19032 19033 19034 19035 19036 19037 19038 19039 19040 19041 19042 19043 19044 19045 19046 19047 19048 19049 19050 19051 19052 19053 19054 19055 19056 19057 19058 19059 19060 19061 19062 19063 19064 19065 19066 19067 19068 19069 19070 19071 19072 19073 19074 19075 19076 19077 19078 19079 19080 19081 19082 19083 19084 19085 19086 19087 19088 19089 19090 19091 19092 19093 19094 19095 19096 19097 19098 19099 19100 19101 19102 19103 19104 19105 19106 19107 19108 19109 19110 19111 19112 19113 19114 19115 19116 19117 19118 19119 19120 19121 19122 19123 19124 19125 19126 19127 19128 19129 19130 19131 19132 19133 19134 19135 19136 19137 19138 19139 19140 19141 19142 19143 19144 19145 19146 19147 19148 19149 19150 19151 19152 19153 19154 19155 19156 19157 19158 19159 19160 19161 19162 19163 19164 19165 19166 19167 19168 19169 19170 19171 19172 19173 19174 19175 19176 19177 19178 19179 19180 19181 19182 19183 19184 19185 19186 19187 19188 19189 19190 19191 19192 19193 19194 19195 19196 19197 19198 19199 19200 19201 19202 19203 19204 19205 19206 19207 19208 19209 19210 19211 19212 19213 19214 19215 19216 19217 19218 19219 19220 19221 19222 19223 19224 19225 19226 19227 19228 19229 19230 19231 19232 19233 19234 19235 19236 19237 19238 19239 19240 19241 19242 19243 19244 19245 19246 19247 19248 19249 19250 19251 19252 19253 19254 19255 19256 19257 19258 19259 19260 19261 19262 19263 19264 19265 19266 19267 19268 19269 19270 19271 19272 19273 19274 19275 19276 19277 19278 19279 19280 19281 19282 19283 19284 19285 19286 19287 19288 19289 19290 19291 19292 19293 19294 19295 19296 19297 19298 19299 19300 19301 19302 19303 19304 19305 19306 19307 19308 19309 19310 19311 19312 19313 19314 19315 19316 19317 19318 19319 19320 19321 19322 19323 19324 19325 19326 19327 19328 19329 19330 19331 19332 19333 19334 19335 19336 19337 19338 19339 19340 19341 19342 19343 19344 19345 19346 19347 19348 19349 19350 19351 19352 19353 19354 19355 19356 19357 19358 19359 19360 19361 19362 19363 19364 19365 19366 19367 19368 19369 19370 19371 19372 19373 19374 19375 19376 19377 19378 19379 19380 19381 19382 19383 19384 19385 19386 19387 19388 19389 19390 19391 19392 19393 19394 19395 19396 19397 19398 19399 19400 19401 19402 19403 19404 19405 19406 19407 19408 19409 19410 19411 19412 19413 19414 19415 19416 19417 19418 19419 19420 19421 19422 19423 19424 19425 19426 19427 19428 19429 19430 19431 19432 19433 19434 19435 19436 19437 19438 19439 19440 19441 19442 19443 19444 19445 19446 19447 19448 19449 19450 19451 19452 19453 19454 19455 19456 19457 19458 19459 19460 19461 19462 19463 19464 19465 19466 19467 19468 19469 19470 19471 19472 19473 19474 19475 19476 19477 19478 19479 19480 19481 19482 19483 19484 19485 19486 19487 19488 19489 19490 19491 19492 19493 19494 19495 19496 19497 19498 19499 19500 19501 19502 19503 19504 19505 19506 19507 19508 19509 19510 19511 19512 19513 19514 19515 19516 19517 19518 19519 19520 19521 19522 19523 19524 19525 19526 19527 19528 19529 19530 19531 19532 19533 19534 19535 19536 19537 19538 19539 19540 19541 19542 19543 19544 19545 19546 19547 19548 19549 19550 19551 19552 19553 19554 19555 19556 19557 19558 19559 19560 19561 19562 19563 19564 19565 19566 19567 19568 19569 19570 19571 19572 19573 19574 19575 19576 19577 19578 19579 19580 19581 19582 19583 19584 19585 19586 19587 19588 19589 19590 19591 19592 19593 19594 19595 19596 19597 19598 19599 19600 19601 19602 19603 19604 19605 19606 19607 19608 19609 19610 19611 19612 19613 19614 19615 19616 19617 19618 19619 19620 19621 19622 19623 19624 19625 19626 19627 19628 19629 19630 19631 19632 19633 19634 19635 19636 19637 19638 19639 19640 19641 19642 19643 19644 19645 19646 19647 19648 19649 19650 19651 19652 19653 19654 19655 19656 19657 19658 19659 19660 19661 19662 19663 19664 19665 19666 19667 19668 19669 19670 19671 19672 19673 19674 19675 19676 19677 19678 19679 19680 19681 19682 19683 19684 19685 19686 19687 19688 19689 19690 19691 19692 19693 19694 19695 19696 19697 19698 19699 19700 19701 19702 19703 19704 19705 19706 19707 19708 19709 19710 19711 19712 19713 19714 19715 19716 19717 19718 19719 19720 19721 19722 19723 19724 19725 19726 19727 19728 19729 19730 19731 19732 19733 19734 19735 19736 19737 19738 19739 19740 19741 19742 19743 19744 19745 19746 19747 19748 19749 19750 19751 19752 19753 19754 19755 19756 19757 19758 19759 19760 19761 19762 19763 19764 19765 19766 19767 19768 19769 19770 19771 19772 19773 19774 19775 19776 19777 19778 19779 19780 19781 19782 19783 19784 19785 19786 19787 19788 19789 19790 19791 19792 19793 19794 19795 19796 19797 19798 19799 19800 19801 19802 19803 19804 19805 19806 19807 19808 19809 19810 19811 19812 19813 19814 19815 19816 19817 19818 19819 19820 19821 19822 19823 19824 19825 19826 19827 19828 19829 19830 19831 19832 19833 19834 19835 19836 19837 19838 19839 19840 19841 19842 19843 19844 19845 19846 19847 19848 19849 19850 19851 19852 19853 19854 19855 19856 19857 19858 19859 19860 19861 19862 19863 19864 19865 19866 19867 19868 19869 19870 19871 19872 19873 19874 19875 19876 19877 19878 19879 19880 19881 19882 19883 19884 19885 19886 19887 19888 19889 19890 19891 19892 19893 19894 19895 19896 19897 19898 19899 19900 19901 19902 19903 19904 19905 19906 19907 19908 19909 19910 19911 19912 19913 19914 19915 19916 19917 19918 19919 19920 19921 19922 19923 19924 19925 19926 19927 19928 19929 19930 19931 19932 19933 19934 19935 19936 19937 19938 19939 19940 19941 19942 19943 19944 19945 19946 19947 19948 19949 19950 19951 19952 19953 19954 19955 19956 19957 19958 19959 19960 19961 19962 19963 19964 19965 19966 19967 19968 19969 19970 19971 19972 19973 19974 19975 19976 19977 19978 19979 19980 19981 19982 19983 19984 19985 19986 19987 19988 19989 19990 19991 19992 19993 19994 19995 19996 19997 19998 19999 20000 20001 20002 20003 20004 20005 20006 20007 20008 20009 20010 20011 20012 20013 20014 20015 20016 20017 20018 20019 20020 20021 20022 20023 20024 20025 20026 20027 20028 20029 20030 20031 20032 20033 20034 20035 20036 20037 20038 20039 20040 20041 20042 20043 20044 20045 20046 20047 20048 20049 20050 20051 20052 20053 20054 20055 20056 20057 20058 20059 20060 20061 20062 20063 20064 20065 20066 20067 20068 20069 20070 20071 20072 20073 20074 20075 20076 20077 20078 20079 20080 20081 20082 20083 20084 20085 20086 20087 20088 20089 20090 20091 20092 20093 20094 20095 20096 20097 20098 20099 20100 20101 20102 20103 20104 20105 20106 20107 20108 20109 20110 20111 20112 20113 20114 20115 20116 20117 20118 20119 20120 20121 20122 20123 20124 20125 20126 20127 20128 20129 20130 20131 20132 20133 20134 20135 20136 20137 20138 20139 20140 20141 20142 20143 20144 20145 20146 20147 20148 20149 20150 20151 20152 20153 20154 20155 20156 20157 20158 20159 20160 20161 20162 20163 20164 20165 20166 20167 20168 20169 20170 20171 20172 20173 20174 20175 20176 20177 20178 20179 20180 20181 20182 20183 20184 20185 20186 20187 20188 20189 20190 20191 20192 20193 20194 20195 20196 20197 20198 20199 20200 20201 20202 20203 20204 20205 20206 20207 20208 20209 20210 20211 20212 20213 20214 20215 20216 20217 20218 20219 20220 20221 20222 20223 20224 20225 20226 20227 20228 20229 20230 20231 20232 20233 20234 20235 20236 20237 20238 20239 20240 20241 20242 20243 20244 20245 20246 20247 20248 20249 20250 20251 20252 20253 20254 20255 20256 20257 20258 20259 20260 20261 20262 20263 20264 20265 20266 20267 20268 20269 20270 20271 20272 20273 20274 20275 20276 20277 20278 20279 20280 20281 20282 20283 20284 20285 20286 20287 20288 20289 20290 20291 20292 20293 20294 20295 20296 20297 20298 20299 20300 20301 20302 20303 20304 20305 20306 20307 20308 20309 20310 20311 20312 20313 20314 20315 20316 20317 20318 20319 20320 20321 20322 20323 20324 20325 20326 20327 20328 20329 20330 20331 20332 20333 20334 20335 20336 20337 20338 20339 20340 20341 20342 20343 20344 20345 20346 20347 20348 20349 20350 20351 20352 20353 20354 20355 20356 20357 20358 20359 20360 20361 20362 20363 20364 20365 20366 20367 20368 20369 20370 20371 20372 20373 20374 20375 20376 20377 20378 20379 20380 20381 20382 20383 20384 20385 20386 20387 20388 20389 20390 20391 20392 20393 20394 20395 20396 20397 20398 20399 20400 20401 20402 20403 20404 20405 20406 20407 20408 20409 20410 20411 20412 20413 20414 20415 20416 20417 20418 20419 20420 20421 20422 20423 20424 20425 20426 20427 20428 20429 20430 20431 20432 20433 20434 20435 20436 20437 20438 20439 20440 20441 20442 20443 20444 20445 20446 20447 20448 20449 20450 20451 20452 20453 20454 20455 20456 20457 20458 20459 20460 20461 20462 20463 20464 20465 20466 20467 20468 20469 20470 20471 20472 20473 20474 20475 20476 20477 20478 20479 20480 20481 20482 20483 20484 20485 20486 20487 20488 20489 20490 20491 20492 20493 20494 20495 20496 20497 20498 20499 20500 20501 20502 20503 20504 20505 20506 20507 20508 20509 20510 20511 20512 20513 20514 20515 20516 20517 20518 20519 20520 20521 20522 20523 20524 20525 20526 20527 20528 20529 20530 20531 20532 20533 20534 20535 20536 20537 20538 20539 20540 20541 20542 20543 20544 20545 20546 20547 20548 20549 20550 20551 20552 20553 20554 20555 20556 20557 20558 20559 20560 20561 20562 20563 20564 20565 20566 20567 20568 20569 20570 20571 20572 20573 20574 20575 20576 20577 20578 20579 20580 20581 20582 20583 20584 20585 20586 20587 20588 20589 20590 20591 20592 20593 20594 20595 20596 20597 20598 20599 20600 20601 20602 20603 20604 20605 20606 20607 20608 20609 20610 20611 20612 20613 20614 20615 20616 20617 20618 20619 20620 20621 20622 20623 20624 20625 20626 20627 20628 20629 20630 20631 20632 20633 20634 20635 20636 20637 20638 20639 20640 20641 20642 20643 20644 20645 20646 20647 20648 20649 20650 20651 20652 20653 20654 20655 20656 20657 20658 20659 20660 20661 20662 20663 20664 20665 20666 20667 20668 20669 20670 20671 20672 20673 20674 20675 20676 20677 20678 20679 20680 20681 20682 20683 20684 20685 20686 20687 20688 20689 20690 20691 20692 20693 20694 20695 20696 20697 20698 20699 20700 20701 20702 20703 20704 20705 20706 20707 20708 20709 20710 20711 20712 20713 20714 20715 20716 20717 20718 20719 20720 20721 20722 20723 20724 20725 20726 20727 20728 20729 20730 20731 20732 20733 20734 20735 20736 20737 20738 20739 20740 20741 20742 20743 20744 20745 20746 20747 20748 20749 20750 20751 20752 20753 20754 20755 20756 20757 20758 20759 20760 20761 20762 20763 20764 20765 20766 20767 20768 20769 20770 20771 20772 20773 20774 20775 20776 20777 20778 20779 20780 20781 20782 20783 20784 20785 20786 20787 20788 20789 20790 20791 20792 20793 20794 20795 20796 20797 20798 20799 20800 20801 20802 20803 20804 20805 20806 20807 20808 20809 20810 20811 20812 20813 20814 20815 20816 20817 20818 20819 20820 20821 20822 20823 20824 20825 20826 20827 20828 20829 20830 20831 20832 20833 20834 20835 20836 20837 20838 20839 20840 20841 20842 20843 20844 20845 20846 20847 20848 20849 20850 20851 20852 20853 20854 20855 20856 20857 20858 20859 20860 20861 20862 20863 20864 20865 20866 20867 20868 20869 20870 20871 20872 20873 20874 20875 20876 20877 20878 20879 20880 20881 20882 20883 20884 20885 20886 20887 20888 20889 20890 20891 20892 20893 20894 20895 20896 20897 20898 20899 20900 20901 20902 20903 20904 20905 20906 20907 20908 20909 20910 20911 20912 20913 20914 20915 20916 20917 20918 20919 20920 20921 20922 20923 20924 20925 20926 20927 20928 20929 20930 20931 20932 20933 20934 20935 20936 20937 20938 20939 20940 20941 20942 20943 20944 20945 20946 20947 20948 20949 20950 20951 20952 20953 20954 20955 20956 20957 20958 20959 20960 20961 20962 20963 20964 20965 20966 20967 20968 20969 20970 20971 20972 20973 20974 20975 20976 20977 20978 20979 20980 20981 20982 20983 20984 20985 20986 20987 20988 20989 20990 20991 20992 20993 20994 20995 20996 20997 20998 20999 21000 21001 21002 21003 21004 21005 21006 21007 21008 21009 21010 21011 21012 21013 21014 21015 21016 21017 21018 21019 21020 21021 21022 21023 21024 21025 21026 21027 21028 21029 21030 21031 21032 21033 21034 21035 21036 21037 21038 21039 21040 21041 21042 21043 21044 21045 21046 21047 21048 21049 21050 21051 21052 21053 21054 21055 21056 21057 21058 21059 21060 21061 21062 21063 21064 21065 21066 21067 21068 21069 21070 21071 21072 21073 21074 21075 21076 21077 21078 21079 21080 21081 21082 21083 21084 21085 21086 21087 21088 21089 21090 21091 21092 21093 21094 21095 21096 21097 21098 21099 21100 21101 21102 21103 21104 21105 21106 21107 21108 21109 21110 21111 21112 21113 21114 21115 21116 21117 21118 21119 21120 21121 21122 21123 21124 21125 21126 21127 21128 21129 21130 21131 21132 21133 21134 21135 21136 21137 21138 21139 21140 21141 21142 21143 21144 21145 21146 21147 21148 21149 21150 21151 21152 21153 21154 21155 21156 21157 21158 21159 21160 21161 21162 21163 21164 21165 21166 21167 21168 21169 21170 21171 21172 21173 21174 21175 21176 21177 21178 21179 21180 21181 21182 21183 21184 21185 21186 21187 21188 21189 21190 21191 21192 21193 21194 21195 21196 21197 21198 21199 21200 21201 21202 21203 21204 21205 21206 21207 21208 21209 21210 21211 21212 21213 21214 21215 21216 21217 21218 21219 21220 21221 21222 21223 21224 21225 21226 21227 21228 21229 21230 21231 21232 21233 21234 21235 21236 21237 21238 21239 21240 21241 21242 21243 21244 21245 21246 21247 21248 21249 21250 21251 21252 21253 21254 21255 21256 21257 21258 21259 21260 21261 21262 21263 21264 21265 21266 21267 21268 21269 21270 21271 21272 21273 21274 21275 21276 21277 21278 21279 21280 21281 21282 21283 21284 21285 21286 21287 21288 21289 21290 21291 21292 21293 21294 21295 21296 21297 21298 21299 21300 21301 21302 21303 21304 21305 21306 21307 21308 21309 21310 21311 21312 21313 21314 21315 21316 21317 21318 21319 21320 21321 21322 21323 21324 21325 21326 21327 21328 21329 21330 21331 21332 21333 21334 21335 21336 21337 21338 21339 21340 21341 21342 21343 21344 21345 21346 21347 21348 21349 21350 21351 21352 21353 21354 21355 21356 21357 21358 21359 21360 21361 21362 21363 21364 21365 21366 21367 21368 21369 21370 21371 21372 21373 21374 21375 21376 21377 21378 21379 21380 21381 21382 21383 21384 21385 21386 21387 21388 21389 21390 21391 21392 21393 21394 21395 21396 21397 21398 21399 21400 21401 21402 21403 21404 21405 21406 21407 21408 21409 21410 21411 21412 21413 21414 21415 21416 21417 21418 21419 21420 21421 21422 21423 21424 21425 21426 21427 21428 21429 21430 21431 21432 21433 21434 21435 21436 21437 21438 21439 21440 21441 21442 21443 21444 21445 21446 21447 21448 21449 21450 21451 21452 21453 21454 21455 21456 21457 21458 21459 21460 21461 21462 21463 21464 21465 21466 21467 21468 21469 21470 21471 21472 21473 21474 21475 21476 21477 21478 21479 21480 21481 21482 21483 21484 21485 21486 21487 21488 21489 21490 21491 21492 21493 21494 21495 21496 21497 21498 21499 21500 21501 21502 21503 21504 21505 21506 21507 21508 21509 21510 21511 21512 21513 21514 21515 21516 21517 21518 21519 21520 21521 21522 21523 21524 21525 21526 21527 21528 21529 21530 21531 21532 21533 21534 21535 21536 21537 21538 21539 21540 21541 21542 21543 21544 21545 21546 21547 21548 21549 21550 21551 21552 21553 21554 21555 21556 21557 21558 21559 21560 21561 21562 21563 21564 21565 21566 21567 21568 21569 21570 21571 21572 21573 21574 21575 21576 21577 21578 21579 21580 21581 21582 21583 21584 21585 21586 21587 21588 21589 21590 21591 21592 21593 21594 21595 21596 21597 21598 21599 21600 21601 21602 21603 21604 21605 21606 21607 21608 21609 21610 21611 21612 21613 21614 21615 21616 21617 21618 21619 21620 21621 21622 21623 21624 21625 21626 21627 21628 21629 21630 21631 21632 21633 21634 21635 21636 21637 21638 21639 21640 21641 21642 21643 21644 21645 21646 21647 21648 21649 21650 21651 21652 21653 21654 21655 21656 21657 21658 21659 21660 21661 21662 21663 21664 21665 21666 21667 21668 21669 21670 21671 21672 21673 21674 21675 21676 21677 21678 21679 21680 21681 21682 21683 21684 21685 21686 21687 21688 21689 21690 21691 21692 21693 21694 21695 21696 21697 21698 21699 21700 21701 21702 21703 21704 21705 21706 21707 21708 21709 21710 21711 21712 21713 21714 21715 21716 21717 21718 21719 21720 21721 21722 21723 21724 21725 21726 21727 21728 21729 21730 21731 21732 21733 21734 21735 21736 21737 21738 21739 21740 21741 21742 21743 21744 21745 21746 21747 21748 21749 21750 21751 21752 21753 21754 21755 21756 21757 21758 21759 21760 21761 21762 21763 21764 21765 21766 21767 21768 21769 21770 21771 21772 21773 21774 21775 21776 21777 21778 21779 21780 21781 21782 21783 21784 21785 21786 21787 21788 21789 21790 21791 21792 21793 21794 21795 21796 21797 21798 21799 21800 21801 21802 21803 21804 21805 21806 21807 21808 21809 21810 21811 21812 21813 21814 21815 21816 21817 21818 21819 21820 21821 21822 21823 21824 21825 21826 21827 21828 21829 21830 21831 21832 21833 21834 21835 21836 21837 21838 21839 21840 21841 21842 21843 21844 21845 21846 21847 21848 21849 21850 21851 21852 21853 21854 21855 21856 21857 21858 21859 21860 21861 21862 21863 21864 21865 21866 21867 21868 21869 21870 21871 21872 21873 21874 21875 21876 21877 21878 21879 21880 21881 21882 21883 21884 21885 21886 21887 21888 21889 21890 21891 21892 21893 21894 21895 21896 21897 21898 21899 21900 21901 21902 21903 21904 21905 21906 21907 21908 21909 21910 21911 21912 21913 21914 21915 21916 21917 21918 21919 21920 21921 21922 21923 21924 21925 21926 21927 21928 21929 21930 21931 21932 21933 21934 21935 21936 21937 21938 21939 21940 21941 21942 21943 21944 21945 21946 21947 21948 21949 21950 21951 21952 21953 21954 21955 21956 21957 21958 21959 21960 21961 21962 21963 21964 21965 21966 21967 21968 21969 21970 21971 21972 21973 21974 21975 21976 21977 21978 21979 21980 21981 21982 21983 21984 21985 21986 21987 21988 21989 21990 21991 21992 21993 21994 21995 21996 21997 21998 21999 22000 22001 22002 22003 22004 22005 22006 22007 22008 22009 22010 22011 22012 22013 22014 22015 22016 22017 22018 22019 22020 22021 22022 22023 22024 22025 22026 22027 22028 22029 22030 22031 22032 22033 22034 22035 22036 22037 22038 22039 22040 22041 22042 22043 22044 22045 22046 22047 22048 22049 22050 22051 22052 22053 22054 22055 22056 22057 22058 22059 22060 22061 22062 22063 22064 22065 22066 22067 22068 22069 22070 22071 22072 22073 22074 22075 22076 22077 22078 22079 22080 22081 22082 22083 22084 22085 22086 22087 22088 22089 22090 22091 22092 22093 22094 22095 22096 22097 22098 22099 22100 22101 22102 22103 22104 22105 22106 22107 22108 22109 22110 22111 22112 22113 22114 22115 22116 22117 22118 22119 22120 22121 22122 22123 22124 22125 22126 22127 22128 22129 22130 22131 22132 22133 22134 22135 22136 22137 22138 22139 22140 22141 22142 22143 22144 22145 22146 22147 22148 22149 22150 22151 22152 22153 22154 22155 22156 22157 22158 22159 22160 22161 22162 22163 22164 22165 22166 22167 22168 22169 22170 22171 22172 22173 22174 22175 22176 22177 22178 22179 22180 22181 22182 22183 22184 22185 22186 22187 22188 22189 22190 22191 22192 22193 22194 22195 22196 22197 22198 22199 22200 22201 22202 22203 22204 22205 22206 22207 22208 22209 22210 22211 22212 22213 22214 22215 22216 22217 22218 22219 22220 22221 22222 22223 22224 22225 22226 22227 22228 22229 22230 22231 22232 22233 22234 22235 22236 22237 22238 22239 22240 22241 22242 22243 22244 22245 22246 22247 22248 22249 22250 22251 22252 22253 22254 22255 22256 22257 22258 22259 22260 22261 22262 22263 22264 22265 22266 22267 22268 22269 22270 22271 22272 22273 22274 22275 22276 22277 22278 22279 22280 22281 22282 22283 22284 22285 22286 22287 22288 22289 22290 22291 22292 22293 22294 22295 22296 22297 22298 22299 22300 22301 22302 22303 22304 22305 22306 22307 22308 22309 22310 22311 22312 22313 22314 22315 22316 22317 22318 22319 22320 22321 22322 22323 22324 22325 22326 22327 22328 22329 22330 22331 22332 22333 22334 22335 22336 22337 22338 22339 22340 22341 22342 22343 22344 22345 22346 22347 22348 22349 22350 22351 22352 22353 22354 22355 22356 22357 22358 22359 22360 22361 22362 22363 22364 22365 22366 22367 22368 22369 22370 22371 22372 22373 22374 22375 22376 22377 22378 22379 22380 22381 22382 22383 22384 22385 22386 22387 22388 22389 22390 22391 22392 22393 22394 22395 22396 22397 22398 22399 22400 22401 22402 22403 22404 22405 22406 22407 22408 22409 22410 22411 22412 22413 22414 22415 22416 22417 22418 22419 22420 22421 22422 22423 22424 22425 22426 22427 22428 22429 22430 22431 22432 22433 22434 22435 22436 22437 22438 22439 22440 22441 22442 22443 22444 22445 22446 22447 22448 22449 22450 22451 22452 22453 22454 22455 22456 22457 22458 22459 22460 22461 22462 22463 22464 22465 22466 22467 22468 22469 22470 22471 22472 22473 22474 22475 22476 22477 22478 22479 22480 22481 22482 22483 22484 22485 22486 22487 22488 22489 22490 22491 22492 22493 22494 22495 22496 22497 22498 22499 22500 22501 22502 22503 22504 22505 22506 22507 22508 22509 22510 22511 22512 22513 22514 22515 22516 22517 22518 22519 22520 22521 22522 22523 22524 22525 22526 22527 22528 22529 22530 22531 22532 22533 22534 22535 22536 22537 22538 22539 22540 22541 22542 22543 22544 22545 22546 22547 22548 22549 22550 22551 22552 22553 22554 22555 22556 22557 22558 22559 22560 22561 22562 22563 22564 22565 22566 22567 22568 22569 22570 22571 22572 22573 22574 22575 22576 22577 22578 22579 22580 22581 22582 22583 22584 22585 22586 22587 22588 22589 22590 22591 22592 22593 22594 22595 22596 22597 22598 22599 22600 22601 22602 22603 22604 22605 22606 22607 22608 22609 22610 22611 22612 22613 22614 22615 22616 22617 22618 22619 22620 22621 22622 22623 22624 22625 22626 22627 22628 22629 22630 22631 22632 22633 22634 22635 22636 22637 22638 22639 22640 22641 22642 22643 22644 22645 22646 22647 22648 22649 22650 22651 22652 22653 22654 22655 22656 22657 22658 22659 22660 22661 22662 22663 22664 22665 22666 22667 22668 22669 22670 22671 22672 22673 22674 22675 22676 22677 22678 22679 22680 22681 22682 22683 22684 22685 22686 22687 22688 22689 22690 22691 22692 22693 22694 22695 22696 22697 22698 22699 22700 22701 22702 22703 22704 22705 22706 22707 22708 22709 22710 22711 22712 22713 22714 22715 22716 22717 22718 22719 22720 22721 22722 22723 22724 22725 22726 22727 22728 22729 22730 22731 22732 22733 22734 22735 22736 22737 22738 22739 22740 22741 22742 22743 22744 22745 22746 22747 22748 22749 22750 22751 22752 22753 22754 22755 22756 22757 22758 22759 22760 22761 22762 22763 22764 22765 22766 22767 22768 22769 22770 22771 22772 22773 22774 22775 22776 22777 22778 22779 22780 22781 22782 22783 22784 22785 22786 22787 22788 22789 22790 22791 22792 22793 22794 22795 22796 22797 22798 22799 22800 22801 22802 22803 22804 22805 22806 22807 22808 22809 22810 22811 22812 22813 22814 22815 22816 22817 22818 22819 22820 22821 22822 22823 22824 22825 22826 22827 22828 22829 22830 22831 22832 22833 22834 22835 22836 22837 22838 22839 22840 22841 22842 22843 22844 22845 22846 22847 22848 22849 22850 22851 22852 22853 22854 22855 22856 22857 22858 22859 22860 22861 22862 22863 22864 22865 22866 22867 22868 22869 22870 22871 22872 22873 22874 22875 22876 22877 22878 22879 22880 22881 22882 22883 22884 22885 22886 22887 22888 22889 22890 22891 22892 22893 22894 22895 22896 22897 22898 22899 22900 22901 22902 22903 22904 22905 22906 22907 22908 22909 22910 22911 22912 22913 22914 22915 22916 22917 22918 22919 22920 22921 22922 22923 22924 22925 22926 22927 22928 22929 22930 22931 22932 22933 22934 22935 22936 22937 22938 22939 22940 22941 22942 22943 22944 22945 22946 22947 22948 22949 22950 22951 22952 22953 22954 22955 22956 22957 22958 22959 22960 22961 22962 22963 22964 22965 22966 22967 22968 22969 22970 22971 22972 22973 22974 22975 22976 22977 22978 22979 22980 22981 22982 22983 22984 22985 22986 22987 22988 22989 22990 22991 22992 22993 22994 22995 22996 22997 22998 22999 23000 23001 23002 23003 23004 23005 23006 23007 23008 23009 23010 23011 23012 23013 23014 23015 23016 23017 23018 23019 23020 23021 23022 23023 23024 23025 23026 23027 23028 23029 23030 23031 23032 23033 23034 23035 23036 23037 23038 23039 23040 23041 23042 23043 23044 23045 23046 23047 23048 23049 23050 23051 23052 23053 23054 23055 23056 23057 23058 23059 23060 23061 23062 23063 23064 23065 23066 23067 23068 23069 23070 23071 23072 23073 23074 23075 23076 23077 23078 23079 23080 23081 23082 23083 23084 23085 23086 23087 23088 23089 23090 23091 23092 23093 23094 23095 23096 23097 23098 23099 23100 23101 23102 23103 23104 23105 23106 23107 23108 23109 23110 23111 23112 23113 23114 23115 23116 23117 23118 23119 23120 23121 23122 23123 23124 23125 23126 23127 23128 23129 23130 23131 23132 23133 23134 23135 23136 23137 23138 23139 23140 23141 23142 23143 23144 23145 23146 23147 23148 23149 23150 23151 23152 23153 23154 23155 23156 23157 23158 23159 23160 23161 23162 23163 23164 23165 23166 23167 23168 23169 23170 23171 23172 23173 23174 23175 23176 23177 23178 23179 23180 23181 23182 23183 23184 23185 23186 23187 23188 23189 23190 23191 23192 23193 23194 23195 23196 23197 23198 23199 23200 23201 23202 23203 23204 23205 23206 23207 23208 23209 23210 23211 23212 23213 23214 23215 23216 23217 23218 23219 23220 23221 23222 23223 23224 23225 23226 23227 23228 23229 23230 23231 23232 23233 23234 23235 23236 23237 23238 23239 23240 23241 23242 23243 23244 23245 23246 23247 23248 23249 23250 23251 23252 23253 23254 23255 23256 23257 23258 23259 23260 23261 23262 23263 23264 23265 23266 23267 23268 23269 23270 23271 23272 23273 23274 23275 23276 23277 23278 23279 23280 23281 23282 23283 23284 23285 23286 23287 23288 23289 23290 23291 23292 23293 23294 23295 23296 23297 23298 23299 23300 23301 23302 23303 23304 23305 23306 23307 23308 23309 23310 23311 23312 23313 23314 23315 23316 23317 23318 23319 23320 23321 23322 23323 23324 23325 23326 23327 23328 23329 23330 23331 23332 23333 23334 23335 23336 23337 23338 23339 23340 23341 23342 23343 23344 23345 23346 23347 23348 23349 23350 23351 23352 23353 23354 23355 23356 23357 23358 23359 23360 23361 23362 23363 23364 23365 23366 23367 23368 23369 23370 23371 23372 23373 23374 23375 23376 23377 23378 23379 23380 23381 23382 23383 23384 23385 23386 23387 23388 23389 23390 23391 23392 23393 23394 23395 23396 23397 23398 23399 23400 23401 23402 23403 23404 23405 23406 23407 23408 23409 23410 23411 23412 23413 23414 23415 23416 23417 23418 23419 23420 23421 23422 23423 23424 23425 23426 23427 23428 23429 23430 23431 23432 23433 23434 23435 23436 23437 23438 23439 23440 23441 23442 23443 23444 23445 23446 23447 23448 23449 23450 23451 23452 23453 23454 23455 23456 23457 23458 23459 23460 23461 23462 23463 23464 23465 23466 23467 23468 23469 23470 23471 23472 23473 23474 23475 23476 23477 23478 23479 23480 23481 23482 23483 23484 23485 23486 23487 23488 23489 23490 23491 23492 23493 23494 23495 23496 23497 23498 23499 23500 23501 23502 23503 23504 23505 23506 23507 23508 23509 23510 23511 23512 23513 23514 23515 23516 23517 23518 23519 23520 23521 23522 23523 23524 23525 23526 23527 23528 23529 23530 23531 23532 23533 23534 23535 23536 23537 23538 23539 23540 23541 23542 23543 23544 23545 23546 23547 23548 23549 23550 23551 23552 23553 23554 23555 23556 23557 23558 23559 23560 23561 23562 23563 23564 23565 23566 23567 23568 23569 23570 23571 23572 23573 23574 23575 23576 23577 23578 23579 23580 23581 23582 23583 23584 23585 23586 23587 23588 23589 23590 23591 23592 23593 23594 23595 23596 23597 23598 23599 23600 23601 23602 23603 23604 23605 23606 23607 23608 23609 23610 23611 23612 23613 23614 23615 23616 23617 23618 23619 23620 23621 23622 23623 23624 23625 23626 23627 23628 23629 23630 23631 23632 23633 23634 23635 23636 23637 23638 23639 23640 23641 23642 23643 23644 23645 23646 23647 23648 23649 23650 23651 23652 23653 23654 23655 23656 23657 23658 23659 23660 23661 23662 23663 23664 23665 23666 23667 23668 23669 23670 23671 23672 23673 23674 23675 23676 23677 23678 23679 23680 23681 23682 23683 23684 23685 23686 23687 23688 23689 23690 23691 23692 23693 23694 23695 23696 23697 23698 23699 23700 23701 23702 23703 23704 23705 23706 23707 23708 23709 23710 23711 23712 23713 23714 23715 23716 23717 23718 23719 23720 23721 23722 23723 23724 23725 23726 23727 23728 23729 23730 23731 23732 23733 23734 23735 23736 23737 23738 23739 23740 23741 23742 23743 23744 23745 23746 23747 23748 23749 23750 23751 23752 23753 23754 23755 23756 23757 23758 23759 23760 23761 23762 23763 23764 23765 23766 23767 23768 23769 23770 23771 23772 23773 23774 23775 23776 23777 23778 23779 23780 23781 23782 23783 23784 23785 23786 23787 23788 23789 23790 23791 23792 23793 23794 23795 23796 23797 23798 23799 23800 23801 23802 23803 23804 23805 23806 23807 23808 23809 23810 23811 23812 23813 23814 23815 23816 23817 23818 23819 23820 23821 23822 23823 23824 23825 23826 23827 23828 23829 23830 23831 23832 23833 23834 23835 23836 23837 23838 23839 23840 23841 23842 23843 23844 23845 23846 23847 23848 23849 23850 23851 23852 23853 23854 23855 23856 23857 23858 23859 23860 23861 23862 23863 23864 23865 23866 23867 23868 23869 23870 23871 23872 23873 23874 23875 23876 23877 23878 23879 23880 23881 23882 23883 23884 23885 23886 23887 23888 23889 23890 23891 23892 23893 23894 23895 23896 23897 23898 23899 23900 23901 23902 23903 23904 23905 23906 23907 23908 23909 23910 23911 23912 23913 23914 23915 23916 23917 23918 23919 23920 23921 23922 23923 23924 23925 23926 23927 23928 23929 23930 23931 23932 23933 23934 23935 23936 23937 23938 23939 23940 23941 23942 23943 23944 23945 23946 23947 23948 23949 23950 23951 23952 23953 23954 23955 23956 23957 23958 23959 23960 23961 23962 23963 23964 23965 23966 23967 23968 23969 23970 23971 23972 23973 23974 23975 23976 23977 23978 23979 23980 23981 23982 23983 23984 23985 23986 23987 23988 23989 23990 23991 23992 23993 23994 23995 23996 23997 23998 23999 24000 24001 24002 24003 24004 24005 24006 24007 24008 24009 24010 24011 24012 24013 24014 24015 24016 24017 24018 24019 24020 24021 24022 24023 24024 24025 24026 24027 24028 24029 24030 24031 24032 24033 24034 24035 24036 24037 24038 24039 24040 24041 24042 24043 24044 24045 24046 24047 24048 24049 24050 24051 24052 24053 24054 24055 24056 24057 24058 24059 24060 24061 24062 24063 24064 24065 24066 24067 24068 24069 24070 24071 24072 24073 24074 24075 24076 24077 24078 24079 24080 24081 24082 24083 24084 24085 24086 24087 24088 24089 24090 24091 24092 24093 24094 24095 24096 24097 24098 24099 24100 24101 24102 24103 24104 24105 24106 24107 24108 24109 24110 24111 24112 24113 24114 24115 24116 24117 24118 24119 24120 24121 24122 24123 24124 24125 24126 24127 24128 24129 24130 24131 24132 24133 24134 24135 24136 24137 24138 24139 24140 24141 24142 24143 24144 24145 24146 24147 24148 24149 24150 24151 24152 24153 24154 24155 24156 24157 24158 24159 24160 24161 24162 24163 24164 24165 24166 24167 24168 24169 24170 24171 24172 24173 24174 24175 24176 24177 24178 24179 24180 24181 24182 24183 24184 24185 24186 24187 24188 24189 24190 24191 24192 24193 24194 24195 24196 24197 24198 24199 24200 24201 24202 24203 24204 24205 24206 24207 24208 24209 24210 24211 24212 24213 24214 24215 24216 24217 24218 24219 24220 24221 24222 24223 24224 24225 24226 24227 24228 24229 24230 24231 24232 24233 24234 24235 24236 24237 24238 24239 24240 24241 24242 24243 24244 24245 24246 24247 24248 24249 24250 24251 24252 24253 24254 24255 24256 24257 24258 24259 24260 24261 24262 24263 24264 24265 24266 24267 24268 24269 24270 24271 24272 24273 24274 24275 24276 24277 24278 24279 24280 24281 24282 24283 24284 24285 24286 24287 24288 24289 24290 24291 24292 24293 24294 24295 24296 24297 24298 24299 24300 24301 24302 24303 24304 24305 24306 24307 24308 24309 24310 24311 24312 24313 24314 24315 24316 24317 24318 24319 24320 24321 24322 24323 24324 24325 24326 24327 24328 24329 24330 24331 24332 24333 24334 24335 24336 24337 24338 24339 24340 24341 24342 24343 24344 24345 24346 24347 24348 24349 24350 24351 24352 24353 24354 24355 24356 24357 24358 24359 24360 24361 24362 24363 24364 24365 24366 24367 24368 24369 24370 24371 24372 24373 24374 24375 24376 24377 24378 24379 24380 24381 24382 24383 24384 24385 24386 24387 24388 24389 24390 24391 24392 24393 24394 24395 24396 24397 24398 24399 24400 24401 24402 24403 24404 24405 24406 24407 24408 24409 24410 24411 24412 24413 24414 24415 24416 24417 24418 24419 24420 24421 24422 24423 24424 24425 24426 24427 24428 24429 24430 24431 24432 24433 24434 24435 24436 24437 24438 24439 24440 24441 24442 24443 24444 24445 24446 24447 24448 24449 24450 24451 24452 24453 24454 24455 24456 24457 24458 24459 24460 24461 24462 24463 24464 24465 24466 24467 24468 24469 24470 24471 24472 24473 24474 24475 24476 24477 24478 24479 24480 24481 24482 24483 24484 24485 24486 24487 24488 24489 24490 24491 24492 24493 24494 24495 24496 24497 24498 24499 24500 24501 24502 24503 24504 24505 24506 24507 24508 24509 24510 24511 24512 24513 24514 24515 24516 24517 24518 24519 24520 24521 24522 24523 24524 24525 24526 24527 24528 24529 24530 24531 24532 24533 24534 24535 24536 24537 24538 24539 24540 24541 24542 24543 24544 24545 24546 24547 24548 24549 24550 24551 24552 24553 24554 24555 24556 24557 24558 24559 24560 24561 24562 24563 24564 24565 24566 24567 24568 24569 24570 24571 24572 24573 24574 24575 24576 24577 24578 24579 24580 24581 24582 24583 24584 24585 24586 24587 24588 24589 24590 24591 24592 24593 24594 24595 24596 24597 24598 24599 24600 24601 24602 24603 24604 24605 24606 24607 24608 24609 24610 24611 24612 24613 24614 24615 24616 24617 24618 24619 24620 24621 24622 24623 24624 24625 24626 24627 24628 24629 24630 24631 24632 24633 24634 24635 24636 24637 24638 24639 24640 24641 24642 24643 24644 24645 24646 24647 24648 24649 24650 24651 24652 24653 24654 24655 24656 24657 24658 24659 24660 24661 24662 24663 24664 24665 24666 24667 24668 24669 24670 24671 24672 24673 24674 24675 24676 24677 24678 24679 24680 24681 24682 24683 24684 24685 24686 24687 24688 24689 24690 24691 24692 24693 24694 24695 24696 24697 24698 24699 24700 24701 24702 24703 24704 24705 24706 24707 24708 24709 24710 24711 24712 24713 24714 24715 24716 24717 24718 24719 24720 24721 24722 24723 24724 24725 24726 24727 24728 24729 24730 24731 24732 24733 24734 24735 24736 24737 24738 24739 24740 24741 24742 24743 24744 24745 24746 24747 24748 24749 24750 24751 24752 24753 24754 24755 24756 24757 24758 24759 24760 24761 24762 24763 24764 24765 24766 24767 24768 24769 24770 24771 24772 24773 24774 24775 24776 24777 24778 24779 24780 24781 24782 24783 24784 24785 24786 24787 24788 24789 24790 24791 24792 24793 24794 24795 24796 24797 24798 24799 24800 24801 24802 24803 24804 24805 24806 24807 24808 24809 24810 24811 24812 24813 24814 24815 24816 24817 24818 24819 24820 24821 24822 24823 24824 24825 24826 24827 24828 24829 24830 24831 24832 24833 24834 24835 24836 24837 24838 24839 24840 24841 24842 24843 24844 24845 24846 24847 24848 24849 24850 24851 24852 24853 24854 24855 24856 24857 24858 24859 24860 24861 24862 24863 24864 24865 24866 24867 24868 24869 24870 24871 24872 24873 24874 24875 24876 24877 24878 24879 24880 24881 24882 24883 24884 24885 24886 24887 24888 24889 24890 24891 24892 24893 24894 24895 24896 24897 24898 24899 24900 24901 24902 24903 24904 24905 24906 24907 24908 24909 24910 24911 24912 24913 24914 24915 24916 24917 24918 24919 24920 24921 24922 24923 24924 24925 24926 24927 24928 24929 24930 24931 24932 24933 24934 24935 24936 24937 24938 24939 24940 24941 24942 24943 24944 24945 24946 24947 24948 24949 24950 24951 24952 24953 24954 24955 24956 24957 24958 24959 24960 24961 24962 24963 24964 24965 24966 24967 24968 24969 24970 24971 24972 24973 24974 24975 24976 24977 24978 24979 24980 24981 24982 24983 24984 24985 24986 24987 24988 24989 24990 24991 24992 24993 24994 24995 24996 24997 24998 24999 25000 25001 25002 25003 25004 25005 25006 25007 25008 25009 25010 25011 25012 25013 25014 25015 25016 25017 25018 25019 25020 25021 25022 25023 25024 25025 25026 25027 25028 25029 25030 25031 25032 25033 25034 25035 25036 25037 25038 25039 25040 25041 25042 25043 25044 25045 25046 25047 25048 25049 25050 25051 25052 25053 25054 25055 25056 25057 25058 25059 25060 25061 25062 25063 25064 25065 25066 25067 25068 25069 25070 25071 25072 25073 25074 25075 25076 25077 25078 25079 25080 25081 25082 25083 25084 25085 25086 25087 25088 25089 25090 25091 25092 25093 25094 25095 25096 25097 25098 25099 25100 25101 25102 25103 25104 25105 25106 25107 25108 25109 25110 25111 25112 25113 25114 25115 25116 25117 25118 25119 25120 25121 25122 25123 25124 25125 25126 25127 25128 25129 25130 25131 25132 25133 25134 25135 25136 25137 25138 25139 25140 25141 25142 25143 25144 25145 25146 25147 25148 25149 25150 25151 25152 25153 25154 25155 25156 25157 25158 25159 25160 25161 25162 25163 25164 25165 25166 25167 25168 25169 25170 25171 25172 25173 25174 25175 25176 25177 25178 25179 25180 25181 25182 25183 25184 25185 25186 25187 25188 25189 25190 25191 25192 25193 25194 25195 25196 25197 25198 25199 25200 25201 25202 25203 25204 25205 25206 25207 25208 25209 25210 25211 25212 25213 25214 25215 25216 25217 25218 25219 25220 25221 25222 25223 25224 25225 25226 25227 25228 25229 25230 25231 25232 25233 25234 25235 25236 25237 25238 25239 25240 25241 25242 25243 25244 25245 25246 25247 25248 25249 25250 25251 25252 25253 25254 25255 25256 25257 25258 25259 25260 25261 25262 25263 25264 25265 25266 25267 25268 25269 25270 25271 25272 25273 25274 25275 25276 25277 25278 25279 25280 25281 25282 25283 25284 25285 25286 25287 25288 25289 25290 25291 25292 25293 25294 25295 25296 25297 25298 25299 25300 25301 25302 25303 25304 25305 25306 25307 25308 25309 25310 25311 25312 25313 25314 25315 25316 25317 25318 25319 25320 25321 25322 25323 25324 25325 25326 25327 25328 25329 25330 25331 25332 25333 25334 25335 25336 25337 25338 25339 25340 25341 25342 25343 25344 25345 25346 25347 25348 25349 25350 25351 25352 25353 25354 25355 25356 25357 25358 25359 25360 25361 25362 25363 25364 25365 25366 25367 25368 25369 25370 25371 25372 25373 25374 25375 25376 25377 25378 25379 25380 25381 25382 25383 25384 25385 25386 25387 25388 25389 25390 25391 25392 25393 25394 25395 25396 25397 25398 25399 25400 25401 25402 25403 25404 25405 25406 25407 25408 25409 25410 25411 25412 25413 25414 25415 25416 25417 25418 25419 25420 25421 25422 25423 25424 25425 25426 25427 25428 25429 25430 25431 25432 25433 25434 25435 25436 25437 25438 25439 25440 25441 25442 25443 25444 25445 25446 25447 25448 25449 25450 25451 25452 25453 25454 25455 25456 25457 25458 25459 25460 25461 25462 25463 25464 25465 25466 25467 25468 25469 25470 25471 25472 25473 25474 25475 25476 25477 25478 25479 25480 25481 25482 25483 25484 25485 25486 25487 25488 25489 25490 25491 25492 25493 25494 25495 25496 25497 25498 25499 25500 25501 25502 25503 25504 25505 25506 25507 25508 25509 25510 25511 25512 25513 25514 25515 25516 25517 25518 25519 25520 25521 25522 25523 25524 25525 25526 25527 25528 25529 25530 25531 25532 25533 25534 25535 25536 25537 25538 25539 25540 25541 25542 25543 25544 25545 25546 25547 25548 25549 25550 25551 25552 25553 25554 25555 25556 25557 25558 25559 25560 25561 25562 25563 25564 25565 25566 25567 25568 25569 25570 25571 25572 25573 25574 25575 25576 25577 25578 25579 25580 25581 25582 25583 25584 25585 25586 25587 25588 25589 25590 25591 25592 25593 25594 25595 25596 25597 25598 25599 25600 25601 25602 25603 25604 25605 25606 25607 25608 25609 25610 25611 25612 25613 25614 25615 25616 25617 25618 25619 25620 25621 25622 25623 25624 25625 25626 25627 25628 25629 25630 25631 25632 25633 25634 25635 25636 25637 25638 25639 25640 25641 25642 25643 25644 25645 25646 25647 25648 25649 25650 25651 25652 25653 25654 25655 25656 25657 25658 25659 25660 25661 25662 25663 25664 25665 25666 25667 25668 25669 25670 25671 25672 25673 25674 25675 25676 25677 25678 25679 25680 25681 25682 25683 25684 25685 25686 25687 25688 25689 25690 25691 25692 25693 25694 25695 25696 25697 25698 25699 25700 25701 25702 25703 25704 25705 25706 25707 25708 25709 25710 25711 25712 25713 25714 25715 25716 25717 25718 25719 25720 25721 25722 25723 25724 25725 25726 25727 25728 25729 25730 25731 25732 25733 25734 25735 25736 25737 25738 25739 25740 25741 25742 25743 25744 25745 25746 25747 25748 25749 25750 25751 25752 25753 25754 25755 25756 25757 25758 25759 25760 25761 25762 25763 25764 25765 25766 25767 25768 25769 25770 25771 25772 25773 25774 25775 25776 25777 25778 25779 25780 25781 25782 25783 25784 25785 25786 25787 25788 25789 25790 25791 25792 25793 25794 25795 25796 25797 25798 25799 25800 25801 25802 25803 25804 25805 25806 25807 25808 25809 25810 25811 25812 25813 25814 25815 25816 25817 25818 25819 25820 25821 25822 25823 25824 25825 25826 25827 25828 25829 25830 25831 25832 25833 25834 25835 25836 25837 25838 25839 25840 25841 25842 25843 25844 25845 25846 25847 25848 25849 25850 25851 25852 25853 25854 25855 25856 25857 25858 25859 25860 25861 25862 25863 25864 25865 25866 25867 25868 25869 25870 25871 25872 25873 25874 25875 25876 25877 25878 25879 25880 25881 25882 25883 25884 25885 25886 25887 25888 25889 25890 25891 25892 25893 25894 25895 25896 25897 25898 25899 25900 25901 25902 25903 25904 25905 25906 25907 25908 25909 25910 25911 25912 25913 25914 25915 25916 25917 25918 25919 25920 25921 25922 25923 25924 25925 25926 25927 25928 25929 25930 25931 25932 25933 25934 25935 25936 25937 25938 25939 25940 25941 25942 25943 25944 25945 25946 25947 25948 25949 25950 25951 25952 25953 25954 25955 25956 25957 25958 25959 25960 25961 25962 25963 25964 25965 25966 25967 25968 25969 25970 25971 25972 25973 25974 25975 25976 25977 25978 25979 25980 25981 25982 25983 25984 25985 25986 25987 25988 25989 25990 25991 25992 25993 25994 25995 25996 25997 25998 25999 26000 26001 26002 26003 26004 26005 26006 26007 26008 26009 26010 26011 26012 26013 26014 26015 26016 26017 26018 26019 26020 26021 26022 26023 26024 26025 26026 26027 26028 26029 26030 26031 26032 26033 26034 26035 26036 26037 26038 26039 26040 26041 26042 26043 26044 26045 26046 26047 26048 26049 26050 26051 26052 26053 26054 26055 26056 26057 26058 26059 26060 26061 26062 26063 26064 26065 26066 26067 26068 26069 26070 26071 26072 26073 26074 26075 26076 26077 26078 26079 26080 26081 26082 26083 26084 26085 26086 26087 26088 26089 26090 26091 26092 26093 26094 26095 26096 26097 26098 26099 26100 26101 26102 26103 26104 26105 26106 26107 26108 26109 26110 26111 26112 26113 26114 26115 26116 26117 26118 26119 26120 26121 26122 26123 26124 26125 26126 26127 26128 26129 26130 26131 26132 26133 26134 26135 26136 26137 26138 26139 26140 26141 26142 26143 26144 26145 26146 26147 26148 26149 26150 26151 26152 26153 26154 26155 26156 26157 26158 26159 26160 26161 26162 26163 26164 26165 26166 26167 26168 26169 26170 26171 26172 26173 26174 26175 26176 26177 26178 26179 26180 26181 26182 26183 26184 26185 26186 26187 26188 26189 26190 26191 26192 26193 26194 26195 26196 26197 26198 26199 26200 26201 26202 26203 26204 26205 26206 26207 26208 26209 26210 26211 26212 26213 26214 26215 26216 26217 26218 26219 26220 26221 26222 26223 26224 26225 26226 26227 26228 26229 26230 26231 26232 26233 26234 26235 26236 26237 26238 26239 26240 26241 26242 26243 26244 26245 26246 26247 26248 26249 26250 26251 26252 26253 26254 26255 26256 26257 26258 26259 26260 26261 26262 26263 26264 26265 26266 26267 26268 26269 26270 26271 26272 26273 26274 26275 26276 26277 26278 26279 26280 26281 26282 26283 26284 26285 26286 26287 26288 26289 26290 26291 26292 26293 26294 26295 26296 26297 26298 26299 26300 26301 26302 26303 26304 26305 26306 26307 26308 26309 26310 26311 26312 26313 26314 26315 26316 26317 26318 26319 26320 26321 26322 26323 26324 26325 26326 26327 26328 26329 26330 26331 26332 26333 26334 26335 26336 26337 26338 26339 26340 26341 26342 26343 26344 26345 26346 26347 26348 26349 26350 26351 26352 26353 26354 26355 26356 26357 26358 26359 26360 26361 26362 26363 26364 26365 26366 26367 26368 26369 26370 26371 26372 26373 26374 26375 26376 26377 26378 26379 26380 26381 26382 26383 26384 26385 26386 26387 26388 26389 26390 26391 26392 26393 26394 26395 26396 26397 26398 26399 26400 26401 26402 26403 26404 26405 26406 26407 26408 26409 26410 26411 26412 26413 26414 26415 26416 26417 26418 26419 26420 26421 26422 26423 26424 26425 26426 26427 26428 26429 26430 26431 26432 26433 26434 26435 26436 26437 26438 26439 26440 26441 26442 26443 26444 26445 26446 26447 26448 26449 26450 26451 26452 26453 26454 26455 26456 26457 26458 26459 26460 26461 26462 26463 26464 26465 26466 26467 26468 26469 26470 26471 26472 26473 26474 26475 26476 26477 26478 26479 26480 26481 26482 26483 26484 26485 26486 26487 26488 26489 26490 26491 26492 26493 26494 26495 26496 26497 26498 26499 26500 26501 26502 26503 26504 26505 26506 26507 26508 26509 26510 26511 26512 26513 26514 26515 26516 26517 26518 26519 26520 26521 26522 26523 26524 26525 26526 26527 26528 26529 26530 26531 26532 26533 26534 26535 26536 26537 26538 26539 26540 26541 26542 26543 26544 26545 26546 26547 26548 26549 26550 26551 26552 26553 26554 26555 26556 26557 26558 26559 26560 26561 26562 26563 26564 26565 26566 26567 26568 26569 26570 26571 26572 26573 26574 26575 26576 26577 26578 26579 26580 26581 26582 26583 26584 26585 26586 26587 26588 26589 26590 26591 26592 26593 26594 26595 26596 26597 26598 26599 26600 26601 26602 26603 26604 26605 26606 26607 26608 26609 26610 26611 26612 26613 26614 26615 26616 26617 26618 26619 26620 26621 26622 26623 26624 26625 26626 26627 26628 26629 26630 26631 26632 26633 26634 26635 26636 26637 26638 26639 26640 26641 26642 26643 26644 26645 26646 26647 26648 26649 26650 26651 26652 26653 26654 26655 26656 26657 26658 26659 26660 26661 26662 26663 26664 26665 26666 26667 26668 26669 26670 26671 26672 26673 26674 26675 26676 26677 26678 26679 26680 26681 26682 26683 26684 26685 26686 26687 26688 26689 26690 26691 26692 26693 26694 26695 26696 26697 26698 26699 26700 26701 26702 26703 26704 26705 26706 26707 26708 26709 26710 26711 26712 26713 26714 26715 26716 26717 26718 26719 26720 26721 26722 26723 26724 26725 26726 26727 26728 26729 26730 26731 26732 26733 26734 26735 26736 26737 26738 26739 26740 26741 26742 26743 26744 26745 26746 26747 26748 26749 26750 26751 26752 26753 26754 26755 26756 26757 26758 26759 26760 26761 26762 26763 26764 26765 26766 26767 26768 26769 26770 26771 26772 26773 26774 26775 26776 26777 26778 26779 26780 26781 26782 26783 26784 26785 26786 26787 26788 26789 26790 26791 26792 26793 26794 26795 26796 26797 26798 26799 26800 26801 26802 26803 26804 26805 26806 26807 26808 26809 26810 26811 26812 26813 26814 26815 26816 26817 26818 26819 26820 26821 26822 26823 26824 26825 26826 26827 26828 26829 26830 26831 26832 26833 26834 26835 26836 26837 26838 26839 26840 26841 26842 26843 26844 26845 26846 26847 26848 26849 26850 26851 26852 26853 26854 26855 26856 26857 26858 26859 26860 26861 26862 26863 26864 26865 26866 26867 26868 26869 26870 26871 26872 26873 26874 26875 26876 26877 26878 26879 26880 26881 26882 26883 26884 26885 26886 26887 26888 26889 26890 26891 26892 26893 26894 26895 26896 26897 26898 26899 26900 26901 26902 26903 26904 26905 26906 26907 26908 26909 26910 26911 26912 26913 26914 26915 26916 26917 26918 26919 26920 26921 26922 26923 26924 26925 26926 26927 26928 26929 26930 26931 26932 26933 26934 26935 26936 26937 26938 26939 26940 26941 26942 26943 26944 26945 26946 26947 26948 26949 26950 26951 26952 26953 26954 26955 26956 26957 26958 26959 26960 26961 26962 26963 26964 26965 26966 26967 26968 26969 26970 26971 26972 26973 26974 26975 26976 26977 26978 26979 26980 26981 26982 26983 26984 26985 26986 26987 26988 26989 26990 26991 26992 26993 26994 26995 26996 26997 26998 26999 27000 27001 27002 27003 27004 27005 27006 27007 27008 27009 27010 27011 27012 27013 27014 27015 27016 27017 27018 27019 27020 27021 27022 27023 27024 27025 27026 27027 27028 27029 27030 27031 27032 27033 27034 27035 27036 27037 27038 27039 27040 27041 27042 27043 27044 27045 27046 27047 27048 27049 27050 27051 27052 27053 27054 27055 27056 27057 27058 27059 27060 27061 27062 27063 27064 27065 27066 27067 27068 27069 27070 27071 27072 27073 27074 27075 27076 27077 27078 27079 27080 27081 27082 27083 27084 27085 27086 27087 27088 27089 27090 27091 27092 27093 27094 27095 27096 27097 27098 27099 27100 27101 27102 27103 27104 27105 27106 27107 27108 27109 27110 27111 27112 27113 27114 27115 27116 27117 27118 27119 27120 27121 27122 27123 27124 27125 27126 27127 27128 27129 27130 27131 27132 27133 27134 27135 27136 27137 27138 27139 27140 27141 27142 27143 27144 27145 27146 27147 27148 27149 27150 27151 27152 27153 27154 27155 27156 27157 27158 27159 27160 27161 27162 27163 27164 27165 27166 27167 27168 27169 27170 27171 27172 27173 27174 27175 27176 27177 27178 27179 27180 27181 27182 27183 27184 27185 27186 27187 27188 27189 27190 27191 27192 27193 27194 27195 27196 27197 27198 27199 27200 27201 27202 27203 27204 27205 27206 27207 27208 27209 27210 27211 27212 27213 27214 27215 27216 27217 27218 27219 27220 27221 27222 27223 27224 27225 27226 27227 27228 27229 27230 27231 27232 27233 27234 27235 27236 27237 27238 27239 27240 27241 27242 27243 27244 27245 27246 27247 27248 27249 27250 27251 27252 27253 27254 27255 27256 27257 27258 27259 27260 27261 27262 27263 27264 27265 27266 27267 27268 27269 27270 27271 27272 27273 27274 27275 27276 27277 27278 27279 27280 27281 27282 27283 27284 27285 27286 27287 27288 27289 27290 27291 27292 27293 27294 27295 27296 27297 27298 27299 27300 27301 27302 27303 27304 27305 27306 27307 27308 27309 27310 27311 27312 27313 27314 27315 27316 27317 27318 27319 27320 27321 27322 27323 27324 27325 27326 27327 27328 27329 27330 27331 27332 27333 27334 27335 27336 27337 27338 27339 27340 27341 27342 27343 27344 27345 27346 27347 27348 27349 27350 27351 27352 27353 27354 27355 27356 27357 27358 27359 27360 27361 27362 27363 27364 27365 27366 27367 27368 27369 27370 27371 27372 27373 27374 27375 27376 27377 27378 27379 27380 27381 27382 27383 27384 27385 27386 27387 27388 27389 27390 27391 27392 27393 27394 27395 27396 27397 27398 27399 27400 27401 27402 27403 27404 27405 27406 27407 27408 27409 27410 27411 27412 27413 27414 27415 27416 27417 27418 27419 27420 27421 27422 27423 27424 27425 27426 27427 27428 27429 27430 27431 27432 27433 27434 27435 27436 27437 27438 27439 27440 27441 27442 27443 27444 27445 27446 27447 27448 27449 27450 27451 27452 27453 27454 27455 27456 27457 27458 27459 27460 27461 27462 27463 27464 27465 27466 27467 27468 27469 27470 27471 27472 27473 27474 27475 27476 27477 27478 27479 27480 27481 27482 27483 27484 27485 27486 27487 27488 27489 27490 27491 27492 27493 27494 27495 27496 27497 27498 27499 27500 27501 27502 27503 27504 27505 27506 27507 27508 27509 27510 27511 27512 27513 27514 27515 27516 27517 27518 27519 27520 27521 27522 27523 27524 27525 27526 27527 27528 27529 27530 27531 27532 27533 27534 27535 27536 27537 27538 27539 27540 27541 27542 27543 27544 27545 27546 27547 27548 27549 27550 27551 27552 27553 27554 27555 27556 27557 27558 27559 27560 27561 27562 27563 27564 27565 27566 27567 27568 27569 27570 27571 27572 27573 27574 27575 27576 27577 27578 27579 27580 27581 27582 27583 27584 27585 27586 27587 27588 27589 27590 27591 27592 27593 27594 27595 27596 27597 27598 27599 27600 27601 27602 27603 27604 27605 27606 27607 27608 27609 27610 27611 27612 27613 27614 27615 27616 27617 27618 27619 27620 27621 27622 27623 27624 27625 27626 27627 27628 27629 27630 27631 27632 27633 27634 27635 27636 27637 27638 27639 27640 27641 27642 27643 27644 27645 27646 27647 27648 27649 27650 27651 27652 27653 27654 27655 27656 27657 27658 27659 27660 27661 27662 27663 27664 27665 27666 27667 27668 27669 27670 27671 27672 27673 27674 27675 27676 27677 27678 27679 27680 27681 27682 27683 27684 27685 27686 27687 27688 27689 27690 27691 27692 27693 27694 27695 27696 27697 27698 27699 27700 27701 27702 27703 27704 27705 27706 27707 27708 27709 27710 27711 27712 27713 27714 27715 27716 27717 27718 27719 27720 27721 27722 27723 27724 27725 27726 27727 27728 27729 27730 27731 27732 27733 27734 27735 27736 27737 27738 27739 27740 27741 27742 27743 27744 27745 27746 27747 27748 27749 27750 27751 27752 27753 27754 27755 27756 27757 27758 27759 27760 27761 27762 27763 27764 27765 27766 27767 27768 27769 27770 27771 27772 27773 27774 27775 27776 27777 27778 27779 27780 27781 27782 27783 27784 27785 27786 27787 27788 27789 27790 27791 27792 27793 27794 27795 27796 27797 27798 27799 27800 27801 27802 27803 27804 27805 27806 27807 27808 27809 27810 27811 27812 27813 27814 27815 27816 27817 27818 27819 27820 27821 27822 27823 27824 27825 27826 27827 27828 27829 27830 27831 27832 27833 27834 27835 27836 27837 27838 27839 27840 27841 27842 27843 27844 27845 27846 27847 27848 27849 27850 27851 27852 27853 27854 27855 27856 27857 27858 27859 27860 27861 27862 27863 27864 27865 27866 27867 27868 27869 27870 27871 27872 27873 27874 27875 27876 27877 27878 27879 27880 27881 27882 27883 27884 27885 27886 27887 27888 27889 27890 27891 27892 27893 27894 27895 27896 27897 27898 27899 27900 27901 27902 27903 27904 27905 27906 27907 27908 27909 27910 27911 27912 27913 27914 27915 27916 27917 27918 27919 27920 27921 27922 27923 27924 27925 27926 27927 27928 27929 27930 27931 27932 27933 27934 27935 27936 27937 27938 27939 27940 27941 27942 27943 27944 27945 27946 27947 27948 27949 27950 27951 27952 27953 27954 27955 27956 27957 27958 27959 27960 27961 27962 27963 27964 27965 27966 27967 27968 27969 27970 27971 27972 27973 27974 27975 27976 27977 27978 27979 27980 27981 27982 27983 27984 27985 27986 27987 27988 27989 27990 27991 27992 27993 27994 27995 27996 27997 27998 27999 28000 28001 28002 28003 28004 28005 28006 28007 28008 28009 28010 28011 28012 28013 28014 28015 28016 28017 28018 28019 28020 28021 28022 28023 28024 28025 28026 28027 28028 28029 28030 28031 28032 28033 28034 28035 28036 28037 28038 28039 28040 28041 28042 28043 28044 28045 28046 28047 28048 28049 28050 28051 28052 28053 28054 28055 28056 28057 28058 28059 28060 28061 28062 28063 28064 28065 28066 28067 28068 28069 28070 28071 28072 28073 28074 28075 28076 28077 28078 28079 28080 28081 28082 28083 28084 28085 28086 28087 28088 28089 28090 28091 28092 28093 28094 28095 28096 28097 28098 28099 28100 28101 28102 28103 28104 28105 28106 28107 28108 28109 28110 28111 28112 28113 28114 28115 28116 28117 28118 28119 28120 28121 28122 28123 28124 28125 28126 28127 28128 28129 28130 28131 28132 28133 28134 28135 28136 28137 28138 28139 28140 28141 28142 28143 28144 28145 28146 28147 28148 28149 28150 28151 28152 28153 28154 28155 28156 28157 28158 28159 28160 28161 28162 28163 28164 28165 28166 28167 28168 28169 28170 28171 28172 28173 28174 28175 28176 28177 28178 28179 28180 28181 28182 28183 28184 28185 28186 28187 28188 28189 28190 28191 28192 28193 28194 28195 28196 28197 28198 28199 28200 28201 28202 28203 28204 28205 28206 28207 28208 28209 28210 28211 28212 28213 28214 28215 28216 28217 28218 28219 28220 28221 28222 28223 28224 28225 28226 28227 28228 28229 28230 28231 28232 28233 28234 28235 28236 28237 28238 28239 28240 28241 28242 28243 28244 28245 28246 28247 28248 28249 28250 28251 28252 28253 28254 28255 28256 28257 28258 28259 28260 28261 28262 28263 28264 28265 28266 28267 28268 28269 28270 28271 28272 28273 28274 28275 28276 28277 28278 28279 28280 28281 28282 28283 28284 28285 28286 28287 28288 28289 28290 28291 28292 28293 28294 28295 28296 28297 28298 28299 28300 28301 28302 28303 28304 28305 28306 28307 28308 28309 28310 28311 28312 28313 28314 28315 28316 28317 28318 28319 28320 28321 28322 28323 28324 28325 28326 28327 28328 28329 28330 28331 28332 28333 28334 28335 28336 28337 28338 28339 28340 28341 28342 28343 28344 28345 28346 28347 28348 28349 28350 28351 28352 28353 28354 28355 28356 28357 28358 28359 28360 28361 28362 28363 28364 28365 28366 28367 28368 28369 28370 28371 28372 28373 28374 28375 28376 28377 28378 28379 28380 28381 28382 28383 28384 28385 28386 28387 28388 28389 28390 28391 28392 28393 28394 28395 28396 28397 28398 28399 28400 28401 28402 28403 28404 28405 28406 28407 28408 28409 28410 28411 28412 28413 28414 28415 28416 28417 28418 28419 28420 28421 28422 28423 28424 28425 28426 28427 28428 28429 28430 28431 28432 28433 28434 28435 28436 28437 28438 28439 28440 28441 28442 28443 28444 28445 28446 28447 28448 28449 28450 28451 28452 28453 28454 28455 28456 28457 28458 28459 28460 28461 28462 28463 28464 28465 28466 28467 28468 28469 28470 28471 28472 28473 28474 28475 28476 28477 28478 28479 28480 28481 28482 28483 28484 28485 28486 28487 28488 28489 28490 28491 28492 28493 28494 28495 28496 28497 28498 28499 28500 28501 28502 28503 28504 28505 28506 28507 28508 28509 28510 28511 28512 28513 28514 28515 28516 28517 28518 28519 28520 28521 28522 28523 28524 28525 28526 28527 28528 28529 28530 28531 28532 28533 28534 28535 28536 28537 28538 28539 28540 28541 28542 28543 28544 28545 28546 28547 28548 28549 28550 28551 28552 28553 28554 28555 28556 28557 28558 28559 28560 28561 28562 28563 28564 28565 28566 28567 28568 28569 28570 28571 28572 28573 28574 28575 28576 28577 28578 28579 28580 28581 28582 28583 28584 28585 28586 28587 28588 28589 28590 28591 28592 28593 28594 28595 28596 28597 28598 28599 28600 28601 28602 28603 28604 28605 28606 28607 28608 28609 28610 28611 28612 28613 28614 28615 28616 28617 28618 28619 28620 28621 28622 28623 28624 28625 28626 28627 28628 28629 28630 28631 28632 28633 28634 28635 28636 28637 28638 28639 28640 28641 28642 28643 28644 28645 28646 28647 28648 28649 28650 28651 28652 28653 28654 28655 28656 28657 28658 28659 28660 28661 28662 28663 28664 28665 28666 28667 28668 28669 28670 28671 28672 28673 28674 28675 28676 28677 28678 28679 28680 28681 28682 28683 28684 28685 28686 28687 28688 28689 28690 28691 28692 28693 28694 28695 28696 28697 28698 28699 28700 28701 28702 28703 28704 28705 28706 28707 28708 28709 28710 28711 28712 28713 28714 28715 28716 28717 28718 28719 28720 28721 28722 28723 28724 28725 28726 28727 28728 28729 28730 28731 28732 28733 28734 28735 28736 28737 28738 28739 28740 28741 28742 28743 28744 28745 28746 28747 28748 28749 28750 28751 28752 28753 28754 28755 28756 28757 28758 28759 28760 28761 28762 28763 28764 28765 28766 28767 28768 28769 28770 28771 28772 28773 28774 28775 28776 28777 28778 28779 28780 28781 28782 28783 28784 28785 28786 28787 28788 28789 28790 28791 28792 28793 28794 28795 28796 28797 28798 28799 28800 28801 28802 28803 28804 28805 28806 28807 28808 28809 28810 28811 28812 28813 28814 28815 28816 28817 28818 28819 28820 28821 28822 28823 28824 28825 28826 28827 28828 28829 28830 28831 28832 28833 28834 28835 28836 28837 28838 28839 28840 28841 28842 28843 28844 28845 28846 28847 28848 28849 28850 28851 28852 28853 28854 28855 28856 28857 28858 28859 28860 28861 28862 28863 28864 28865 28866 28867 28868 28869 28870 28871 28872 28873 28874 28875 28876 28877 28878 28879 28880 28881 28882 28883 28884 28885 28886 28887 28888 28889 28890 28891 28892 28893 28894 28895 28896 28897 28898 28899 28900 28901 28902 28903 28904 28905 28906 28907 28908 28909 28910 28911 28912 28913 28914 28915 28916 28917 28918 28919 28920 28921 28922 28923 28924 28925 28926 28927 28928 28929 28930 28931 28932 28933 28934 28935 28936 28937 28938 28939 28940 28941 28942 28943 28944 28945 28946 28947 28948 28949 28950 28951 28952 28953 28954 28955 28956 28957 28958 28959 28960 28961 28962 28963 28964 28965 28966 28967 28968 28969 28970 28971 28972 28973 28974 28975 28976 28977 28978 28979 28980 28981 28982 28983 28984 28985 28986 28987 28988 28989 28990 28991 28992 28993 28994 28995 28996 28997 28998 28999 29000 29001 29002 29003 29004 29005 29006 29007 29008 29009 29010 29011 29012 29013 29014 29015 29016 29017 29018 29019 29020 29021 29022 29023 29024 29025 29026 29027 29028 29029 29030 29031 29032 29033 29034 29035 29036 29037 29038 29039 29040 29041 29042 29043 29044 29045 29046 29047 29048 29049 29050 29051 29052 29053 29054 29055 29056 29057 29058 29059 29060 29061 29062 29063 29064 29065 29066 29067 29068 29069 29070 29071 29072 29073 29074 29075 29076 29077 29078 29079 29080 29081 29082 29083 29084 29085 29086 29087 29088 29089 29090 29091 29092 29093 29094 29095 29096 29097 29098 29099 29100 29101 29102 29103 29104 29105 29106 29107 29108 29109 29110 29111 29112 29113 29114 29115 29116 29117 29118 29119 29120 29121 29122 29123 29124 29125 29126 29127 29128 29129 29130 29131 29132 29133 29134 29135 29136 29137 29138 29139 29140 29141 29142 29143 29144 29145 29146 29147 29148 29149 29150 29151 29152 29153 29154 29155 29156 29157 29158 29159 29160 29161 29162 29163 29164 29165 29166 29167 29168 29169 29170 29171 29172 29173 29174 29175 29176 29177 29178 29179 29180 29181 29182 29183 29184 29185 29186 29187 29188 29189 29190 29191 29192 29193 29194 29195 29196 29197 29198 29199 29200 29201 29202 29203 29204 29205 29206 29207 29208 29209 29210 29211 29212 29213 29214 29215 29216 29217 29218 29219 29220 29221 29222 29223 29224 29225 29226 29227 29228 29229 29230 29231 29232 29233 29234 29235 29236 29237 29238 29239 29240 29241 29242 29243 29244 29245 29246 29247 29248 29249 29250 29251 29252 29253 29254 29255 29256 29257 29258 29259 29260 29261 29262 29263 29264 29265 29266 29267 29268 29269 29270 29271 29272 29273 29274 29275 29276 29277 29278 29279 29280 29281 29282 29283 29284 29285 29286 29287 29288 29289 29290 29291 29292 29293 29294 29295 29296 29297 29298 29299 29300 29301 29302 29303 29304 29305 29306 29307 29308 29309 29310 29311 29312 29313 29314 29315 29316 29317 29318 29319 29320 29321 29322 29323 29324 29325 29326 29327 29328 29329 29330 29331 29332 29333 29334 29335 29336 29337 29338 29339 29340 29341 29342 29343 29344 29345 29346 29347 29348 29349 29350 29351 29352 29353 29354 29355 29356 29357 29358 29359 29360 29361 29362 29363 29364 29365 29366 29367 29368 29369 29370 29371 29372 29373 29374 29375 29376 29377 29378 29379 29380 29381 29382 29383 29384 29385 29386 29387 29388 29389 29390 29391 29392 29393 29394 29395 29396 29397 29398 29399 29400 29401 29402 29403 29404 29405 29406 29407 29408 29409 29410 29411 29412 29413 29414 29415 29416 29417 29418 29419 29420 29421 29422 29423 29424 29425 29426 29427 29428 29429 29430 29431 29432 29433 29434 29435 29436 29437 29438 29439 29440 29441 29442 29443 29444 29445 29446 29447 29448 29449 29450 29451 29452 29453 29454 29455 29456 29457 29458 29459 29460 29461 29462 29463 29464 29465 29466 29467 29468 29469 29470 29471 29472 29473 29474 29475 29476 29477 29478 29479 29480 29481 29482 29483 29484 29485 29486 29487 29488 29489 29490 29491 29492 29493 29494 29495 29496 29497 29498 29499 29500 29501 29502 29503 29504 29505 29506 29507 29508 29509 29510 29511 29512 29513 29514 29515 29516 29517 29518 29519 29520 29521 29522 29523 29524 29525 29526 29527 29528 29529 29530 29531 29532 29533 29534 29535 29536 29537 29538 29539 29540 29541 29542 29543 29544 29545 29546 29547 29548 29549 29550 29551 29552 29553 29554 29555 29556 29557 29558 29559 29560 29561 29562 29563 29564 29565 29566 29567 29568 29569 29570 29571 29572 29573 29574 29575 29576 29577 29578 29579 29580 29581 29582 29583 29584 29585 29586 29587 29588 29589 29590 29591 29592 29593 29594 29595 29596 29597 29598 29599 29600 29601 29602 29603 29604 29605 29606 29607 29608 29609 29610 29611 29612 29613 29614 29615 29616 29617 29618 29619 29620 29621 29622 29623 29624 29625 29626 29627 29628 29629 29630 29631 29632 29633 29634 29635 29636 29637 29638 29639 29640 29641 29642 29643 29644 29645 29646 29647 29648 29649 29650 29651 29652 29653 29654 29655 29656 29657 29658 29659 29660 29661 29662 29663 29664 29665 29666 29667 29668 29669 29670 29671 29672 29673 29674 29675 29676 29677 29678 29679 29680 29681 29682 29683 29684 29685 29686 29687 29688 29689 29690 29691 29692 29693 29694 29695 29696 29697 29698 29699 29700 29701 29702 29703 29704 29705 29706 29707 29708 29709 29710 29711 29712 29713 29714 29715 29716 29717 29718 29719 29720 29721 29722 29723 29724 29725 29726 29727 29728 29729 29730 29731 29732 29733 29734 29735 29736 29737 29738 29739 29740 29741 29742 29743 29744 29745 29746 29747 29748 29749 29750 29751 29752 29753 29754 29755 29756 29757 29758 29759 29760 29761 29762 29763 29764 29765 29766 29767 29768 29769 29770 29771 29772 29773 29774 29775 29776 29777 29778 29779 29780 29781 29782 29783 29784 29785 29786 29787 29788 29789 29790 29791 29792 29793 29794 29795 29796 29797 29798 29799 29800 29801 29802 29803 29804 29805 29806 29807 29808 29809 29810 29811 29812 29813 29814 29815 29816 29817 29818 29819 29820 29821 29822 29823 29824 29825 29826 29827 29828 29829 29830 29831 29832 29833 29834 29835 29836 29837 29838 29839 29840 29841 29842 29843 29844 29845 29846 29847 29848 29849 29850 29851 29852 29853 29854 29855 29856 29857 29858 29859 29860 29861 29862 29863 29864 29865 29866 29867 29868 29869 29870 29871 29872 29873 29874 29875 29876 29877 29878 29879 29880 29881 29882 29883 29884 29885 29886 29887 29888 29889 29890 29891 29892 29893 29894 29895 29896 29897 29898 29899 29900 29901 29902 29903 29904 29905 29906 29907 29908 29909 29910 29911 29912 29913 29914 29915 29916 29917 29918 29919 29920 29921 29922 29923 29924 29925 29926 29927 29928 29929 29930 29931 29932 29933 29934 29935 29936 29937 29938 29939 29940 29941 29942 29943 29944 29945 29946 29947 29948 29949 29950 29951 29952 29953 29954 29955 29956 29957 29958 29959 29960 29961 29962 29963 29964 29965 29966 29967 29968 29969 29970 29971 29972 29973 29974 29975 29976 29977 29978 29979 29980 29981 29982 29983 29984 29985 29986 29987 29988 29989 29990 29991 29992 29993 29994 29995 29996 29997 29998 29999 30000 30001 30002 30003 30004 30005 30006 30007 30008 30009 30010 30011 30012 30013 30014 30015 30016 30017 30018 30019 30020 30021 30022 30023 30024 30025 30026 30027 30028 30029 30030 30031 30032 30033 30034 30035 30036 30037 30038 30039 30040 30041 30042 30043 30044 30045 30046 30047 30048 30049 30050 30051 30052 30053 30054 30055 30056 30057 30058 30059 30060 30061 30062 30063 30064 30065 30066 30067 30068 30069 30070 30071 30072 30073 30074 30075 30076 30077 30078 30079 30080 30081 30082 30083 30084 30085 30086 30087 30088 30089 30090 30091 30092 30093 30094 30095 30096 30097 30098 30099 30100 30101 30102 30103 30104 30105 30106 30107 30108 30109 30110 30111 30112 30113 30114 30115 30116 30117 30118 30119 30120 30121 30122 30123 30124 30125 30126 30127 30128 30129 30130 30131 30132 30133 30134 30135 30136 30137 30138 30139 30140 30141 30142 30143 30144 30145 30146 30147 30148 30149 30150 30151 30152 30153 30154 30155 30156 30157 30158 30159 30160 30161 30162 30163 30164 30165 30166 30167 30168 30169 30170 30171 30172 30173 30174 30175 30176 30177 30178 30179 30180 30181 30182 30183 30184 30185 30186 30187 30188 30189 30190 30191 30192 30193 30194 30195 30196 30197 30198 30199 30200 30201 30202 30203 30204 30205 30206 30207 30208 30209 30210 30211 30212 30213 30214 30215 30216 30217 30218 30219 30220 30221 30222 30223 30224 30225 30226 30227 30228 30229 30230 30231 30232 30233 30234 30235 30236 30237 30238 30239 30240 30241 30242 30243 30244 30245 30246 30247 30248 30249 30250 30251 30252 30253 30254 30255 30256 30257 30258 30259 30260 30261 30262 30263 30264 30265 30266 30267 30268 30269 30270 30271 30272 30273 30274 30275 30276 30277 30278 30279 30280 30281 30282 30283 30284 30285 30286 30287 30288 30289 30290 30291 30292 30293 30294 30295 30296 30297 30298 30299 30300 30301 30302 30303 30304 30305 30306 30307 30308 30309 30310 30311 30312 30313 30314 30315 30316 30317 30318 30319 30320 30321 30322 30323 30324 30325 30326 30327 30328 30329 30330 30331 30332 30333 30334 30335 30336 30337 30338 30339 30340 30341 30342 30343 30344 30345 30346 30347 30348 30349 30350 30351 30352 30353 30354 30355 30356 30357 30358 30359 30360 30361 30362 30363 30364 30365 30366 30367 30368 30369 30370 30371 30372 30373 30374 30375 30376 30377 30378 30379 30380 30381 30382 30383 30384 30385 30386 30387 30388 30389 30390 30391 30392 30393 30394 30395 30396 30397 30398 30399 30400 30401 30402 30403 30404 30405 30406 30407 30408 30409 30410 30411 30412 30413 30414 30415 30416 30417 30418 30419 30420 30421 30422 30423 30424 30425 30426 30427 30428 30429 30430 30431 30432 30433 30434 30435 30436 30437 30438 30439 30440 30441 30442 30443 30444 30445 30446 30447 30448 30449 30450 30451 30452 30453 30454 30455 30456 30457 30458 30459 30460 30461 30462 30463 30464 30465 30466 30467 30468 30469 30470 30471 30472 30473 30474 30475 30476 30477 30478 30479 30480 30481 30482 30483 30484 30485 30486 30487 30488 30489 30490 30491 30492 30493 30494 30495 30496 30497 30498 30499 30500 30501 30502 30503 30504 30505 30506 30507 30508 30509 30510 30511 30512 30513 30514 30515 30516 30517 30518 30519 30520 30521 30522 30523 30524 30525 30526 30527 30528 30529 30530 30531 30532 30533 30534 30535 30536 30537 30538 30539 30540 30541 30542 30543 30544 30545 30546 30547 30548 30549 30550 30551 30552 30553 30554 30555 30556 30557 30558 30559 30560 30561 30562 30563 30564 30565 30566 30567 30568 30569 30570 30571 30572 30573 30574 30575 30576 30577 30578 30579 30580 30581 30582 30583 30584 30585 30586 30587 30588 30589 30590 30591 30592 30593 30594 30595 30596 30597 30598 30599 30600 30601 30602 30603 30604 30605 30606 30607 30608 30609 30610 30611 30612 30613 30614 30615 30616 30617 
</DataArray>
<DataArray type="UInt32" Name="offsets" format="ascii">
2 5 8 11 14 17 20 23 26 28 31 34 37 39 42 45 48 51 54 57 60 63 66 69 72 75 78 81 84 86 89 92 94 97 100 103 105 108 111 114 116 119 122 125 128 131 134 137 140 142 145 148 151 154 157 160 162 165 168 171 174 177 180 183 186 189 191 194 197 199 202 205 208 210 213 215 218 220 222 225 228 231 234 237 240 243 246 249 251 254 256 259 262 264 267 270 273 276 279 282 285 288 291 294 297 300 303 306 309 311 314 317 320 323 325 328 331 333 335 338 341 343 346 349 352 354 356 358 361 363 366 369 372 375 378 381 384 387 390 392 394 397 400 403 406 409 412 414 417 420 423 426 429 431 433 436 439 441 444 447 449 451 454 456 458 461 464 467 470 473 476 479 482 485 488 491 494 496 499 502 504 507 510 513 516 519 522 525 528 531 534 537 540 543 546 549 552 555 558 561 564 566 569 572 575 578 581 584 587 590 593 596 599 602 605 608 611 613 616 619 621 624 627 630 633 635 637 640 643 646 649 652 655 658 661 664 667 670 673 676 679 682 684 687 690 693 695 698 701 704 707 710 713 716 719 721 723 726 729 732 735 738 741 744 747 750 752 755 758 761 764 767 769 772 774 777 780 783 786 789 791 793 796 799 802 804 807 809 812 815 818 820 823 825 828 831 833 836 839 842 844 847 850 853 856 859 861 863 866 869 871 874 876 878 881 884 886 889 891 894 897 900 903 905 908 910 913 916 918 920 922 925 927 930 932 934 937 940 943 946 949 952 955 958 961 963 966 969 972 975 978 981 984 987 990 993 996 999 1002 1005 1008 1011 1014 1017 1020 1023 1026 1029 1032 1035 1037 1040 1042 1045 1048 1051 1054 1057 1059 1062 1064 1067 1070 1072 1075 1078 1081 1084 1086 1089 1091 1094 1097 1100 1103 1106 1109 1112 1115 1118 1121 1124 1127 1130 1132 1135 1138 1140 1143 1146 1149 1152 1155 1158 1161 1164 1167 1170 1173 1176 1179 1182 1185 1188 1191 1193 1196 1199 1202 1205 1208 1211 1214 1217 1220 1223 1225 1228 1231 1234 1236 1238 1241 1244 1247 1250 1253 1256 1259 1262 1265 1268 1271 1274 1277 1280 1283 1286 1289 1292 1295 1298 1301 1304 1307 1309 1312 1315 1317 1320 1323 1325 1328 1330 1333 1336 1339 1341 1344 1346 1348 1351 1354 1357 1360 1363 1366 1369 1372 1375 1378 1380 1383 1386 1389 1392 1395 1398 1401 1404 1407 1410 1413 1416 1419 1422 1425 1428 1431 1434 1437 1440 1443 1446 1449 1452 1455 1458 1461 1464 1467 1470 1473 1476 1478 1481 1484 1487 1490 1492 1495 1498 1501 1504 1507 1510 1513 1515 1518 1521 1524 1527 1530 1533 1536 1539 1542 1544 1547 1549 1551 1554 1557 1559 1562 1564 1567 1570 1573 1576 1579 1582 1585 1588 1590 1593 1596 1599 1602 1605 1607 1610 1613 1616 1619 1622 1625 1627 1630 1633 1636 1639 1642 1645 1648 1651 1653 1656 1658 1661 1664 1667 1670 1673 1675 1678 1680 1683 1686 1689 1692 1695 1698 1700 1703 1706 1709 1712 1715 1718 1721 1724 1727 1730 1732 1734 1737 1740 1743 1746 1748 1751 1754 1757 1760 1763 1766 1769 1772 1775 1778 1781 1784 1786 1789 1792 1794 1797 1800 1803 1806 1809 1812 1815 1818 1821 1824 1826 1828 1831 1834 1837 1840 1843 1846 1849 1852 1855 1858 1860 1863 1865 1868 1871 1874 1877 1880 1883 1886 1889 1892 1895 1898 1901 1904 1907 1910 1913 1916 1919 1922 1925 1928 1931 1934 1937 1940 1943 1946 1949 1952 1955 1958 1961 1964 1967 1970 1973 1976 1979 1982 1984 1987 1990 1993 1995 1998 2000 2003 2005 2008 2011 2013 2016 2018 2021 2023 2026 2029 2031 2034 2037 2040 2043 2046 2049 2052 2055 2057 2060 2063 2065 2068 2071 2074 2077 2079 2082 2085 2088 2091 2094 2097 2100 2103 2106 2109 2111 2114 2116 2119 2121 2124 2126 2129 2131 2134 2137 2140 2142 2145 2147 2150 2153 2156 2159 2162 2165 2168 2171 2174 2177 2180 2183 2185 2188 2191 2193 2195 2198 2201 2204 2206 2209 2212 2214 2217 2220 2222 2225 2228 2231 2233 2236 2239 2242 2245 2248 2250 2253 2256 2258 2260 2263 2266 2269 2271 2273 2275 2278 2281 2283 2286 2289 2291 2294 2297 2300 2303 2306 2309 2311 2314 2317 2319 2322 2325 2327 2330 2333 2336 2339 2342 2345 2348 2351 2353 2356 2359 2362 2365 2368 2370 2372 2374 2377 2380 2383 2386 2389 2392 2395 2398 2401 2404 2407 2409 2412 2415 2418 2421 2423 2426 2429 2432 2435 2438 2441 2444 2446 2449 2452 2455 2457 2460 2462 2465 2467 2470 2472 2475 2478 2481 2484 2487 2490 2493 2496 2499 2502 2504 2507 2510 2513 2516 2519 2522 2525 2528 2530 2533 2536 2538 2541 2544 2547 2550 2552 2555 2558 2561 2564 2567 2570 2572 2575 2577 2580 2583 2586 2589 2592 2595 2597 2599 2602 2605 2608 2611 2613 2616 2618 2621 2624 2627 2629 2632 2635 2638 2641 2644 2647 2650 2652 2654 2657 2660 2662 2665 2667 2669 2671 2674 2677 2680 2683 2686 2689 2692 2694 2697 2700 2703 2706 2709 2712 2715 2718 2721 2724 2727 2730 2733 2735 2738 2741 2744 2747 2750 2753 2756 2759 2762 2765 2767 2770 2773 2775 2778 2781 2784 2787 2790 2792 2795 2798 2801 2804 2807 2810 2813 2816 2818 2821 2823 2826 2829 2831 2834 2837 2839 2842 2845 2848 2851 2853 2856 2859 2862 2865 2868 2870 2873 2876 2879 2882 2885 2888 2891 2894 2897 2899 2902 2905 2907 2909 2912 2915 2918 2921 2923 2926 2928 2931 2934 2936 2938 2941 2943 2946 2948 2951 2954 2957 2960 2963 2965 2968 2971 2974 2976 2979 2982 2985 2987 2990 2993 2996 2999 3002 3005 3008 3011 3014 3017 3019 3022 3025 3028 3031 3034 3037 3040 3043 3046 3049 3052 3055 3058 3061 3064 3067 3070 3073 3075 3078 3081 3083 3086 3089 3092 3095 3097 3100 3103 3106 3109 3112 3115 3118 3121 3124 3127 3130 3133 3136 3139 3142 3145 3148 3151 3154 3157 3160 3163 3166 3169 3172 3175 3178 3181 3184 3187 3190 3193 3196 3199 3202 3205 3208 3211 3214 3217 3220 3223 3226 3229 3232 3235 3238 3241 3244 3247 3250 3253 3256 3259 3262 3265 3268 3271 3273 3276 3279 3282 3285 3288 3291 3294 3297 3300 3303 3306 3309 3312 3315 3318 3321 3324 3327 3330 3332 3335 3338 3341 3344 3346 3349 3352 3355 3358 3361 3364 3367 3370 3373 3376 3379 3382 3385 3388 3391 3394 3397 3400 3402 3405 3408 3411 3414 3416 3419 3422 3425 3428 3431 3433 3435 3438 3441 3444 3447 3450 3453 3456 3459 3462 3465 3468 3471 3474 3477 3480 3483 3486 3489 3491 3494 3497 3500 3502 3505 3507 3510 3513 3516 3519 3522 3525 3528 3531 3534 3536 3539 3542 3545 3548 3550 3552 3555 3558 3561 3564 3567 3570 3573 3576 3579 3582 3585 3588 3591 3594 3597 3600 3603 3606 3609 3611 3614 3617 3620 3623 3626 3629 3632 3635 3638 3641 3644 3647 3650 3652 3655 3658 3661 3664 3667 3670 3673 3676 3679 3682 3685 3688 3691 3694 3697 3700 3703 3706 3709 3712 3715 3718 3720 3723 3726 3729 3732 3735 3738 3741 3743 3746 3749 3752 3754 3757 3760 3763 3766 3769 3772 3775 3778 3781 3784 3787 3790 3793 3796 3799 3802 3805 3808 3811 3814 3817 3820 3823 3826 3828 3831 3833 3836 3839 3842 3845 3847 3850 3852 3855 3858 3861 3864 3867 3870 3873 3875 3878 3881 3884 3887 3889 3892 3895 3898 3901 3904 3907 3910 3913 3916 3919 3922 3924 3927 3930 3933 3936 3939 3942 3944 3947 3949 3952 3955 3958 3961 3964 3966 3969 3972 3974 3977 3980 3982 3985 3988 3991 3994 3997 4000 4003 4006 4009 4012 4015 4018 4021 4024 4027 4030 4033 4036 4039 4042 4045 4048 4051 4054 4057 4060 4063 4065 4068 4071 4074 4076 4079 4081 4084 4087 4089 4091 4094 4097 4100 4102 4105 4108 4111 4114 4116 4119 4121 4124 4127 4129 4132 4135 4138 4141 4144 4146 4149 4152 4155 4158 4161 4163 4166 4169 4172 4175 4178 4181 4184 4187 4190 4193 4196 4199 4202 4205 4208 4211 4214 4217 4220 4223 4226 4229 4232 4235 4238 4241 4244 4247 4250 4253 4256 4259 4262 4265 4268 4271 4274 4277 4280 4283 4286 4289 4292 4294 4296 4299 4302 4305 4308 4311 4314 4317 4320 4323 4326 4329 4332 4335 4338 4341 4344 4347 4350 4353 4356 4359 4362 4365 4368 4371 4374 4377 4380 4382 4385 4388 4391 4394 4396 4399 4402 4405 4408 4410 4413 4416 4419 4422 4425 4428 4431 4433 4436 4438 4441 4444 4447 4450 4453 4455 4458 4461 4464 4467 4470 4473 4476 4479 4482 4485 4487 4490 4493 4496 4499 4502 4505 4508 4511 4514 4517 4520 4523 4526 4529 4532 4535 4538 4541 4544 4547 4550 4553 4556 4559 4562 4564 4567 4570 4573 4576 4578 4581 4583 4586 4589 4591 4594 4596 4599 4602 4605 4608 4611 4614 4616 4619 4622 4625 4627 4630 4633 4636 4639 4642 4645 4648 4651 4654 4657 4660 4663 4666 4669 4672 4675 4678 4680 4683 4685 4688 4691 4694 4697 4700 4702 4705 4707 4710 4713 4716 4719 4722 4725 4728 4731 4733 4736 4739 4742 4745 4748 4751 4754 4757 4760 4763 4766 4769 4772 4775 4778 4781 4784 4787 4790 4793 4796 4799 4802 4804 4807 4809 4812 4815 4818 4821 4824 4827 4830 4833 4836 4839 4842 4845 4847 4850 4853 4856 4859 4862 4865 4868 4871 4874 4877 4880 4883 4886 4889 4892 4895 4898 4901 4904 4907 4910 4913 4916 4919 4922 4925 4928 4930 4933 4936 4939 4941 4944 4946 4948 4951 4954 4957 4960 4963 4965 4968 4971 4974 4977 4980 4983 4986 4989 4992 4995 4998 5001 5004 5007 5010 5013 5016 5019 5022 5025 5028 5031 5034 5037 5039 5042 5045 5047 5050 5053 5056 5059 5062 5065 5068 5071 5073 5075 5078 5081 5084 5087 5090 5093 5096 5099 5102 5105 5107 5110 5113 5115 5117 5120 5122 5125 5128 5131 5134 5137 5139 5142 5144 5146 5148 5151 5154 5157 5160 5163 5166 5168 5171 5174 5177 5180 5183 5186 5189 5192 5195 5197 5200 5202 5205 5208 5210 5213 5216 5219 5222 5225 5228 5231 5234 5237 5240 5243 5246 5249 5252 5255 5258 5261 5264 5267 5270 5273 5276 5279 5282 5285 5288 5290 5292 5295 5298 5301 5304 5307 5310 5313 5316 5319 5322 5325 5328 5331 5334 5337 5340 5343 5346 5349 5352 5355 5358 5361 5364 5367 5370 5373 5376 5379 5382 5385 5388 5391 5394 5397 5400 5403 5406 5409 5412 5415 5418 5421 5424 5427 5430 5433 5436 5439 5442 5445 5448 5451 5454 5457 5460 5462 5465 5468 5471 5474 5477 5480 5483 5486 5489 5491 5493 5496 5499 5502 5504 5507 5510 5513 5516 5519 5522 5525 5528 5531 5534 5537 5540 5543 5546 5549 5552 5555 5558 5561 5564 5567 5570 5573 5576 5579 5582 5585 5588 5591 5594 5596 5599 5602 5605 5608 5611 5614 5617 5619 5622 5625 5628 5631 5634 5637 5640 5642 5645 5648 5650 5653 5656 5659 5662 5665 5668 5671 5674 5677 5679 5682 5685 5687 5689 5692 5695 5698 5700 5703 5706 5709 5712 5715 5718 5721 5724 5727 5730 5733 5735 5738 5741 5744 5747 5749 5752 5754 5757 5760 5762 5765 5768 5770 5772 5775 5778 5781 5784 5787 5790 5793 5796 5799 5802 5804 5806 5809 5812 5815 5818 5821 5824 5826 5829 5832 5835 5838 5841 5844 5846 5849 5851 5854 5857 5860 5863 5866 5868 5870 5873 5876 5879 5882 5885 5888 5891 5894 5897 5900 5903 5906 5909 5912 5915 5918 5921 5924 5927 5929 5931 5934 5937 5939 5942 5945 5948 5951 5954 5957 5960 5963 5966 5969 5972 5974 5977 5980 5983 5986 5989 5992 5995 5998 6001 6004 6007 6010 6013 6016 6019 6022 6025 6028 6031 6034 6037 6040 6043 6046 6049 6052 6055 6058 6060 6063 6066 6069 6072 6074 6076 6079 6082 6085 6088 6091 6094 6097 6099 6102 6104 6107 6110 6113 6116 6119 6122 6125 6128 6131 6134 6137 6140 6143 6146 6149 6152 6155 6158 6161 6164 6166 6168 6171 6173 6176 6179 6182 6185 6188 6190 6193 6196 6199 6202 6205 6208 6211 6214 6217 6220 6223 6226 6229 6232 6235 6238 6241 6243 6246 6249 6252 6255 6258 6261 6264 6267 6270 6273 6276 6278 6281 6284 6287 6290 6293 6296 6299 6302 6305 6308 6310 6313 6316 6319 6322 6325 6328 6331 6334 6337 6339 6342 6345 6348 6351 6353 6356 6359 6362 6364 6367 6370 6373 6376 6378 6381 6384 6387 6390 6393 6396 6399 6402 6405 6407 6410 6413 6416 6419 6421 6424 6427 6430 6433 6436 6439 6442 6445 6447 6450 6452 6454 6457 6459 6461 6464 6467 6470 6472 6475 6478 6481 6483 6486 6488 6491 6494 6497 6500 6503 6505 6508 6511 6514 6516 6519 6522 6525 6528 6531 6534 6536 6538 6541 6544 6547 6550 6553 6556 6559 6562 6565 6568 6571 6573 6576 6578 6580 6583 6586 6589 6592 6595 6597 6599 6602 6605 6607 6610 6613 6616 6619 6621 6624 6627 6630 6633 6636 6638 6641 6644 6647 6650 6652 6654 6657 6660 6662 6665 6667 6669 6672 6675 6678 6681 6684 6687 6690 6693 6696 6699 6702 6705 6708 6711 6714 6717 6720 6723 6726 6729 6732 6734 6737 6740 6742 6745 6747 6750 6753 6756 6758 6761 6764 6767 6770 6773 6776 6778 6780 6783 6786 6789 6792 6795 6798 6800 6803 6806 6808 6811 6814 6817 6820 6823 6826 6828 6831 6834 6837 6839 6842 6845 6848 6851 6854 6857 6859 6862 6865 6868 6871 6874 6877 6880 6883 6886 6889 6892 6895 6898 6900 6903 6905 6908 6911 6914 6917 6920 6923 6926 6929 6932 6934 6937 6940 6943 6945 6948 6951 6954 6957 6960 6963 6966 6969 6972 6975 6977 6980 6983 6986 6989 6992 6995 6998 7001 7004 7007 7010 7013 7016 7019 7022 7025 7028 7031 7034 7037 7040 7043 7046 7049 7052 7054 7057 7060 7063 7065 7068 7071 7073 7076 7079 7082 7085 7088 7090 7093 7096 7099 7101 7104 7107 7110 7113 7116 7119 7122 7124 7127 7130 7133 7136 7139 7142 7145 7148 7151 7154 7157 7160 7163 7166 7169 7172 7175 7177 7180 7182 7185 7188 7191 7194 7197 7200 7203 7206 7209 7211 7214 7216 7219 7221 7224 7226 7228 7231 7234 7237 7240 7242 7245 7248 7251 7254 7256 7259 7262 7265 7268 7271 7273 7276 7278 7281 7284 7286 7289 7292 7295 7298 7301 7304 7307 7310 7313 7316 7319 7322 7325 7328 7331 7334 7337 7339 7342 7345 7348 7351 7354 7357 7359 7362 7365 7368 7371 7374 7376 7379 7382 7385 7388 7391 7394 7397 7399 7402 7405 7407 7410 7413 7416 7419 7422 7425 7427 7430 7433 7436 7438 7441 7444 7447 7450 7453 7456 7459 7462 7465 7468 7471 7474 7477 7480 7483 7486 7489 7491 7494 7497 7500 7503 7506 7508 7510 7513 7516 7519 7522 7525 7527 7530 7532 7535 7537 7540 7542 7544 7547 7550 7553 7555 7557 7560 7563 7566 7569 7572 7575 7578 7581 7584 7587 7590 7593 7596 7599 7602 7605 7608 7611 7614 7617 7620 7623 7626 7629 7632 7635 7638 7641 7644 7647 7650 7653 7656 7659 7662 7665 7668 7671 7673 7676 7679 7682 7685 7688 7691 7694 7696 7699 7701 7704 7707 7710 7713 7716 7719 7721 7724 7727 7730 7732 7735 7738 7741 7743 7745 7748 7750 7753 7756 7759 7762 7765 7768 7770 7773 7776 7778 7781 7784 7787 7790 7793 7796 7799 7802 7805 7808 7811 7814 7816 7818 7820 7823 7826 7829 7831 7834 7837 7840 7843 7846 7849 7852 7855 7858 7861 7864 7867 7870 7873 7876 7879 7882 7885 7888 7891 7894 7897 7899 7902 7905 7908 7911 7913 7916 7919 7922 7925 7928 7931 7934 7936 7939 7942 7945 7948 7951 7953 7956 7959 7962 7965 7968 7970 7973 7976 7979 7982 7985 7988 7991 7994 7997 7999 8002 8005 8008 8011 8013 8016 8019 8022 8025 8028 8031 8034 8037 8040 8043 8045 8048 8051 8053 8056 8059 8062 8065 8068 8071 8074 8077 8080 8083 8086 8089 8092 8095 8098 8101 8104 8107 8110 8113 8115 8118 8121 8124 8127 8129 8132 8135 8138 8141 8144 8147 8150 8153 8155 8158 8161 8164 8167 8170 8172 8175 8178 8180 8183 8186 8189 8192 8195 8198 8201 8204 8207 8210 8213 8216 8218 8221 8224 8227 8230 8233 8236 8239 8242 8245 8248 8251 8254 8257 8260 8263 8266 8269 8272 8275 8278 8281 8284 8287 8290 8293 8296 8299 8302 8304 8307 8310 8313 8316 8319 8322 8325 8328 8331 8334 8337 8340 8343 8346 8348 8351 8354 8357 8360 8363 8366 8369 8372 8375 8378 8381 8384 8387 8390 8393 8396 8399 8402 8405 8407 8410 8413 8416 8419 8422 8425 8428 8430 8433 8436 8439 8442 8445 8448 8451 8454 8457 8460 8463 8466 8469 8472 8475 8478 8481 8484 8487 8490 8493 8496 8499 8502 8504 8507 8510 8513 8516 8519 8521 8524 8527 8530 8533 8536 8539 8542 8545 8548 8551 8553 8556 8559 8561 8564 8566 8569 8572 8575 8578 8581 8584 8587 8589 8592 8594 8597 8599 8602 8605 8608 8611 8614 8617 8620 8623 8626 8629 8632 8635 8638 8641 8644 8647 8650 8653 8656 8659 8662 8665 8668 8671 8674 8677 8680 8683 8686 8689 8692 8695 8698 8701 8704 8707 8709 8712 8715 8718 8721 8724 8727 8730 8733 8736 8739 8742 8745 8748 8751 8754 8757 8760 8763 8766 8769 8772 8775 8778 8781 8784 8787 8790 8793 8796 8799 8802 8804 8807 8810 8813 8816 8819 8822 8824 8826 8829 8832 8835 8838 8841 8844 8847 8850 8853 8856 8859 8862 8865 8867 8870 8873 8876 8879 8882 8885 8888 8891 8894 8897 8899 8901 8904 8906 8909 8912 8915 8917 8920 8922 8924 8927 8929 8932 8935 8938 8941 8944 8947 8950 8952 8954 8957 8960 8963 8966 8968 8971 8974 8977 8980 8982 8985 8987 8990 8992 8994 8997 8999 9002 9005 9008 9011 9014 9016 9019 9021 9023 9025 9027 9030 9033 9036 9039 9042 9044 9047 9050 9052 9054 9057 9060 9063 9065 9068 9071 9073 9076 9079 9082 9085 9087 9090 9093 9095 9098 9101 9103 9106 9109 9112 9115 9118 9121 9124 9127 9130 9133 9136 9139 9142 9145 9147 9150 9152 9155 9158 9161 9164 9167 9169 9172 9175 9177 9180 9183 9186 9189 9192 9194 9197 9200 9203 9206 9209 9212 9215 9218 9221 9224 9226 9229 9232 9235 9238 9241 9244 9247 9250 9253 9256 9259 9261 9264 9267 9270 9273 9276 9279 9281 9284 9287 9290 9293 9296 9299 9302 9305 9308 9311 9314 9317 9320 9323 9325 9328 9331 9334 9336 9339 9342 9345 9348 9351 9354 9357 9359 9362 9364 9367 9370 9373 9376 9379 9382 9385 9388 9391 9394 9397 9400 9403 9406 9409 9412 9415 9418 9421 9424 9427 9430 9433 9436 9439 9442 9445 9448 9451 9454 9457 9460 9463 9466 9469 9472 9474 9477 9479 9482 9485 9487 9490 9492 9495 9498 9501 9504 9507 9510 9512 9515 9518 9520 9522 9525 9528 9531 9534 9537 9540 9542 9545 9548 9551 9554 9557 9560 9563 9565 9568 9571 9574 9577 9580 9583 9586 9589 9592 9595 9598 9601 9604 9607 9610 9613 9616 9619 9622 9624 9627 9630 9633 9635 9638 9640 9643 9645 9648 9651 9654 9657 9659 9662 9665 9668 9671 9674 9677 9679 9682 9685 9688 9691 9694 9697 9699 9702 9705 9707 9710 9713 9716 9719 9722 9725 9727 9730 9733 9736 9739 9742 9745 9748 9751 9754 9756 9759 9761 9764 9767 9770 9773 9776 9778 9780 9783 9786 9789 9791 9793 9796 9799 9802 9805 9808 9811 9813 9816 9819 9821 9823 9826 9829 9831 9834 9837 9839 9842 9845 9848 9851 9853 9856 9859 9862 9865 9868 9871 9873 9876 9879 9882 9885 9888 9891 9894 9897 9900 9903 9905 9908 9911 9914 9916 9918 9921 9924 9927 9930 9933 9936 9939 9942 9945 9947 9950 9953 9956 9959 9962 9965 9968 9971 9974 9977 9980 9982 9984 9987 9990 9993 9996 9998 10001 10004 10007 10010 10012 10015 10018 10021 10024 10026 10029 10032 10035 10037 10040 10043 10046 10049 10051 10054 10057 10060 10063 10066 10068 10071 10074 10077 10080 10082 10085 10088 10091 10094 10097 10100 10103 10106 10109 10112 10115 10118 10121 10124 10127 10130 10133 10136 10139 10142 10145 10148 10151 10154 10157 10160 10163 10166 10169 10172 10175 10178 10180 10183 10186 10189 10192 10194 10197 10200 10203 10206 10209 10212 10214 10217 10220 10223 10225 10228 10230 10233 10236 10239 10242 10245 10248 10251 10254 10257 10260 10263 10266 10269 10272 10275 10278 10281 10284 10287 10290 10293 10296 10299 10301 10304 10306 10309 10312 10315 10317 10320 10323 10326 10329 10332 10335 10338 10341 10344 10347 10350 10353 10356 10358 10361 10364 10366 10369 10372 10374 10376 10379 10381 10384 10387 10390 10393 10396 10399 10402 10405 10408 10411 10414 10417 10420 10423 10426 10429 10432 10434 10437 10440 10443 10446 10449 10451 10454 10457 10460 10463 10466 10469 10472 10474 10477 10480 10483 10486 10489 10492 10495 10497 10500 10503 10506 10509 10512 10515 10518 10521 10524 10527 10530 10533 10536 10539 10542 10544 10547 10550 10553 10555 10558 10561 10564 10567 10570 10573 10576 10579 10582 10585 10588 10590 10593 10596 10599 10602 10605 10608 10610 10613 10616 10618 10621 10623 10626 10629 10632 10634 10637 10640 10643 10646 10649 10652 10655 10658 10661 10664 10667 10669 10672 10675 10678 10681 10684 10686 10689 10692 10695 10697 10700 10703 10706 10708 10711 10714 10717 10720 10723 10725 10728 10730 10733 10736 10739 10742 10745 10748 10751 10754 10756 10759 10761 10764 10767 10769 10772 10774 10777 10779 10782 10785 10788 10791 10794 10797 10800 10803 10806 10809 10811 10814 10816 10819 10822 10825 10828 10830 10833 10836 10839 10841 10843 10846 10849 10852 10854 10857 10859 10861 10864 10867 10869 10871 10874 10876 10878 10881 10884 10886 10888 10891 10894 10896 10899 10902 10904 10907 10909 10912 10915 10917 10920 10923 10925 10928 10930 10933 10936 10939 10941 10944 10946 10949 10952 10954 10956 10959 10962 10965 10967 10969 10972 10974 10977 10980 10983 10986 10989 10992 10995 10998 11000 11003 11006 11008 11010 11013 11015 11018 11020 11022 11025 11028 11031 11033 11036 11039 11041 11044 11047 11050 11053 11056 11059 11061 11063 11066 11069 11072 11075 11078 11081 11084 11086 11088 11091 11094 11097 11100 11102 11105 11108 11111 11113 11116 11119 11121 11124 11127 11130 11133 11136 11138 11141 11144 11146 11149 11152 11155 11157 11159 11162 11165 11167 11170 11173 11176 11178 11181 11184 11187 11189 11191 11194 11197 11199 11202 11205 11208 11211 11213 11215 11218 11221 11223 11225 11228 11230 11232 11235 11238 11241 11244 11247 11250 11252 11255 11258 11261 11264 11267 11270 11273 11276 11279 11282 11284 11286 11289 11292 11295 11298 11301 11304 11307 11309 11312 11315 11318 11321 11324 11327 11330 11333 11336 11338 11341 11344 11346 11349 11352 11354 11357 11360 11363 11366 11369 11372 11375 11378 11381 11384 11387 11390 11393 11396 11399 11402 11405 11408 11410 11412 11415 11418 11421 11424 11426 11429 11432 11434 11437 11440 11443 11446 11449 11452 11455 11458 11461 11463 11466 11469 11471 11474 11477 11480 11483 11486 11489 11492 11495 11498 11501 11504 11506 11509 11511 11514 11517 11520 11523 11526 11529 11532 11535 11538 11541 11543 11546 11549 11552 11555 11558 11561 11564 11567 11570 11573 11576 11579 11582 11585 11588 11591 11594 11597 11600 11603 11606 11609 11612 11615 11618 11621 11624 11627 11630 11633 11636 11639 11642 11645 11648 11651 11654 11657 11660 11662 11665 11668 11671 11674 11677 11680 11683 11686 11689 11691 11694 11697 11699 11702 11705 11708 11711 11714 11717 11720 11723 11726 11729 11732 11735 11738 11741 11744 11747 11749 11752 11754 11757 11760 11762 11765 11768 11771 11773 11775 11778 11780 11782 11785 11787 11790 11793 11795 11798 11801 11803 11806 11809 11812 11815 11818 11821 11824 11827 11830 11833 11836 11839 11842 11845 11848 11851 11854 11857 11860 11863 11866 11868 11871 11874 11877 11880 11883 11886 11889 11892 11895 11898 11901 11904 11907 11910 11913 11916 11919 11922 11925 11927 11930 11933 11936 11939 11942 11944 11947 11950 11953 11956 11959 11962 11965 11968 11971 11974 11977 11980 11983 11986 11989 11992 11995 11998 12001 12004 12007 12010 12013 12016 12018 12021 12024 12027 12030 12033 12036 12038 12041 12044 12047 12050 12053 12056 12059 12062 12065 12068 12071 12074 12077 12080 12083 12085 12088 12091 12094 12096 12098 12101 12104 12107 12109 12112 12115 12118 12121 12124 12127 12130 12133 12135 12138 12141 12144 12147 12149 12152 12155 12158 12161 12164 12167 12170 12173 12176 12179 12182 12185 12188 12190 12193 12196 12199 12202 12205 12208 12211 12214 12217 12220 12223 12226 12229 12232 12235 12238 12241 12244 12247 12250 12253 12256 12259 12262 12265 12268 12271 12273 12276 12279 12282 12285 12288 12291 12294 12297 12300 12303 12306 12309 12312 12315 12318 12320 12322 12325 12328 12331 12333 12336 12339 12342 12345 12348 12351 12354 12357 12360 12363 12366 12369 12372 12375 12378 12381 12384 12387 12390 12393 12396 12399 12402 12405 12408 12411 12414 12417 12420 12423 12425 12428 12431 12434 12437 12440 12443 12446 12449 12452 12455 12458 12461 12464 12467 12470 12473 12476 12479 12482 12485 12488 12491 12494 12497 12500 12502 12505 12508 12511 12514 12517 12520 12523 12525 12528 12531 12534 12536 12539 12542 12544 12547 12550 12553 12556 12559 12562 12565 12568 12570 12572 12575 12578 12581 12584 12587 12589 12592 12595 12598 12601 12604 12607 12610 12613 12616 12619 12622 12625 12628 12631 12634 12637 12640 12643 12646 12648 12651 12653 12656 12658 12661 12664 12667 12669 12672 12674 12677 12680 12683 12686 12689 12692 12695 12698 12701 12704 12707 12710 12712 12715 12718 12721 12724 12726 12729 12732 12734 12737 12739 12742 12745 12747 12750 12753 12756 12758 12761 12764 12767 12770 12773 12776 12779 12782 12785 12787 12790 12793 12796 12799 12801 12804 12807 12810 12813 12815 12818 12821 12824 12827 12830 12833 12835 12838 12840 12843 12845 12848 12851 12854 12856 12859 12862 12865 12868 12871 12874 12876 12878 12881 12884 12887 12890 12893 12895 12898 12901 12904 12907 12910 12913 12916 12919 12922 12925 12928 12931 12934 12937 12940 12943 12946 12949 12952 12954 12957 12960 12963 12966 12969 12972 12975 12978 12981 12983 12986 12988 12991 12993 12996 12999 13002 13005 13008 13011 13014 13017 13020 13023 13026 13029 13031 13034 13037 13039 13042 13045 13048 13051 13054 13057 13060 13063 13066 13068 13071 13073 13076 13079 13082 13085 13088 13091 13093 13096 13099 13102 13105 13108 13111 13114 13117 13120 13123 13126 13129 13132 13135 13138 13141 13144 13147 13150 13153 13156 13159 13162 13165 13168 13171 13174 13177 13180 13183 13186 13189 13192 13195 13198 13201 13204 13207 13210 13213 13216 13218 13221 13224 13226 13229 13231 13234 13237 13240 13242 13244 13247 13250 13252 13255 13258 13261 13264 13267 13270 13273 13276 13279 13282 13285 13288 13290 13293 13296 13299 13302 13305 13308 13311 13314 13317 13320 13323 13326 13328 13331 13334 13337 13340 13343 13346 13349 13352 13355 13358 13361 13364 13367 13370 13373 13375 13378 13381 13384 13387 13390 13392 13395 13398 13401 13404 13407 13410 13413 13416 13419 13421 13424 13427 13430 13433 13435 13438 13441 13444 13447 13450 13453 13456 13459 13462 13465 13468 13470 13473 13475 13478 13480 13483 13486 13489 13491 13494 13497 13500 13503 13506 13509 13512 13515 13518 13521 13524 13527 13530 13533 13536 13539 13542 13545 13548 13551 13553 13556 13559 13562 13565 13568 13571 13574 13577 13580 13583 13586 13589 13592 13595 13598 13601 13604 13607 13609 13612 13615 13618 13621 13624 13626 13629 13632 13635 13638 13641 13644 13647 13650 13652 13655 13658 13660 13663 13666 13669 13672 13675 13678 13681 13683 13686 13689 13692 13695 13698 13701 13704 13707 13710 13712 13715 13718 13721 13724 13727 13730 13733 13736 13739 13742 13745 13748 13751 13754 13757 13760 13763 13766 13769 13772 13775 13778 13781 13784 13786 13789 13791 13794 13797 13799 13802 13805 13808 13811 13814 13817 13820 13823 13825 13828 13831 13834 13837 13840 13843 13845 13848 13851 13854 13857 13860 13863 13866 13869 13872 13875 13878 13881 13883 13886 13889 13892 13895 13898 13901 13904 13907 13910 13913 13916 13919 13922 13925 13927 13930 13933 13936 13938 13941 13944 13947 13950 13952 13955 13958 13961 13964 13967 13970 13973 13976 13979 13982 13985 13988 13991 13994 13997 14000 14003 14006 14009 14012 14015 14018 14021 14024 14027 14030 14032 14035 14038 14040 14043 14046 14049 14052 14055 14058 14061 14064 14067 14069 14072 14075 14077 14080 14083 14085 14088 14091 14094 14097 14100 14103 14106 14109 14112 14115 14118 14121 14124 14127 14130 14133 14136 14139 14142 14145 14148 14151 14154 14157 14160 14163 14166 14169 14172 14175 14178 14181 14184 14187 14190 14193 14196 14199 14202 14205 14208 14211 14214 14217 14220 14223 14226 14229 14232 14235 14238 14241 14244 14247 14250 14253 14256 14259 14262 14265 14268 14271 14274 14276 14279 14282 14285 14288 14291 14294 14296 14299 14302 14305 14308 14311 14314 14317 14320 14323 14326 14329 14331 14333 14336 14339 14341 14344 14346 14349 14352 14354 14357 14360 14362 14365 14368 14371 14374 14377 14380 14383 14386 14388 14391 14394 14397 14400 14403 14406 14409 14412 14415 14417 14420 14423 14426 14429 14431 14434 14437 14440 14443 14446 14449 14452 14455 14458 14461 14464 14467 14470 14473 14476 14478 14481 14484 14487 14490 14492 14495 14497 14500 14503 14506 14508 14511 14514 14516 14519 14522 14525 14528 14531 14534 14537 14540 14543 14546 14549 14551 14554 14557 14559 14562 14565 14568 14570 14573 14576 14578 14580 14583 14586 14588 14591 14594 14597 14600 14603 14606 14609 14612 14614 14617 14620 14623 14626 14628 14631 14633 14636 14638 14641 14644 14647 14650 14652 14655 14658 14661 14663 14666 14669 14672 14675 14678 14681 14684 14687 14690 14693 14696 14699 14702 14705 14708 14711 14714 14717 14719 14722 14725 14728 14731 14734 14737 14740 14743 14746 14749 14752 14755 14758 14761 14764 14767 14770 14773 14776 14779 14782 14785 14788 14791 14794 14797 14800 14803 14806 14809 14812 14815 14818 14821 14824 14827 14830 14833 14836 14839 14841 14844 14847 14850 14853 14856 14858 14861 14864 14867 14870 14873 14876 14879 14882 14885 14888 14891 14894 14897 14899 14902 14905 14907 14910 14913 14916 14918 14921 14923 14926 14929 14932 14935 14937 14940 14943 14946 14949 14952 14955 14958 14961 14964 14966 14969 14972 14974 14976 14979 14981 14984 14987 14990 14993 14996 14999 15002 15005 15008 15011 15014 15017 15020 15023 15026 15029 15032 15035 15038 15041 15044 15047 15050 15052 15055 15058 15061 15063 15066 15069 15072 15075 15078 15081 15084 15086 15089 15092 15095 15098 15101 15104 15107 15110 15113 15116 15119 15122 15125 15128 15131 15134 15137 15140 15143 15146 15149 15152 15155 15157 15160 15163 15166 15169 15172 15174 15177 15179 15181 15184 15187 15190 15192 15195 15198 15200 15203 15206 15209 15212 15215 15218 15221 15224 15227 15230 15233 15235 15238 15241 15244 15246 15249 15251 15254 15257 15260 15263 15266 15268 15271 15273 15276 15278 15281 15284 15287 15290 15293 15296 15299 15302 15304 15306 15308 15311 15314 15316 15319 15322 15325 15328 15331 15334 15337 15340 15343 15346 15349 15352 15355 15358 15361 15364 15367 15370 15373 15376 15379 15382 15385 15388 15391 15394 15397 15400 15403 15406 15409 15412 15415 15418 15421 15424 15427 15429 15432 15435 15438 15441 15444 15447 15450 15452 15455 15458 15460 15463 15466 15469 15472 15475 15478 15481 15484 15487 15490 15493 15496 15499 15502 15505 15508 15511 15514 15517 15520 15523 15526 15529 15531 15534 15537 15540 15543 15546 15549 15552 15555 15558 15561 15563 15566 15569 15572 15575 15577 15580 15583 15586 15589 15591 15594 15596 15598 15601 15604 15607 15610 15612 15615 15618 15620 15623 15626 15628 15630 15633 15636 15639 15642 15645 15648 15651 15653 15656 15659 15662 15665 15668 15671 15674 15677 15680 15683 15686 15689 15692 15694 15697 15700 15703 15706 15709 15712 15715 15717 15719 15722 15724 15727 15729 15732 15735 15738 15740 15743 15746 15749 15752 15755 15757 15760 15763 15765 15768 15771 15774 15777 15780 15783 15786 15788 15791 15794 15797 15800 15803 15806 15809 15812 15814 15817 15820 15823 15825 15828 15831 15834 15837 15840 15842 15844 15847 15850 15852 15855 15858 15861 15864 15867 15870 15873 15876 15879 15882 15885 15888 15891 15894 15896 15899 15902 15904 15907 15909 15912 15915 15918 15921 15923 15926 15929 15932 15935 15938 15940 15943 15946 15948 15950 15953 15956 15959 15962 15964 15967 15970 15973 15976 15979 15982 15985 15988 15990 15993 15995 15998 16001 16004 16007 16010 16013 16016 16019 16021 16024 16027 16030 16033 16035 16038 16041 16044 16047 16050 16053 16056 16059 16062 16065 16068 16071 16074 16077 16080 16083 16086 16089 16092 16095 16098 16101 16104 16107 16110 16113 16116 16119 16122 16125 16128 16131 16134 16136 16139 16142 16145 16148 16151 16154 16157 16159 16162 16165 16168 16171 16174 16177 16180 16183 16186 16189 16192 16195 16197 16200 16203 16206 16209 16211 16214 16217 16220 16223 16226 16229 16232 16235 16238 16241 16244 16247 16250 16252 16255 16258 16260 16263 16266 16269 16272 16274 16277 16280 16283 16286 16289 16292 16295 16298 16301 16304 16307 16309 16312 16314 16317 16320 16322 16325 16328 16331 16334 16336 16339 16342 16345 16348 16351 16354 16357 16360 16363 16366 16369 16372 16375 16378 16381 16384 16387 16390 16393 16396 16399 16402 16405 16408 16411 16414 16417 16420 16422 16425 16428 16431 16434 16436 16439 16442 16445 16448 16451 16454 16457 16460 16463 16465 16468 16471 16474 16476 16479 16482 16485 16488 16491 16494 16496 16499 16501 16504 16506 16509 16512 16515 16518 16521 16524 16527 16530 16533 16536 16539 16542 16545 16548 16551 16554 16557 16560 16563 16566 16569 16572 16575 16578 16581 16584 16587 16590 16593 16596 16599 16602 16605 16608 16611 16613 16616 16618 16621 16624 16627 16630 16633 16636 16639 16642 16644 16647 16650 16653 16656 16659 16662 16665 16668 16671 16674 16677 16680 16682 16685 16688 16691 16694 16697 16700 16703 16706 16709 16712 16715 16718 16721 16723 16726 16729 16731 16734 16737 16740 16743 16745 16748 16751 16754 16757 16759 16762 16765 16768 16771 16774 16776 16778 16781 16783 16786 16789 16791 16794 16797 16800 16803 16805 16808 16810 16813 16816 16819 16822 16825 16828 16831 16834 16836 16839 16842 16845 16848 16850 16853 16856 16859 16862 16865 16868 16871 16874 16877 16880 16883 16886 16889 16892 16895 16898 16901 16904 16907 16910 16913 16916 16918 16921 16924 16927 16930 16933 16936 16939 16942 16945 16948 16951 16954 16957 16960 16963 16966 16969 16972 16975 16978 16981 16983 16986 16989 16992 16995 16998 17001 17004 17006 17009 17011 17014 17017 17020 17023 17026 17029 17032 17035 17038 17041 17044 17047 17050 17053 17056 17059 17062 17065 17068 17071 17074 17077 17080 17083 17086 17089 17091 17094 17097 17100 17103 17106 17108 17111 17113 17116 17119 17122 17125 17127 17129 17131 17134 17136 17139 17142 17145 17147 17150 17153 17156 17159 17161 17164 17166 17169 17172 17175 17178 17180 17183 17186 17189 17191 17193 17195 17198 17200 17203 17205 17208 17211 17213 17216 17219 17222 17225 17228 17231 17234 17237 17240 17243 17245 17248 17250 17253 17255 17258 17261 17264 17267 17269 17272 17275 17278 17281 17283 17286 17289 17292 17295 17298 17301 17304 17307 17310 17313 17315 17318 17320 17323 17326 17328 17331 17334 17336 17339 17342 17345 17348 17351 17353 17356 17359 17362 17365 17368 17371 17374 17377 17380 17383 17386 17389 17391 17394 17397 17400 17402 17405 17408 17411 17414 17417 17419 17422 17425 17428 17431 17434 17437 17440 17443 17446 17449 17452 17455 17458 17461 17464 17467 17470 17473 17476 17479 17482 17484 17487 17490 17493 17496 17498 17501 17504 17507 17509 17512 17514 17517 17520 17522 17525 17527 17530 17533 17536 17539 17542 17545 17547 17550 17553 17556 17559 17561 17564 17566 17569 17572 17575 17578 17581 17584 17587 17589 17592 17595 17598 17601 17604 17607 17610 17612 17615 17618 17621 17624 17627 17630 17633 17636 17639 17642 17645 17648 17651 17654 17657 17660 17663 17665 17668 17671 17674 17676 17679 17682 17685 17688 17691 17694 17697 17700 17703 17706 17709 17712 17715 17718 17720 17723 17726 17729 17732 17735 17738 17741 17744 17747 17750 17753 17756 17759 17762 17765 17768 17771 17774 17777 17780 17783 17786 17789 17792 17795 17798 17801 17803 17806 17808 17811 17814 17817 17819 17822 17825 17828 17830 17833 17836 17838 17840 17843 17846 17849 17852 17855 17858 17861 17864 17866 17869 17872 17874 17877 17880 17883 17886 17888 17891 17893 17896 17899 17902 17904 17907 17910 17913 17916 17919 17922 17925 17928 17931 17934 17936 17939 17942 17944 17947 17950 17952 17955 17958 17961 17964 17967 17970 17973 17975 17978 17981 17983 17985 17988 17991 17994 17996 17999 18002 18005 18008 18011 18014 18016 18019 18022 18025 18028 18030 18033 18036 18039 18041 18044 18047 18050 18053 18055 18058 18061 18063 18066 18069 18072 18075 18078 18081 18084 18087 18090 18093 18096 18098 18101 18104 18107 18110 18112 18115 18117 18120 18122 18125 18127 18130 18133 18136 18139 18142 18145 18148 18151 18154 18157 18160 18162 18164 18167 18170 18173 18176 18179 18182 18184 18187 18190 18192 18195 18198 18201 18204 18207 18210 18212 18215 18218 18221 18223 18226 18228 18231 18234 18237 18239 18242 18245 18248 18251 18254 18257 18259 18262 18265 18268 18271 18274 18277 18279 18282 18284 18287 18290 18293 18295 18298 18301 18304 18307 18309 18312 18315 18318 18321 18324 18327 18330 18332 18335 18337 18340 18342 18345 18348 18351 18353 18355 18358 18361 18363 18366 18369 18372 18375 18378 18380 18383 18385 18387 18389 18391 18394 18397 18400 18403 18406 18408 18410 18413 18416 18418 18421 18424 18427 18429 18432 18435 18438 18441 18444 18447 18450 18453 18456 18458 18461 18464 18467 18469 18472 18475 18478 18481 18484 18487 18490 18492 18495 18497 18500 18503 18506 18509 18511 18514 18516 18519 18522 18525 18528 18530 18533 18536 18539 18542 18545 18548 18551 18554 18557 18559 18562 18565 18568 18571 18574 18577 18580 18583 18586 18589 18592 18595 18598 18601 18604 18607 18610 18613 18616 18619 18622 18624 18627 18630 18633 18636 18638 18641 18644 18647 18650 18653 18655 18658 18660 18663 18666 18669 18672 18675 18678 18681 18684 18687 18690 18693 18695 18698 18700 18703 18705 18707 18710 18712 18715 18717 18720 18723 18726 18728 18731 18734 18737 18739 18742 18745 18748 18751 18753 18756 18758 18761 18764 18767 18770 18773 18776 18779 18782 18784 18787 18790 18793 18796 18799 18802 18805 18808 18810 18813 18816 18819 18822 18825 18828 18831 18834 18837 18839 18842 18845 18847 18850 18853 18856 18858 18861 18864 18867 18870 18873 18876 18879 18882 18885 18888 18891 18894 18896 18899 18902 18905 18908 18910 18913 18916 18919 18922 18925 18928 18930 18933 18936 18939 18942 18944 18947 18949 18952 18955 18958 18961 18964 18967 18970 18972 18975 18978 18981 18983 18985 18988 18991 18994 18997 18999 19002 19004 19007 19010 19012 19015 19018 19021 19024 19027 19030 19033 19036 19039 19042 19045 19048 19051 19054 19057 19060 19063 19066 19069 19072 19075 19078 19081 19084 19087 19090 19093 19096 19099 19102 19105 19108 19111 19114 19117 19119 19122 19125 19128 19130 19133 19136 19139 19142 19145 19148 19151 19154 19157 19160 19163 19166 19169 19171 19174 19176 19179 19182 19185 19188 19191 19194 19197 19200 19203 19206 19209 19212 19215 19217 19220 19223 19225 19228 19231 19234 19237 19240 19242 19245 19248 19251 19254 19257 19260 19263 19266 19269 19272 19275 19278 19281 19284 19287 19290 19293 19296 19299 19301 19303 19306 19309 19311 19314 19317 19319 19322 19325 19328 19331 19334 19337 19340 19342 19345 19348 19351 19354 19356 19359 19362 19365 19368 19371 19374 19377 19380 19383 19386 19389 19392 19395 19398 19400 19403 19406 19408 19411 19414 19417 19420 19423 19426 19429 19431 19433 19436 19439 19442 19445 19448 19451 19454 19457 19460 19463 19466 19469 19472 19475 19478 19481 19483 19486 19489 19492 19495 19497 19500 19503 19505 19508 19511 19513 19516 19519 19522 19525 19528 19531 19534 19537 19540 19543 19546 19549 19551 19554 19557 19560 19563 19565 19568 19571 19574 19577 19580 19583 19586 19589 19592 19594 19596 19598 19601 19604 19607 19609 19612 19615 19617 19619 19622 19624 19627 19630 19633 19635 19638 19641 19644 19647 19650 19653 19656 19659 19662 19665 19668 19671 19674 19677 19680 19683 19686 19689 19692 19695 19698 19701 19704 19707 19710 19713 19716 19719 19722 19725 19728 19731 19734 19737 19740 19743 19746 19749 19752 19755 19758 19761 19764 19767 19770 19773 19776 19779 19781 19784 19786 19789 19792 19795 19798 19801 19804 19807 19810 19813 19815 19818 19821 19824 19827 19830 19833 19835 19838 19841 19844 19847 19850 19852 19855 19858 19861 19864 19867 19870 19873 19876 19879 19882 19885 19888 19891 19894 19897 19899 19902 19905 19908 19911 19914 19917 19920 19922 19925 19928 19931 19934 19937 19939 19941 19944 19947 19950 19953 19955 19958 19961 19964 19967 19970 19973 19976 19979 19982 19985 19988 19991 19994 19997 20000 20003 20006 20009 20012 20015 20018 20020 20023 20026 20029 20032 20035 20038 20040 20043 20046 20049 20051 20054 20057 20060 20063 20066 20069 20072 20075 20078 20081 20084 20087 20090 20093 20096 20099 20102 20105 20107 20110 20112 20115 20118 20121 20124 20127 20129 20131 20134 20137 20140 20142 20145 20148 20151 20154 20157 20160 20162 20165 20168 20171 20174 20177 20179 20182 20184 20187 20190 20192 20195 20198 20201 20204 20206 20209 20212 20215 20218 20220 20223 20226 20229 20232 20234 20237 20240 20243 20246 20249 20252 20255 20258 20261 20264 20267 20270 20273 20275 20278 20281 20284 20287 20290 20293 20296 20299 20302 20305 20308 20311 20314 20317 20320 20323 20325 20328 20331 20334 20337 20339 20342 20345 20348 20351 20353 20356 20359 20362 20365 20368 20371 20374 20377 20380 20383 20385 20388 20391 20394 20397 20399 20402 20405 20408 20411 20414 20417 20420 20423 20426 20429 20432 20435 20438 20441 20444 20446 20449 20452 20455 20457 20460 20463 20466 20469 20472 20475 20478 20481 20484 20487 20490 20493 20496 20499 20501 20504 20507 20510 20513 20516 20519 20522 20525 20528 20531 20534 20536 20539 20542 20544 20547 20550 20553 20556 20559 20562 20564 20566 20569 20572 20575 20578 20580 20583 20585 20588 20591 20594 20596 20599 20602 20604 20607 20610 20613 20616 20619 20622 20625 20628 20631 20634 20637 20640 20643 20646 20649 20652 20654 20657 20660 20663 20666 20669 20672 20675 20678 20680 20682 20685 20688 20691 20693 20695 20698 20700 20703 20705 20708 20711 20714 20717 20719 20722 20725 20728 20731 20734 20737 20740 20743 20746 20749 20752 20755 20758 20760 20763 20765 20768 20771 20774 20777 20780 20783 20786 20789 20791 20793 20796 20799 20801 20803 20805 20808 20811 20814 20817 20820 20823 20825 20828 20831 20833 20836 20839 20841 20843 20845 20847 20850 20853 20856 20859 20862 20865 20868 20871 20874 20877 20880 20883 20886 20888 20891 20894 20896 20899 20901 20904 20907 20910 20913 20916 20919 20922 20924 20926 20929 20932 20934 20937 20940 20942 20945 20948 20951 20954 20956 20958 20960 20962 20965 20968 20971 20974 20977 20980 20983 20986 20989 20992 20995 20998 21001 21004 21006 21009 21012 21014 21017 21020 21023 21026 21028 21031 21034 21037 21039 21042 21045 21047 21050 21053 21055 21058 21061 21063 21065 21068 21070 21073 21076 21079 21082 21085 21088 21090 21093 21096 21099 21102 21104 21107 21110 21113 21116 21119 21121 21124 21127 21129 21132 21134 21136 21139 21142 21145 21147 21150 21153 21156 21159 21162 21164 21167 21170 21173 21175 21178 21181 21184 21186 21189 21192 21195 21198 21201 21204 21207 21209 21212 21215 21218 21221 21224 21226 21229 21232 21235 21238 21241 21244 21247 21249 21252 21254 21256 21259 21262 21264 21267 21270 21273 21276 21279 21282 21284 21287 21290 21293 21296 21299 21302 21304 21307 21310 21313 21316 21319 21322 21324 21327 21329 21332 21334 21337 21340 21342 21345 21348 21351 21354 21356 21358 21360 21362 21365 21368 21371 21374 21377 21380 21383 21386 21388 21391 21394 21397 21399 21402 21404 21407 21410 21413 21416 21419 21422 21425 21428 21431 21434 21437 21440 21443 21446 21449 21452 21454 21457 21459 21462 21465 21468 21471 21474 21477 21480 21483 21485 21488 21491 21494 21497 21500 21502 21505 21508 21510 21513 21516 21519 21522 21525 21528 21530 21532 21535 21538 21540 21543 21546 21549 21552 21555 21558 21561 21564 21567 21570 21573 21575 21577 21580 21583 21586 21589 21591 21594 21597 21600 21603 21606 21609 21612 21615 21617 21620 21623 21626 21629 21631 21634 21637 21640 21643 21646 21649 21651 21654 21656 21659 21661 21664 21667 21670 21673 21676 21679 21682 21685 21688 21691 21694 21697 21700 21703 21706 21709 21712 21715 21717 21720 21723 21726 21729 21732 21735 21738 21741 21744 21747 21750 21753 21756 21759 21762 21765 21768 21770 21772 21775 21778 21781 21784 21787 21790 21793 21796 21799 21802 21805 21808 21811 21814 21817 21820 21823 21826 21829 21832 21835 21838 21841 21844 21847 21850 21853 21856 21859 21862 21865 21868 21871 21874 21877 21880 21883 21886 21889 21892 21895 21898 21901 21904 21907 21909 21912 21914 21917 21920 21923 21926 21929 21932 21935 21937 21940 21943 21946 21948 21951 21953 21955 21957 21960 21962 21964 21967 21970 21972 21974 21976 21979 21982 21985 21988 21991 21993 21996 21998 22000 22003 22006 22009 22012 22015 22018 22021 22023 22026 22029 22031 22034 22037 22039 22041 22044 22047 22050 22053 22056 22059 22061 22064 22067 22069 22071 22074 22077 22079 22082 22085 22088 22090 22093 22096 22099 22102 22104 22107 22110 22113 22115 22118 22121 22123 22126 22129 22132 22135 22138 22141 22144 22147 22150 22153 22156 22159 22162 22165 22168 22171 22174 22177 22180 22182 22184 22187 22190 22193 22195 22198 22201 22204 22207 22209 22212 22215 22218 22221 22224 22226 22228 22231 22234 22237 22240 22243 22246 22249 22252 22255 22257 22260 22263 22266 22269 22272 22275 22278 22281 22284 22287 22290 22293 22296 22299 22302 22305 22308 22311 22314 22317 22320 22323 22326 22329 22332 22335 22338 22340 22343 22345 22347 22350 22353 22356 22359 22362 22365 22368 22371 22374 22377 22380 22383 22386 22389 22392 22395 22398 22401 22404 22407 22410 22413 22416 22419 22422 22425 22428 22430 22433 22436 22438 22441 22444 22446 22449 22452 22454 22457 22459 22462 22465 22468 22471 22474 22477 22480 22482 22485 22488 22491 22494 22497 22500 22503 22506 22509 22512 22515 22518 22520 22523 22525 22528 22530 22533 22536 22539 22542 22545 22547 22550 22553 22556 22559 22561 22564 22567 22569 22572 22575 22578 22581 22584 22587 22590 22593 22595 22598 22601 22604 22607 22610 22613 22615 22618 22621 22624 22627 22629 22632 22635 22638 22640 22643 22646 22649 22652 22655 22658 22661 22664 22667 22670 22673 22676 22679 22682 22685 22688 22691 22694 22696 22699 22701 22704 22707 22710 22712 22715 22718 22721 22724 22727 22730 22733 22736 22739 22742 22745 22748 22751 22754 22757 22760 22763 22766 22769 22771 22774 22777 22780 22782 22785 22788 22791 22793 22796 22799 22802 22805 22808 22811 22814 22817 22820 22823 22826 22829 22832 22835 22838 22840 22843 22846 22849 22852 22854 22857 22860 22862 22865 22868 22871 22874 22877 22880 22882 22885 22887 22890 22892 22894 22896 22899 22902 22905 22907 22909 22912 22915 22918 22921 22924 22927 22930 22932 22935 22938 22941 22943 22946 22948 22951 22954 22957 22960 22963 22966 22969 22972 22975 22977 22980 22983 22986 22989 22992 22995 22998 23001 23003 23006 23009 23012 23015 23017 23020 23023 23026 23029 23032 23035 23038 23041 23044 23047 23050 23053 23056 23059 23062 23065 23068 23071 23074 23077 23080 23082 23084 23087 23090 23093 23096 23099 23102 23105 23108 23110 23113 23116 23119 23122 23125 23128 23131 23134 23137 23140 23142 23145 23148 23151 23154 23157 23160 23162 23165 23168 23171 23174 23177 23179 23182 23184 23187 23190 23192 23194 23197 23200 23203 23206 23209 23212 23215 23218 23221 23224 23227 23230 23233 23236 23239 23242 23245 23248 23251 23254 23257 23260 23263 23266 23269 23272 23275 23278 23281 23284 23287 23290 23293 23296 23299 23302 23305 23308 23311 23314 23317 23320 23323 23326 23329 23332 23335 23338 23340 23342 23345 23348 23350 23353 23356 23359 23362 23365 23367 23369 23372 23375 23377 23379 23382 23385 23388 23391 23394 23397 23400 23403 23406 23409 23411 23414 23417 23420 23423 23426 23429 23432 23435 23438 23441 23444 23447 23450 23453 23456 23458 23461 23464 23467 23470 23473 23476 23479 23482 23485 23488 23491 23494 23497 23499 23502 23504 23506 23508 23511 23514 23517 23520 23523 23526 23529 23532 23534 23536 23539 23542 23545 23548 23550 23553 23556 23559 23562 23565 23568 23571 23574 23576 23579 23582 23585 23588 23591 23594 23597 23600 23603 23606 23609 23612 23615 23618 23621 23624 23627 23629 23632 23635 23638 23641 23644 23647 23649 23652 23655 23657 23660 23663 23666 23669 23672 23675 23678 23681 23684 23687 23690 23693 23696 23699 23702 23705 23708 23711 23713 23716 23719 23722 23724 23727 23730 23732 23735 23737 23739 23742 23745 23747 23750 23753 23756 23758 23761 23764 23766 23769 23771 23773 23776 23779 23782 23785 23787 23790 23793 23796 23799 23802 23805 23807 23810 23812 23815 23818 23821 23823 23826 23829 23832 23835 23837 23840 23842 23844 23847 23850 23853 23856 23859 23861 23864 23866 23869 23871 23874 23876 23878 23881 23884 23887 23890 23893 23896 23899 23901 23904 23906 23909 23912 23914 23917 23920 23922 23925 23928 23931 23934 23937 23940 23943 23946 23949 23952 23955 23958 23961 23964 23967 23970 23973 23976 23979 23982 23985 23988 23991 23994 23997 24000 24003 24006 24009 24012 24015 24017 24020 24023 24026 24029 24032 24035 24038 24041 24044 24047 24050 24053 24056 24059 24062 24065 24068 24071 24074 24077 24080 24083 24086 24088 24091 24094 24097 24100 24103 24105 24107 24110 24113 24116 24119 24122 24125 24128 24131 24134 24137 24140 24143 24146 24149 24152 24155 24158 24161 24164 24167 24170 24172 24175 24178 24181 24184 24187 24190 24193 24196 24199 24202 24205 24208 24211 24213 24216 24218 24221 24224 24227 24229 24232 24235 24238 24241 24244 24247 24250 24253 24255 24258 24260 24263 24266 24269 24272 24275 24277 24280 24283 24286 24289 24292 24295 24298 24301 24304 24307 24310 24312 24315 24318 24321 24324 24327 24330 24333 24336 24339 24342 24345 24347 24350 24353 24356 24359 24362 24365 24368 24371 24373 24376 24379 24382 24385 24388 24391 24394 24397 24400 24403 24406 24409 24412 24415 24418 24421 24424 24427 24430 24433 24436 24439 24442 24445 24448 24451 24453 24456 24459 24461 24464 24467 24470 24473 24476 24479 24482 24485 24488 24491 24494 24497 24500 24503 24506 24509 24512 24515 24518 24521 24524 24527 24530 24533 24536 24539 24542 24545 24547 24550 24552 24555 24557 24560 24563 24566 24569 24572 24574 24577 24580 24583 24586 24588 24591 24594 24597 24599 24602 24605 24608 24611 24614 24617 24620 24623 24626 24629 24632 24635 24638 24641 24644 24647 24650 24653 24655 24657 24659 24662 24665 24668 24671 24674 24677 24680 24683 24686 24689 24692 24695 24698 24700 24703 24706 24709 24712 24715 24718 24721 24724 24727 24730 24733 24736 24738 24741 24744 24746 24749 24752 24755 24758 24761 24764 24767 24770 24773 24776 24779 24782 24785 24788 24791 24794 24797 24800 24803 24806 24809 24811 24813 24816 24819 24822 24825 24828 24831 24834 24837 24840 24843 24846 24849 24852 24855 24857 24860 24863 24865 24868 24871 24874 24877 24879 24882 24885 24888 24891 24894 24897 24899 24902 24905 24908 24911 24914 24917 24920 24923 24926 24929 24932 24935 24938 24941 24944 24947 24950 24953 24955 24958 24961 24964 24967 24970 24972 24975 24978 24981 24984 24987 24990 24993 24996 24999 25002 25005 25008 25011 25014 25017 25020 25023 25026 25029 25032 25035 25038 25041 25044 25047 25050 25053 25056 25058 25061 25063 25066 25069 25072 25075 25077 25079 25082 25085 25088 25091 25094 25097 25100 25103 25106 25109 25112 25115 25118 25121 25124 25127 25130 25133 25136 25139 25142 25145 25148 25151 25154 25157 25160 25163 25166 25169 25172 25175 25178 25181 25184 25186 25189 25192 25195 25198 25200 25203 25206 25209 25212 25215 25218 25221 25224 25227 25230 25233 25235 25238 25241 25244 25247 25250 25253 25256 25259 25262 25265 25268 25271 25274 25277 25280 25283 25286 25288 25290 25293 25295 25298 25301 25304 25307 25310 25313 25316 25319 25322 25325 25327 25330 25333 25336 25339 25342 25345 25348 25351 25354 25357 25360 25363 25366 25369 25372 25375 25378 25380 25383 25386 25389 25392 25394 25397 25400 25403 25406 25409 25412 25415 25418 25421 25424 25427 25430 25433 25436 25439 25442 25445 25448 25451 25454 25457 25460 25463 25466 25469 25472 25475 25478 25481 25484 25487 25490 25493 25496 25499 25502 25505 25508 25511 25514 25517 25520 25523 25526 25529 25532 25535 25538 25541 25544 25547 25550 25553 25556 25559 25562 25565 25568 25571 25574 25577 25580 25583 25586 25589 25592 25595 25598 25601 25604 25607 25610 25613 25616 25619 25622 25625 25628 25631 25634 25637 25639 25642 25645 25648 25651 25654 25657 25660 25662 25665 25668 25670 25673 25676 25679 25682 25685 25688 25691 25694 25697 25700 25703 25706 25708 25711 25713 25716 25718 25721 25724 25727 25730 25733 25736 25739 25742 25744 25747 25750 25753 25756 25759 25762 25765 25768 25771 25773 25776 25779 25782 25785 25788 25791 25794 25797 25800 25803 25806 25809 25812 25815 25818 25821 25824 25827 25830 25833 25836 25838 25841 25844 25847 25850 25853 25856 25859 25862 25865 25868 25871 25874 25876 25879 25882 25885 25888 25891 25893 25896 25899 25901 25904 25907 25910 25913 25915 25917 25920 25923 25925 25928 25931 25934 25937 25940 25943 25946 25948 25950 25953 25956 25959 25962 25965 25968 25971 25974 25977 25980 25983 25986 25988 25991 25994 25997 26000 26002 26005 26008 26011 26014 26017 26020 26023 26026 26028 26031 26034 26037 26040 26042 26045 26048 26051 26054 26056 26059 26062 26065 26068 26071 26074 26077 26079 26082 26085 26088 26091 26094 26096 26099 26102 26105 26107 26110 26113 26116 26119 26122 26124 26127 26130 26133 26136 26139 26142 26145 26148 26151 26154 26157 26160 26163 26166 26168 26171 26174 26176 26179 26182 26185 26188 26191 26194 26197 26200 26203 26206 26209 26212 26215 26218 26221 26224 26227 26230 26233 26236 26239 26241 26244 26247 26249 26252 26255 26257 26260 26263 26266 26269 26272 26275 26278 26281 26284 26287 26290 26293 26296 26299 26302 26305 26308 26311 26314 26317 26320 26323 26326 26329 26332 26335 26338 26341 26344 26347 26349 26352 26355 26358 26361 26363 26366 26369 26371 26374 26376 26379 26382 26385 26388 26390 26393 26395 26398 26401 26403 26406 26408 26411 26413 26415 26418 26421 26423 26426 26428 26431 26433 26436 26439 26441 26444 26447 26450 26453 26456 26459 26461 26464 26466 26469 26472 26474 26476 26479 26482 26484 26487 26489 26492 26495 26497 26500 26503 26505 26508 26511 26513 26515 26517 26520 26522 26525 26528 26531 26534 26537 26540 26543 26546 26548 26551 26554 26557 26560 26563 26566 26569 26571 26574 26577 26580 26583 26586 26589 26592 26595 26598 26601 26604 26607 26610 26613 26615 26618 26621 26624 26627 26630 26633 26636 26639 26642 26645 26648 26651 26654 26657 26660 26663 26666 26669 26672 26674 26677 26680 26683 26686 26689 26692 26695 26698 26701 26704 26707 26710 26713 26716 26719 26722 26725 26728 26731 26734 26737 26740 26743 26746 26749 26752 26755 26758 26761 26764 26767 26769 26772 26775 26778 26780 26783 26785 26787 26790 26792 26795 26798 26801 26803 26806 26809 26812 26815 26817 26819 26821 26824 26827 26830 26833 26836 26839 26842 26845 26848 26851 26854 26857 26860 26863 26866 26869 26872 26874 26877 26880 26883 26886 26889 26892 26895 26898 26901 26903 26906 26909 26912 26914 26917 26920 26923 26926 26929 26932 26935 26938 26941 26944 26947 26950 26952 26955 26958 26960 26963 26966 26969 26972 26975 26978 26981 26984 26987 26990 26993 26996 26999 27002 27005 27008 27011 27014 27017 27020 27023 27026 27028 27031 27034 27037 27040 27043 27046 27049 27052 27055 27058 27061 27064 27067 27070 27073 27076 27079 27082 27084 27087 27090 27093 27096 27099 27102 27105 27107 27110 27113 27116 27119 27121 27124 27127 27130 27133 27136 27139 27142 27145 27148 27151 27154 27157 27160 27163 27166 27169 27172 27175 27178 27181 27184 27187 27190 27193 27196 27199 27202 27205 27208 27211 27214 27217 27220 27223 27226 27228 27230 27233 27236 27239 27242 27244 27247 27249 27252 27255 27258 27261 27264 27266 27269 27272 27275 27278 27281 27284 27287 27290 27292 27294 27297 27300 27303 27306 27308 27311 27314 27317 27320 27323 27326 27329 27332 27335 27338 27341 27344 27347 27350 27353 27356 27359 27362 27365 27368 27371 27373 27376 27379 27382 27385 27388 27391 27393 27396 27399 27401 27404 27407 27410 27413 27416 27419 27422 27425 27428 27430 27433 27436 27439 27442 27445 27448 27451 27454 27456 27459 27462 27465 27468 27471 27474 27477 27480 27483 27486 27489 27492 27495 27498 27501 27504 27507 27509 27512 27515 27517 27520 27523 27526 27529 27532 27535 27538 27541 27544 27547 27550 27553 27556 27559 27562 27565 27568 27571 27574 27577 27580 27583 27586 27589 27592 27595 27598 27601 27604 27606 27609 27611 27614 27617 27620 27623 27626 27629 27632 27635 27638 27641 27644 27647 27650 27653 27656 27659 27662 27665 27668 27671 27674 27677 27679 27682 27685 27688 27690 27693 27696 27699 27702 27705 27708 27711 27714 27717 27720 27723 27726 27728 27731 27734 27737 27739 27741 27744 27747 27749 27752 27755 27758 27761 27764 27767 27770 27773 27776 27778 27781 27784 27787 27790 27793 27796 27799 27802 27805 27808 27811 27814 27817 27819 27822 27824 27827 27830 27833 27836 27839 27842 27845 27848 27851 27854 27857 27860 27863 27866 27869 27872 27875 27878 27881 27884 27887 27890 27893 27896 27899 27902 27905 27908 27911 27913 27916 27919 27922 27925 27928 27931 27933 27936 27939 27942 27945 27948 27951 27954 27957 27960 27963 27966 27969 27972 27975 27978 27981 27983 27986 27988 27991 27994 27997 28000 28003 28006 28009 28011 28014 28017 28020 28022 28025 28028 28031 28034 28036 28039 28042 28045 28048 28051 28054 28056 28059 28062 28065 28068 28070 28073 28075 28078 28081 28084 28087 28090 28093 28096 28099 28101 28103 28106 28109 28112 28114 28116 28119 28122 28125 28128 28131 28134 28137 28139 28141 28144 28146 28148 28151 28154 28157 28160 28162 28165 28167 28170 28173 28176 28179 28182 28185 28187 28190 28193 28196 28199 28201 28204 28207 28210 28213 28215 28218 28221 28224 28227 28230 28232 28235 28238 28240 28243 28246 28249 28252 28254 28257 28260 28263 28266 28269 28272 28275 28278 28281 28283 28285 28288 28291 28294 28297 28300 28303 28306 28309 28312 28315 28318 28321 28324 28326 28329 28331 28334 28337 28340 28343 28346 28349 28352 28355 28358 28361 28364 28367 28370 28373 28376 28379 28382 28385 28388 28391 28394 28396 28399 28402 28405 28408 28411 28414 28417 28420 28423 28426 28429 28432 28435 28438 28441 28444 28447 28450 28453 28456 28459 28462 28465 28468 28471 28474 28476 28479 28482 28485 28488 28491 28494 28497 28500 28502 28505 28507 28510 28513 28516 28519 28522 28525 28527 28530 28533 28536 28539 28542 28545 28548 28551 28554 28557 28560 28563 28566 28569 28572 28575 28578 28581 28584 28587 28590 28593 28596 28599 28602 28605 28607 28610 28613 28616 28619 28622 28625 28628 28631 28633 28636 28639 28641 28644 28647 28649 28652 28655 28658 28661 28664 28666 28669 28672 28675 28678 28681 28684 28687 28690 28693 28695 28698 28701 28704 28707 28710 28713 28716 28719 28722 28725 28728 28731 28734 28737 28740 28742 28745 28748 28751 28754 28757 28760 28763 28766 28768 28771 28774 28777 28780 28783 28786 28789 28792 28795 28798 28801 28804 28807 28810 28813 28816 28819 28822 28824 28827 28829 28832 28834 28837 28840 28842 28844 28847 28850 28853 28856 28859 28862 28865 28868 28871 28874 28877 28880 28883 28886 28888 28891 28894 28897 28900 28903 28906 28908 28911 28914 28917 28919 28922 28925 28928 28931 28934 28937 28940 28943 28946 28949 28952 28955 28957 28960 28963 28966 28969 28971 28973 28975 28978 28981 28984 28987 28990 28993 28996 28998 29001 29004 29006 29009 29011 29014 29016 29019 29022 29025 29028 29031 29033 29036 29039 29042 29045 29048 29051 29054 29057 29060 29063 29066 29069 29072 29075 29078 29081 29084 29087 29090 29093 29095 29098 29101 29104 29106 29109 29111 29113 29115 29118 29121 29124 29127 29130 29132 29135 29138 29141 29144 29147 29150 29153 29156 29159 29162 29165 29168 29171 29174 29177 29180 29183 29186 29189 29192 29195 29198 29201 29204 29207 29210 29212 29215 29218 29220 29223 29226 29229 29232 29235 29238 29241 29244 29246 29249 29251 29254 29257 29260 29263 29266 29269 29272 29275 29277 29280 29283 29286 29289 29291 29294 29297 29299 29302 29305 29307 29310 29313 29316 29318 29321 29324 29327 29330 29333 29336 29339 29342 29345 29348 29351 29354 29357 29360 29363 29366 29369 29372 29375 29378 29380 29383 29386 29389 29392 29395 29398 29400 29403 29406 29409 29412 29415 29417 29420 29423 29426 29429 29432 29434 29437 29439 29441 29444 29447 29450 29453 29456 29459 29462 29465 29468 29471 29474 29477 29479 29482 29485 29488 29491 29493 29496 29498 29500 29503 29506 29509 29511 29514 29517 29520 29523 29526 29529 29532 29535 29538 29541 29544 29547 29550 29553 29556 29559 29562 29565 29568 29571 29574 29577 29579 29582 29584 29587 29590 29592 29595 29598 29600 29603 29606 29608 29611 29614 29617 29619 29621 29624 29627 29630 29633 29636 29639 29642 29644 29647 29650 29653 29656 29659 29662 29665 29668 29670 29673 29676 29679 29682 29685 29688 29691 29693 29696 29699 29702 29704 29707 29709 29711 29714 29717 29720 29722 29725 29728 29731 29734 29737 29740 29743 29746 29749 29752 29755 29758 29761 29764 29767 29770 29773 29776 29779 29782 29785 29788 29790 29793 29796 29798 29801 29804 29807 29809 29812 29815 29818 29821 29824 29827 29830 29832 29834 29837 29840 29842 29845 29848 29851 29854 29857 29860 29863 29866 29869 29872 29875 29878 29881 29884 29887 29890 29893 29896 29899 29902 29905 29908 29911 29914 29917 29920 29923 29926 29929 29932 29935 29938 29941 29944 29947 29949 29952 29955 29958 29961 29964 29967 29970 29972 29975 29978 29980 29983 29986 29988 29991 29994 29997 30000 30003 30006 30009 30012 30015 30018 30021 30024 30027 30030 30033 30036 30039 30042 30045 30047 30050 30053 30056 30059 30061 30064 30067 30070 30073 30076 30079 30082 30085 30088 30091 30093 30096 30099 30102 30105 30107 30110 30113 30116 30119 30121 30123 30126 30128 30131 30134 30137 30140 30143 30146 30149 30152 30155 30158 30161 30164 30167 30170 30172 30175 30178 30181 30184 30187 30190 30193 30196 30199 30201 30204 30207 30210 30213 30216 30219 30222 30225 30228 30231 30234 30237 30240 30243 30246 30249 30252 30255 30258 30261 30264 30267 30270 30273 30276 30279 30282 30285 30288 30291 30294 30297 30300 30303 30306 30309 30312 30315 30318 30321 30324 30326 30329 30332 30335 30338 30340 30343 30346 30348 30351 30354 30357 30360 30363 30366 30368 30370 30373 30376 30379 30382 30384 30387 30390 30393 30396 30399 30402 30405 30408 30411 30414 30417 30420 30423 30426 30429 30432 30435 30438 30441 30444 30447 30450 30453 30456 30459 30462 30465 30468 30471 30474 30477 30480 30483 30486 30489 30492 30495 30498 30501 30504 30507 30510 30513 30516 30519 30522 30525 30528 30531 30534 30537 30540 30543 30546 30549 30552 30555 30558 30561 30564 30567 30569 30572 30575 30578 30581 30584 30586 30589 30591 30594 30597 30600 30603 30606 30609 30612 30615 30618 
</DataArray>
<DataArray type="UInt32" Name="types" format="ascii">
3 5 5 5 5 5 5 5 5 3 5 5 5 3 5 5 5 5 5 5 5 5 5 5 5 5 5 5 5 3 5 5 3 5 5 5 3 5 5 5 3 5 5 5 5 5 5 5 5 3 5 5 5 5 5 5 3 5 5 5 5 5 5 5 5 5 3 5 5 3 5 5 5 3 5 3 5 3 3 5 5 5 5 5 5 5 5 5 3 5 3 5 5 3 5 5 5 5 5 5 5 5 5 5 5 5 5 5 5 3 5 5 5 5 3 5 5 3 3 5 5 3 5 5 5 3 3 3 5 3 5 5 5 5 5 5 5 5 5 3 3 5 5 5 5 5 5 3 5 5 5 5 5 3 3 5 5 3 5 5 3 3 5 3 3 5 5 5 5 5 5 5 5 5 5 5 5 3 5 5 3 5 5 5 5 5 5 5 5 5 5 5 5 5 5 5 5 5 5 5 5 3 5 5 5 5 5 5 5 5 5 5 5 5 5 5 5 3 5 5 3 5 5 5 5 3 3 5 5 5 5 5 5 5 5 5 5 5 5 5 5 5 3 5 5 5 3 5 5 5 5 5 5 5 5 3 3 5 5 5 5 5 5 5 5 5 3 5 5 5 5 5 3 5 3 5 5 5 5 5 3 3 5 5 5 3 5 3 5 5 5 3 5 3 5 5 3 5 5 5 3 5 5 5 5 5 3 3 5 5 3 5 3 3 5 5 3 5 3 5 5 5 5 3 5 3 5 5 3 3 3 5 3 5 3 3 5 5 5 5 5 5 5 5 5 3 5 5 5 5 5 5 5 5 5 5 5 5 5 5 5 5 5 5 5 5 5 5 5 5 3 5 3 5 5 5 5 5 3 5 3 5 5 3 5 5 5 5 3 5 3 5 5 5 5 5 5 5 5 5 5 5 5 5 3 5 5 3 5 5 5 5 5 5 5 5 5 5 5 5 5 5 5 5 5 3 5 5 5 5 5 5 5 5 5 5 3 5 5 5 3 3 5 5 5 5 5 5 5 5 5 5 5 5 5 5 5 5 5 5 5 5 5 5 5 3 5 5 3 5 5 3 5 3 5 5 5 3 5 3 3 5 5 5 5 5 5 5 5 5 5 3 5 5 5 5 5 5 5 5 5 5 5 5 5 5 5 5 5 5 5 5 5 5 5 5 5 5 5 5 5 5 5 5 3 5 5 5 5 3 5 5 5 5 5 5 5 3 5 5 5 5 5 5 5 5 5 3 5 3 3 5 5 3 5 3 5 5 5 5 5 5 5 5 3 5 5 5 5 5 3 5 5 5 5 5 5 3 5 5 5 5 5 5 5 5 3 5 3 5 5 5 5 5 3 5 3 5 5 5 5 5 5 3 5 5 5 5 5 5 5 5 5 5 3 3 5 5 5 5 3 5 5 5 5 5 5 5 5 5 5 5 5 3 5 5 3 5 5 5 5 5 5 5 5 5 5 3 3 5 5 5 5 5 5 5 5 5 5 3 5 3 5 5 5 5 5 5 5 5 5 5 5 5 5 5 5 5 5 5 5 5 5 5 5 5 5 5 5 5 5 5 5 5 5 5 5 5 5 5 5 3 5 5 5 3 5 3 5 3 5 5 3 5 3 5 3 5 5 3 5 5 5 5 5 5 5 5 3 5 5 3 5 5 5 5 3 5 5 5 5 5 5 5 5 5 5 3 5 3 5 3 5 3 5 3 5 5 5 3 5 3 5 5 5 5 5 5 5 5 5 5 5 5 3 5 5 3 3 5 5 5 3 5 5 3 5 5 3 5 5 5 3 5 5 5 5 5 3 5 5 3 3 5 5 5 3 3 3 5 5 3 5 5 3 5 5 5 5 5 5 3 5 5 3 5 5 3 5 5 5 5 5 5 5 5 3 5 5 5 5 5 3 3 3 5 5 5 5 5 5 5 5 5 5 5 3 5 5 5 5 3 5 5 5 5 5 5 5 3 5 5 5 3 5 3 5 3 5 3 5 5 5 5 5 5 5 5 5 5 3 5 5 5 5 5 5 5 5 3 5 5 3 5 5 5 5 3 5 5 5 5 5 5 3 5 3 5 5 5 5 5 5 3 3 5 5 5 5 3 5 3 5 5 5 3 5 5 5 5 5 5 5 3 3 5 5 3 5 3 3 3 5 5 5 5 5 5 5 3 5 5 5 5 5 5 5 5 5 5 5 5 5 3 5 5 5 5 5 5 5 5 5 5 3 5 5 3 5 5 5 5 5 3 5 5 5 5 5 5 5 5 3 5 3 5 5 3 5 5 3 5 5 5 5 3 5 5 5 5 5 3 5 5 5 5 5 5 5 5 5 3 5 5 3 3 5 5 5 5 3 5 3 5 5 3 3 5 3 5 3 5 5 5 5 5 3 5 5 5 3 5 5 5 3 5 5 5 5 5 5 5 5 5 5 3 5 5 5 5 5 5 5 5 5 5 5 5 5 5 5 5 5 5 3 5 5 3 5 5 5 5 3 5 5 5 5 5 5 5 5 5 5 5 5 5 5 5 5 5 5 5 5 5 5 5 5 5 5 5 5 5 5 5 5 5 5 5 5 5 5 5 5 5 5 5 5 5 5 5 5 5 5 5 5 5 5 5 5 5 5 3 5 5 5 5 5 5 5 5 5 5 5 5 5 5 5 5 5 5 5 3 5 5 5 5 3 5 5 5 5 5 5 5 5 5 5 5 5 5 5 5 5 5 5 3 5 5 5 5 3 5 5 5 5 5 3 3 5 5 5 5 5 5 5 5 5 5 5 5 5 5 5 5 5 5 3 5 5 5 3 5 3 5 5 5 5 5 5 5 5 5 3 5 5 5 5 3 3 5 5 5 5 5 5 5 5 5 5 5 5 5 5 5 5 5 5 5 3 5 5 5 5 5 5 5 5 5 5 5 5 5 3 5 5 5 5 5 5 5 5 5 5 5 5 5 5 5 5 5 5 5 5 5 5 3 5 5 5 5 5 5 5 3 5 5 5 3 5 5 5 5 5 5 5 5 5 5 5 5 5 5 5 5 5 5 5 5 5 5 5 5 3 5 3 5 5 5 5 3 5 3 5 5 5 5 5 5 5 3 5 5 5 5 3 5 5 5 5 5 5 5 5 5 5 5 3 5 5 5 5 5 5 3 5 3 5 5 5 5 5 3 5 5 3 5 5 3 5 5 5 5 5 5 5 5 5 5 5 5 5 5 5 5 5 5 5 5 5 5 5 5 5 5 5 3 5 5 5 3 5 3 5 5 3 3 5 5 5 3 5 5 5 5 3 5 3 5 5 3 5 5 5 5 5 3 5 5 5 5 5 3 5 5 5 5 5 5 5 5 5 5 5 5 5 5 5 5 5 5 5 5 5 5 5 5 5 5 5 5 5 5 5 5 5 5 5 5 5 5 5 5 5 5 5 3 3 5 5 5 5 5 5 5 5 5 5 5 5 5 5 5 5 5 5 5 5 5 5 5 5 5 5 5 5 3 5 5 5 5 3 5 5 5 5 3 5 5 5 5 5 5 5 3 5 3 5 5 5 5 5 3 5 5 5 5 5 5 5 5 5 5 3 5 5 5 5 5 5 5 5 5 5 5 5 5 5 5 5 5 5 5 5 5 5 5 5 5 3 5 5 5 5 3 5 3 5 5 3 5 3 5 5 5 5 5 5 3 5 5 5 3 5 5 5 5 5 5 5 5 5 5 5 5 5 5 5 5 5 3 5 3 5 5 5 5 5 3 5 3 5 5 5 5 5 5 5 5 3 5 5 5 5 5 5 5 5 5 5 5 5 5 5 5 5 5 5 5 5 5 5 5 3 5 3 5 5 5 5 5 5 5 5 5 5 5 5 3 5 5 5 5 5 5 5 5 5 5 5 5 5 5 5 5 5 5 5 5 5 5 5 5 5 5 5 3 5 5 5 3 5 3 3 5 5 5 5 5 3 5 5 5 5 5 5 5 5 5 5 5 5 5 5 5 5 5 5 5 5 5 5 5 5 3 5 5 3 5 5 5 5 5 5 5 5 3 3 5 5 5 5 5 5 5 5 5 5 3 5 5 3 3 5 3 5 5 5 5 5 3 5 3 3 3 5 5 5 5 5 5 3 5 5 5 5 5 5 5 5 5 3 5 3 5 5 3 5 5 5 5 5 5 5 5 5 5 5 5 5 5 5 5 5 5 5 5 5 5 5 5 5 5 3 3 5 5 5 5 5 5 5 5 5 5 5 5 5 5 5 5 5 5 5 5 5 5 5 5 5 5 5 5 5 5 5 5 5 5 5 5 5 5 5 5 5 5 5 5 5 5 5 5 5 5 5 5 5 5 5 5 3 5 5 5 5 5 5 5 5 5 3 3 5 5 5 3 5 5 5 5 5 5 5 5 5 5 5 5 5 5 5 5 5 5 5 5 5 5 5 5 5 5 5 5 5 5 3 5 5 5 5 5 5 5 3 5 5 5 5 5 5 5 3 5 5 3 5 5 5 5 5 5 5 5 5 3 5 5 3 3 5 5 5 3 5 5 5 5 5 5 5 5 5 5 5 3 5 5 5 5 3 5 3 5 5 3 5 5 3 3 5 5 5 5 5 5 5 5 5 5 3 3 5 5 5 5 5 5 3 5 5 5 5 5 5 3 5 3 5 5 5 5 5 3 3 5 5 5 5 5 5 5 5 5 5 5 5 5 5 5 5 5 5 5 3 3 5 5 3 5 5 5 5 5 5 5 5 5 5 5 3 5 5 5 5 5 5 5 5 5 5 5 5 5 5 5 5 5 5 5 5 5 5 5 5 5 5 5 5 3 5 5 5 5 3 3 5 5 5 5 5 5 5 3 5 3 5 5 5 5 5 5 5 5 5 5 5 5 5 5 5 5 5 5 5 5 3 3 5 3 5 5 5 5 5 3 5 5 5 5 5 5 5 5 5 5 5 5 5 5 5 5 5 3 5 5 5 5 5 5 5 5 5 5 5 3 5 5 5 5 5 5 5 5 5 5 3 5 5 5 5 5 5 5 5 5 3 5 5 5 5 3 5 5 5 3 5 5 5 5 3 5 5 5 5 5 5 5 5 5 3 5 5 5 5 3 5 5 5 5 5 5 5 5 3 5 3 3 5 3 3 5 5 5 3 5 5 5 3 5 3 5 5 5 5 5 3 5 5 5 3 5 5 5 5 5 5 3 3 5 5 5 5 5 5 5 5 5 5 5 3 5 3 3 5 5 5 5 5 3 3 5 5 3 5 5 5 5 3 5 5 5 5 5 3 5 5 5 5 3 3 5 5 3 5 3 3 5 5 5 5 5 5 5 5 5 5 5 5 5 5 5 5 5 5 5 5 5 3 5 5 3 5 3 5 5 5 3 5 5 5 5 5 5 3 3 5 5 5 5 5 5 3 5 5 3 5 5 5 5 5 5 3 5 5 5 3 5 5 5 5 5 5 3 5 5 5 5 5 5 5 5 5 5 5 5 5 3 5 3 5 5 5 5 5 5 5 5 5 3 5 5 5 3 5 5 5 5 5 5 5 5 5 5 3 5 5 5 5 5 5 5 5 5 5 5 5 5 5 5 5 5 5 5 5 5 5 5 5 5 3 5 5 5 3 5 5 3 5 5 5 5 5 3 5 5 5 3 5 5 5 5 5 5 5 3 5 5 5 5 5 5 5 5 5 5 5 5 5 5 5 5 5 3 5 3 5 5 5 5 5 5 5 5 5 3 5 3 5 3 5 3 3 5 5 5 5 3 5 5 5 5 3 5 5 5 5 5 3 5 3 5 5 3 5 5 5 5 5 5 5 5 5 5 5 5 5 5 5 5 5 3 5 5 5 5 5 5 3 5 5 5 5 5 3 5 5 5 5 5 5 5 3 5 5 3 5 5 5 5 5 5 3 5 5 5 3 5 5 5 5 5 5 5 5 5 5 5 5 5 5 5 5 5 3 5 5 5 5 5 3 3 5 5 5 5 5 3 5 3 5 3 5 3 3 5 5 5 3 3 5 5 5 5 5 5 5 5 5 5 5 5 5 5 5 5 5 5 5 5 5 5 5 5 5 5 5 5 5 5 5 5 5 5 5 5 5 5 3 5 5 5 5 5 5 5 3 5 3 5 5 5 5 5 5 3 5 5 5 3 5 5 5 3 3 5 3 5 5 5 5 5 5 3 5 5 3 5 5 5 5 5 5 5 5 5 5 5 5 3 3 3 5 5 5 3 5 5 5 5 5 5 5 5 5 5 5 5 5 5 5 5 5 5 5 5 5 5 3 5 5 5 5 3 5 5 5 5 5 5 5 3 5 5 5 5 5 3 5 5 5 5 5 3 5 5 5 5 5 5 5 5 5 3 5 5 5 5 3 5 5 5 5 5 5 5 5 5 5 3 5 5 3 5 5 5 5 5 5 5 5 5 5 5 5 5 5 5 5 5 5 5 5 3 5 5 5 5 3 5 5 5 5 5 5 5 5 3 5 5 5 5 5 3 5 5 3 5 5 5 5 5 5 5 5 5 5 5 5 3 5 5 5 5 5 5 5 5 5 5 5 5 5 5 5 5 5 5 5 5 5 5 5 5 5 5 5 5 3 5 5 5 5 5 5 5 5 5 5 5 5 5 5 3 5 5 5 5 5 5 5 5 5 5 5 5 5 5 5 5 5 5 5 3 5 5 5 5 5 5 5 3 5 5 5 5 5 5 5 5 5 5 5 5 5 5 5 5 5 5 5 5 5 5 5 5 3 5 5 5 5 5 3 5 5 5 5 5 5 5 5 5 5 3 5 5 3 5 3 5 5 5 5 5 5 5 3 5 3 5 3 5 5 5 5 5 5 5 5 5 5 5 5 5 5 5 5 5 5 5 5 5 5 5 5 5 5 5 5 5 5 5 5 5 5 5 5 3 5 5 5 5 5 5 5 5 5 5 5 5 5 5 5 5 5 5 5 5 5 5 5 5 5 5 5 5 5 5 5 3 5 5 5 5 5 5 3 3 5 5 5 5 5 5 5 5 5 5 5 5 5 3 5 5 5 5 5 5 5 5 5 5 3 3 5 3 5 5 5 3 5 3 3 5 3 5 5 5 5 5 5 5 3 3 5 5 5 5 3 5 5 5 5 3 5 3 5 3 3 5 3 5 5 5 5 5 3 5 3 3 3 3 5 5 5 5 5 3 5 5 3 3 5 5 5 3 5 5 3 5 5 5 5 3 5 5 3 5 5 3 5 5 5 5 5 5 5 5 5 5 5 5 5 5 3 5 3 5 5 5 5 5 3 5 5 3 5 5 5 5 5 3 5 5 5 5 5 5 5 5 5 5 3 5 5 5 5 5 5 5 5 5 5 5 3 5 5 5 5 5 5 3 5 5 5 5 5 5 5 5 5 5 5 5 5 5 3 5 5 5 3 5 5 5 5 5 5 5 3 5 3 5 5 5 5 5 5 5 5 5 5 5 5 5 5 5 5 5 5 5 5 5 5 5 5 5 5 5 5 5 5 5 5 5 5 5 5 3 5 3 5 5 3 5 3 5 5 5 5 5 5 3 5 5 3 3 5 5 5 5 5 5 3 5 5 5 5 5 5 5 3 5 5 5 5 5 5 5 5 5 5 5 5 5 5 5 5 5 5 5 3 5 5 5 3 5 3 5 3 5 5 5 5 3 5 5 5 5 5 5 3 5 5 5 5 5 5 3 5 5 3 5 5 5 5 5 5 3 5 5 5 5 5 5 5 5 5 3 5 3 5 5 5 5 5 3 3 5 5 5 3 3 5 5 5 5 5 5 3 5 5 3 3 5 5 3 5 5 3 5 5 5 5 3 5 5 5 5 5 5 3 5 5 5 5 5 5 5 5 5 5 3 5 5 5 3 3 5 5 5 5 5 5 5 5 5 3 5 5 5 5 5 5 5 5 5 5 5 3 3 5 5 5 5 3 5 5 5 5 3 5 5 5 5 3 5 5 5 3 5 5 5 5 3 5 5 5 5 5 3 5 5 5 5 3 5 5 5 5 5 5 5 5 5 5 5 5 5 5 5 5 5 5 5 5 5 5 5 5 5 5 5 5 5 5 5 5 3 5 5 5 5 3 5 5 5 5 5 5 3 5 5 5 3 5 3 5 5 5 5 5 5 5 5 5 5 5 5 5 5 5 5 5 5 5 5 5 5 5 3 5 3 5 5 5 3 5 5 5 5 5 5 5 5 5 5 5 5 5 3 5 5 3 5 5 3 3 5 3 5 5 5 5 5 5 5 5 5 5 5 5 5 5 5 5 5 3 5 5 5 5 5 3 5 5 5 5 5 5 5 3 5 5 5 5 5 5 5 3 5 5 5 5 5 5 5 5 5 5 5 5 5 5 5 3 5 5 5 3 5 5 5 5 5 5 5 5 5 5 5 3 5 5 5 5 5 5 3 5 5 3 5 3 5 5 5 3 5 5 5 5 5 5 5 5 5 5 5 3 5 5 5 5 5 3 5 5 5 3 5 5 5 3 5 5 5 5 5 3 5 3 5 5 5 5 5 5 5 5 3 5 3 5 5 3 5 3 5 3 5 5 5 5 5 5 5 5 5 5 3 5 3 5 5 5 5 3 5 5 5 3 3 5 5 5 3 5 3 3 5 5 3 3 5 3 3 5 5 3 3 5 5 3 5 5 3 5 3 5 5 3 5 5 3 5 3 5 5 5 3 5 3 5 5 3 3 5 5 5 3 3 5 3 5 5 5 5 5 5 5 5 3 5 5 3 3 5 3 5 3 3 5 5 5 3 5 5 3 5 5 5 5 5 5 3 3 5 5 5 5 5 5 5 3 3 5 5 5 5 3 5 5 5 3 5 5 3 5 5 5 5 5 3 5 5 3 5 5 5 3 3 5 5 3 5 5 5 3 5 5 5 3 3 5 5 3 5 5 5 5 3 3 5 5 3 3 5 3 3 5 5 5 5 5 5 3 5 5 5 5 5 5 5 5 5 5 3 3 5 5 5 5 5 5 5 3 5 5 5 5 5 5 5 5 5 3 5 5 3 5 5 3 5 5 5 5 5 5 5 5 5 5 5 5 5 5 5 5 5 5 3 3 5 5 5 5 3 5 5 3 5 5 5 5 5 5 5 5 5 3 5 5 3 5 5 5 5 5 5 5 5 5 5 5 3 5 3 5 5 5 5 5 5 5 5 5 5 3 5 5 5 5 5 5 5 5 5 5 5 5 5 5 5 5 5 5 5 5 5 5 5 5 5 5 5 5 5 5 5 5 5 5 5 5 5 5 5 3 5 5 5 5 5 5 5 5 5 3 5 5 3 5 5 5 5 5 5 5 5 5 5 5 5 5 5 5 5 3 5 3 5 5 3 5 5 5 3 3 5 3 3 5 3 5 5 3 5 5 3 5 5 5 5 5 5 5 5 5 5 5 5 5 5 5 5 5 5 5 5 5 3 5 5 5 5 5 5 5 5 5 5 5 5 5 5 5 5 5 5 5 3 5 5 5 5 5 3 5 5 5 5 5 5 5 5 5 5 5 5 5 5 5 5 5 5 5 5 5 5 5 5 3 5 5 5 5 5 5 3 5 5 5 5 5 5 5 5 5 5 5 5 5 5 5 3 5 5 5 3 3 5 5 5 3 5 5 5 5 5 5 5 5 3 5 5 5 5 3 5 5 5 5 5 5 5 5 5 5 5 5 5 3 5 5 5 5 5 5 5 5 5 5 5 5 5 5 5 5 5 5 5 5 5 5 5 5 5 5 5 3 5 5 5 5 5 5 5 5 5 5 5 5 5 5 5 3 3 5 5 5 3 5 5 5 5 5 5 5 5 5 5 5 5 5 5 5 5 5 5 5 5 5 5 5 5 5 5 5 5 5 5 3 5 5 5 5 5 5 5 5 5 5 5 5 5 5 5 5 5 5 5 5 5 5 5 5 5 3 5 5 5 5 5 5 5 3 5 5 5 3 5 5 3 5 5 5 5 5 5 5 5 3 3 5 5 5 5 5 3 5 5 5 5 5 5 5 5 5 5 5 5 5 5 5 5 5 5 5 3 5 3 5 3 5 5 5 3 5 3 5 5 5 5 5 5 5 5 5 5 5 5 3 5 5 5 5 3 5 5 3 5 3 5 5 3 5 5 5 3 5 5 5 5 5 5 5 5 5 3 5 5 5 5 3 5 5 5 5 3 5 5 5 5 5 5 3 5 3 5 3 5 5 5 3 5 5 5 5 5 5 3 3 5 5 5 5 5 3 5 5 5 5 5 5 5 5 5 5 5 5 5 5 5 5 5 5 5 3 5 5 5 5 5 5 5 5 5 3 5 3 5 3 5 5 5 5 5 5 5 5 5 5 5 5 3 5 5 3 5 5 5 5 5 5 5 5 5 3 5 3 5 5 5 5 5 5 3 5 5 5 5 5 5 5 5 5 5 5 5 5 5 5 5 5 5 5 5 5 5 5 5 5 5 5 5 5 5 5 5 5 5 5 5 5 5 5 5 5 3 5 5 3 5 3 5 5 5 3 3 5 5 3 5 5 5 5 5 5 5 5 5 5 5 5 3 5 5 5 5 5 5 5 5 5 5 5 5 3 5 5 5 5 5 5 5 5 5 5 5 5 5 5 5 3 5 5 5 5 5 3 5 5 5 5 5 5 5 5 5 3 5 5 5 5 3 5 5 5 5 5 5 5 5 5 5 5 3 5 3 5 3 5 5 5 3 5 5 5 5 5 5 5 5 5 5 5 5 5 5 5 5 5 5 5 5 3 5 5 5 5 5 5 5 5 5 5 5 5 5 5 5 5 5 5 3 5 5 5 5 5 3 5 5 5 5 5 5 5 5 3 5 5 3 5 5 5 5 5 5 5 3 5 5 5 5 5 5 5 5 5 3 5 5 5 5 5 5 5 5 5 5 5 5 5 5 5 5 5 5 5 5 5 5 5 5 3 5 3 5 5 3 5 5 5 5 5 5 5 5 3 5 5 5 5 5 5 3 5 5 5 5 5 5 5 5 5 5 5 5 3 5 5 5 5 5 5 5 5 5 5 5 5 5 5 3 5 5 5 3 5 5 5 5 3 5 5 5 5 5 5 5 5 5 5 5 5 5 5 5 5 5 5 5 5 5 5 5 5 5 5 3 5 5 3 5 5 5 5 5 5 5 5 5 3 5 5 3 5 5 3 5 5 5 5 5 5 5 5 5 5 5 5 5 5 5 5 5 5 5 5 5 5 5 5 5 5 5 5 5 5 5 5 5 5 5 5 5 5 5 5 5 5 5 5 5 5 5 5 5 5 5 5 5 5 5 5 5 5 5 5 5 5 5 3 5 5 5 5 5 5 3 5 5 5 5 5 5 5 5 5 5 5 3 3 5 5 3 5 3 5 5 3 5 5 3 5 5 5 5 5 5 5 5 3 5 5 5 5 5 5 5 5 5 3 5 5 5 5 3 5 5 5 5 5 5 5 5 5 5 5 5 5 5 5 3 5 5 5 5 3 5 3 5 5 5 3 5 5 3 5 5 5 5 5 5 5 5 5 5 5 3 5 5 3 5 5 5 3 5 5 3 3 5 5 3 5 5 5 5 5 5 5 5 3 5 5 5 5 3 5 3 5 3 5 5 5 5 3 5 5 5 3 5 5 5 5 5 5 5 5 5 5 5 5 5 5 5 5 5 5 3 5 5 5 5 5 5 5 5 5 5 5 5 5 5 5 5 5 5 5 5 5 5 5 5 5 5 5 5 5 5 5 5 5 5 5 5 5 5 5 5 3 5 5 5 5 5 3 5 5 5 5 5 5 5 5 5 5 5 5 5 3 5 5 3 5 5 5 3 5 3 5 5 5 5 3 5 5 5 5 5 5 5 5 5 3 5 5 3 3 5 3 5 5 5 5 5 5 5 5 5 5 5 5 5 5 5 5 5 5 5 5 5 5 5 3 5 5 5 3 5 5 5 5 5 5 5 3 5 5 5 5 5 5 5 5 5 5 5 5 5 5 5 5 5 5 5 5 5 5 5 3 5 5 5 5 5 3 5 3 3 5 5 5 3 5 5 3 5 5 5 5 5 5 5 5 5 5 5 3 5 5 5 3 5 3 5 5 5 5 5 3 5 3 5 3 5 5 5 5 5 5 5 5 3 3 3 5 5 3 5 5 5 5 5 5 5 5 5 5 5 5 5 5 5 5 5 5 5 5 5 5 5 5 5 5 5 5 5 5 5 5 5 5 5 5 5 3 5 5 5 5 5 5 5 3 5 5 3 5 5 5 5 5 5 5 5 5 5 5 5 5 5 5 5 5 5 5 5 5 5 5 3 5 5 5 5 5 5 5 5 5 5 3 5 5 5 5 3 5 5 5 5 3 5 3 3 5 5 5 5 3 5 5 3 5 5 3 3 5 5 5 5 5 5 5 3 5 5 5 5 5 5 5 5 5 5 5 5 5 3 5 5 5 5 5 5 5 3 3 5 3 5 3 5 5 5 3 5 5 5 5 5 3 5 5 3 5 5 5 5 5 5 5 3 5 5 5 5 5 5 5 5 3 5 5 5 3 5 5 5 5 5 3 3 5 5 3 5 5 5 5 5 5 5 5 5 5 5 5 5 5 3 5 5 3 5 3 5 5 5 5 3 5 5 5 5 5 3 5 5 3 3 5 5 5 5 3 5 5 5 5 5 5 5 5 3 5 3 5 5 5 5 5 5 5 5 3 5 5 5 5 3 5 5 5 5 5 5 5 5 5 5 5 5 5 5 5 5 5 5 5 5 5 5 5 5 5 5 5 5 5 5 5 5 5 3 5 5 5 5 5 5 5 3 5 5 5 5 5 5 5 5 5 5 5 5 3 5 5 5 5 3 5 5 5 5 5 5 5 5 5 5 5 5 5 3 5 5 3 5 5 5 5 3 5 5 5 5 5 5 5 5 5 5 5 3 5 3 5 5 3 5 5 5 5 3 5 5 5 5 5 5 5 5 5 5 5 5 5 5 5 5 5 5 5 5 5 5 5 5 5 5 5 5 3 5 5 5 5 3 5 5 5 5 5 5 5 5 5 3 5 5 5 3 5 5 5 5 5 5 3 5 3 5 3 5 5 5 5 5 5 5 5 5 5 5 5 5 5 5 5 5 5 5 5 5 5 5 5 5 5 5 5 5 5 5 5 5 5 5 3 5 3 5 5 5 5 5 5 5 5 3 5 5 5 5 5 5 5 5 5 5 5 5 3 5 5 5 5 5 5 5 5 5 5 5 5 5 3 5 5 3 5 5 5 5 3 5 5 5 5 3 5 5 5 5 5 3 3 5 3 5 5 3 5 5 5 5 3 5 3 5 5 5 5 5 5 5 5 3 5 5 5 5 3 5 5 5 5 5 5 5 5 5 5 5 5 5 5 5 5 5 5 5 5 5 5 3 5 5 5 5 5 5 5 5 5 5 5 5 5 5 5 5 5 5 5 5 5 3 5 5 5 5 5 5 5 3 5 3 5 5 5 5 5 5 5 5 5 5 5 5 5 5 5 5 5 5 5 5 5 5 5 5 5 5 3 5 5 5 5 5 3 5 3 5 5 5 5 3 3 3 5 3 5 5 5 3 5 5 5 5 3 5 3 5 5 5 5 3 5 5 5 3 3 3 5 3 5 3 5 5 3 5 5 5 5 5 5 5 5 5 5 3 5 3 5 3 5 5 5 5 3 5 5 5 5 3 5 5 5 5 5 5 5 5 5 5 3 5 3 5 5 3 5 5 3 5 5 5 5 5 3 5 5 5 5 5 5 5 5 5 5 5 5 3 5 5 5 3 5 5 5 5 5 3 5 5 5 5 5 5 5 5 5 5 5 5 5 5 5 5 5 5 5 5 5 3 5 5 5 5 3 5 5 5 3 5 3 5 5 3 5 3 5 5 5 5 5 5 3 5 5 5 5 3 5 3 5 5 5 5 5 5 5 3 5 5 5 5 5 5 5 3 5 5 5 5 5 5 5 5 5 5 5 5 5 5 5 5 5 3 5 5 5 3 5 5 5 5 5 5 5 5 5 5 5 5 5 5 3 5 5 5 5 5 5 5 5 5 5 5 5 5 5 5 5 5 5 5 5 5 5 5 5 5 5 5 3 5 3 5 5 5 3 5 5 5 3 5 5 3 3 5 5 5 5 5 5 5 5 3 5 5 3 5 5 5 5 3 5 3 5 5 5 3 5 5 5 5 5 5 5 5 5 5 3 5 5 3 5 5 3 5 5 5 5 5 5 5 3 5 5 3 3 5 5 5 3 5 5 5 5 5 5 3 5 5 5 5 3 5 5 5 3 5 5 5 5 3 5 5 3 5 5 5 5 5 5 5 5 5 5 5 3 5 5 5 5 3 5 3 5 3 5 3 5 5 5 5 5 5 5 5 5 5 5 3 3 5 5 5 5 5 5 3 5 5 3 5 5 5 5 5 5 3 5 5 5 3 5 3 5 5 5 3 5 5 5 5 5 5 3 5 5 5 5 5 5 3 5 3 5 5 5 3 5 5 5 5 3 5 5 5 5 5 5 5 3 5 3 5 3 5 5 5 3 3 5 5 3 5 5 5 5 5 3 5 3 3 3 3 5 5 5 5 5 3 3 5 5 3 5 5 5 3 5 5 5 5 5 5 5 5 5 3 5 5 5 3 5 5 5 5 5 5 5 3 5 3 5 5 5 5 3 5 3 5 5 5 5 3 5 5 5 5 5 5 5 5 5 3 5 5 5 5 5 5 5 5 5 5 5 5 5 5 5 5 5 5 5 5 5 3 5 5 5 5 3 5 5 5 5 5 3 5 3 5 5 5 5 5 5 5 5 5 5 5 3 5 3 5 3 3 5 3 5 3 5 5 5 3 5 5 5 3 5 5 5 5 3 5 3 5 5 5 5 5 5 5 5 3 5 5 5 5 5 5 5 5 3 5 5 5 5 5 5 5 5 5 3 5 5 3 5 5 5 3 5 5 5 5 5 5 5 5 5 5 5 5 3 5 5 5 5 3 5 5 5 5 5 5 3 5 5 5 5 3 5 3 5 5 5 5 5 5 5 3 5 5 5 3 3 5 5 5 5 3 5 3 5 5 3 5 5 5 5 5 5 5 5 5 5 5 5 5 5 5 5 5 5 5 5 5 5 5 5 5 5 5 5 5 5 5 5 5 5 5 3 5 5 5 3 5 5 5 5 5 5 5 5 5 5 5 5 5 3 5 3 5 5 5 5 5 5 5 5 5 5 5 5 5 3 5 5 3 5 5 5 5 5 3 5 5 5 5 5 5 5 5 5 5 5 5 5 5 5 5 5 5 5 3 3 5 5 3 5 5 3 5 5 5 5 5 5 5 3 5 5 5 5 3 5 5 5 5 5 5 5 5 5 5 5 5 5 5 3 5 5 3 5 5 5 5 5 5 5 3 3 5 5 5 5 5 5 5 5 5 5 5 5 5 5 5 5 3 5 5 5 5 3 5 5 3 5 5 3 5 5 5 5 5 5 5 5 5 5 5 5 3 5 5 5 5 3 5 5 5 5 5 5 5 5 5 3 3 3 5 5 5 3 5 5 3 3 5 3 5 5 5 3 5 5 5 5 5 5 5 5 5 5 5 5 5 5 5 5 5 5 5 5 5 5 5 5 5 5 5 5 5 5 5 5 5 5 5 5 5 5 5 5 5 5 5 5 5 5 5 5 3 5 3 5 5 5 5 5 5 5 5 5 3 5 5 5 5 5 5 3 5 5 5 5 5 3 5 5 5 5 5 5 5 5 5 5 5 5 5 5 5 3 5 5 5 5 5 5 5 3 5 5 5 5 5 3 3 5 5 5 5 3 5 5 5 5 5 5 5 5 5 5 5 5 5 5 5 5 5 5 5 5 5 3 5 5 5 5 5 5 3 5 5 5 3 5 5 5 5 5 5 5 5 5 5 5 5 5 5 5 5 5 5 3 5 3 5 5 5 5 5 3 3 5 5 5 3 5 5 5 5 5 5 3 5 5 5 5 5 3 5 3 5 5 3 5 5 5 5 3 5 5 5 5 3 5 5 5 5 3 5 5 5 5 5 5 5 5 5 5 5 5 5 3 5 5 5 5 5 5 5 5 5 5 5 5 5 5 5 5 3 5 5 5 5 3 5 5 5 5 3 5 5 5 5 5 5 5 5 5 5 3 5 5 5 5 3 5 5 5 5 5 5 5 5 5 5 5 5 5 5 5 3 5 5 5 3 5 5 5 5 5 5 5 5 5 5 5 5 5 5 3 5 5 5 5 5 5 5 5 5 5 5 3 5 5 3 5 5 5 5 5 5 3 3 5 5 5 5 3 5 3 5 5 5 3 5 5 3 5 5 5 5 5 5 5 5 5 5 5 5 5 5 5 5 3 5 5 5 5 5 5 5 5 3 3 5 5 5 3 3 5 3 5 3 5 5 5 5 3 5 5 5 5 5 5 5 5 5 5 5 5 5 3 5 3 5 5 5 5 5 5 5 5 3 3 5 5 3 3 3 5 5 5 5 5 5 3 5 5 3 5 5 3 3 3 3 5 5 5 5 5 5 5 5 5 5 5 5 5 3 5 5 3 5 3 5 5 5 5 5 5 5 3 3 5 5 3 5 5 3 5 5 5 5 3 3 3 3 5 5 5 5 5 5 5 5 5 5 5 5 5 5 3 5 5 3 5 5 5 5 3 5 5 5 3 5 5 3 5 5 3 5 5 3 3 5 3 5 5 5 5 5 5 3 5 5 5 5 3 5 5 5 5 5 3 5 5 3 5 3 3 5 5 5 3 5 5 5 5 5 3 5 5 5 3 5 5 5 3 5 5 5 5 5 5 5 3 5 5 5 5 5 3 5 5 5 5 5 5 5 3 5 3 3 5 5 3 5 5 5 5 5 5 3 5 5 5 5 5 5 3 5 5 5 5 5 5 3 5 3 5 3 5 5 3 5 5 5 5 3 3 3 3 5 5 5 5 5 5 5 5 3 5 5 5 3 5 3 5 5 5 5 5 5 5 5 5 5 5 5 5 5 5 5 3 5 3 5 5 5 5 5 5 5 5 3 5 5 5 5 5 3 5 5 3 5 5 5 5 5 5 3 3 5 5 3 5 5 5 5 5 5 5 5 5 5 5 3 3 5 5 5 5 3 5 5 5 5 5 5 5 5 3 5 5 5 5 3 5 5 5 5 5 5 3 5 3 5 3 5 5 5 5 5 5 5 5 5 5 5 5 5 5 5 5 5 5 3 5 5 5 5 5 5 5 5 5 5 5 5 5 5 5 5 5 3 3 5 5 5 5 5 5 5 5 5 5 5 5 5 5 5 5 5 5 5 5 5 5 5 5 5 5 5 5 5 5 5 5 5 5 5 5 5 5 5 5 5 5 5 5 5 3 5 3 5 5 5 5 5 5 5 3 5 5 5 3 5 3 3 3 5 3 3 5 5 3 3 3 5 5 5 5 5 3 5 3 3 5 5 5 5 5 5 5 3 5 5 3 5 5 3 3 5 5 5 5 5 5 3 5 5 3 3 5 5 3 5 5 5 3 5 5 5 5 3 5 5 5 3 5 5 3 5 5 5 5 5 5 5 5 5 5 5 5 5 5 5 5 5 5 5 3 3 5 5 5 3 5 5 5 5 3 5 5 5 5 5 3 3 5 5 5 5 5 5 5 5 5 3 5 5 5 5 5 5 5 5 5 5 5 5 5 5 5 5 5 5 5 5 5 5 5 5 5 5 5 3 5 3 3 5 5 5 5 5 5 5 5 5 5 5 5 5 5 5 5 5 5 5 5 5 5 5 5 5 5 5 3 5 5 3 5 5 3 5 5 3 5 3 5 5 5 5 5 5 5 3 5 5 5 5 5 5 5 5 5 5 5 5 3 5 3 5 3 5 5 5 5 5 3 5 5 5 5 3 5 5 3 5 5 5 5 5 5 5 5 3 5 5 5 5 5 5 3 5 5 5 5 3 5 5 5 3 5 5 5 5 5 5 5 5 5 5 5 5 5 5 5 5 5 5 3 5 3 5 5 5 3 5 5 5 5 5 5 5 5 5 5 5 5 5 5 5 5 5 5 5 3 5 5 5 3 5 5 5 3 5 5 5 5 5 5 5 5 5 5 5 5 5 5 5 3 5 5 5 5 3 5 5 3 5 5 5 5 5 5 3 5 3 5 3 3 3 5 5 5 3 3 5 5 5 5 5 5 5 3 5 5 5 3 5 3 5 5 5 5 5 5 5 5 5 3 5 5 5 5 5 5 5 5 3 5 5 5 5 3 5 5 5 5 5 5 5 5 5 5 5 5 5 5 5 5 5 5 5 5 5 3 3 5 5 5 5 5 5 5 5 3 5 5 5 5 5 5 5 5 5 5 3 5 5 5 5 5 5 3 5 5 5 5 5 3 5 3 5 5 3 3 5 5 5 5 5 5 5 5 5 5 5 5 5 5 5 5 5 5 5 5 5 5 5 5 5 5 5 5 5 5 5 5 5 5 5 5 5 5 5 5 5 5 5 5 5 5 5 5 3 3 5 5 3 5 5 5 5 5 3 3 5 5 3 3 5 5 5 5 5 5 5 5 5 5 3 5 5 5 5 5 5 5 5 5 5 5 5 5 5 5 3 5 5 5 5 5 5 5 5 5 5 5 5 5 3 5 3 3 3 5 5 5 5 5 5 5 5 3 3 5 5 5 5 3 5 5 5 5 5 5 5 5 3 5 5 5 5 5 5 5 5 5 5 5 5 5 5 5 5 5 3 5 5 5 5 5 5 3 5 5 3 5 5 5 5 5 5 5 5 5 5 5 5 5 5 5 5 5 5 3 5 5 5 3 5 5 3 5 3 3 5 5 3 5 5 5 3 5 5 3 5 3 3 5 5 5 5 3 5 5 5 5 5 5 3 5 3 5 5 5 3 5 5 5 5 3 5 3 3 5 5 5 5 5 3 5 3 5 3 5 3 3 5 5 5 5 5 5 5 3 5 3 5 5 3 5 5 3 5 5 5 5 5 5 5 5 5 5 5 5 5 5 5 5 5 5 5 5 5 5 5 5 5 5 5 5 5 5 5 3 5 5 5 5 5 5 5 5 5 5 5 5 5 5 5 5 5 5 5 5 5 5 5 3 5 5 5 5 5 3 3 5 5 5 5 5 5 5 5 5 5 5 5 5 5 5 5 5 5 5 5 5 3 5 5 5 5 5 5 5 5 5 5 5 5 5 3 5 3 5 5 5 3 5 5 5 5 5 5 5 5 3 5 3 5 5 5 5 5 3 5 5 5 5 5 5 5 5 5 5 5 3 5 5 5 5 5 5 5 5 5 5 5 3 5 5 5 5 5 5 5 5 3 5 5 5 5 5 5 5 5 5 5 5 5 5 5 5 5 5 5 5 5 5 5 5 5 5 5 3 5 5 3 5 5 5 5 5 5 5 5 5 5 5 5 5 5 5 5 5 5 5 5 5 5 5 5 5 5 5 5 3 5 3 5 3 5 5 5 5 5 3 5 5 5 5 3 5 5 5 3 5 5 5 5 5 5 5 5 5 5 5 5 5 5 5 5 5 5 3 3 3 5 5 5 5 5 5 5 5 5 5 5 5 5 3 5 5 5 5 5 5 5 5 5 5 5 5 3 5 5 3 5 5 5 5 5 5 5 5 5 5 5 5 5 5 5 5 5 5 5 5 5 3 3 5 5 5 5 5 5 5 5 5 5 5 5 5 5 3 5 5 3 5 5 5 5 3 5 5 5 5 5 5 3 5 5 5 5 5 5 5 5 5 5 5 5 5 5 5 5 5 5 3 5 5 5 5 5 3 5 5 5 5 5 5 5 5 5 5 5 5 5 5 5 5 5 5 5 5 5 5 5 5 5 5 5 5 3 5 3 5 5 5 5 3 3 5 5 5 5 5 5 5 5 5 5 5 5 5 5 5 5 5 5 5 5 5 5 5 5 5 5 5 5 5 5 5 5 5 5 5 3 5 5 5 5 3 5 5 5 5 5 5 5 5 5 5 5 3 5 5 5 5 5 5 5 5 5 5 5 5 5 5 5 5 5 3 3 5 3 5 5 5 5 5 5 5 5 5 5 3 5 5 5 5 5 5 5 5 5 5 5 5 5 5 5 5 5 3 5 5 5 5 3 5 5 5 5 5 5 5 5 5 5 5 5 5 5 5 5 5 5 5 5 5 5 5 5 5 5 5 5 5 5 5 5 5 5 5 5 5 5 5 5 5 5 5 5 5 5 5 5 5 5 5 5 5 5 5 5 5 5 5 5 5 5 5 5 5 5 5 5 5 5 5 5 5 5 5 5 5 5 5 5 5 3 5 5 5 5 5 5 5 3 5 5 3 5 5 5 5 5 5 5 5 5 5 5 5 3 5 3 5 3 5 5 5 5 5 5 5 5 3 5 5 5 5 5 5 5 5 5 3 5 5 5 5 5 5 5 5 5 5 5 5 5 5 5 5 5 5 5 5 5 3 5 5 5 5 5 5 5 5 5 5 5 5 3 5 5 5 5 5 3 5 5 3 5 5 5 5 3 3 5 5 3 5 5 5 5 5 5 5 3 3 5 5 5 5 5 5 5 5 5 5 5 5 3 5 5 5 5 3 5 5 5 5 5 5 5 5 3 5 5 5 5 3 5 5 5 5 3 5 5 5 5 5 5 5 3 5 5 5 5 5 3 5 5 5 3 5 5 5 5 5 3 5 5 5 5 5 5 5 5 5 5 5 5 5 5 3 5 5 3 5 5 5 5 5 5 5 5 5 5 5 5 5 5 5 5 5 5 5 5 5 3 5 5 3 5 5 3 5 5 5 5 5 5 5 5 5 5 5 5 5 5 5 5 5 5 5 5 5 5 5 5 5 5 5 5 5 5 3 5 5 5 5 3 5 5 3 5 3 5 5 5 5 3 5 3 5 5 3 5 3 5 3 3 5 5 3 5 3 5 3 5 5 3 5 5 5 5 5 5 3 5 3 5 5 3 3 5 5 3 5 3 5 5 3 5 5 3 5 5 3 3 3 5 3 5 5 5 5 5 5 5 5 3 5 5 5 5 5 5 5 3 5 5 5 5 5 5 5 5 5 5 5 5 5 5 3 5 5 5 5 5 5 5 5 5 5 5 5 5 5 5 5 5 5 5 3 5 5 5 5 5 5 5 5 5 5 5 5 5 5 5 5 5 5 5 5 5 5 5 5 5 5 5 5 5 5 5 3 5 5 5 3 5 3 3 5 3 5 5 5 3 5 5 5 5 3 3 3 5 5 5 5 5 5 5 5 5 5 5 5 5 5 5 5 5 3 5 5 5 5 5 5 5 5 5 3 5 5 5 3 5 5 5 5 5 5 5 5 5 5 5 5 3 5 5 3 5 5 5 5 5 5 5 5 5 5 5 5 5 5 5 5 5 5 5 5 5 5 3 5 5 5 5 5 5 5 5 5 5 5 5 5 5 5 5 5 5 3 5 5 5 5 5 5 5 3 5 5 5 5 3 5 5 5 5 5 5 5 5 5 5 5 5 5 5 5 5 5 5 5 5 5 5 5 5 5 5 5 5 5 5 5 5 5 5 5 3 3 5 5 5 5 3 5 3 5 5 5 5 5 3 5 5 5 5 5 5 5 5 3 3 5 5 5 5 3 5 5 5 5 5 5 5 5 5 5 5 5 5 5 5 5 5 5 5 5 5 3 5 5 5 5 5 5 3 5 5 3 5 5 5 5 5 5 5 5 5 3 5 5 5 5 5 5 5 5 3 5 5 5 5 5 5 5 5 5 5 5 5 5 5 5 5 5 3 5 5 3 5 5 5 5 5 5 5 5 5 5 5 5 5 5 5 5 5 5 5 5 5 5 5 5 5 5 5 5 5 3 5 3 5 5 5 5 5 5 5 5 5 5 5 5 5 5 5 5 5 5 5 5 5 5 3 5 5 5 3 5 5 5 5 5 5 5 5 5 5 5 5 3 5 5 5 3 3 5 5 3 5 5 5 5 5 5 5 5 5 3 5 5 5 5 5 5 5 5 5 5 5 5 5 3 5 3 5 5 5 5 5 5 5 5 5 5 5 5 5 5 5 5 5 5 5 5 5 5 5 5 5 5 5 5 5 3 5 5 5 5 5 5 3 5 5 5 5 5 5 5 5 5 5 5 5 5 5 5 5 3 5 3 5 5 5 5 5 5 5 3 5 5 5 3 5 5 5 5 3 5 5 5 5 5 5 3 5 5 5 5 3 5 3 5 5 5 5 5 5 5 5 3 3 5 5 5 3 3 5 5 5 5 5 5 5 3 3 5 3 3 5 5 5 5 3 5 3 5 5 5 5 5 5 3 5 5 5 5 3 5 5 5 5 3 5 5 5 5 5 3 5 5 3 5 5 5 5 3 5 5 5 5 5 5 5 5 5 3 3 5 5 5 5 5 5 5 5 5 5 5 5 5 3 5 3 5 5 5 5 5 5 5 5 5 5 5 5 5 5 5 5 5 5 5 5 5 3 5 5 5 5 5 5 5 5 5 5 5 5 5 5 5 5 5 5 5 5 5 5 5 5 5 5 3 5 5 5 5 5 5 5 5 3 5 3 5 5 5 5 5 5 3 5 5 5 5 5 5 5 5 5 5 5 5 5 5 5 5 5 5 5 5 5 5 5 5 5 5 3 5 5 5 5 5 5 5 5 3 5 5 3 5 5 3 5 5 5 5 5 3 5 5 5 5 5 5 5 5 5 3 5 5 5 5 5 5 5 5 5 5 5 5 5 5 5 3 5 5 5 5 5 5 5 5 3 5 5 5 5 5 5 5 5 5 5 5 5 5 5 5 5 5 5 3 5 3 5 3 5 5 3 3 5 5 5 5 5 5 5 5 5 5 5 5 5 5 3 5 5 5 5 5 5 3 5 5 5 3 5 5 5 5 5 5 5 5 5 5 5 5 3 5 5 5 5 3 3 3 5 5 5 5 5 5 5 3 5 5 3 5 3 5 3 5 5 5 5 5 3 5 5 5 5 5 5 5 5 5 5 5 5 5 5 5 5 5 5 5 5 3 5 5 5 3 5 3 3 3 5 5 5 5 5 3 5 5 5 5 5 5 5 5 5 5 5 5 5 5 5 5 5 5 5 5 5 5 5 5 5 5 3 5 5 3 5 5 5 5 5 5 5 5 3 5 3 5 5 5 5 5 5 5 5 3 5 5 5 5 3 5 5 3 5 5 3 5 5 5 3 5 5 5 5 5 5 5 5 5 5 5 5 5 5 5 5 5 5 5 5 3 5 5 5 5 5 5 3 5 5 5 5 5 3 5 5 5 5 5 3 5 3 3 5 5 5 5 5 5 5 5 5 5 5 5 3 5 5 5 5 3 5 3 3 5 5 5 3 5 5 5 5 5 5 5 5 5 5 5 5 5 5 5 5 5 5 5 5 5 5 3 5 3 5 5 3 5 5 3 5 5 3 5 5 5 3 3 5 5 5 5 5 5 5 3 5 5 5 5 5 5 5 5 3 5 5 5 5 5 5 5 3 5 5 5 3 5 3 3 5 5 5 3 5 5 5 5 5 5 5 5 5 5 5 5 5 5 5 5 5 5 5 5 5 5 3 5 5 3 5 5 5 3 5 5 5 5 5 5 5 3 3 5 5 3 5 5 5 5 5 5 5 5 5 5 5 5 5 5 5 5 5 5 5 5 5 5 5 5 5 5 5 5 5 5 5 5 5 5 5 3 5 5 5 5 5 5 5 3 5 5 3 5 5 3 5 5 5 5 5 5 5 5 5 5 5 5 5 5 5 5 5 5 5 3 5 5 5 5 3 5 5 5 5 5 5 5 5 5 5 3 5 5 5 5 3 5 5 5 5 3 3 5 3 5 5 5 5 5 5 5 5 5 5 5 5 5 5 3 5 5 5 5 5 5 5 5 5 3 5 5 5 5 5 5 5 5 5 5 5 5 5 5 5 5 5 5 5 5 5 5 5 5 5 5 5 5 5 5 5 5 5 5 5 5 5 5 5 5 5 3 5 5 5 5 3 5 5 3 5 5 5 5 5 5 3 3 5 5 5 5 3 5 5 5 5 5 5 5 5 5 5 5 5 5 5 5 5 5 5 5 5 5 5 5 5 5 5 5 5 5 5 5 5 5 5 5 5 5 5 5 5 5 5 5 5 5 5 5 5 5 5 5 5 5 5 5 5 5 5 5 5 5 3 5 5 5 5 5 3 5 3 5 5 5 5 5 5 5 5 5 
</DataArray>
</Cells>
<PointData Scalars="" Vectors="displacement," Tensors="">
<DataArray type="Float64" Name="displacement" NumberOfComponents="3" format="ascii">
0.024999735434404924 0.024713959540306533 0 0.024610490948784824 0.02462047189077185 0 0.024999410547666977 0.024717135381347618 0 0.025000377494852424 0.024997918818598641 0 0.023703312318767131 0.025257222458797451 0 0.025000377494852424 0.024997918818598641 0 0.023703312318767131 0.025257222458797451 0 0.022074625783791751 0.025001086112349528 0 0.025000076793650454 0.024713224084689518 0 0.025655883727767032 0.024015457864113191 0 0.025398411007192347 0.024086061797985538 0 0.025000076793650454 0.024713224084689518 0 0.024999877535653223 0.023825048465794908 0 0.025398411007192347 0.024086061797985538 0 0.025655883727767032 0.024015457864113191 0 0.025676149362243814 0.023825889593514817 0 0.025398411007192347 0.024086061797985538 0 0.025676149362243814 0.023825889593514817 0 0.024999877535653223 0.023825048465794908 0 0.025398411007192347 0.024086061797985538 0 0.025223508075514638 0.023648453413635584 0 0.024999540456856293 0.022935218130699923 0 0.025151921176471623 0.02299059554149837 0 0.025676149362243814 0.023825889593514817 0 0.024999877535653223 0.023825048465794908 0 0.02499996277152294 0.022936560308320187 0 0.025440314546930822 0.023709666504616977 0 0.025000073532323419 0.02293632834809892 0 0.025223508075514638 0.023648453413635584 0 0.025151921176471623 0.02299059554149837 0 0.025265630821156498 0.023436345009071758 0 0.025113213483846441 0.022828090569451363 0 0.025151921176471623 0.02299059554149837 0 0.025265630821156498 0.023436345009071758 0 0.025113213483846441 0.022828090569451363 0 0.024999855841190726 0.022147573620350473 0 0.025151921176471623 0.02299059554149837 0 0.025312179754439217 0.022374487143335769 0 0.024999906798850068 0.022145683604046208 0 0.024999540456856293 0.022935218130699923 0 0.024999855841190726 0.022147573620350473 0 0.025151921176471623 0.02299059554149837 0 0.025516399790414191 0.023782125442761998 0 0.025635225320203143 0.022509229415574008 0 0.025888106851853838 0.023057821640077351 0 0.025516399790414191 0.023782125442761998 0 0.025741374664551359 0.023677640821425178 0 0.025888106851853838 0.023057821640077351 0 0.025516399790414191 0.023782125442761998 0 0.025265630821156498 0.023436345009071758 0 0.025355131840552939 0.023816530351935379 0 0.025516399790414191 0.023782125442761998 0 0.025265630821156498 0.023436345009071758 0 0.025635225320203143 0.022509229415574008 0 0.025113213483846441 0.022828090569451363 0 0.025265630821156498 0.023436345009071758 0 0.025635225320203143 0.022509229415574008 0 0.025223508075514638 0.023648453413635584 0 0.025265630821156498 0.023436345009071758 0 0.025319946937337308 0.023902027484332095 0 0.025265630821156498 0.023436345009071758 0 0.025355131840552939 0.023816530351935379 0 0.025319946937337308 0.023902027484332095 0 0.025516399790414191 0.023782125442761998 0 0.025166043553246191 0.024319370656253701 0 0.024786856486299053 0.02508654977424497 0 0.025516399790414191 0.023782125442761998 0 0.025355131840552939 0.023816530351935379 0 0.025166043553246191 0.024319370656253701 0 0.025355131840552939 0.023816530351935379 0 0.025319946937337308 0.023902027484332095 0 0.025166043553246191 0.024319370656253701 0 0.023703312318767131 0.025257222458797451 0 0.022074625783791751 0.025001086112349528 0 0.022355875668140131 0.025274740613021127 0 0.025166043553246191 0.024319370656253701 0 0.02476962154541822 0.023900466345376153 0 0.02422783501201577 0.024118511384301818 0 0.025166043553246191 0.024319370656253701 0 0.025327139802326246 0.023933912942774326 0 0.02476962154541822 0.023900466345376153 0 0.025319946937337308 0.023902027484332095 0 0.025166043553246191 0.024319370656253701 0 0.025327139802326246 0.023933912942774326 0 0.025440314546930822 0.023709666504616977 0 0.02534882040761743 0.023906333766362059 0 0.025655883727767032 0.024015457864113191 0 0.025676149362243814 0.023825889593514817 0 0.025327139802326246 0.023933912942774326 0 0.025223508075514638 0.023648453413635584 0 0.025319946937337308 0.023902027484332095 0 0.025327139802326246 0.023933912942774326 0 0.024610490948784824 0.02462047189077185 0 0.023745760248482836 0.024391676964793205 0 0.025655883727767032 0.024015457864113191 0 0.025327139802326246 0.023933912942774326 0 0.025189489726359243 0.0234955882200516 0 0.025327139802326246 0.023933912942774326 0 0.02476962154541822 0.023900466345376153 0 0.025189489726359243 0.0234955882200516 0 0.022074625783791751 0.025001086112349528 0 0.021005112637674902 0.025266325969843142 0 0.019830320342211681 0.024997499206965462 0 0.023745760248482836 0.024391676964793205 0 0.022125606630518234 0.024376314116193745 0 0.02476962154541822 0.023900466345376153 0 0.023253087390910053 0.023323253439560189 0 0.02422783501201577 0.024118511384301818 0 0.022074625783791751 0.025001086112349528 0 0.022355875668140131 0.025274740613021127 0 0.021005112637674902 0.025266325969843142 0 0.02476962154541822 0.023900466345376153 0 0.025189489726359243 0.0234955882200516 0 0.023253087390910053 0.023323253439560189 0 0.022125606630518234 0.024376314116193745 0 0.020086725558579429 0.024818096508799611 0 0.023253087390910053 0.023323253439560189 0 0.021687639245961302 0.02461059147331731 0 0.019837785781809305 0.024953940264135513 0 0.023253087390910053 0.023323253439560189 0 0.021687639245961302 0.02461059147331731 0 0.023359246763191139 0.024779330703755282 0 0.021687639245961302 0.02461059147331731 0 0.023359246763191139 0.024779330703755282 0 0.020595561228695967 0.025271125744781364 0 0.025166043553246191 0.024319370656253701 0 0.023359246763191139 0.024779330703755282 0 0.02422783501201577 0.024118511384301818 0 0.023253087390910053 0.023323253439560189 0 0.023359246763191139 0.024779330703755282 0 0.02422783501201577 0.024118511384301818 0 0.019830320342211681 0.024997499206965462 0 0.019837785781809305 0.024953940264135513 0 0.018678652209236788 0.025603747714839403 0 0.021005112637674902 0.025266325969843142 0 0.019830320342211681 0.024997499206965462 0 0.019837785781809305 0.024953940264135513 0 0.021687639245961302 0.02461059147331731 0 0.019837785781809305 0.024953940264135513 0 0.020595561228695967 0.025271125744781364 0 0.020427127343080519 0.025303747059808816 0 0.018922786651623599 0.025163545422916826 0 0.019837785781809305 0.024953940264135513 0 0.020595561228695967 0.025271125744781364 0 0.018678652209236788 0.025603747714839403 0 0.020595561228695967 0.025271125744781364 0 0.019672279155358942 0.02581134391213211 0 0.019070852013556967 0.024813635784956649 0 0.019672279155358942 0.02581134391213211 0 0.02184664965835505 0.025976250908759022 0 0.019970493179816584 0.027133496045713114 0 0.020595561228695967 0.025271125744781364 0 0.019672279155358942 0.02581134391213211 0 0.02184664965835505 0.025976250908759022 0 0.02184664965835505 0.025976250908759022 0 0.021763433304092333 0.027673321894229504 0 0.019970493179816584 0.027133496045713114 0 0.02059378208057408 0.021986838576905796 0 0.020552969215764102 0.021925134246549512 0 0.020644338127031023 0.021904227588409271 0 0.020943877547030889 0.02493257106859758 0 0.02061050566067614 0.024513226627717214 0 0.025166043553246191 0.024319370656253701 0 0.023359246763191139 0.024779330703755282 0 0.024786856486299053 0.02508654977424497 0 0.023359246763191139 0.024779330703755282 0 0.020595561228695967 0.025271125744781364 0 0.02184664965835505 0.025976250908759022 0 0.023359246763191139 0.024779330703755282 0 0.02184664965835505 0.025976250908759022 0 0.024786856486299053 0.02508654977424497 0 0.02184664965835505 0.025976250908759022 0 0.024786856486299053 0.02508654977424497 0 0.023402137518013268 0.027127442130428253 0 0.02184664965835505 0.025976250908759022 0 0.021763433304092333 0.027673321894229504 0 0.023402137518013268 0.027127442130428253 0 0.021763433304092333 0.027673321894229504 0 0.023402137518013268 0.027127442130428253 0 0.024331295999476182 0.028562776481282841 0 0.025516399790414191 0.023782125442761998 0 0.024786856486299053 0.02508654977424497 0 0.025741374664551359 0.023677640821425178 0 0.024786856486299053 0.02508654977424497 0 0.025741374664551359 0.023677640821425178 0 0.026837118091408183 0.022752289616767823 0 0.024786856486299053 0.02508654977424497 0 0.023402137518013268 0.027127442130428253 0 0.024716478859024896 0.028677297586350625 0 0.02519148363394777 0.025668857511611853 0 0.024774827924462485 0.024035297891995454 0 0.025741374664551359 0.023677640821425178 0 0.026507809653308307 0.022595436182514188 0 0.025888106851853838 0.023057821640077351 0 0.025741374664551359 0.023677640821425178 0 0.026507809653308307 0.022595436182514188 0 0.026837118091408183 0.022752289616767823 0 0.025792157409954976 0.023850855100181884 0 0.024774827924462485 0.024035297891995454 0 0.026507809653308307 0.022595436182514188 0 0.0270056399427425 0.022176439705006074 0 0.026613842201939016 0.021839285247378628 0 0.026507809653308307 0.022595436182514188 0 0.0270056399427425 0.022176439705006074 0 0.026987909227388043 0.022741468920175565 0 0.01960167416165173 0.021534786930806283 0 0.019738374716858312 0.021830425248167671 0 0.019978758635580286 0.021414594391283102 0 0.024713137355134744 0.021693717550285548 0 0.023201819435593449 0.02355339141656038 0 0.024124383415843054 0.02229675968657549 0 0.024762048581388869 0.02387567557919797 0 0.024136016687809823 0.023706177509416136 0 0.024713137355134744 0.021693717550285548 0 0.024774827924462485 0.024035297891995454 0 0.023402137518013268 0.027127442130428253 0 0.024331295999476182 0.028562776481282841 0 0.024716478859024896 0.028677297586350625 0 0.023201819435593449 0.02355339141656038 0 0.024774827924462485 0.024035297891995454 0 0.020943877547030889 0.02493257106859758 0 0.023201819435593449 0.02355339141656038 0 0.02059378208057408 0.021986838576905796 0 0.019738374716858312 0.021830425248167671 0 0.020233240654165645 0.021632138758243286 0 0.02059378208057408 0.021986838576905796 0 0.020233240654165645 0.021632138758243286 0 0.020512088854535409 0.02167902909156131 0 0.020233240654165645 0.021632138758243286 0 0.019978758635580286 0.021414594391283102 0 0.020316520479932914 0.021178189317495669 0 0.020233240654165645 0.021632138758243286 0 0.020316520479932914 0.021178189317495669 0 0.020512088854535409 0.02167902909156131 0 0.019738374716858312 0.021830425248167671 0 0.020233240654165645 0.021632138758243286 0 0.019978758635580286 0.021414594391283102 0 0.020316520479932914 0.021178189317495669 0 0.01992943995422955 0.021030943765740884 0 0.020207588534458809 0.020481848059608697 0 0.020316520479932914 0.021178189317495669 0 0.020646276086157826 0.020649910284981723 0 0.020207588534458809 0.020481848059608697 0 0.019978758635580286 0.021414594391283102 0 0.020316520479932914 0.021178189317495669 0 0.01992943995422955 0.021030943765740884 0 0.0270056399427425 0.022176439705006074 0 0.026613842201939016 0.021839285247378628 0 0.026945292605711289 0.020744330567408528 0 0.024713137355134744 0.021693717550285548 0 0.027278156441824249 0.02021075504247416 0 0.027412696336942113 0.020468666048847145 0 0.027151943836948821 0.019636069073910183 0 0.027459695718935858 0.019561342585590339 0 0.024713137355134744 0.021693717550285548 0 0.023388439282982024 0.01985180695846309 0 0.01960167416165173 0.021534786930806283 0 0.01992943995422955 0.021030943765740884 0 0.019544097351859375 0.020525414986835844 0 0.01960167416165173 0.021534786930806283 0 0.019978758635580286 0.021414594391283102 0 0.01992943995422955 0.021030943765740884 0 0.021831778434195662 0.021304886669837184 0 0.018239453406852749 0.022939559820001103 0 0.020644338127031023 0.021904227588409271 0 0.021051131771739014 0.02124476253934484 0 0.021636955669443226 0.021292176937194894 0 0.020536957072756271 0.021972680850174769 0 0.020644338127031023 0.021904227588409271 0 0.020493020858838158 0.022081014303743166 0 0.020552969215764102 0.021925134246549512 0 0.020536957072756271 0.021972680850174769 0 0.020644338127031023 0.021904227588409271 0 0.020536957072756271 0.021972680850174769 0 0.020493020858838158 0.022081014303743166 0 0.020440029032138048 0.021986297950189821 0 0.020552969215764102 0.021925134246549512 0 0.020536957072756271 0.021972680850174769 0 0.020440029032138048 0.021986297950189821 0 0.020644338127031023 0.021904227588409271 0 0.020645035100748135 0.02140991447811658 0 0.021051131771739014 0.02124476253934484 0 0.02059378208057408 0.021986838576905796 0 0.020644338127031023 0.021904227588409271 0 0.020512088854535409 0.02167902909156131 0 0.020644338127031023 0.021904227588409271 0 0.020512088854535409 0.02167902909156131 0 0.020645035100748135 0.02140991447811658 0 0.020316520479932914 0.021178189317495669 0 0.020512088854535409 0.02167902909156131 0 0.020645035100748135 0.02140991447811658 0 0.020918558048070978 0.020735764483302183 0 0.021051131771739014 0.02124476253934484 0 0.021321313607196669 0.020511016582478097 0 0.020316520479932914 0.021178189317495669 0 0.020645035100748135 0.02140991447811658 0 0.020714372778609609 0.02104469107558888 0 0.020316520479932914 0.021178189317495669 0 0.020714372778609609 0.02104469107558888 0 0.020646276086157826 0.020649910284981723 0 0.020714372778609609 0.02104469107558888 0 0.020918558048070978 0.020735764483302183 0 0.020646276086157826 0.020649910284981723 0 0.020714372778609609 0.02104469107558888 0 0.020918558048070978 0.020735764483302183 0 0.021051131771739014 0.02124476253934484 0 0.020645035100748135 0.02140991447811658 0 0.020714372778609609 0.02104469107558888 0 0.021051131771739014 0.02124476253934484 0 0.021063481135388192 0.021214176959982418 0 0.019680470770848453 0.01984327200509229 0 0.021051131771739014 0.02124476253934484 0 0.021438838464536227 0.020915763394921925 0 0.021244506398703362 0.020547044364884883 0 0.021051131771739014 0.02124476253934484 0 0.021444630182880432 0.021162799864939522 0 0.021636955669443226 0.021292176937194894 0 0.021051131771739014 0.02124476253934484 0 0.02144164918642457 0.021021765783451166 0 0.021444630182880432 0.021162799864939522 0 0.021051131771739014 0.02124476253934484 0 0.02144164918642457 0.021021765783451166 0 0.021438838464536227 0.020915763394921925 0 0.018249623995202979 0.021013502863029956 0 0.018666703812836982 0.020413782231872943 0 0.02144164918642457 0.021021765783451166 0 0.021524016964605985 0.021081293549857417 0 0.021436748854881005 0.020915398132484327 0 0.016422982687615953 0.019548749243817977 0 0.016331016130119662 0.019368885522513053 0 0.016998994440745416 0.018982275376464682 0 0.018835456693364387 0.020540151454426381 0 0.018666703812836982 0.020413782231872943 0 0.018249623995202979 0.021013502863029956 0 0.018239453406852749 0.022939559820001103 0 0.021523948306021952 0.021084805061365272 0 0.021444630182880432 0.021162799864939522 0 0.021636955669443226 0.021292176937194894 0 0.02144164918642457 0.021021765783451166 0 0.021524016964605985 0.021081293549857417 0 0.021444630182880432 0.021162799864939522 0 0.018249623995202979 0.021013502863029956 0 0.018787540074516607 0.020738569073219946 0 0.018142423787957131 0.020429968324227325 0 0.018113649906170606 0.017723326155712846 0 0.017495768927438097 0.019168786757232069 0 0.018859644110061635 0.018213161979907511 0 0.018778827230417103 0.018411589135372299 0 0.018589401132655916 0.018018932566778098 0 0.016331016130119662 0.019368885522513053 0 0.016318956440105805 0.018504361246166844 0 0.016998994440745416 0.018982275376464682 0 0.018666703812836982 0.020413782231872943 0 0.01650280085898052 0.017063367830952161 0 0.018666703812836982 0.020413782231872943 0 0.019680470770848453 0.01984327200509229 0 0.01650280085898052 0.017063367830952161 0 0.019680470770848453 0.01984327200509229 0 0.021321313607196669 0.020511016582478097 0 0.020877953858584621 0.020232459738444793 0 0.020892972928896251 0.019648398442824844 0 0.019680470770848453 0.01984327200509229 0 0.019338676503852407 0.017906722757745502 0 0.020918558048070978 0.020735764483302183 0 0.020877953858584621 0.020232459738444793 0 0.020646276086157826 0.020649910284981723 0 0.020918558048070978 0.020735764483302183 0 0.021321313607196669 0.020511016582478097 0 0.020877953858584621 0.020232459738444793 0 0.020877953858584621 0.020232459738444793 0 0.020646276086157826 0.020649910284981723 0 0.020595736556294403 0.020297715284990085 0 0.020646276086157826 0.020649910284981723 0 0.020595736556294403 0.020297715284990085 0 0.020207588534458809 0.020481848059608697 0 0.020595736556294403 0.020297715284990085 0 0.020712742743095324 0.019899856682985547 0 0.020439144728202737 0.02000055782294342 0 0.020877953858584621 0.020232459738444793 0 0.020595736556294403 0.020297715284990085 0 0.020712742743095324 0.019899856682985547 0 0.020549677912570844 0.01955652445349379 0 0.020717214751929707 0.01956126221503145 0 0.020439144728202737 0.02000055782294342 0 0.020717214751929707 0.01956126221503145 0 0.020999426837159309 0.019467397513983901 0 0.020439144728202737 0.02000055782294342 0 0.020712742743095324 0.019899856682985547 0 0.02081006727402309 0.019594989280945968 0 0.020439144728202737 0.02000055782294342 0 0.01953183993895817 0.017632808865646141 0 0.02017029915571077 0.019710849479091411 0 0.01953183993895817 0.017632808865646141 0 0.019420332692698262 0.015407197513820489 0 0.02080910988359827 0.019240871593705581 0 0.020996592185094975 0.019462885163370667 0 0.020848600040732166 0.018991557586955594 0 0.020549677912570844 0.01955652445349379 0 0.020717214751929707 0.01956126221503145 0 0.02070584865689782 0.019376645029401514 0 0.020549677912570844 0.01955652445349379 0 0.020570472910153268 0.019230687460437493 0 0.02070584865689782 0.019376645029401514 0 0.020570472910153268 0.019230687460437493 0 0.02070584865689782 0.019376645029401514 0 0.02080910988359827 0.019240871593705581 0 0.02070584865689782 0.019376645029401514 0 0.02080910988359827 0.019240871593705581 0 0.020890913539921323 0.019387986606226142 0 0.02080910988359827 0.019240871593705581 0 0.020890913539921323 0.019387986606226142 0 0.020996592185094975 0.019462885163370667 0 0.019844543039634836 0.01788917484429518 0 0.01953183993895817 0.017632808865646141 0 0.020717214751929707 0.01956126221503145 0 0.020890913539921323 0.019387986606226142 0 0.020999426837159309 0.019467397513983901 0 0.020717214751929707 0.01956126221503145 0 0.02070584865689782 0.019376645029401514 0 0.020890913539921323 0.019387986606226142 0 0.019336462148127061 0.01571789222699517 0 0.019420780609214726 0.015627439914558085 0 0.019276961611373874 0.015539685790648123 0 0.018105396007849526 0.015929820105452509 0 0.017833164558700577 0.016661912743204738 0 0.016100706480050003 0.015641688553700565 0 0.018105396007849526 0.015929820105452509 0 0.018376308968654331 0.016114443727267284 0 0.017833164558700577 0.016661912743204738 0 0.019338676503852407 0.017906722757745502 0 0.01953183993895817 0.017632808865646141 0 0.01953183993895817 0.017632808865646141 0 0.01841752994387676 0.014702218087417731 0 0.020877953858584621 0.020232459738444793 0 0.020712742743095324 0.019899856682985547 0 0.020892972928896251 0.019648398442824844 0 0.020712742743095324 0.019899856682985547 0 0.020892972928896251 0.019648398442824844 0 0.02081006727402309 0.019594989280945968 0 0.01650280085898052 0.017063367830952161 0 0.019338676503852407 0.017906722757745502 0 0.018105396007849526 0.015929820105452509 0 0.016100706480050003 0.015641688553700565 0 0.016096888171608151 0.015066614814446936 0 0.016093190773212706 0.014570850188667508 0 0.018105396007849526 0.015929820105452509 0 0.016096888171608151 0.015066614814446936 0 0.01841752994387676 0.014702218087417731 0 0.013920292426711939 0.012454748535862922 0 0.013920292426711939 0.012454748535862922 0 0.011984564607719964 0.0095105607947506051 0 0.0098073883492213534 0.0095649517056974609 0 0.010298868177409545 0.0090273600790446874 0 0.010247784346925214 0.0085888485443845371 0 0.013920292426711939 0.012454748535862922 0 0.015295168109740052 0.015173002746432591 0 0.01650280085898052 0.017063367830952161 0 0.015295168109740052 0.015173002746432591 0 0.027236892934853259 0.019167216130949568 0 0.027151943836948821 0.019636069073910183 0 0.027459695718935858 0.019561342585590339 0 0.01992943995422955 0.021030943765740884 0 0.019544097351859375 0.020525414986835844 0 0.020207588534458809 0.020481848059608697 0 0.019544097351859375 0.020525414986835844 0 0.020207588534458809 0.020481848059608697 0 0.019994376953294726 0.019894592045310886 0 0.020207588534458809 0.020481848059608697 0 0.019994376953294726 0.019894592045310886 0 0.020439144728202737 0.02000055782294342 0 0.020595736556294403 0.020297715284990085 0 0.020207588534458809 0.020481848059608697 0 0.020439144728202737 0.02000055782294342 0 0.020549677912570844 0.01955652445349379 0 0.020439144728202737 0.02000055782294342 0 0.020286127689464535 0.019626255649511856 0 0.019994376953294726 0.019894592045310886 0 0.020439144728202737 0.02000055782294342 0 0.020286127689464535 0.019626255649511856 0 0.020549677912570844 0.01955652445349379 0 0.020570472910153268 0.019230687460437493 0 0.020286127689464535 0.019626255649511856 0 0.019994376953294726 0.019894592045310886 0 0.020286127689464535 0.019626255649511856 0 0.019979435687892365 0.019274179707926779 0 0.019994376953294726 0.019894592045310886 0 0.01953130106600184 0.019463373906560884 0 0.019979435687892365 0.019274179707926779 0 0.027236892934853259 0.019167216130949568 0 0.027479697988909483 0.01873790821756555 0 0.026928584340261151 0.018866123560753911 0 0.019544097351859375 0.020525414986835844 0 0.019994376953294726 0.019894592045310886 0 0.01953130106600184 0.019463373906560884 0 0.023388439282982024 0.01985180695846309 0 0.023608356567053745 0.019330080193223707 0 0.027236892934853259 0.019167216130949568 0 0.027459695718935858 0.019561342585590339 0 0.027479697988909483 0.01873790821756555 0 0.027479697988909483 0.01873790821756555 0 0.026928584340261151 0.018866123560753911 0 0.027166981152211452 0.018274140918008223 0 0.027278156441824249 0.02021075504247416 0 0.026881841823095973 0.0191268199851687 0 0.026945292605711289 0.020744330567408528 0 0.026920780179463172 0.019477358581633238 0 0.026528322538639907 0.020411632060588152 0 0.026920780179463172 0.019477358581633238 0 0.026528322538639907 0.020411632060588152 0 0.026180801049570913 0.019953844628852847 0 0.027236892934853259 0.019167216130949568 0 0.027151943836948821 0.019636069073910183 0 0.026928584340261151 0.018866123560753911 0 0.026528322538639907 0.020411632060588152 0 0.026394203362039539 0.021038632926608382 0 0.026095254088271173 0.020832976466643199 0 0.026945292605711289 0.020744330567408528 0 0.026528322538639907 0.020411632060588152 0 0.026394203362039539 0.021038632926608382 0 0.026180801049570913 0.019953844628852847 0 0.025781492334563449 0.020448675525018452 0 0.026095254088271173 0.020832976466643199 0 0.026528322538639907 0.020411632060588152 0 0.026180801049570913 0.019953844628852847 0 0.026095254088271173 0.020832976466643199 0 0.026920780179463172 0.019477358581633238 0 0.026180801049570913 0.019953844628852847 0 0.026200141475177102 0.018972208895625356 0 0.026180801049570913 0.019953844628852847 0 0.025691668311420973 0.019585453548418189 0 0.026200141475177102 0.018972208895625356 0 0.025691668311420973 0.019585453548418189 0 0.025758616242822004 0.018465804432081311 0 0.026200141475177102 0.018972208895625356 0 0.025691668311420973 0.019585453548418189 0 0.024999592799163934 0.019325068631890825 0 0.025758616242822004 0.018465804432081311 0 0.024999592799163934 0.019325068631890825 0 0.02537455429659349 0.02031155609951624 0 0.024999741167809234 0.020735769018377381 0 0.025691668311420973 0.019585453548418189 0 0.024999592799163934 0.019325068631890825 0 0.02537455429659349 0.02031155609951624 0 0.026180801049570913 0.019953844628852847 0 0.025691668311420973 0.019585453548418189 0 0.025781492334563449 0.020448675525018452 0 0.025691668311420973 0.019585453548418189 0 0.02537455429659349 0.02031155609951624 0 0.025781492334563449 0.020448675525018452 0 0.02537455429659349 0.02031155609951624 0 0.025781492334563449 0.020448675525018452 0 0.025613415202961273 0.021247303711146984 0 0.02537455429659349 0.02031155609951624 0 0.025613415202961273 0.021247303711146984 0 0.024999741167809234 0.020735769018377381 0 0.025530953217007681 0.021932743525796616 0 0.024999678777609936 0.022144856894622662 0 0.024999741167809234 0.020735769018377381 0 0.025530953217007681 0.021932743525796616 0 0.025613415202961273 0.021247303711146984 0 0.024999741167809234 0.020735769018377381 0 0.025530953217007681 0.021932743525796616 0 0.025613415202961273 0.021247303711146984 0 0.025635225320203143 0.022509229415574008 0 0.025312179754439217 0.022374487143335769 0 0.025668433055183713 0.022457669827873946 0 0.025613415202961273 0.021247303711146984 0 0.025635225320203143 0.022509229415574008 0 0.026028645573388937 0.021643154119105914 0 0.025635225320203143 0.022509229415574008 0 0.025888106851853838 0.023057821640077351 0 0.026142349444416384 0.022248171593193457 0 0.026507809653308307 0.022595436182514188 0 0.025888106851853838 0.023057821640077351 0 0.026142349444416384 0.022248171593193457 0 0.026507809653308307 0.022595436182514188 0 0.026613842201939016 0.021839285247378628 0 0.026142349444416384 0.022248171593193457 0 0.025635225320203143 0.022509229415574008 0 0.026142349444416384 0.022248171593193457 0 0.026028645573388937 0.021643154119105914 0 0.026028645573388937 0.021643154119105914 0 0.026428697611091883 0.021564233829622713 0 0.026394203362039539 0.021038632926608382 0 0.026613842201939016 0.021839285247378628 0 0.026945292605711289 0.020744330567408528 0 0.026428697611091883 0.021564233829622713 0 0.026142349444416384 0.022248171593193457 0 0.026028645573388937 0.021643154119105914 0 0.026428697611091883 0.021564233829622713 0 0.026613842201939016 0.021839285247378628 0 0.026142349444416384 0.022248171593193457 0 0.026428697611091883 0.021564233829622713 0 0.026945292605711289 0.020744330567408528 0 0.026428697611091883 0.021564233829622713 0 0.026394203362039539 0.021038632926608382 0 0.026028645573388937 0.021643154119105914 0 0.026394203362039539 0.021038632926608382 0 0.026095254088271173 0.020832976466643199 0 0.025613415202961273 0.021247303711146984 0 0.026028645573388937 0.021643154119105914 0 0.026095254088271173 0.020832976466643199 0 0.025781492334563449 0.020448675525018452 0 0.025613415202961273 0.021247303711146984 0 0.026095254088271173 0.020832976466643199 0 0.011473674239648094 0.016978172718837298 0 0.012042412132036055 0.016326010975681784 0 0.012543189621503512 0.017738548371082321 0 0.011473674239648094 0.016978172718837298 0 0.012042412132036055 0.016326010975681784 0 0.011299421100788052 0.016032386367054587 0 0.011946847999944473 0.019000405668901928 0 0.011248153112717849 0.018826589666513741 0 0.012666074735173099 0.021541420521530314 0 0.012664285503768403 0.021557801573972843 0 0.012604664071424389 0.021443005589834769 0 0.012666074735173099 0.021541420521530314 0 0.012606638588936334 0.021422037002687227 0 0.012604664071424389 0.021443005589834769 0 0.013035673196128571 0.024355548709595762 0 0.01326770263401632 0.024263685590443583 0 0.011473674239648094 0.016978172718837298 0 0.010329397048819473 0.016244253777527605 0 0.011299421100788052 0.016032386367054587 0 0.013794313138566799 0.026358915404393297 0 0.013252586183358108 0.026802473123751617 0 0.013299953133644312 0.025896268197046247 0 0.013794313138566799 0.026358915404393297 0 0.013252586183358108 0.026802473123751617 0 0.013995789626525451 0.027036396058851442 0 0.012666074735173099 0.021541420521530314 0 0.012664285503768403 0.021557801573972843 0 0.012787168002351424 0.021718476418340231 0 0.011946847999944473 0.019000405668901928 0 0.012768734620675019 0.022081403249918481 0 0.013035673196128571 0.024355548709595762 0 0.012768734620675019 0.022081403249918481 0 0.013252586183358108 0.026802473123751617 0 0.013299953133644312 0.025896268197046247 0 0.012363825835491093 0.026426660217171397 0 0.013299953133644312 0.025896268197046247 0 0.012503837333134527 0.025579119186745009 0 0.012363825835491093 0.026426660217171397 0 0.013299953133644312 0.025896268197046247 0 0.013084754548934201 0.025371886600651147 0 0.012503837333134527 0.025579119186745009 0 0.013084754548934201 0.025371886600651147 0 0.012575324475438118 0.024999864478030712 0 0.013975739323728423 0.024999927582106042 0 0.013084754548934201 0.025371886600651147 0 0.012575324475438118 0.024999864478030712 0 0.012503837333134527 0.025579119186745009 0 0.013299953133644312 0.025896268197046247 0 0.013975739323728423 0.024999927582106042 0 0.014315249047981746 0.025619738733798587 0 0.013299953133644312 0.025896268197046247 0 0.013084754548934201 0.025371886600651147 0 0.013975739323728423 0.024999927582106042 0 0.013794313138566799 0.026358915404393297 0 0.013299953133644312 0.025896268197046247 0 0.014315249047981746 0.025619738733798587 0 0.013794313138566799 0.026358915404393297 0 0.014517565276099185 0.026243109102919892 0 0.014315249047981746 0.025619738733798587 0 0.014517565276099185 0.026243109102919892 0 0.014315249047981746 0.025619738733798587 0 0.014762918481076028 0.025679699595803695 0 0.013975739323728423 0.024999927582106042 0 0.015376362341421515 0.024999962222254909 0 0.0149679125834718 0.025181926263931894 0 0.013975739323728423 0.024999927582106042 0 0.014315249047981746 0.025619738733798587 0 0.0149679125834718 0.025181926263931894 0 0.014315249047981746 0.025619738733798587 0 0.0149679125834718 0.025181926263931894 0 0.014762918481076028 0.025679699595803695 0 0.0149679125834718 0.025181926263931894 0 0.015168810909367387 0.02580289354032252 0 0.015691953940898593 0.025385797946285409 0 0.0149679125834718 0.025181926263931894 0 0.015168810909367387 0.02580289354032252 0 0.014762918481076028 0.025679699595803695 0 0.015053955776649393 0.025202040966588599 0 0.015817644933614608 0.025429640881568329 0 0.015376362341421515 0.024999962222254909 0 0.0149679125834718 0.025181926263931894 0 0.016068630926491547 0.025438991838811341 0 0.014517565276099185 0.026243109102919892 0 0.015168810909367387 0.02580289354032252 0 0.015486734066690476 0.026461261467247876 0 0.014517565276099185 0.026243109102919892 0 0.015168810909367387 0.02580289354032252 0 0.014762918481076028 0.025679699595803695 0 0.014514759367944623 0.026257588921959459 0 0.015111167694912844 0.026429112047223615 0 0.014517565276099185 0.026243109102919892 0 0.014644715827137353 0.026473858041361254 0 0.014623651331582881 0.026422156946959638 0 0.014644715827137353 0.026473858041361254 0 0.014584823442049883 0.026271444673037606 0 0.014623651331582881 0.026422156946959638 0 0.013794313138566799 0.026358915404393297 0 0.014218987470590248 0.026571687645704153 0 0.013995789626525451 0.027036396058851442 0 0.013794313138566799 0.026358915404393297 0 0.014517565276099185 0.026243109102919892 0 0.014218987470590248 0.026571687645704153 0 0.014517565276099185 0.026243109102919892 0 0.014644715827137353 0.026473858041361254 0 0.014218987470590248 0.026571687645704153 0 0.014644715827137353 0.026473858041361254 0 0.013995789626525451 0.027036396058851442 0 0.014622532428637825 0.02734868641841558 0 0.012606638588936334 0.021422037002687227 0 0.012604664071424389 0.021443005589834769 0 0.012578470124829277 0.021370622467958313 0 0.014644715827137353 0.026473858041361254 0 0.014218987470590248 0.026571687645704153 0 0.013995789626525451 0.027036396058851442 0 0.01326770263401632 0.024263685590443583 0 0.013798779622361106 0.023831581653410795 0 0.014822145496490469 0.027634643312509474 0 0.013798779622361106 0.023831581653410795 0 0.014644715827137353 0.026473858041361254 0 0.014584823442049883 0.026271444673037606 0 0.014851147075885541 0.026037969068665595 0 0.014584823442049883 0.026271444673037606 0 0.01444231240743926 0.026189657460889589 0 0.014623651331582881 0.026422156946959638 0 0.014584823442049883 0.026271444673037606 0 0.01444231240743926 0.026189657460889589 0 0.01444844184455526 0.026038791125562739 0 0.01444231240743926 0.026189657460889589 0 0.014373003756148356 0.026275658357724437 0 0.014337727585415799 0.026107750755397605 0 0.01444231240743926 0.026189657460889589 0 0.014337727585415799 0.026107750755397605 0 0.014399109834528365 0.026073245103530821 0 0.016318752862640607 0.026655833017348717 0 0.016399142581032356 0.026087178259127975 0 0.016803518988691455 0.026230949073071431 0 0.016318752862640607 0.026655833017348717 0 0.015969743604708313 0.025990458029777449 0 0.016399142581032356 0.026087178259127975 0 0.01444231240743926 0.026189657460889589 0 0.014373003756148356 0.026275658357724437 0 0.014623651331582881 0.026422156946959638 0 0.016318752862640607 0.026655833017348717 0 0.015486734066690476 0.026461261467247876 0 0.015969743604708313 0.025990458029777449 0 0.014987795751162282 0.026539673729858361 0 0.015111167694912844 0.026429112047223615 0 0.015580144675750184 0.025907371931345725 0 0.015691953940898593 0.025385797946285409 0 0.015969743604708313 0.025990458029777449 0 0.015168810909367387 0.02580289354032252 0 0.015486734066690476 0.026461261467247876 0 0.015580144675750184 0.025907371931345725 0 0.015486734066690476 0.026461261467247876 0 0.015580144675750184 0.025907371931345725 0 0.015969743604708313 0.025990458029777449 0 0.015168810909367387 0.02580289354032252 0 0.015580144675750184 0.025907371931345725 0 0.015691953940898593 0.025385797946285409 0 0.015376362341421515 0.024999962222254909 0 0.016068630926491547 0.025438991838811341 0 0.016777350860179972 0.025000021152928507 0 0.015817644933614608 0.025429640881568329 0 0.017095880984623089 0.025206525171035929 0 0.016068630926491547 0.025438991838811341 0 0.016777350860179972 0.025000021152928507 0 0.01712141007457043 0.025673067646544669 0 0.016777521180164116 0.025000398668804814 0 0.017095880984623089 0.025206525171035929 0 0.016477623489831762 0.025574861199118011 0 0.015969743604708313 0.025990458029777449 0 0.016399142581032356 0.026087178259127975 0 0.015691953940898593 0.025385797946285409 0 0.016477623489831762 0.025574861199118011 0 0.015969743604708313 0.025990458029777449 0 0.016477623489831762 0.025574861199118011 0 0.016399142581032356 0.026087178259127975 0 0.016803518988691455 0.026230949073071431 0 0.016777215177194171 0.025000713329559252 0 0.017208617120399589 0.025556471449331129 0 0.018678652209236788 0.025603747714839403 0 0.017444840942460196 0.024440635248313032 0 0.019070852013556967 0.024813635784956649 0 0.018015617850077156 0.025546864415573901 0 0.017095880984623089 0.025206525171035929 0 0.017485502059075654 0.026109906421983679 0 0.017095880984623089 0.025206525171035929 0 0.018922786651623599 0.025163545422916826 0 0.019830320342211681 0.024997499206965462 0 0.016777215177194171 0.025000713329559252 0 0.018678652209236788 0.025603747714839403 0 0.019672279155358942 0.02581134391213211 0 0.019070852013556967 0.024813635784956649 0 0.018015617850077156 0.025546864415573901 0 0.019672279155358942 0.02581134391213211 0 0.018015617850077156 0.025546864415573901 0 0.018559005612293625 0.026673458283085868 0 0.014987795751162282 0.026539673729858361 0 0.017713763021972476 0.025181907860737776 0 0.016318752862640607 0.026655833017348717 0 0.016803518988691455 0.026230949073071431 0 0.017130027211652431 0.026858216114764997 0 0.017485502059075654 0.026109906421983679 0 0.017713763021972476 0.025181907860737776 0 0.014373003756148356 0.026275658357724437 0 0.014337727585415799 0.026107750755397605 0 0.014267392082871854 0.026172052592011243 0 0.014337727585415799 0.026107750755397605 0 0.014267392082871854 0.026172052592011243 0 0.014284404623340966 0.026085401653718081 0 0.014267392082871854 0.026172052592011243 0 0.014235567086123743 0.026058154350496254 0 0.014284404623340966 0.026085401653718081 0 0.017713763021972476 0.025181907860737776 0 0.017284262065598532 0.023929798638359201 0 0.020552969215764102 0.021925134246549512 0 0.020364829885921681 0.021908805699266034 0 0.020440029032138048 0.021986297950189821 0 0.02061050566067614 0.024513226627717214 0 0.017713763021972476 0.025181907860737776 0 0.019672279155358942 0.02581134391213211 0 0.019970493179816584 0.027133496045713114 0 0.018559005612293625 0.026673458283085868 0 0.014210736291308581 0.025954323150485323 0 0.014235567086123743 0.026058154350496254 0 0.014296068665363341 0.026006185679930228 0 0.018239453406852749 0.022939559820001103 0 0.017284262065598532 0.023929798638359201 0 0.014235567086123743 0.026058154350496254 0 0.014284404623340966 0.026085401653718081 0 0.014296068665363341 0.026006185679930228 0 0.014337727585415799 0.026107750755397605 0 0.014296068665363341 0.026006185679930228 0 0.014376244145969904 0.025992918653023618 0 0.014337727585415799 0.026107750755397605 0 0.014284404623340966 0.026085401653718081 0 0.014296068665363341 0.026006185679930228 0 0.013615666154841199 0.023247030353715066 0 0.014229918680584807 0.02607386498113776 0 0.014296068665363341 0.026006185679930228 0 0.014288760659451108 0.025902098300133167 0 0.014376244145969904 0.025992918653023618 0 0.01300745388201543 0.025049938820987699 0 0.01336269337598664 0.024840032856187598 0 0.013776153670713727 0.025622705174930035 0 0.016794185803561002 0.020746132649992033 0 0.014678715660060094 0.022002854520148496 0 0.015623767160903291 0.022639745114807125 0 0.017074265583382788 0.021292125215497452 0 0.016794185803561002 0.020746132649992033 0 0.015623767160903291 0.022639745114807125 0 0.014210736291308581 0.025954323150485323 0 0.014296068665363341 0.026006185679930228 0 0.014288760659451108 0.025902098300133167 0 0.018239453406852749 0.022939559820001103 0 0.013615666154841199 0.023247030353715066 0 0.018249623995202979 0.021013502863029956 0 0.014346056753214435 0.018887734233434719 0 0.01418735689432305 0.015637935581864292 0 0.014187069945964251 0.015648196416752767 0 0.014082575644186168 0.015628259754597206 0 0.01418735689432305 0.015637935581864292 0 0.014112749683386492 0.015609774010118845 0 0.014082575644186168 0.015628259754597206 0 0.013615666154841199 0.023247030353715066 0 0.014346056753214435 0.018887734233434719 0 0.01313526263500428 0.019342714201959158 0 0.012876624009114055 0.019155654506769051 0 0.013054588997188577 0.018978546459924171 0 0.014346056753214435 0.018887734233434719 0 0.012103468904636304 0.014933551661470272 0 0.01650280085898052 0.017063367830952161 0 0.014346056753214435 0.018887734233434719 0 0.014187102277342708 0.015660248416766775 0 0.014187069945964251 0.015648196416752767 0 0.014082575644186168 0.015628259754597206 0 0.0098073883492213534 0.0095649517056974609 0 0.011330971083685477 0.010554766564738888 0 0.010298868177409545 0.0090273600790446874 0 0.010284699166959359 0.0088171755514096905 0 0.01144787287013491 0.010713529068194767 0 0.011330971083685477 0.010554766564738888 0 0.010298868177409545 0.0090273600790446874 0 0.011826217986261706 0.010086276081739757 0 0.013920292426711939 0.012454748535862922 0 0.012103468904636304 0.014933551661470272 0 0.010298868177409545 0.0090273600790446874 0 0.011124480249312224 0.0095046869408981598 0 0.010742770535181722 0.0088244355674526112 0 0.011161719691779141 0.0089072492025020905 0 0.011124480249312224 0.0095046869408981598 0 0.010742770535181722 0.0088244355674526112 0 0.011161719691779141 0.0089072492025020905 0 0.011124480249312224 0.0095046869408981598 0 0.011684489687995014 0.0089457223856854035 0 0.010763341592479023 0.0097677842520629849 0 0.011347806501539886 0.0096385234441541418 0 0.011497683095286525 0.00905744592110597 0 0.01144787287013491 0.010713529068194767 0 0.011623957317626742 0.0089095386268034319 0 0.010763341592479023 0.0097677842520629849 0 0.011378726748256983 0.01019522841701258 0 0.011347806501539886 0.0096385234441541418 0 0.01144787287013491 0.010713529068194767 0 0.01191742745450949 0.014825180640450042 0 0.011955918374304651 0.014362358828760297 0 0.012240175541370146 0.015228622444333883 0 0.012746782825507955 0.014917292574233604 0 0.011514395236154098 0.014788555591532363 0 0.011955918374304651 0.014362358828760297 0 0.012240175541370146 0.015228622444333883 0 0.012103468904636304 0.014933551661470272 0 0.01144787287013491 0.010713529068194767 0 0.013615666154841199 0.023247030353715066 0 0.012870925067430041 0.019602411211528278 0 0.012103468904636304 0.014933551661470272 0 0.012870925067430041 0.019602411211528278 0 0.01313526263500428 0.019342714201959158 0 0.013054588997188577 0.018978546459924171 0 0.013386298244522961 0.019186405059861845 0 0.012870925067430041 0.019602411211528278 0 0.01191742745450949 0.014825180640450042 0 0.010649731672162139 0.014146464921619284 0 0.012003546152358342 0.013340362342560676 0 0.011748747992708442 0.013779195026468414 0 0.01191742745450949 0.014825180640450042 0 0.012890977985293759 0.017756503417198304 0 0.01191742745450949 0.014825180640450042 0 0.012325186141223802 0.010686532882557078 0 0.010649731672162139 0.014146464921619284 0 0.011848359653808075 0.014191821017872499 0 0.012171467660084756 0.015217122434589595 0 0.011952726573988144 0.019168485214918408 0 0.012267127466171533 0.018973728514695157 0 0.012974726413741401 0.019813734662616496 0 0.010649731672162139 0.014146464921619284 0 0.011748747992708442 0.013779195026468414 0 0.011848359653808075 0.014191821017872499 0 0.011378726748256983 0.01019522841701258 0 0.011347806501539886 0.0096385234441541418 0 0.011750809600381886 0.0095398624159107395 0 0.011378726748256983 0.01019522841701258 0 0.011750809600381886 0.0095398624159107395 0 0.012326196923750211 0.0095914307378288256 0 0.011347806501539886 0.0096385234441541418 0 0.011750809600381886 0.0095398624159107395 0 0.011497683095286525 0.00905744592110597 0 0.011750809600381886 0.0095398624159107395 0 0.012104703660678772 0.0093707428016050771 0 0.012326196923750211 0.0095914307378288256 0 0.011750809600381886 0.0095398624159107395 0 0.012042179222285994 0.009113416254611614 0 0.011497683095286525 0.00905744592110597 0 0.011750809600381886 0.0095398624159107395 0 0.012042179222285994 0.009113416254611614 0 0.012104703660678772 0.0093707428016050771 0 0.012325186141223802 0.010686532882557078 0 0.013203965096766267 0.0088583903797083124 0 0.012326196923750211 0.0095914307378288256 0 0.013150583689646337 0.0090173696332444524 0 0.012833680589562167 0.0090922298590186256 0 0.012487212444498014 0.0092223007638378412 0 0.012326196923750211 0.0095914307378288256 0 0.012833680589562167 0.0090922298590186256 0 0.012487212444498014 0.0092223007638378412 0 0.012833680589562167 0.0090922298590186256 0 0.01249204270203135 0.008962691370746725 0 0.012487212444498014 0.0092223007638378412 0 0.012314331222522233 0.0092517034786293046 0 0.01249204270203135 0.008962691370746725 0 0.012042179222285994 0.009113416254611614 0 0.012314331222522233 0.0092517034786293046 0 0.01249204270203135 0.008962691370746725 0 0.012042179222285994 0.009113416254611614 0 0.012104703660678772 0.0093707428016050771 0 0.012314331222522233 0.0092517034786293046 0 0.012487212444498014 0.0092223007638378412 0 0.012314331222522233 0.0092517034786293046 0 0.012326196923750211 0.0095914307378288256 0 0.012104703660678772 0.0093707428016050771 0 0.012314331222522233 0.0092517034786293046 0 0.012326196923750211 0.0095914307378288256 0 0.012097620718673629 0.013521662782836516 0 0.012003546152358342 0.013340362342560676 0 0.011748747992708442 0.013779195026468414 0 0.012097620718673629 0.013521662782836516 0 0.01260183222737271 0.013416407514058386 0 0.012164662026994018 0.013770101122830636 0 0.012097620718673629 0.013521662782836516 0 0.012634665431312643 0.013210482676607207 0 0.01260183222737271 0.013416407514058386 0 0.012097620718673629 0.013521662782836516 0 0.012003546152358342 0.013340362342560676 0 0.012634665431312643 0.013210482676607207 0 0.01260183222737271 0.013416407514058386 0 0.012527166543521493 0.013724424807409754 0 0.013024202655464856 0.013420874238397242 0 0.012527166543521493 0.013724424807409754 0 0.012461729953659162 0.014111666826006201 0 0.012164662026994018 0.013770101122830636 0 0.01260183222737271 0.013416407514058386 0 0.012527166543521493 0.013724424807409754 0 0.012164662026994018 0.013770101122830636 0 0.012527166543521493 0.013724424807409754 0 0.012461729953659162 0.014111666826006201 0 0.012888950248646829 0.013833942559023427 0 0.012461729953659162 0.014111666826006201 0 0.012164662026994018 0.013770101122830636 0 0.011848359653808075 0.014191821017872499 0 0.012097620718673629 0.013521662782836516 0 0.011748747992708442 0.013779195026468414 0 0.012164662026994018 0.013770101122830636 0 0.011748747992708442 0.013779195026468414 0 0.012164662026994018 0.013770101122830636 0 0.011848359653808075 0.014191821017872499 0 0.012461729953659162 0.014111666826006201 0 0.011848359653808075 0.014191821017872499 0 0.012171467660084756 0.015217122434589595 0 0.012461729953659162 0.014111666826006201 0 0.012171467660084756 0.015217122434589595 0 0.013011501213760946 0.014247770268040069 0 0.012974726413741401 0.019813734662616496 0 0.01313051025499906 0.019612035927401752 0 0.01393978667928081 0.020221665227530432 0 0.012267127466171533 0.018973728514695157 0 0.012974726413741401 0.019813734662616496 0 0.01313051025499906 0.019612035927401752 0 0.01336269337598664 0.024840032856187598 0 0.014344230264423276 0.025546780264151636 0 0.013776153670713727 0.025622705174930035 0 0.012870925067430041 0.019602411211528278 0 0.013786888261025079 0.022973957081563988 0 0.014344230264423276 0.025546780264151636 0 0.013776153670713727 0.025622705174930035 0 0.01444844184455526 0.026038791125562739 0 0.014229918680584807 0.02607386498113776 0 0.014339471433347808 0.025945418439748142 0 0.014376244145969904 0.025992918653023618 0 0.014399109834528365 0.026073245103530821 0 0.01444844184455526 0.026038791125562739 0 0.014337727585415799 0.026107750755397605 0 0.014376244145969904 0.025992918653023618 0 0.014399109834528365 0.026073245103530821 0 0.01444231240743926 0.026189657460889589 0 0.014399109834528365 0.026073245103530821 0 0.01444844184455526 0.026038791125562739 0 0.014344230264423276 0.025546780264151636 0 0.01444844184455526 0.026038791125562739 0 0.014851147075885541 0.026037969068665595 0 0.014584823442049883 0.026271444673037606 0 0.01444844184455526 0.026038791125562739 0 0.014851147075885541 0.026037969068665595 0 0.013786888261025079 0.022973957081563988 0 0.013798779622361106 0.023831581653410795 0 0.012974726413741401 0.019813734662616496 0 0.01393978667928081 0.020221665227530432 0 0.013931450940450826 0.020430970811293626 0 0.012563291814056089 0.017855755411474397 0 0.013798779622361106 0.023831581653410795 0 0.010329397048819473 0.016244253777527605 0 0.0090510733400360911 0.015438834143804338 0 0.01008553302319147 0.014649470325733325 0 0.012606638588936334 0.021422037002687227 0 0.012581084262461347 0.021345953164740531 0 0.012578470124829277 0.021370622467958313 0 0.011248153112717849 0.018826589666513741 0 0.012563291814056089 0.017855755411474397 0 0.0090510733400360911 0.015438834143804338 0 0.009538077588336389 0.014109091120256972 0 0.0089918805060552574 0.013526473610027828 0 0.0090510733400360911 0.015438834143804338 0 0.01008553302319147 0.014649470325733325 0 0.009538077588336389 0.014109091120256972 0 0.01008553302319147 0.014649470325733325 0 0.009868679643385633 0.013892857599327615 0 0.009538077588336389 0.014109091120256972 0 0.01008553302319147 0.014649470325733325 0 0.009868679643385633 0.013892857599327615 0 0.010354677750826886 0.013794466135955264 0 0.012563291814056089 0.017855755411474397 0 0.011135607704492756 0.013762524139147813 0 0.012171467660084756 0.015217122434589595 0 0.013712170587769766 0.016304600164581025 0 0.01377893542607344 0.014431941916810439 0 0.012890977985293759 0.017756503417198304 0 0.012563291814056089 0.017855755411474397 0 0.012171467660084756 0.015217122434589595 0 0.013011501213760946 0.014247770268040069 0 0.01377893542607344 0.014431941916810439 0 0.01377893542607344 0.014431941916810439 0 0.013455460454442228 0.013840912886339226 0 0.013835878616158821 0.012562378407351082 0 0.013011501213760946 0.014247770268040069 0 0.01377893542607344 0.014431941916810439 0 0.013455460454442228 0.013840912886339226 0 0.012461729953659162 0.014111666826006201 0 0.013011501213760946 0.014247770268040069 0 0.012888950248646829 0.013833942559023427 0 0.013011501213760946 0.014247770268040069 0 0.01318099222984695 0.013929978801986797 0 0.012888950248646829 0.013833942559023427 0 0.013011501213760946 0.014247770268040069 0 0.013455460454442228 0.013840912886339226 0 0.01318099222984695 0.013929978801986797 0 0.01318099222984695 0.013929978801986797 0 0.012888950248646829 0.013833942559023427 0 0.01326712982276991 0.013564799812665005 0 0.013455460454442228 0.013840912886339226 0 0.01318099222984695 0.013929978801986797 0 0.01326712982276991 0.013564799812665005 0 0.012888950248646829 0.013833942559023427 0 0.013024202655464856 0.013420874238397242 0 0.01326712982276991 0.013564799812665005 0 0.012527166543521493 0.013724424807409754 0 0.012888950248646829 0.013833942559023427 0 0.013024202655464856 0.013420874238397242 0 0.01260183222737271 0.013416407514058386 0 0.013024202655464856 0.013420874238397242 0 0.013835878616158821 0.012562378407351082 0 0.012634665431312643 0.013210482676607207 0 0.01260183222737271 0.013416407514058386 0 0.013835878616158821 0.012562378407351082 0 0.013455460454442228 0.013840912886339226 0 0.01326712982276991 0.013564799812665005 0 0.013835878616158821 0.012562378407351082 0 0.011135607704492756 0.013762524139147813 0 0.012687650745422444 0.010802962848117183 0 0.012003546152358342 0.013340362342560676 0 0.012634665431312643 0.013210482676607207 0 0.013835878616158821 0.012562378407351082 0 0.012258647020548696 0.0096303176005801648 0 0.013501141432794366 0.0090633974966557243 0 0.013150583689646337 0.0090173696332444524 0 0.012325186141223802 0.010686532882557078 0 0.012687650745422444 0.010802962848117183 0 0.013024202655464856 0.013420874238397242 0 0.01326712982276991 0.013564799812665005 0 0.013835878616158821 0.012562378407351082 0 0.0089918805060552574 0.013526473610027828 0 0.0090456678979038852 0.010981268850533731 0 0.0096744982648230456 0.012027817374491651 0 0.0090456678979038852 0.010981268850533731 0 0.010266252159463833 0.01128912364105227 0 0.010465982007759845 0.010428243203012498 0 0.0090456678979038852 0.010981268850533731 0 0.010266252159463833 0.01128912364105227 0 0.0096744982648230456 0.012027817374491651 0 0.0096744982648230456 0.012027817374491651 0 0.010188665472740697 0.012518201061628757 0 0.010743031774776337 0.011935126862667598 0 0.010266252159463833 0.01128912364105227 0 0.0096744982648230456 0.012027817374491651 0 0.010743031774776337 0.011935126862667598 0 0.010188665472740697 0.012518201061628757 0 0.01090476097702666 0.01252329817047906 0 0.010743031774776337 0.011935126862667598 0 0.010188665472740697 0.012518201061628757 0 0.0095172445244962062 0.013288681321988412 0 0.01090476097702666 0.01252329817047906 0 0.0096744982648230456 0.012027817374491651 0 0.010188665472740697 0.012518201061628757 0 0.009587779610314557 0.012842890167679302 0 0.0089918805060552574 0.013526473610027828 0 0.0096744982648230456 0.012027817374491651 0 0.009587779610314557 0.012842890167679302 0 0.010188665472740697 0.012518201061628757 0 0.009587779610314557 0.012842890167679302 0 0.0095172445244962062 0.013288681321988412 0 0.009868679643385633 0.013892857599327615 0 0.009538077588336389 0.014109091120256972 0 0.0095172445244962062 0.013288681321988412 0 0.009538077588336389 0.014109091120256972 0 0.0089918805060552574 0.013526473610027828 0 0.0095172445244962062 0.013288681321988412 0 0.0089918805060552574 0.013526473610027828 0 0.009587779610314557 0.012842890167679302 0 0.0095172445244962062 0.013288681321988412 0 0.009868679643385633 0.013892857599327615 0 0.0095172445244962062 0.013288681321988412 0 0.010354677750826886 0.013794466135955264 0 0.010354677750826886 0.013794466135955264 0 0.011484817107157718 0.013484196576478952 0 0.011149545719927259 0.014028257486055571 0 0.0095172445244962062 0.013288681321988412 0 0.010354677750826886 0.013794466135955264 0 0.011484817107157718 0.013484196576478952 0 0.0096014429332583074 0.013290777379932209 0 0.011777321959336423 0.013157467248015435 0 0.0095172445244962062 0.013288681321988412 0 0.01090476097702666 0.01252329817047906 0 0.012148384487952401 0.012902838970728732 0 0.01090476097702666 0.01252329817047906 0 0.011893665433995086 0.012009732554691351 0 0.012148384487952401 0.012902838970728732 0 0.01090476097702666 0.01252329817047906 0 0.010743031774776337 0.011935126862667598 0 0.011893665433995086 0.012009732554691351 0 0.010743031774776337 0.011935126862667598 0 0.011893665433995086 0.012009732554691351 0 0.011319583100416608 0.011103168197703543 0 0.011893665433995086 0.012009732554691351 0 0.011319583100416608 0.011103168197703543 0 0.012536431334318306 0.01123849344156326 0 0.010266252159463833 0.01128912364105227 0 0.011319583100416608 0.011103168197703543 0 0.010465982007759845 0.010428243203012498 0 0.010266252159463833 0.01128912364105227 0 0.010743031774776337 0.011935126862667598 0 0.011319583100416608 0.011103168197703543 0 0.012374655240802567 0.0108809020341093 0 0.013271834186186125 0.012395817123853722 0 0.014059941158303411 0.010786632018497663 0 0.012374655240802567 0.0108809020341093 0 0.013252369956879402 0.0098955158403078117 0 0.014059941158303411 0.010786632018497663 0 0.011893665433995086 0.012009732554691351 0 0.012536431334318306 0.01123849344156326 0 0.013271834186186125 0.012395817123853722 0 0.012476640935895789 0.011048895793715265 0 0.013168716608056312 0.012249602244546062 0 0.013271834186186125 0.012395817123853722 0 0.012148384487952401 0.012902838970728732 0 0.014685588905227216 0.012571672338880777 0 0.012361369239733523 0.0137381860339359 0 0.011484817107157718 0.013484196576478952 0 0.011149545719927259 0.014028257486055571 0 0.012361369239733523 0.0137381860339359 0 0.011484817107157718 0.013484196576478952 0 0.013580918583088384 0.01341646193450332 0 0.012062271299752379 0.013859381605969704 0 0.011325387524608869 0.014009138408632361 0 0.011777321959336423 0.013157467248015435 0 0.014114581664902299 0.013210097307890779 0 0.011893665433995086 0.012009732554691351 0 0.013271834186186125 0.012395817123853722 0 0.012148384487952401 0.012902838970728732 0 0.012110912589206669 0.013911072612842001 0 0.011817828801705366 0.014616272537418457 0 0.011149545719927259 0.014028257486055571 0 0.012110912589206669 0.013911072612842001 0 0.011817828801705366 0.014616272537418457 0 0.012747203116486522 0.014665732942294151 0 0.011817828801705366 0.014616272537418457 0 0.011970262284814676 0.015452129885628059 0 0.012747203116486522 0.014665732942294151 0 0.011817828801705366 0.014616272537418457 0 0.011047108720243027 0.015058336268972357 0 0.011970262284814676 0.015452129885628059 0 0.011149545719927259 0.014028257486055571 0 0.010651996787611676 0.014373002625349563 0 0.011047108720243027 0.015058336268972357 0 0.010354677750826886 0.013794466135955264 0 0.011149545719927259 0.014028257486055571 0 0.010651996787611676 0.014373002625349563 0 0.01008553302319147 0.014649470325733325 0 0.010354677750826886 0.013794466135955264 0 0.010651996787611676 0.014373002625349563 0 0.01008553302319147 0.014649470325733325 0 0.010651996787611676 0.014373002625349563 0 0.011047108720243027 0.015058336268972357 0 0.011817828801705366 0.014616272537418457 0 0.011149545719927259 0.014028257486055571 0 0.011047108720243027 0.015058336268972357 0 0.010329397048819473 0.016244253777527605 0 0.011047108720243027 0.015058336268972357 0 0.011299421100788052 0.016032386367054587 0 0.010329397048819473 0.016244253777527605 0 0.01008553302319147 0.014649470325733325 0 0.011047108720243027 0.015058336268972357 0 0.012042412132036055 0.016326010975681784 0 0.011299421100788052 0.016032386367054587 0 0.011970262284814676 0.015452129885628059 0 0.011047108720243027 0.015058336268972357 0 0.011299421100788052 0.016032386367054587 0 0.011970262284814676 0.015452129885628059 0 0.014735614637436825 0.0066050639246379213 0 0.014577443236006491 0.0058820400430854083 0 0.015124591395485424 0.0060931997305581492 0 0.014735614637436825 0.0066050639246379213 0 0.014079483801528084 0.0062149571725391177 0 0.014181178128480786 0.0068178376788984143 0 0.014735614637436825 0.0066050639246379213 0 0.014079483801528084 0.0062149571725391177 0 0.014577443236006491 0.0058820400430854083 0 0.014079483801528084 0.0062149571725391177 0 0.014181178128480786 0.0068178376788984143 0 0.013648673831115446 0.0067063881322268299 0 0.014181178128480786 0.0068178376788984143 0 0.014629235318596211 0.0072725643135735703 0 0.013986916643614596 0.0073735317126349762 0 0.014735614637436825 0.0066050639246379213 0 0.014181178128480786 0.0068178376788984143 0 0.014629235318596211 0.0072725643135735703 0 0.014735614637436825 0.0066050639246379213 0 0.014629235318596211 0.0072725643135735703 0 0.015193215112046235 0.0072816036323567869 0 0.014629235318596211 0.0072725643135735703 0 0.015019653831713132 0.0078069784125366325 0 0.015193215112046235 0.0072816036323567869 0 0.014629235318596211 0.0072725643135735703 0 0.014349882537261108 0.0080687164281455417 0 0.015019653831713132 0.0078069784125366325 0 0.013142051411169179 0.0089898113561095883 0 0.014257123466488372 0.0081802613277248241 0 0.012374655240802567 0.0108809020341093 0 0.013252369956879402 0.0098955158403078117 0 0.011532559869164604 0.0093862567647561724 0 0.013252369956879402 0.0098955158403078117 0 0.011532559869164604 0.0093862567647561724 0 0.01347317890386413 0.0085681656278994399 0 0.012476640935895789 0.011048895793715265 0 0.013142051411169179 0.0089898113561095883 0 0.014695600243783939 0.0085914051135057064 0 0.014178730905803677 0.0076368990792119625 0 0.013982470974260246 0.0088870253614654754 0 0.011319583100416608 0.011103168197703543 0 0.011806222952683179 0.0098992268261281196 0 0.010465982007759845 0.010428243203012498 0 0.013142051411169179 0.0089898113561095883 0 0.012069595830993528 0.0097546751473095734 0 0.011319583100416608 0.011103168197703543 0 0.012536431334318306 0.01123849344156326 0 0.011806222952683179 0.0098992268261281196 0 0.013142051411169179 0.0089898113561095883 0 0.014184248140114663 0.0074601311451690635 0 0.014629235318596211 0.0072725643135735703 0 0.014349882537261108 0.0080687164281455417 0 0.013986916643614596 0.0073735317126349762 0 0.014178730905803677 0.0076368990792119625 0 0.013316391108278217 0.0080852015406336197 0 0.013404539793341849 0.007007547696462839 0 0.014178730905803677 0.0076368990792119625 0 0.013982470974260246 0.0088870253614654754 0 0.013316391108278217 0.0080852015406336197 0 0.013457815387437851 0.0076817425424354916 0 0.013398398834989023 0.0072395694522471169 0 0.013256277611598635 0.0091927627446030096 0 0.013982470974260246 0.0088870253614654754 0 0.013316391108278217 0.0080852015406336197 0 0.012687650745422444 0.010802962848117183 0 0.012069595830993528 0.0097546751473095734 0 0.012687650745422444 0.010802962848117183 0 0.013457815387437851 0.0076817425424354916 0 0.013501141432794366 0.0090633974966557243 0 0.012892559763141586 0.0083415547295455292 0 0.013488500746259804 0.0080081981724385836 0 0.013150583689646337 0.0090173696332444524 0 0.012892559763141586 0.0083415547295455292 0 0.012789145438854557 0.0087510918788553573 0 0.013150583689646337 0.0090173696332444524 0 0.012833680589562167 0.0090922298590186256 0 0.012789145438854557 0.0087510918788553573 0 0.013501141432794366 0.0090633974966557243 0 0.013150583689646337 0.0090173696332444524 0 0.012892559763141586 0.0083415547295455292 0 0.012892559763141586 0.0083415547295455292 0 0.013488500746259804 0.0080081981724385836 0 0.01277937294074582 0.0076577531081638501 0 0.013488500746259804 0.0080081981724385836 0 0.013149453940674587 0.0074102499822991897 0 0.01277937294074582 0.0076577531081638501 0 0.013488500746259804 0.0080081981724385836 0 0.013149453940674587 0.0074102499822991897 0 0.013404539793341849 0.007007547696462839 0 0.012932662642089377 0.0069930352667857383 0 0.013149453940674587 0.0074102499822991897 0 0.01277937294074582 0.0076577531081638501 0 0.012932662642089377 0.0069930352667857383 0 0.013149453940674587 0.0074102499822991897 0 0.013404539793341849 0.007007547696462839 0 0.012932662642089377 0.0069930352667857383 0 0.013404539793341849 0.007007547696462839 0 0.013307511203209939 0.0066862511124569117 0 0.014184248140114663 0.0074601311451690635 0 0.013663333842615071 0.0067720417239929441 0 0.014178730905803677 0.0076368990792119625 0 0.013404539793341849 0.007007547696462839 0 0.013648673831115446 0.0067063881322268299 0 0.014181178128480786 0.0068178376788984143 0 0.013986916643614596 0.0073735317126349762 0 0.013648673831115446 0.0067063881322268299 0 0.013404539793341849 0.007007547696462839 0 0.013648673831115446 0.0067063881322268299 0 0.013307511203209939 0.0066862511124569117 0 0.013648673831115446 0.0067063881322268299 0 0.013511850895324177 0.0062870639717178406 0 0.013307511203209939 0.0066862511124569117 0 0.014079483801528084 0.0062149571725391177 0 0.013648673831115446 0.0067063881322268299 0 0.013511850895324177 0.0062870639717178406 0 0.013511850895324177 0.0062870639717178406 0 0.013047851652050364 0.0064495838450865078 0 0.013194702236629956 0.0060040503119282622 0 0.013047851652050364 0.0064495838450865078 0 0.012781643145344797 0.0061370232440414087 0 0.013194702236629956 0.0060040503119282622 0 0.013047851652050364 0.0064495838450865078 0 0.012494276697264536 0.006594297599127402 0 0.012781643145344797 0.0061370232440414087 0 0.012932662642089377 0.0069930352667857383 0 0.013047851652050364 0.0064495838450865078 0 0.012494276697264536 0.006594297599127402 0 0.012932662642089377 0.0069930352667857383 0 0.013047851652050364 0.0064495838450865078 0 0.013307511203209939 0.0066862511124569117 0 0.013511850895324177 0.0062870639717178406 0 0.013047851652050364 0.0064495838450865078 0 0.013307511203209939 0.0066862511124569117 0 0.012494276697264536 0.006594297599127402 0 0.012221032677476864 0.005936203177957935 0 0.012781643145344797 0.0061370232440414087 0 0.012494276697264536 0.006594297599127402 0 0.011931239759818824 0.0065386148129087792 0 0.012221032677476864 0.005936203177957935 0 0.012494276697264536 0.006594297599127402 0 0.011931239759818824 0.0065386148129087792 0 0.012252869326433593 0.0071638566266478384 0 0.011931239759818824 0.0065386148129087792 0 0.011285715251650176 0.0069422457715030616 0 0.011540099497648913 0.0058993479459151059 0 0.011931239759818824 0.0065386148129087792 0 0.011788093705988824 0.007044914952958229 0 0.011285715251650176 0.0069422457715030616 0 0.011931239759818824 0.0065386148129087792 0 0.011788093705988824 0.007044914952958229 0 0.012252869326433593 0.0071638566266478384 0 0.011788093705988824 0.007044914952958229 0 0.011677805063846499 0.0075453415041650453 0 0.011285715251650176 0.0069422457715030616 0 0.012252869326433593 0.0071638566266478384 0 0.012220669087322406 0.0077699594059500963 0 0.011677805063846499 0.0075453415041650453 0 0.011788093705988824 0.007044914952958229 0 0.012252869326433593 0.0071638566266478384 0 0.011677805063846499 0.0075453415041650453 0 0.012932662642089377 0.0069930352667857383 0 0.012252869326433593 0.0071638566266478384 0 0.01277937294074582 0.0076577531081638501 0 0.012932662642089377 0.0069930352667857383 0 0.012494276697264536 0.006594297599127402 0 0.012252869326433593 0.0071638566266478384 0 0.012252869326433593 0.0071638566266478384 0 0.01277937294074582 0.0076577531081638501 0 0.012220669087322406 0.0077699594059500963 0 0.012892559763141586 0.0083415547295455292 0 0.012220669087322406 0.0077699594059500963 0 0.012239486053166193 0.0083781219013176356 0 0.012892559763141586 0.0083415547295455292 0 0.01277937294074582 0.0076577531081638501 0 0.012220669087322406 0.0077699594059500963 0 0.012892559763141586 0.0083415547295455292 0 0.012239486053166193 0.0083781219013176356 0 0.012789145438854557 0.0087510918788553573 0 0.012042179222285994 0.009113416254611614 0 0.012239486053166193 0.0083781219013176356 0 0.01249204270203135 0.008962691370746725 0 0.012239486053166193 0.0083781219013176356 0 0.01249204270203135 0.008962691370746725 0 0.012789145438854557 0.0087510918788553573 0 0.012833680589562167 0.0090922298590186256 0 0.01249204270203135 0.008962691370746725 0 0.012789145438854557 0.0087510918788553573 0 0.011684489687995014 0.0089457223856854035 0 0.012239486053166193 0.0083781219013176356 0 0.011707305975953541 0.0082172065452894572 0 0.011684489687995014 0.0089457223856854035 0 0.011707305975953541 0.0082172065452894572 0 0.011331747216882571 0.0085320808868943158 0 0.012042179222285994 0.009113416254611614 0 0.011497683095286525 0.00905744592110597 0 0.012239486053166193 0.0083781219013176356 0 0.011623957317626742 0.0089095386268034319 0 0.012159297257539007 0.0084617507054808305 0 0.012220669087322406 0.0077699594059500963 0 0.012239486053166193 0.0083781219013176356 0 0.011707305975953541 0.0082172065452894572 0 0.012220669087322406 0.0077699594059500963 0 0.011707305975953541 0.0082172065452894572 0 0.011677805063846499 0.0075453415041650453 0 0.011677805063846499 0.0075453415041650453 0 0.011173348047203911 0.0075474840247822771 0 0.01112156609221935 0.0080503000120154197 0 0.011173348047203911 0.0075474840247822771 0 0.01112156609221935 0.0080503000120154197 0 0.010585296771494706 0.0076532127615072006 0 0.010884884436705397 0.0078748934347686698 0 0.011240494363026236 0.0081273678004808707 0 0.01112156609221935 0.0080503000120154197 0 0.010947314034490402 0.008467228391785429 0 0.010762532905222265 0.00810338701979651 0 0.011707305975953541 0.0082172065452894572 0 0.011677805063846499 0.0075453415041650453 0 0.01112156609221935 0.0080503000120154197 0 0.011707305975953541 0.0082172065452894572 0 0.01112156609221935 0.0080503000120154197 0 0.011331747216882571 0.0085320808868943158 0 0.01112156609221935 0.0080503000120154197 0 0.011331747216882571 0.0085320808868943158 0 0.010947314034490402 0.008467228391785429 0 0.011161719691779141 0.0089072492025020905 0 0.011331747216882571 0.0085320808868943158 0 0.010947314034490402 0.008467228391785429 0 0.011161719691779141 0.0089072492025020905 0 0.010947314034490402 0.008467228391785429 0 0.010742770535181722 0.0088244355674526112 0 0.011161719691779141 0.0089072492025020905 0 0.011684489687995014 0.0089457223856854035 0 0.011331747216882571 0.0085320808868943158 0 0.012592574970088248 0.008979483326315537 0 0.011984564607719964 0.0095105607947506051 0 0.010605609882590886 0.0083478364194399749 0 0.010468323130214806 0.0079472298987488948 0 0.010247784346925214 0.0085888485443845371 0 0.010742770535181722 0.0088244355674526112 0 0.010605609882590886 0.0083478364194399749 0 0.010247784346925214 0.0085888485443845371 0 0.010298868177409545 0.0090273600790446874 0 0.010742770535181722 0.0088244355674526112 0 0.010247784346925214 0.0085888485443845371 0 0.010947314034490402 0.008467228391785429 0 0.010605609882590886 0.0083478364194399749 0 0.010762532905222265 0.00810338701979651 0 0.010947314034490402 0.008467228391785429 0 0.010742770535181722 0.0088244355674526112 0 0.010605609882590886 0.0083478364194399749 0 0.01112156609221935 0.0080503000120154197 0 0.010762532905222265 0.00810338701979651 0 0.010678456570934679 0.0077350870823495585 0 0.010605609882590886 0.0083478364194399749 0 0.010468323130214806 0.0079472298987488948 0 0.010762532905222265 0.00810338701979651 0 0.010468323130214806 0.0079472298987488948 0 0.010762532905222265 0.00810338701979651 0 0.010678456570934679 0.0077350870823495585 0 0.010775646467883456 0.0074541294557445648 0 0.010682338080453858 0.0073805408023783405 0 0.010746287228397336 0.0073035334307430012 0 0.011240494363026236 0.0081273678004808707 0 0.01210963632770984 0.0086373401385722252 0 0.01445344523680505 0.0097944958070250252 0 0.014500201844980472 0.0096286410580810663 0 0.014338541813230295 0.0097051481179067887 0 0.012592574970088248 0.008979483326315537 0 0.01210963632770984 0.0086373401385722252 0 0.012592574970088248 0.008979483326315537 0 0.011240494363026236 0.0081273678004808707 0 0.012062141794503291 0.0087428627629159393 0 0.012319703778758703 0.0084758404095414009 0 0.012178153641194364 0.008370002258259986 0 0.010682338080453858 0.0073805408023783405 0 0.010673352917209363 0.0072363273619798496 0 0.010379135085678736 0.0071569155888781804 0 0.01210963632770984 0.0086373401385722252 0 0.013822048671327938 0.008313455081845441 0 0.014500201844980472 0.0096286410580810663 0 0.014338541813230295 0.0097051481179067887 0 0.014304959012597636 0.0094786353676237535 0 0.012157000195565133 0.0062138754872444494 0 0.013822048671327938 0.008313455081845441 0 0.010673352917209363 0.0072363273619798496 0 0.010731060642522763 0.007030532406881825 0 0.010379135085678736 0.0071569155888781804 0 0.010731060642522763 0.007030532406881825 0 0.010896444780967216 0.0065760300883730589 0 0.010379135085678736 0.0071569155888781804 0 0.010902503621662717 0.0069592874316677725 0 0.010731060642522763 0.007030532406881825 0 0.010896444780967216 0.0065760300883730589 0 0.010902503621662717 0.0069592874316677725 0 0.010731060642522763 0.007030532406881825 0 0.010851818399342806 0.007153162808369311 0 0.010775646467883456 0.0074541294557445648 0 0.010851818399342806 0.007153162808369311 0 0.010746287228397336 0.0073035334307430012 0 0.010673352917209363 0.0072363273619798496 0 0.010851818399342806 0.007153162808369311 0 0.010746287228397336 0.0073035334307430012 0 0.010673352917209363 0.0072363273619798496 0 0.010731060642522763 0.007030532406881825 0 0.010851818399342806 0.007153162808369311 0 0.010682338080453858 0.0073805408023783405 0 0.010673352917209363 0.0072363273619798496 0 0.010746287228397336 0.0073035334307430012 0 0.011240494363026236 0.0081273678004808707 0 0.011164638329324909 0.0069006674994838276 0 0.011173348047203911 0.0075474840247822771 0 0.010585296771494706 0.0076532127615072006 0 0.011285715251650176 0.0069422457715030616 0 0.010775646467883456 0.0074541294557445648 0 0.010851818399342806 0.007153162808369311 0 0.011285715251650176 0.0069422457715030616 0 0.011677805063846499 0.0075453415041650453 0 0.011173348047203911 0.0075474840247822771 0 0.011285715251650176 0.0069422457715030616 0 0.010902503621662717 0.0069592874316677725 0 0.010851818399342806 0.007153162808369311 0 0.011285715251650176 0.0069422457715030616 0 0.011285715251650176 0.0069422457715030616 0 0.010896444780967216 0.0065760300883730589 0 0.011540099497648913 0.0058993479459151059 0 0.012157000195565133 0.0062138754872444494 0 0.012980759307991124 0.0056838844333305964 0 0.010902503621662717 0.0069592874316677725 0 0.011285715251650176 0.0069422457715030616 0 0.010896444780967216 0.0065760300883730589 0 0.013443560771781701 0.0061647367565764704 0 0.013844597449029659 0.0060287718429652814 0 0.013593977128332978 0.0057049480069949164 0 0.013443560771781701 0.0061647367565764704 0 0.013844597449029659 0.0060287718429652814 0 0.013298293784306355 0.006595623146418335 0 0.013443560771781701 0.0061647367565764704 0 0.013593977128332978 0.0057049480069949164 0 0.013135882185380195 0.005783606581651105 0 0.013593977128332978 0.0057049480069949164 0 0.013900377719719718 0.0054867972459949664 0 0.013609036034601674 0.0051569941347937931 0 0.013844597449029659 0.0060287718429652814 0 0.013593977128332978 0.0057049480069949164 0 0.013900377719719718 0.0054867972459949664 0 0.013865664123009314 0.0048010812781648527 0 0.015838447401263129 0.0066860119454322841 0 0.013593977128332978 0.0057049480069949164 0 0.013609036034601674 0.0051569941347937931 0 0.013135882185380195 0.005783606581651105 0 0.013900377719719718 0.0054867972459949664 0 0.014082203254584981 0.0050875563025181399 0 0.013609036034601674 0.0051569941347937931 0 0.013844597449029659 0.0060287718429652814 0 0.013900377719719718 0.0054867972459949664 0 0.014359371277730347 0.0054704763163761043 0 0.013900377719719718 0.0054867972459949664 0 0.014082203254584981 0.0050875563025181399 0 0.014359371277730347 0.0054704763163761043 0 0.014082203254584981 0.0050875563025181399 0 0.014083603330740792 0.0045798146654719646 0 0.014405869382151857 0.0048360004471399267 0 0.014082203254584981 0.0050875563025181399 0 0.013609036034601674 0.0051569941347937931 0 0.014083603330740792 0.0045798146654719646 0 0.014082203254584981 0.0050875563025181399 0 0.014405869382151857 0.0048360004471399267 0 0.014359371277730347 0.0054704763163761043 0 0.014542957110279874 0.0046367387203548188 0 0.014528704688792018 0.0044571505544245011 0 0.014617409756282947 0.0043845823630384671 0 0.013865664123009314 0.0048010812781648527 0 0.014372966824825462 0.0044984827519583669 0 0.014542957110279874 0.0046367387203548188 0 0.014528704688792018 0.0044571505544245011 0 0.014385015811434495 0.0044829605984708096 0 0.016388243451537554 0.0049106608347656315 0 0.018880502502197676 0.0068398567960433294 0 0.014528704688792018 0.0044571505544245011 0 0.014544405208933592 0.0043234461236829821 0 0.014385015811434495 0.0044829605984708096 0 0.014528704688792018 0.0044571505544245011 0 0.014544405208933592 0.0043234461236829821 0 0.014617409756282947 0.0043845823630384671 0 0.019114995603231967 0.0052873766008350318 0 0.018929257753928109 0.0052106621209916069 0 0.019122829085298387 0.0050461089777986811 0 0.01457597745506929 0.0041871702759038662 0 0.014617409756282947 0.0043845823630384671 0 0.014599398824414486 0.0042000717078177771 0 0.014544405208933592 0.0043234461236829821 0 0.01457597745506929 0.0041871702759038662 0 0.014617409756282947 0.0043845823630384671 0 0.016388243451537554 0.0049106608347656315 0 0.017807380387094802 0.003361121571663476 0 0.019114995603231967 0.0052873766008350318 0 0.019290989987637491 0.0051145720723031821 0 0.019122829085298387 0.0050461089777986811 0 0.014372966824825462 0.0044984827519583669 0 0.014562938596013951 0.004230765404303353 0 0.014083603330740792 0.0045798146654719646 0 0.014436895193517204 0.0044508672225559371 0 0.014599398824414486 0.0042000717078177771 0 0.014083603330740792 0.0045798146654719646 0 0.014436895193517204 0.0044508672225559371 0 0.014405869382151857 0.0048360004471399267 0 0.014686653530591566 0.0046016497660415091 0 0.014436895193517204 0.0044508672225559371 0 0.014405869382151857 0.0048360004471399267 0 0.014686653530591566 0.0046016497660415091 0 0.014590810840223225 0.0043932186222281431 0 0.014670180825385511 0.0042608699296332372 0 0.014686653530591566 0.0046016497660415091 0 0.014590810840223225 0.0043932186222281431 0 0.014436895193517204 0.0044508672225559371 0 0.014590810840223225 0.0043932186222281431 0 0.014436895193517204 0.0044508672225559371 0 0.014601898254459109 0.0042798593614479241 0 0.017807380387094802 0.003361121571663476 0 0.013677555414989899 0.0039523874825146384 0 0.01457597745506929 0.0041871702759038662 0 0.014642417657268401 0.0042072202151061692 0 0.014599398824414486 0.0042000717078177771 0 0.014436895193517204 0.0044508672225559371 0 0.014601898254459109 0.0042798593614479241 0 0.014599398824414486 0.0042000717078177771 0 0.014601898254459109 0.0042798593614479241 0 0.014642417657268401 0.0042072202151061692 0 0.014599398824414486 0.0042000717078177771 0 0.014590810840223225 0.0043932186222281431 0 0.014601898254459109 0.0042798593614479241 0 0.014670180825385511 0.0042608699296332372 0 0.014601898254459109 0.0042798593614479241 0 0.014670180825385511 0.0042608699296332372 0 0.014642417657268401 0.0042072202151061692 0 0.014699894350291429 0.0042000297827502614 0 0.014744326980863915 0.0041614908405917571 0 0.014690392860757221 0.0040989199016006513 0 0.014642417657268401 0.0042072202151061692 0 0.014699894350291429 0.0042000297827502614 0 0.014690392860757221 0.0040989199016006513 0 0.014670180825385511 0.0042608699296332372 0 0.014642417657268401 0.0042072202151061692 0 0.014699894350291429 0.0042000297827502614 0 0.014670180825385511 0.0042608699296332372 0 0.014699894350291429 0.0042000297827502614 0 0.014734087438797422 0.0042485855174696123 0 0.014686653530591566 0.0046016497660415091 0 0.014805187161975573 0.0049652718597389071 0 0.015250314984963192 0.0045188892313994602 0 0.014946672050116152 0.0043091668182879891 0 0.014225550122597965 0.0045325903700333082 0 0.013488709664501799 0.0051195077936931231 0 0.014225550122597965 0.0045325903700333082 0 0.014686653530591566 0.0046016497660415091 0 0.014670180825385511 0.0042608699296332372 0 0.015250314984963192 0.0045188892313994602 0 0.012230512206707596 0.0052334345773333794 0 0.012938927938948996 0.0055049626012453759 0 0.01290438476088427 0.0046096648345514291 0 0.014805187161975573 0.0049652718597389071 0 0.014405869382151857 0.0048360004471399267 0 0.014359371277730347 0.0054704763163761043 0 0.014686653530591566 0.0046016497660415091 0 0.014805187161975573 0.0049652718597389071 0 0.014405869382151857 0.0048360004471399267 0 0.013488709664501799 0.0051195077936931231 0 0.012980759307991124 0.0056838844333305964 0 0.011931239759818824 0.0065386148129087792 0 0.011540099497648913 0.0058993479459151059 0 0.012221032677476864 0.005936203177957935 0 0.012230512206707596 0.0052334345773333794 0 0.011540099497648913 0.0058993479459151059 0 0.012221032677476864 0.005936203177957935 0 0.012221032677476864 0.005936203177957935 0 0.012781643145344797 0.0061370232440414087 0 0.012938927938948996 0.0055049626012453759 0 0.012230512206707596 0.0052334345773333794 0 0.012221032677476864 0.005936203177957935 0 0.012938927938948996 0.0055049626012453759 0 0.013194702236629956 0.0060040503119282622 0 0.01359242290867931 0.0057384935288555435 0 0.012938927938948996 0.0055049626012453759 0 0.012781643145344797 0.0061370232440414087 0 0.013194702236629956 0.0060040503119282622 0 0.012938927938948996 0.0055049626012453759 0 0.014079483801528084 0.0062149571725391177 0 0.013511850895324177 0.0062870639717178406 0 0.01359242290867931 0.0057384935288555435 0 0.013511850895324177 0.0062870639717178406 0 0.013194702236629956 0.0060040503119282622 0 0.01359242290867931 0.0057384935288555435 0 0.014079483801528084 0.0062149571725391177 0 0.01359242290867931 0.0057384935288555435 0 0.014081516559392614 0.0056806983032630419 0 0.01359242290867931 0.0057384935288555435 0 0.013619972290342425 0.0049339349488527143 0 0.012938927938948996 0.0055049626012453759 0 0.01359242290867931 0.0057384935288555435 0 0.013619972290342425 0.0049339349488527143 0 0.014081516559392614 0.0056806983032630419 0 0.013619972290342425 0.0049339349488527143 0 0.012938927938948996 0.0055049626012453759 0 0.01290438476088427 0.0046096648345514291 0 0.014075428172398059 0.0048032817309253059 0 0.014225550122597965 0.0045325903700333082 0 0.014733200751803342 0.0047195021539143305 0 0.014389514126032633 0.0045437878721486498 0 0.01479515325754119 0.0042191977791617916 0 0.014734087438797422 0.0042485855174696123 0 0.014744326980863915 0.0041614908405917571 0 0.01479515325754119 0.0042191977791617916 0 0.014225550122597965 0.0045325903700333082 0 0.014889212069536107 0.0041518632059442968 0 0.014744326980863915 0.0041614908405917571 0 0.01479515325754119 0.0042191977791617916 0 0.014789528320723276 0.0039909266142445559 0 0.014699894350291429 0.0042000297827502614 0 0.014734087438797422 0.0042485855174696123 0 0.014744326980863915 0.0041614908405917571 0 0.014733200751803342 0.0047195021539143305 0 0.01479515325754119 0.0042191977791617916 0 0.015058716129640924 0.0044327041290982529 0 0.014733200751803342 0.0047195021539143305 0 0.015058716129640924 0.0044327041290982529 0 0.014932163571136935 0.0049580558177512498 0 0.01479515325754119 0.0042191977791617916 0 0.015058716129640924 0.0044327041290982529 0 0.015026859023401477 0.0040611149538374008 0 0.015058716129640924 0.0044327041290982529 0 0.015295230605747341 0.004060393005880159 0 0.015026859023401477 0.0040611149538374008 0 0.015058716129640924 0.0044327041290982529 0 0.015295230605747341 0.004060393005880159 0 0.015518203455532691 0.0042195205309657887 0 0.015058716129640924 0.0044327041290982529 0 0.015280038271953959 0.0048083319667806155 0 0.015518203455532691 0.0042195205309657887 0 0.015058716129640924 0.0044327041290982529 0 0.015280038271953959 0.0048083319667806155 0 0.014932163571136935 0.0049580558177512498 0 0.015280038271953959 0.0048083319667806155 0 0.014932163571136935 0.0049580558177512498 0 0.015114058239742385 0.0053986349573955329 0 0.014670118811389141 0.0051100065857514424 0 0.015098804601093105 0.0053667093744496873 0 0.014075428172398059 0.0048032817309253059 0 0.014670118811389141 0.0051100065857514424 0 0.013619972290342425 0.0049339349488527143 0 0.014312856340439016 0.0052089161939002197 0 0.014081516559392614 0.0056806983032630419 0 0.014312856340439016 0.0052089161939002197 0 0.014081516559392614 0.0056806983032630419 0 0.014577443236006491 0.0058820400430854083 0 0.014079483801528084 0.0062149571725391177 0 0.014081516559392614 0.0056806983032630419 0 0.014577443236006491 0.0058820400430854083 0 0.014312856340439016 0.0052089161939002197 0 0.014577443236006491 0.0058820400430854083 0 0.015114058239742385 0.0053986349573955329 0 0.014577443236006491 0.0058820400430854083 0 0.015114058239742385 0.0053986349573955329 0 0.015124591395485424 0.0060931997305581492 0 0.026650009288593752 0.017006298430323495 0 0.027397831125894029 0.016700637807669925 0 0.026625986788479758 0.016414689891312714 0 0.026650009288593752 0.017006298430323495 0 0.027397831125894029 0.016700637807669925 0 0.026653150940242502 0.017833318556291281 0 0.026650009288593752 0.017006298430323495 0 0.026625986788479758 0.016414689891312714 0 0.026152631953681969 0.016745082106763415 0 0.026650009288593752 0.017006298430323495 0 0.026152631953681969 0.016745082106763415 0 0.026335712830393179 0.01744741707140389 0 0.026968825214282965 0.017165885688971472 0 0.026653150940242502 0.017833318556291281 0 0.027045412312902938 0.01756248511650859 0 0.027400988911775306 0.017154961575929814 0 0.02665023035952965 0.017713754671381348 0 0.026968825214282965 0.017165885688971472 0 0.027045412312902938 0.01756248511650859 0 0.02750600966676996 0.017270923398358968 0 0.027400988911775306 0.017154961575929814 0 0.025301225506868821 0.014212863160623593 0 0.027397831125894029 0.016700637807669925 0 0.026854431901242082 0.015753885336804146 0 0.027384847127778552 0.015607164510275807 0 0.027397831125894029 0.016700637807669925 0 0.027966970472685104 0.015697859209222675 0 0.027384847127778552 0.015607164510275807 0 0.026854431901242082 0.015753885336804146 0 0.026625986788479758 0.016414689891312714 0 0.026129203986202311 0.015894994926291598 0 0.026625986788479758 0.016414689891312714 0 0.026129203986202311 0.015894994926291598 0 0.026152631953681969 0.016745082106763415 0 0.027397831125894029 0.016700637807669925 0 0.026854431901242082 0.015753885336804146 0 0.026625986788479758 0.016414689891312714 0 0.026129203986202311 0.015894994926291598 0 0.025673117595787488 0.016345229198125335 0 0.026152631953681969 0.016745082106763415 0 0.026129203986202311 0.015894994926291598 0 0.025673117595787488 0.016345229198125335 0 0.025398609055980549 0.015763459388820417 0 0.025673117595787488 0.016345229198125335 0 0.025398609055980549 0.015763459388820417 0 0.024999866683846267 0.016504190978834328 0 0.025398609055980549 0.015763459388820417 0 0.024999866683846267 0.016504190978834328 0 0.024999931816411209 0.015093734988355171 0 0.024999866683846267 0.016504190978834328 0 0.02554296848501356 0.016977021017250644 0 0.024999822884261214 0.017914560089517109 0 0.025673117595787488 0.016345229198125335 0 0.024999866683846267 0.016504190978834328 0 0.02554296848501356 0.016977021017250644 0 0.02554296848501356 0.016977021017250644 0 0.026152631953681969 0.016745082106763415 0 0.025826860061551535 0.017615983875628228 0 0.026152631953681969 0.016745082106763415 0 0.025826860061551535 0.017615983875628228 0 0.026335712830393179 0.01744741707140389 0 0.025673117595787488 0.016345229198125335 0 0.02554296848501356 0.016977021017250644 0 0.026152631953681969 0.016745082106763415 0 0.025826860061551535 0.017615983875628228 0 0.025758616242822004 0.018465804432081311 0 0.026235391849746329 0.018181999628750129 0 0.025826860061551535 0.017615983875628228 0 0.026235391849746329 0.018181999628750129 0 0.026335712830393179 0.01744741707140389 0 0.02554296848501356 0.016977021017250644 0 0.025826860061551535 0.017615983875628228 0 0.024999822884261214 0.017914560089517109 0 0.025826860061551535 0.017615983875628228 0 0.024999822884261214 0.017914560089517109 0 0.025758616242822004 0.018465804432081311 0 0.024999592799163934 0.019325068631890825 0 0.024999822884261214 0.017914560089517109 0 0.025758616242822004 0.018465804432081311 0 0.025758616242822004 0.018465804432081311 0 0.026200141475177102 0.018972208895625356 0 0.026235391849746329 0.018181999628750129 0 0.026920780179463172 0.019477358581633238 0 0.026200141475177102 0.018972208895625356 0 0.026734723824858284 0.018201736522677103 0 0.026200141475177102 0.018972208895625356 0 0.026734723824858284 0.018201736522677103 0 0.026235391849746329 0.018181999628750129 0 0.026235391849746329 0.018181999628750129 0 0.026653150940242502 0.017833318556291281 0 0.026335712830393179 0.01744741707140389 0 0.026734723824858284 0.018201736522677103 0 0.026653150940242502 0.017833318556291281 0 0.026894683486381611 0.017895790000252067 0 0.026734723824858284 0.018201736522677103 0 0.026235391849746329 0.018181999628750129 0 0.026653150940242502 0.017833318556291281 0 0.026650009288593752 0.017006298430323495 0 0.026653150940242502 0.017833318556291281 0 0.026335712830393179 0.01744741707140389 0 0.027167717416982332 0.017737025417721038 0 0.027045412312902938 0.01756248511650859 0 0.027339214926662594 0.01769123897385768 0 0.027045412312902938 0.01756248511650859 0 0.026894683486381611 0.017895790000252067 0 0.02706062795059868 0.017817581997754312 0 0.027167717416982332 0.017737025417721038 0 0.027045412312902938 0.01756248511650859 0 0.02706062795059868 0.017817581997754312 0 0.027167717416982332 0.017737025417721038 0 0.02706062795059868 0.017817581997754312 0 0.02722829342498799 0.017874046146802592 0 0.026653150940242502 0.017833318556291281 0 0.027045412312902938 0.01756248511650859 0 0.026894683486381611 0.017895790000252067 0 0.026734723824858284 0.018201736522677103 0 0.026894683486381611 0.017895790000252067 0 0.02700147647738806 0.018097721715481987 0 0.026894683486381611 0.017895790000252067 0 0.027082794412982312 0.017973570453375592 0 0.02700147647738806 0.018097721715481987 0 0.027082794412982312 0.017973570453375592 0 0.02700147647738806 0.018097721715481987 0 0.027190665402282977 0.018049313860043315 0 0.026894683486381611 0.017895790000252067 0 0.027082794412982312 0.017973570453375592 0 0.02706062795059868 0.017817581997754312 0 0.027082794412982312 0.017973570453375592 0 0.02706062795059868 0.017817581997754312 0 0.02722829342498799 0.017874046146802592 0 0.027082794412982312 0.017973570453375592 0 0.02722829342498799 0.017874046146802592 0 0.027190665402282977 0.018049313860043315 0 0.02700147647738806 0.018097721715481987 0 0.027190665402282977 0.018049313860043315 0 0.027166981152211452 0.018274140918008223 0 0.026928584340261151 0.018866123560753911 0 0.026734723824858284 0.018201736522677103 0 0.027166981152211452 0.018274140918008223 0 0.026881841823095973 0.0191268199851687 0 0.02672507817964645 0.018280880569403454 0 0.026734723824858284 0.018201736522677103 0 0.02700147647738806 0.018097721715481987 0 0.027166981152211452 0.018274140918008223 0 0.01953130106600184 0.019463373906560884 0 0.019979435687892365 0.019274179707926779 0 0.019549721583336774 0.018426602731079742 0 0.027479697988909483 0.01873790821756555 0 0.027166981152211452 0.018274140918008223 0 0.027506237240362368 0.017953564276767892 0 0.023608356567053745 0.019330080193223707 0 0.022492226709460203 0.01724679679965619 0 0.027190665402282977 0.018049313860043315 0 0.027166981152211452 0.018274140918008223 0 0.02735099529091101 0.017981982794480326 0 0.019968073636176219 0.013138355724478992 0 0.019420332692698262 0.015407197513820489 0 0.019979435687892365 0.019274179707926779 0 0.02027087619103491 0.018879015053244318 0 0.019549721583336774 0.018426602731079742 0 0.020316294013099982 0.020052799397010851 0 0.020656857192082132 0.017073869734755876 0 0.020570472910153268 0.019230687460437493 0 0.020286127689464535 0.019626255649511856 0 0.020191099371717997 0.018591039291506808 0 0.020286127689464535 0.019626255649511856 0 0.019979435687892365 0.019274179707926779 0 0.02027087619103491 0.018879015053244318 0 0.020656857192082132 0.017073869734755876 0 0.022492226709460203 0.01724679679965619 0 0.019741176355014205 0.015308728850258234 0 0.019680010954884065 0.014115377780189535 0 0.020500266774650173 0.015766754296881871 0 0.020656857192082132 0.017073869734755876 0 0.019420332692698262 0.015407197513820489 0 0.022205091095849845 0.015681829666583505 0 0.022186479232193641 0.015187603020743588 0 0.021742888539930921 0.015395353617942772 0 0.020656857192082132 0.017073869734755876 0 0.019968073636176219 0.013138355724478992 0 0.022186479232193641 0.015187603020743588 0 0.021742888539930921 0.015395353617942772 0 0.021750876897004511 0.014831864436600438 0 0.027339214926662594 0.01769123897385768 0 0.027506237240362368 0.017953564276767892 0 0.02750600966676996 0.017270923398358968 0 0.022492226709460203 0.01724679679965619 0 0.024766916643325917 0.016287216774386933 0 0.027167717416982332 0.017737025417721038 0 0.02722829342498799 0.017874046146802592 0 0.027339214926662594 0.01769123897385768 0 0.02722829342498799 0.017874046146802592 0 0.027339214926662594 0.01769123897385768 0 0.027352212113889694 0.017872764011727327 0 0.027339214926662594 0.01769123897385768 0 0.027352212113889694 0.017872764011727327 0 0.027506237240362368 0.017953564276767892 0 0.027166981152211452 0.018274140918008223 0 0.02735099529091101 0.017981982794480326 0 0.027506237240362368 0.017953564276767892 0 0.027352212113889694 0.017872764011727327 0 0.02735099529091101 0.017981982794480326 0 0.027506237240362368 0.017953564276767892 0 0.02722829342498799 0.017874046146802592 0 0.027352212113889694 0.017872764011727327 0 0.02735099529091101 0.017981982794480326 0 0.02722829342498799 0.017874046146802592 0 0.027190665402282977 0.018049313860043315 0 0.02735099529091101 0.017981982794480326 0 0.013256773143175188 0.011734763580988227 0 0.013244545409454868 0.010372777146384684 0 0.013675302936147021 0.010670981720242313 0 0.013920292426711939 0.012454748535862922 0 0.015634824090271022 0.011239646843565362 0 0.014007983941351998 0.009570108002770401 0 0.013244545409454868 0.010372777146384684 0 0.013675302936147021 0.010670981720242313 0 0.015902753962197279 0.012757191113591774 0 0.015898695996749462 0.01275740575681821 0 0.015905305555262386 0.012737116196162076 0 0.01841752994387676 0.014702218087417731 0 0.015634824090271022 0.011239646843565362 0 0.018523022335348908 0.012675965888526404 0 0.018920587249055217 0.012239566280284921 0 0.018576324134867272 0.012317909196183746 0 0.018920587249055217 0.012239566280284921 0 0.018576324134867272 0.012317909196183746 0 0.01840920231764847 0.012030140085109768 0 0.018576324134867272 0.012317909196183746 0 0.018303383300810033 0.012542162796724791 0 0.01840920231764847 0.012030140085109768 0 0.018523022335348908 0.012675965888526404 0 0.018576324134867272 0.012317909196183746 0 0.018303383300810033 0.012542162796724791 0 0.01841752994387676 0.014702218087417731 0 0.019420332692698262 0.015407197513820489 0 0.020570472910153268 0.019230687460437493 0 0.020191099371717997 0.018591039291506808 0 0.020848600040732166 0.018991557586955594 0 0.020570472910153268 0.019230687460437493 0 0.02080910988359827 0.019240871593705581 0 0.020848600040732166 0.018991557586955594 0 0.017922851828021728 0.011745922864367726 0 0.018303383300810033 0.012542162796724791 0 0.01840920231764847 0.012030140085109768 0 0.017922851828021728 0.011745922864367726 0 0.018408111608633034 0.011710047018370534 0 0.018282084304969037 0.011470441275840479 0 0.017922851828021728 0.011745922864367726 0 0.018408111608633034 0.011710047018370534 0 0.01840920231764847 0.012030140085109768 0 0.018408111608633034 0.011710047018370534 0 0.01840920231764847 0.012030140085109768 0 0.018732310701771511 0.01166063960658502 0 0.018408111608633034 0.011710047018370534 0 0.018732310701771511 0.01166063960658502 0 0.018504298818640866 0.011511891003439592 0 0.018920587249055217 0.012239566280284921 0 0.01840920231764847 0.012030140085109768 0 0.018732310701771511 0.01166063960658502 0 0.014221629974483683 0.010054411384171846 0 0.014338541813230295 0.0097051481179067887 0 0.014211328531335112 0.0095717824091442992 0 0.01445344523680505 0.0097944958070250252 0 0.014221629974483683 0.010054411384171846 0 0.014338541813230295 0.0097051481179067887 0 0.015634824090271022 0.011239646843565362 0 0.016448367309716827 0.010136834357905803 0 0.018920587249055217 0.012239566280284921 0 0.018732310701771511 0.01166063960658502 0 0.01890899284660115 0.011481795745601925 0 0.012592574970088248 0.008979483326315537 0 0.015634824090271022 0.011239646843565362 0 0.013443560771781701 0.0061647367565764704 0 0.013140347184675449 0.0064762481478592192 0 0.013298293784306355 0.006595623146418335 0 0.015983065411380611 0.0087594587031891973 0 0.013822048671327938 0.008313455081845441 0 0.015752368936006525 0.0086742446461828722 0 0.016122403386648998 0.008952653022936503 0 0.01575661185992332 0.0093003148540793026 0 0.015983065411380611 0.0087594587031891973 0 0.016448367309716827 0.010136834357905803 0 0.014338541813230295 0.0097051481179067887 0 0.014304959012597636 0.0094786353676237535 0 0.014211328531335112 0.0095717824091442992 0 0.013822048671327938 0.008313455081845441 0 0.016448367309716827 0.010136834357905803 0 0.018732310701771511 0.01166063960658502 0 0.018906307714140511 0.011483008030537851 0 0.018669925885708465 0.011403583579507697 0 0.018732310701771511 0.01166063960658502 0 0.018669925885708465 0.011403583579507697 0 0.018504298818640866 0.011511891003439592 0 0.018901893324655489 0.011228362718905765 0 0.018906307714140511 0.011483008030537851 0 0.018669925885708465 0.011403583579507697 0 0.017690501016268356 0.010514206916853458 0 0.016448367309716827 0.010136834357905803 0 0.018901893324655489 0.011228362718905765 0 0.018669925885708465 0.011403583579507697 0 0.018604951343072221 0.011220481763428734 0 0.015983065411380611 0.0087594587031891973 0 0.018772632337616793 0.0096102168847114911 0 0.018901893324655489 0.011228362718905765 0 0.018604951343072221 0.011220481763428734 0 0.018595739789842081 0.010996419758222223 0 0.018515721552995485 0.011105456506641744 0 0.018428911752717315 0.011316573913568178 0 0.01826721245083297 0.011067569276698752 0 0.018515721552995485 0.011105456506641744 0 0.018604951343072221 0.011220481763428734 0 0.018595739789842081 0.010996419758222223 0 0.018515721552995485 0.011105456506641744 0 0.018428911752717315 0.011316573913568178 0 0.018604951343072221 0.011220481763428734 0 0.018669925885708465 0.011403583579507697 0 0.018428911752717315 0.011316573913568178 0 0.018604951343072221 0.011220481763428734 0 0.018669925885708465 0.011403583579507697 0 0.018428911752717315 0.011316573913568178 0 0.018504298818640866 0.011511891003439592 0 0.018408111608633034 0.011710047018370534 0 0.018504298818640866 0.011511891003439592 0 0.018282084304969037 0.011470441275840479 0 0.018428911752717315 0.011316573913568178 0 0.018504298818640866 0.011511891003439592 0 0.018282084304969037 0.011470441275840479 0 0.018428911752717315 0.011316573913568178 0 0.018282084304969037 0.011470441275840479 0 0.01826721245083297 0.011067569276698752 0 0.018282084304969037 0.011470441275840479 0 0.01826721245083297 0.011067569276698752 0 0.017899809687220384 0.011083013803559149 0 0.01826721245083297 0.011067569276698752 0 0.018598874041139801 0.010998729552922372 0 0.017878666819250679 0.01044307693801348 0 0.019995744186062005 0.0087188169102433051 0 0.020336687740230938 0.0090746871328297243 0 0.020168477963799121 0.0089825593516375622 0 0.018772632337616793 0.0096102168847114911 0 0.019537344046245624 0.0099114978774805587 0 0.019995744186062005 0.0087188169102433051 0 0.020035374825941962 0.0089712217413544793 0 0.020168477963799121 0.0089825593516375622 0 0.018515721552995485 0.011105456506641744 0 0.01826721245083297 0.011067569276698752 0 0.018598874041139801 0.010998729552922372 0 0.018475965378702476 0.01017946069992777 0 0.018772632337616793 0.0096102168847114911 0 0.015983065411380611 0.0087594587031891973 0 0.015838447401263129 0.0066860119454322841 0 0.013443560771781701 0.0061647367565764704 0 0.013140347184675449 0.0064762481478592192 0 0.013135882185380195 0.005783606581651105 0 0.016833465219546026 0.0087926843818081479 0 0.016340530346414167 0.0084207874866093647 0 0.016826105215644076 0.0077804417372323202 0 0.019995744186062005 0.0087188169102433051 0 0.019832534144886556 0.0089178630675043405 0 0.020035374825941962 0.0089712217413544793 0 0.018772632337616793 0.0096102168847114911 0 0.015838447401263129 0.0066860119454322841 0 0.027045412312902938 0.01756248511650859 0 0.027339214926662594 0.01769123897385768 0 0.02750600966676996 0.017270923398358968 0 0.017922851828021728 0.011745922864367726 0 0.018282084304969037 0.011470441275840479 0 0.017899809687220384 0.011083013803559149 0 0.019968073636176219 0.013138355724478992 0 0.020916288053121741 0.013072569582343749 0 0.022186479232193641 0.015187603020743588 0 0.021750876897004511 0.014831864436600438 0 0.021974825862325544 0.014727214710133345 0 0.020625213382239334 0.012898923849337152 0 0.020545390775714087 0.01136693708732394 0 0.020014311349227463 0.011668420970211646 0 0.019968073636176219 0.013138355724478992 0 0.019165009527608842 0.011113975061912727 0 0.020545390775714087 0.01136693708732394 0 0.020014311349227463 0.011668420970211646 0 0.019998899155760544 0.010949308718263433 0 0.01826721245083297 0.011067569276698752 0 0.017899809687220384 0.011083013803559149 0 0.017878666819250679 0.01044307693801348 0 0.020545390775714087 0.01136693708732394 0 0.019985979421925492 0.010318459866395567 0 0.02043706089306491 0.0098764841317400993 0 0.019165009527608842 0.011113975061912727 0 0.019537344046245624 0.0099114978774805587 0 0.020545390775714087 0.01136693708732394 0 0.019998899155760544 0.010949308718263433 0 0.019985979421925492 0.010318459866395567 0 0.026968825214282965 0.017165885688971472 0 0.027485820533335894 0.016524103435376306 0 0.02739092001481841 0.016344171671009426 0 0.026968825214282965 0.017165885688971472 0 0.02750600966676996 0.017270923398358968 0 0.027485820533335894 0.016524103435376306 0 0.019985979421925492 0.010318459866395567 0 0.019432121175568619 0.010457995597009591 0 0.019453495812401654 0.0098255255159276772 0 0.019998899155760544 0.010949308718263433 0 0.019985979421925492 0.010318459866395567 0 0.019432121175568619 0.010457995597009591 0 0.024766916643325917 0.016287216774386933 0 0.023321068500039267 0.013566750528973742 0 0.020014311349227463 0.011668420970211646 0 0.019998899155760544 0.010949308718263433 0 0.019432121175568619 0.010457995597009591 0 0.021750876897004511 0.014831864436600438 0 0.021974825862325544 0.014727214710133345 0 0.02177024969418204 0.014259370198561373 0 0.020916288053121741 0.013072569582343749 0 0.023321068500039267 0.013566750528973742 0 0.023321068500039267 0.013566750528973742 0 0.025301225506868821 0.014212863160623593 0 0.024687620422260626 0.01195674855599721 0 0.024776811313068317 0.011807622876430621 0 0.024389135069929235 0.011352694406246509 0 0.023775131457410146 0.013826571952210731 0 0.023489307532880758 0.01325798921269253 0 0.023769767394567053 0.012807894606542592 0 0.019925512606528421 0.0095269087566555409 0 0.019453495812401654 0.0098255255159276772 0 0.020239082782310045 0.0087671498219140716 0 0.025301225506868821 0.014212863160623593 0 0.023982571478051311 0.011900429538677385 0 0.025301225506868821 0.014212863160623593 0 0.026001198650767974 0.013191243007518118 0 0.023321068500039267 0.013566750528973742 0 0.023982571478051311 0.011900429538677385 0 0.019985979421925492 0.010318459866395567 0 0.019925512606528421 0.0095269087566555409 0 0.019453495812401654 0.0098255255159276772 0 0.019985979421925492 0.010318459866395567 0 0.019925512606528421 0.0095269087566555409 0 0.02043706089306491 0.0098764841317400993 0 0.019537344046245624 0.0099114978774805587 0 0.020236365910720044 0.0087145644634576778 0 0.019925512606528421 0.0095269087566555409 0 0.020341699277606668 0.0098391765868763529 0 0.020239082782310045 0.0087671498219140716 0 0.020336687740230938 0.0090746871328297243 0 0.020339535608014093 0.0090541624602273451 0 0.020239082782310045 0.0087671498219140716 0 0.019902366648628392 0.0098665781293585161 0 0.019537344046245624 0.0099114978774805587 0 0.020336687740230938 0.0090746871328297243 0 0.020339535608014093 0.0090541624602273451 0 0.020168477963799121 0.0089825593516375622 0 0.020339535608014093 0.0090541624602273451 0 0.020239082782310045 0.0087671498219140716 0 0.020538482606847184 0.0087858764213146305 0 0.019453495812401654 0.0098255255159276772 0 0.020239082782310045 0.0087671498219140716 0 0.020312694949344724 0.0083201884751421835 0 0.020620928266424015 0.0085846717297076436 0 0.020312694949344724 0.0083201884751421835 0 0.02093389402417355 0.0081218222042708631 0 0.020239082782310045 0.0087671498219140716 0 0.020620928266424015 0.0085846717297076436 0 0.020538482606847184 0.0087858764213146305 0 0.020239082782310045 0.0087671498219140716 0 0.020620928266424015 0.0085846717297076436 0 0.020312694949344724 0.0083201884751421835 0 0.023982571478051311 0.011900429538677385 0 0.024852149622115124 0.010904628551382521 0 0.024718775409217783 0.011592671665358685 0 0.025165253569711672 0.010867670102482895 0 0.024727783792017403 0.010924680461709559 0 0.024776811313068317 0.011807622876430621 0 0.024727783792017403 0.010924680461709559 0 0.024389135069929235 0.011352694406246509 0 0.023982571478051311 0.011900429538677385 0 0.022502334328291431 0.0093853309059572076 0 0.014542957110279874 0.0046367387203548188 0 0.014389888278549763 0.0049262745851843051 0 0.014376051869907045 0.0046888467848153967 0 0.019832534144886556 0.0089178630675043405 0 0.019851279902735143 0.0091432576446879299 0 0.019989664807400536 0.0090838997292120808 0 0.015838447401263129 0.0066860119454322841 0 0.017126125493220182 0.0069619433681543663 0 0.019832534144886556 0.0089178630675043405 0 0.019989664807400536 0.0090838997292120808 0 0.020035374825941962 0.0089712217413544793 0 0.019851279902735143 0.0091432576446879299 0 0.019989664807400536 0.0090838997292120808 0 0.020069422718870335 0.0092119921548747836 0 0.019989664807400536 0.0090838997292120808 0 0.020126834070635993 0.0090656427912244059 0 0.020069422718870335 0.0092119921548747836 0 0.019989664807400536 0.0090838997292120808 0 0.020035374825941962 0.0089712217413544793 0 0.020126834070635993 0.0090656427912244059 0 0.020035374825941962 0.0089712217413544793 0 0.020168477963799121 0.0089825593516375622 0 0.020126834070635993 0.0090656427912244059 0 0.020339535608014093 0.0090541624602273451 0 0.020168477963799121 0.0089825593516375622 0 0.020126834070635993 0.0090656427912244059 0 0.020339535608014093 0.0090541624602273451 0 0.020538482606847184 0.0087858764213146305 0 0.020970778637032509 0.0087302512009436242 0 0.020339535608014093 0.0090541624602273451 0 0.020126834070635993 0.0090656427912244059 0 0.020069422718870335 0.0092119921548747836 0 0.020354007717669827 0.0090516330123195134 0 0.020619775920294445 0.0090044402501207634 0 0.020970778637032509 0.0087302512009436242 0 0.021622295704998736 0.0082035307209260451 0 0.02093389402417355 0.0081218222042708631 0 0.020620928266424015 0.0085846717297076436 0 0.020538482606847184 0.0087858764213146305 0 0.020970778637032509 0.0087302512009436242 0 0.020620928266424015 0.0085846717297076436 0 0.020970778637032509 0.0087302512009436242 0 0.02093389402417355 0.0081218222042708631 0 0.014542957110279874 0.0046367387203548188 0 0.014376051869907045 0.0046888467848153967 0 0.014385015811434495 0.0044829605984708096 0 0.019851279902735143 0.0091432576446879299 0 0.020069422718870335 0.0092119921548747836 0 0.019852776866102123 0.0093348287255616419 0 0.017126125493220182 0.0069619433681543663 0 0.018880502502197676 0.0068398567960433294 0 0.020619775920294445 0.0090044402501207634 0 0.018880502502197676 0.0068398567960433294 0 0.018880502502197676 0.0068398567960433294 0 0.020307406158643782 0.0064600903599624279 0 0.021622295704998736 0.0082035307209260451 0 0.021269230691394823 0.0077487325026329296 0 0.021635802010676861 0.0073033796954206226 0 0.019114995603231967 0.0052873766008350318 0 0.018917045716605553 0.0054728241700397135 0 0.018929257753928109 0.0052106621209916069 0 0.021622295704998736 0.0082035307209260451 0 0.021269230691394823 0.0077487325026329296 0 0.02093389402417355 0.0081218222042708631 0 0.021269230691394823 0.0077487325026329296 0 0.02093389402417355 0.0081218222042708631 0 0.020889371383261825 0.0073630804229316161 0 0.020312694949344724 0.0083201884751421835 0 0.02093389402417355 0.0081218222042708631 0 0.020889371383261825 0.0073630804229316161 0 0.021269230691394823 0.0077487325026329296 0 0.020889371383261825 0.0073630804229316161 0 0.021635802010676861 0.0073033796954206226 0 0.025515927709632492 0.010137943147837615 0 0.025197741488288732 0.010041506364542893 0 0.025435041471994393 0.009781593861197457 0 0.020889371383261825 0.0073630804229316161 0 0.021635802010676861 0.0073033796954206226 0 0.021524133120223832 0.0063133401201366486 0 0.024727783792017403 0.010924680461709559 0 0.024690801137563823 0.010400538296936161 0 0.024146083686846391 0.010808833446527213 0 0.024727783792017403 0.010924680461709559 0 0.024690801137563823 0.010400538296936161 0 0.025108523635244427 0.010442524354071997 0 0.025165253569711672 0.010867670102482895 0 0.024727783792017403 0.010924680461709559 0 0.025108523635244427 0.010442524354071997 0 0.022502334328291431 0.0093853309059572076 0 0.023199881938268701 0.0090646644806787312 0 0.025165253569711672 0.010867670102482895 0 0.025515927709632492 0.010137943147837615 0 0.025108523635244427 0.010442524354071997 0 0.024690801137563823 0.010400538296936161 0 0.025108523635244427 0.010442524354071997 0 0.025197741488288732 0.010041506364542893 0 0.025197741488288732 0.010041506364542893 0 0.024957186668665501 0.00999460221993001 0 0.025163990059611719 0.009781985605056517 0 0.025515927709632492 0.010137943147837615 0 0.025108523635244427 0.010442524354071997 0 0.025197741488288732 0.010041506364542893 0 0.024721543530473872 0.010237361106485576 0 0.02518199651119438 0.010072166502879098 0 0.024955469436018989 0.010252494153415019 0 0.025197741488288732 0.010041506364542893 0 0.024957186668665501 0.00999460221993001 0 0.024955469436018989 0.010252494153415019 0 0.024957186668665501 0.00999460221993001 0 0.024761536010883111 0.010209163995016391 0 0.024957186668665501 0.00999460221993001 0 0.024699510971198435 0.0099980741952506915 0 0.024761536010883111 0.010209163995016391 0 0.024957186668665501 0.00999460221993001 0 0.024699510971198435 0.0099980741952506915 0 0.024818094673096463 0.0098214984051265154 0 0.024699510971198435 0.0099980741952506915 0 0.024558152272689933 0.010239012235284593 0 0.024761536010883111 0.010209163995016391 0 0.024699510971198435 0.0099980741952506915 0 0.024430671244684687 0.0099903535796056851 0 0.024558152272689933 0.010239012235284593 0 0.026880101364892221 0.012517439883332265 0 0.027261167773797015 0.013264042390019912 0 0.026173973858894951 0.013501445760715512 0 0.025738902380216228 0.011285096273442588 0 0.02589158304434384 0.011729111934745504 0 0.027261167773797015 0.013264042390019912 0 0.026754054371291199 0.013976836119768018 0 0.026173973858894951 0.013501445760715512 0 0.027261167773797015 0.013264042390019912 0 0.026754054371291199 0.013976836119768018 0 0.02763006805636898 0.013997762809467157 0 0.024955469436018989 0.010252494153415019 0 0.024761536010883111 0.010209163995016391 0 0.024687824772202722 0.010491835321147435 0 0.024721543530473872 0.010237361106485576 0 0.025977590801661798 0.012463608388413278 0 0.024558152272689933 0.010239012235284593 0 0.024761536010883111 0.010209163995016391 0 0.024687824772202722 0.010491835321147435 0 0.02589158304434384 0.011729111934745504 0 0.025977590801661798 0.012463608388413278 0 0.024727783792017403 0.010924680461709559 0 0.024146083686846391 0.010808833446527213 0 0.024389135069929235 0.011352694406246509 0 0.025977590801661798 0.012463608388413278 0 0.026001198650767974 0.013191243007518118 0 0.027240812570364953 0.014296627041849976 0 0.027602754369215603 0.014997565552635274 0 0.027068004053101519 0.015151063035326387 0 0.025977590801661798 0.012463608388413278 0 0.026590797699551354 0.015196206349574108 0 0.027240812570364953 0.014296627041849976 0 0.027068004053101519 0.015151063035326387 0 0.026267413059538412 0.015094439213222463 0 0.026754054371291199 0.013976836119768018 0 0.02763006805636898 0.013997762809467157 0 0.02653752034637448 0.014871412381584844 0 0.026854431901242082 0.015753885336804146 0 0.027068004053101519 0.015151063035326387 0 0.026267413059538412 0.015094439213222463 0 0.026854431901242082 0.015753885336804146 0 0.026129203986202311 0.015894994926291598 0 0.026267413059538412 0.015094439213222463 0 0.026854431901242082 0.015753885336804146 0 0.027384847127778552 0.015607164510275807 0 0.027068004053101519 0.015151063035326387 0 0.027966970472685104 0.015697859209222675 0 0.027602754369215603 0.014997565552635274 0 0.027384847127778552 0.015607164510275807 0 0.027602754369215603 0.014997565552635274 0 0.027384847127778552 0.015607164510275807 0 0.027068004053101519 0.015151063035326387 0 0.025398609055980549 0.015763459388820417 0 0.025710236256309763 0.014888812363859055 0 0.024999931816411209 0.015093734988355171 0 0.025398609055980549 0.015763459388820417 0 0.025710236256309763 0.014888812363859055 0 0.02653752034637448 0.014871412381584844 0 0.026129203986202311 0.015894994926291598 0 0.025398609055980549 0.015763459388820417 0 0.026267413059538412 0.015094439213222463 0 0.02539486898948181 0.015674453027506141 0 0.026590797699551354 0.015196206349574108 0 0.026754054371291199 0.013976836119768018 0 0.02653752034637448 0.014871412381584844 0 0.026162696183243614 0.014243152259948036 0 0.025710236256309763 0.014888812363859055 0 0.02653752034637448 0.014871412381584844 0 0.026162696183243614 0.014243152259948036 0 0.026162696183243614 0.014243152259948036 0 0.0254914410623725 0.01448791726797723 0 0.026173973858894951 0.013501445760715512 0 0.025710236256309763 0.014888812363859055 0 0.026162696183243614 0.014243152259948036 0 0.0254914410623725 0.01448791726797723 0 0.024999931816411209 0.015093734988355171 0 0.0254914410623725 0.01448791726797723 0 0.024999990699961495 0.013683271518450196 0 0.025710236256309763 0.014888812363859055 0 0.024999931816411209 0.015093734988355171 0 0.0254914410623725 0.01448791726797723 0 0.0254914410623725 0.01448791726797723 0 0.024999990699961495 0.013683271518450196 0 0.0261963784932694 0.01355722818241752 0 0.024999990699961495 0.013683271518450196 0 0.0261963784932694 0.01355722818241752 0 0.025871041817889729 0.012937215618825239 0 0.025536259147209084 0.014377121749501337 0 0.02625332039557219 0.013688702880860647 0 0.026754054371291199 0.013976836119768018 0 0.026162696183243614 0.014243152259948036 0 0.026173973858894951 0.013501445760715512 0 0.02690232130674924 0.012609277931586503 0 0.025871041817889729 0.012937215618825239 0 0.025982285851278229 0.012237696055580401 0 0.025738902380216228 0.011285096273442588 0 0.02625332039557219 0.013688702880860647 0 0.02690232130674924 0.012609277931586503 0 0.0261963784932694 0.01355722818241752 0 0.025871041817889729 0.012937215618825239 0 0.024999990699961495 0.013683271518450196 0 0.025871041817889729 0.012937215618825239 0 0.025292462756984529 0.012586717315944882 0 0.024999990699961495 0.013683271518450196 0 0.025292462756984529 0.012586717315944882 0 0.024999984560603299 0.012272918107520538 0 0.025871041817889729 0.012937215618825239 0 0.025292462756984529 0.012586717315944882 0 0.025982285851278229 0.012237696055580401 0 0.025311810561478815 0.012470769278997967 0 0.025555170600746139 0.011604300925622498 0 0.025292462756984529 0.012586717315944882 0 0.025982285851278229 0.012237696055580401 0 0.025523499345934241 0.011487720179380014 0 0.025292462756984529 0.012586717315944882 0 0.024999984560603299 0.012272918107520538 0 0.025551632030356368 0.011540025682518124 0 0.025982285851278229 0.012237696055580401 0 0.026351389472345801 0.011507416976369594 0 0.025523499345934241 0.011487720179380014 0 0.02690232130674924 0.012609277931586503 0 0.025982285851278229 0.012237696055580401 0 0.026351389472345801 0.011507416976369594 0 0.026351389472345801 0.011507416976369594 0 0.025523499345934241 0.011487720179380014 0 0.025779114584069854 0.01038119696856106 0 0.024547236068543477 0.0095377189121596366 0 0.024581933773672009 0.0093774924297356406 0 0.024446774608129201 0.0093158483773289388 0 0.025416982518314635 0.010471597535281598 0 0.025341231357594717 0.0099899526424558262 0 0.024999984560603299 0.012272918107520538 0 0.025551632030356368 0.011540025682518124 0 0.024999999227940262 0.010862560592134271 0 0.025555170600746139 0.011604300925622498 0 0.025341231357594717 0.0099899526424558262 0 0.025551632030356368 0.011540025682518124 0 0.024999999227940262 0.010862560592134271 0 0.025803471996989773 0.010484828020438647 0 0.024699510971198435 0.0099980741952506915 0 0.024430671244684687 0.0099903535796056851 0 0.024626039090581371 0.0097057693429012677 0 0.024699510971198435 0.0099980741952506915 0 0.024818094673096463 0.0098214984051265154 0 0.024626039090581371 0.0097057693429012677 0 0.024818094673096463 0.0098214984051265154 0 0.024626039090581371 0.0097057693429012677 0 0.024859868098626312 0.0096554460379482468 0 0.024662559675249357 0.0097737178509146976 0 0.024772825407622632 0.0095945881045088836 0 0.024667857904185013 0.0095317413320870417 0 0.024662559675249357 0.0097737178509146976 0 0.024547236068543477 0.0095377189121596366 0 0.024667857904185013 0.0095317413320870417 0 0.025738902380216228 0.011285096273442588 0 0.025416982518314635 0.010471597535281598 0 0.025738902380216228 0.011285096273442588 0 0.024698275317637186 0.0095470262091211216 0 0.024667857904185013 0.0095317413320870417 0 0.024752371656423775 0.0094499621675429128 0 0.024581933773672009 0.0093774924297356406 0 0.024547236068543477 0.0095377189121596366 0 0.024667857904185013 0.0095317413320870417 0 0.024581933773672009 0.0093774924297356406 0 0.024772825407622632 0.0095945881045088836 0 0.024667857904185013 0.0095317413320870417 0 0.024752371656423775 0.0094499621675429128 0 0.024752371656423775 0.0094499621675429128 0 0.024856510176455349 0.0094282738332538384 0 0.024914893154186699 0.0093689941122666841 0 0.02459595815005846 0.0096560649646573529 0 0.024898913596630445 0.0072884808213512552 0 0.024772825407622632 0.0095945881045088836 0 0.024752371656423775 0.0094499621675429128 0 0.024856510176455349 0.0094282738332538384 0 0.024698275317637186 0.0095470262091211216 0 0.024826470176070394 0.0094793815075933877 0 0.024626039090581371 0.0097057693429012677 0 0.024856510176455349 0.0094282738332538384 0 0.024859868098626312 0.0096554460379482468 0 0.024752371656423775 0.0094499621675429128 0 0.024702741598535798 0.0092818406529213381 0 0.024943392770025573 0.0093640019709337243 0 0.025187177996660308 0.0059107561968066201 0 0.02484944629468858 0.0060184287951518377 0 0.02490352636098692 0.0058655307624692161 0 0.024972126431187867 0.0075688830669872094 0 0.024898913596630445 0.0072884808213512552 0 0.024752371656423775 0.0094499621675429128 0 0.024702741598535798 0.0092818406529213381 0 0.024581933773672009 0.0093774924297356406 0 0.025187177996660308 0.0059107561968066201 0 0.026027661097327223 0.0061166748005989499 0 0.025414006185238078 0.0065522454335682195 0 0.025187177996660308 0.0059107561968066201 0 0.025414006185238078 0.0065522454335682195 0 0.025092741427922866 0.006310119686555842 0 0.025187177996660308 0.0059107561968066201 0 0.025092741427922866 0.006310119686555842 0 0.02484944629468858 0.0060184287951518377 0 0.024999999227940262 0.010862560592134271 0 0.025803471996989773 0.010484828020438647 0 0.025352337580484455 0.0095989661331790741 0 0.024702741598535798 0.0092818406529213381 0 0.024581933773672009 0.0093774924297356406 0 0.024479136510855388 0.0091857996663613928 0 0.024581933773672009 0.0093774924297356406 0 0.024446774608129201 0.0093158483773289388 0 0.024479136510855388 0.0091857996663613928 0 0.025341231357594717 0.0099899526424558262 0 0.025172142894795347 0.0082377831327210427 0 0.024972126431187867 0.0075688830669872094 0 0.025172142894795347 0.0082377831327210427 0 0.024999999227940262 0.010862560592134271 0 0.025352337580484455 0.0095989661331790741 0 0.024999995313095998 0.0094521878469995407 0 0.025288925489396527 0.0094704257636859246 0 0.02536752831986791 0.0091426255653558521 0 0.025059355518472777 0.0090147711728900647 0 0.025341231357594717 0.0099899526424558262 0 0.025251272631043743 0.0092865282398617646 0 0.02568240007260925 0.0092731367442941779 0 0.025093269970334998 0.0089245900527514729 0 0.025289097432527798 0.0083974875910220945 0 0.025172142894795347 0.0082377831327210427 0 0.025251272631043743 0.0092865282398617646 0 0.025251272631043743 0.0092865282398617646 0 0.025000301831889775 0.0094520326575501124 0 0.025251272631043743 0.0092865282398617646 0 0.025000062640512154 0.0089064989813610121 0 0.02535260079799357 0.0095984635378090783 0 0.024999997235273453 0.0094521827155080937 0 0.025000000856802106 0.008906437892172327 0 0.025093269970334998 0.0089245900527514729 0 0.025289097432527798 0.0083974875910220945 0 0.024999645096450161 0.0089038415216342696 0 0.025289097432527798 0.0083974875910220945 0 0.024999645096450161 0.0089038415216342696 0 0.025411884353628816 0.0077706953173574938 0 0.024999645096450161 0.0089038415216342696 0 0.025411884353628816 0.0077706953173574938 0 0.024999939379878672 0.0076921066275166894 0 0.025411884353628816 0.0077706953173574938 0 0.025494827065551839 0.0072588047234939997 0 0.025434383460526049 0.0072524212002213987 0 0.025411884353628816 0.0077706953173574938 0 0.025494827065551839 0.0072588047234939997 0 0.025716862701081446 0.0074250709601478993 0 0.025494827065551839 0.0072588047234939997 0 0.025716862701081446 0.0074250709601478993 0 0.025423885800169719 0.0069030975653486641 0 0.025172142894795347 0.0082377831327210427 0 0.025926542346543378 0.0072202634892779135 0 0.026027661097327223 0.0061166748005989499 0 0.025716862701081446 0.0074250709601478993 0 0.025414006185238078 0.0065522454335682195 0 0.02568240007260925 0.0092731367442941779 0 0.025289097432527798 0.0083974875910220945 0 0.025716862701081446 0.0074250709601478993 0 0.025289097432527798 0.0083974875910220945 0 0.025411884353628816 0.0077706953173574938 0 0.025716862701081446 0.0074250709601478993 0 0.025716862701081446 0.0074250709601478993 0 0.025414006185238078 0.0065522454335682195 0 0.025423885800169719 0.0069030975653486641 0 0.025414006185238078 0.0065522454335682195 0 0.025092741427922866 0.006310119686555842 0 0.025423885800169719 0.0069030975653486641 0 0.025092741427922866 0.006310119686555842 0 0.025312158515156096 0.0065018492863083985 0 0.025423885800169719 0.0069030975653486641 0 0.025092741427922866 0.006310119686555842 0 0.025312158515156096 0.0065018492863083985 0 0.024727558832827946 0.0058670644357216653 0 0.025312158515156096 0.0065018492863083985 0 0.025423885800169719 0.0069030975653486641 0 0.025487956272392042 0.0067547068370850663 0 0.025494827065551839 0.0072588047234939997 0 0.025423885800169719 0.0069030975653486641 0 0.025487956272392042 0.0067547068370850663 0 0.025494827065551839 0.0072588047234939997 0 0.02543682631178526 0.0064661056507554267 0 0.025487956272392042 0.0067547068370850663 0 0.02543682631178526 0.0064661056507554267 0 0.025487956272392042 0.0067547068370850663 0 0.025588440533774248 0.0065912887512296573 0 0.025312158515156096 0.0065018492863083985 0 0.025487956272392042 0.0067547068370850663 0 0.025588440533774248 0.0065912887512296573 0 0.025312158515156096 0.0065018492863083985 0 0.025588440533774248 0.0065912887512296573 0 0.024727558832827946 0.0058670644357216653 0 0.024947154201767661 0.0056185862276091928 0 0.025058473169397934 0.0047980421384095501 0 0.024284689287673442 0.0047100162761795836 0 0.024499893381605336 0.0041295697825514885 0 0.024577545478537778 0.0041952909927034272 0 0.02543682631178526 0.0064661056507554267 0 0.025588440533774248 0.0065912887512296573 0 0.02568153752822917 0.005452054142532187 0 0.02543682631178526 0.0064661056507554267 0 0.025160684594129627 0.0057686865881472369 0 0.02568153752822917 0.005452054142532187 0 0.024580208815505888 0.0060430313460657758 0 0.025160684594129627 0.0057686865881472369 0 0.02487737965597752 0.0050720358792837837 0 0.02543682631178526 0.0064661056507554267 0 0.024580208815505888 0.0060430313460657758 0 0.025160684594129627 0.0057686865881472369 0 0.025687028805505871 0.0067252104181271671 0 0.024999896253821294 0.0064783109939416973 0 0.025434383460526049 0.0072524212002213987 0 0.024999896253821294 0.0064783109939416973 0 0.024999939379878672 0.0076921066275166894 0 0.025434383460526049 0.0072524212002213987 0 0.025411884353628816 0.0077706953173574938 0 0.024999939379878672 0.0076921066275166894 0 0.025434383460526049 0.0072524212002213987 0 0.025494827065551839 0.0072588047234939997 0 0.02543682631178526 0.0064661056507554267 0 0.024580208815505888 0.0060430313460657758 0 0.025494827065551839 0.0072588047234939997 0 0.025687028805505871 0.0067252104181271671 0 0.025434383460526049 0.0072524212002213987 0 0.025450971848869883 0.0071821414155765952 0 0.02515015978526982 0.0063480120686915794 0 0.025037128727885487 0.0049432258373740537 0 0.024270548385110721 0.0039319164898172707 0 0.024749186365418722 0.0046688874228705381 0 0.025037128727885487 0.0049432258373740537 0 0.024749186365418722 0.0046688874228705381 0 0.024858618942885918 0.0053792450257354159 0 0.024357713355339004 0.0038291435810851771 0 0.024298330870309463 0.0040023576899851756 0 0.023721813436069945 0.0026301880204667488 0 0.024270548385110721 0.0039319164898172707 0 0.022872003798359533 0.0033764453614633775 0 0.024270548385110721 0.0039319164898172707 0 0.024749186365418722 0.0046688874228705381 0 0.024670074516389688 0.004233599146064259 0 0.024657881229916561 0.0045092628792461446 0 0.024749186365418722 0.0046688874228705381 0 0.024670074516389688 0.004233599146064259 0 0.024284689287673442 0.0047100162761795836 0 0.024657881229916561 0.0045092628792461446 0 0.024577545478537778 0.0041952909927034272 0 0.024284689287673442 0.0047100162761795836 0 0.024657881229916561 0.0045092628792461446 0 0.024727558832827946 0.0058670644357216653 0 0.024947154201767661 0.0056185862276091928 0 0.024769159268044693 0.0058454609436884913 0 0.024749186365418722 0.0046688874228705381 0 0.024727558832827946 0.0058670644357216653 0 0.024858618942885918 0.0053792450257354159 0 0.024657881229916561 0.0045092628792461446 0 0.024749186365418722 0.0046688874228705381 0 0.024727558832827946 0.0058670644357216653 0 0.024727558832827946 0.0058670644357216653 0 0.024824434148154707 0.0057965400010311511 0 0.024858618942885918 0.0053792450257354159 0 0.025092741427922866 0.006310119686555842 0 0.024727558832827946 0.0058670644357216653 0 0.02484944629468858 0.0060184287951518377 0 0.024727558832827946 0.0058670644357216653 0 0.024824434148154707 0.0057965400010311511 0 0.02484944629468858 0.0060184287951518377 0 0.024824434148154707 0.0057965400010311511 0 0.024858618942885918 0.0053792450257354159 0 0.025137175966430333 0.0056129204645439766 0 0.024824434148154707 0.0057965400010311511 0 0.025137175966430333 0.0056129204645439766 0 0.024966570094043593 0.0058210465149415042 0 0.025037128727885487 0.0049432258373740537 0 0.024858618942885918 0.0053792450257354159 0 0.025137175966430333 0.0056129204645439766 0 0.024357713355339004 0.0038291435810851771 0 0.024374723099368237 0.0036685492918277817 0 0.025137175966430333 0.0056129204645439766 0 0.025092646381688736 0.0059128260463182343 0 0.024966570094043593 0.0058210465149415042 0 0.024374723099368237 0.0036685492918277817 0 0.023904608003681133 0.0031818195257479346 0 0.025092646381688736 0.0059128260463182343 0 0.024966570094043593 0.0058210465149415042 0 0.024839662676118326 0.0059591227950382937 0 0.024824434148154707 0.0057965400010311511 0 0.024966570094043593 0.0058210465149415042 0 0.024839662676118326 0.0059591227950382937 0 0.023904608003681133 0.0031818195257479346 0 0.024897449867204113 0.0056036879443273034 0 0.024372881347044215 0.0052087114797713082 0 0.024370626060194564 0.0050565534352196243 0 0.024632759376786863 0.0051591086740318095 0 0.024370626060194564 0.0050565534352196243 0 0.024632759376786863 0.0051591086740318095 0 0.024481853764372258 0.0049889822544086256 0 0.023904608003681133 0.0031818195257479346 0 0.023648747823392977 0.0026025614795613032 0 0.022950949325638716 0.00083701131997866219 0 0.022947364832356709 0.00031566953660166016 0 0.022653337633432701 0.00036155198593524159 0 0.022947364832356709 0.00031566953660166016 0 0.022784371558940027 5.189068930128938e-05 0 0.022653337633432701 0.00036155198593524159 0 0.024824434148154707 0.0057965400010311511 0 0.02484944629468858 0.0060184287951518377 0 0.024839662676118326 0.0059591227950382937 0 0.024632759376786863 0.0051591086740318095 0 0.024902558557051986 0.0051057258784177077 0 0.024650354741864323 0.0049751901575393253 0 0.024897449867204113 0.0056036879443273034 0 0.024898913596630445 0.0072884808213512552 0 0.02484944629468858 0.0060184287951518377 0 0.024839662676118326 0.0059591227950382937 0 0.02490352636098692 0.0058655307624692161 0 0.024914893154186699 0.0093689941122666841 0 0.025002851307891979 0.0095677445338317301 0 0.025310574126183514 0.0094937277466755777 0 0.024856510176455349 0.0094282738332538384 0 0.025002851307891979 0.0095677445338317301 0 0.024859868098626312 0.0096554460379482468 0 0.024856510176455349 0.0094282738332538384 0 0.024914893154186699 0.0093689941122666841 0 0.025002851307891979 0.0095677445338317301 0 0.025002851307891979 0.0095677445338317301 0 0.025310574126183514 0.0094937277466755777 0 0.025163990059611719 0.009781985605056517 0 0.024898913596630445 0.0072884808213512552 0 0.025326071589949338 0.0073823228640163439 0 0.025310574126183514 0.0094937277466755777 0 0.025163990059611719 0.009781985605056517 0 0.025435041471994393 0.009781593861197457 0 0.025197741488288732 0.010041506364542893 0 0.025163990059611719 0.009781985605056517 0 0.025435041471994393 0.009781593861197457 0 0.025002851307891979 0.0095677445338317301 0 0.025163990059611719 0.009781985605056517 0 0.024977502307065046 0.0097627543848391261 0 0.024957186668665501 0.00999460221993001 0 0.025163990059611719 0.009781985605056517 0 0.024977502307065046 0.0097627543848391261 0 0.024957186668665501 0.00999460221993001 0 0.024818094673096463 0.0098214984051265154 0 0.024977502307065046 0.0097627543848391261 0 0.025002851307891979 0.0095677445338317301 0 0.024977502307065046 0.0097627543848391261 0 0.024859868098626312 0.0096554460379482468 0 0.024818094673096463 0.0098214984051265154 0 0.024977502307065046 0.0097627543848391261 0 0.024859868098626312 0.0096554460379482468 0 0.022947364832356709 0.00031566953660166016 0 0.022934748190930242 -0.00018173305097702699 0 0.022784371558940027 5.189068930128938e-05 0 0.024370626060194564 0.0050565534352196243 0 0.024362850536507184 0.0048972393267995538 0 0.024481853764372258 0.0049889822544086256 0 0.023648747823392977 0.0026025614795613032 0 0.023097263199731873 0.0027465736453042731 0 0.024362850536507184 0.0048972393267995538 0 0.024481853764372258 0.0049889822544086256 0 0.024391429532397878 0.0048533635127229182 0 0.022960765090963505 -0.00022614204649079787 0 0.022784371558940027 5.189068930128938e-05 0 0.022534000852336478 -0.00028483302035590909 0 0.023097263199731873 0.0027465736453042731 0 0.023538183172731996 0.000269506574281352 0 0.025326071589949338 0.0073823228640163439 0 0.023438159767685832 0.0064836063975854579 0 0.024650354741864323 0.0049751901575393253 0 0.024481853764372258 0.0049889822544086256 0 0.024391429532397878 0.0048533635127229182 0 0.024632759376786863 0.0051591086740318095 0 0.024650354741864323 0.0049751901575393253 0 0.024481853764372258 0.0049889822544086256 0 0.025310574126183514 0.0094937277466755777 0 0.025435041471994393 0.009781593861197457 0 0.025740579468817592 0.0096381258715467853 0 0.025515927709632492 0.010137943147837615 0 0.025435041471994393 0.009781593861197457 0 0.025740579468817592 0.0096381258715467853 0 0.023199881938268701 0.0090646644806787312 0 0.023438159767685832 0.0064836063975854579 0 0.021635802010676861 0.0073033796954206226 0 0.021524133120223832 0.0063133401201366486 0 0.021646408298172805 0.0063633238307743405 0 0.020307406158643782 0.0064600903599624279 0 0.021328880809380373 0.0046172039135745366 0 0.018929257753928109 0.0052106621209916069 0 0.018950014704834463 0.0049719665963093435 0 0.019122829085298387 0.0050461089777986811 0 0.022934070773315787 0.0039294713130746351 0 0.021859841891010898 0.0056611880217959489 0 0.022943838226451664 0.0061120389396497757 0 0.023097263199731873 0.0027465736453042731 0 0.023438159767685832 0.0064836063975854579 0 0.023438159767685832 0.0064836063975854579 0 0.021328880809380373 0.0046172039135745366 0 0.022960765090963505 -0.00022614204649079787 0 0.022958685491281213 -0.00042671294713448541 0 0.022534000852336478 -0.00028483302035590909 0 0.023097263199731873 0.0027465736453042731 0 0.021328880809380373 0.0046172039135745366 0 0.022308531049552001 -0.00072272864069542289 0 0.022534000852336478 -0.00028483302035590909 0 0.021849390389021419 -0.00043501527797363258 0 0.021328880809380373 0.0046172039135745366 0 0.020887932693044078 0.0020784800332599392 0 0.022958685491281213 -0.00042671294713448541 0 0.022308531049552001 -0.00072272864069542289 0 0.022534000852336478 -0.00028483302035590909 0 0.022784371558940027 5.189068930128938e-05 0 0.022534000852336478 -0.00028483302035590909 0 0.022302656531901822 5.1611004537229964e-05 0 0.022534000852336478 -0.00028483302035590909 0 0.022302656531901822 5.1611004537229964e-05 0 0.021849390389021419 -0.00043501527797363258 0 0.022784371558940027 5.189068930128938e-05 0 0.022302656531901822 5.1611004537229964e-05 0 0.022653337633432701 0.00036155198593524159 0 0.022302656531901822 5.1611004537229964e-05 0 0.021712832999938456 0.00010557032335886962 0 0.021849390389021419 -0.00043501527797363258 0 0.017807380387094802 0.003361121571663476 0 0.020887932693044078 0.0020784800332599392 0 0.021642811965076305 -0.00099798428040103696 0 0.022308531049552001 -0.00072272864069542289 0 0.021849390389021419 -0.00043501527797363258 0 0.014516893396371487 0.0041240658788779432 0 0.014642417657268401 0.0042072202151061692 0 0.01462571499276139 0.003952973433215096 0 0.021642811965076305 -0.00099798428040103696 0 0.021849390389021419 -0.00043501527797363258 0 0.020852366656690203 -0.00045420465528929835 0 0.017807380387094802 0.003361121571663476 0 0.017873206773827605 0.001436023821497159 0 0.014642417657268401 0.0042072202151061692 0 0.01462571499276139 0.003952973433215096 0 0.014690392860757221 0.0040989199016006513 0 0.01462571499276139 0.003952973433215096 0 0.014690392860757221 0.0040989199016006513 0 0.014789528320723276 0.0039909266142445559 0 0.020852366656690203 -0.00045420465528929835 0 0.020958782448561395 0.00040146632294759007 0 0.019946964871545927 0.00011403528091448834 0 0.017873206773827605 0.001436023821497159 0 0.017323831419159455 0.0019476540544620434 0 0.021712832999938456 0.00010557032335886962 0 0.021849390389021419 -0.00043501527797363258 0 0.020852366656690203 -0.00045420465528929835 0 0.021712832999938456 0.00010557032335886962 0 0.020852366656690203 -0.00045420465528929835 0 0.020958782448561395 0.00040146632294759007 0 0.021712832999938456 0.00010557032335886962 0 0.020958782448561395 0.00040146632294759007 0 0.021578845114406088 0.00082035905746516728 0 0.020958782448561395 0.00040146632294759007 0 0.020710102716057159 0.0012427656770876876 0 0.019946964871545927 0.00011403528091448834 0 0.020958782448561395 0.00040146632294759007 0 0.020710102716057159 0.0012427656770876876 0 0.021578845114406088 0.00082035905746516728 0 0.020710102716057159 0.0012427656770876876 0 0.021578845114406088 0.00082035905746516728 0 0.021536823347083976 0.0016631317436029906 0 0.021578845114406088 0.00082035905746516728 0 0.02213829733721176 0.0011229604757348722 0 0.022262838665052236 0.00052939529060349526 0 0.021578845114406088 0.00082035905746516728 0 0.02213829733721176 0.0011229604757348722 0 0.021536823347083976 0.0016631317436029906 0 0.022950949325638716 0.00083701131997866219 0 0.02213829733721176 0.0011229604757348722 0 0.022262838665052236 0.00052939529060349526 0 0.023536376377707835 0.0016996795656495848 0 0.023500144801491367 0.00063701155508876135 0 0.02213829733721176 0.0011229604757348722 0 0.023904608003681133 0.0031818195257479346 0 0.022021559969433422 0.00043249715077247741 0 0.022950949325638716 0.00083701131997866219 0 0.022262838665052236 0.00052939529060349526 0 0.022653337633432701 0.00036155198593524159 0 0.022302656531901822 5.1611004537229964e-05 0 0.022262838665052236 0.00052939529060349526 0 0.022653337633432701 0.00036155198593524159 0 0.022302656531901822 5.1611004537229964e-05 0 0.021712832999938456 0.00010557032335886962 0 0.022262838665052236 0.00052939529060349526 0 0.021712832999938456 0.00010557032335886962 0 0.021578845114406088 0.00082035905746516728 0 0.022262838665052236 0.00052939529060349526 0 0.01529772927491334 0.0037956340021055432 0 0.015499947830085624 0.003456624893648474 0 0.015656028150159339 0.0036462890079485013 0 0.015295230605747341 0.004060393005880159 0 0.01529772927491334 0.0037956340021055432 0 0.015656028150159339 0.0036462890079485013 0 0.015295230605747341 0.004060393005880159 0 0.015026859023401477 0.0040611149538374008 0 0.01529772927491334 0.0037956340021055432 0 0.015026859023401477 0.0040611149538374008 0 0.01529772927491334 0.0037956340021055432 0 0.015034144483224909 0.0037445498196916399 0 0.01529772927491334 0.0037956340021055432 0 0.015034144483224909 0.0037445498196916399 0 0.015499947830085624 0.003456624893648474 0 0.015026859023401477 0.0040611149538374008 0 0.015034144483224909 0.0037445498196916399 0 0.014789528320723276 0.0039909266142445559 0 0.01479515325754119 0.0042191977791617916 0 0.015026859023401477 0.0040611149538374008 0 0.014789528320723276 0.0039909266142445559 0 0.014744326980863915 0.0041614908405917571 0 0.014690392860757221 0.0040989199016006513 0 0.014789528320723276 0.0039909266142445559 0 0.015034144483224909 0.0037445498196916399 0 0.014789528320723276 0.0039909266142445559 0 0.014775146049859165 0.003659207095138341 0 0.01462571499276139 0.003952973433215096 0 0.014789528320723276 0.0039909266142445559 0 0.014775146049859165 0.003659207095138341 0 0.019946964871545927 0.00011403528091448834 0 0.018934282169051971 0.00081334094128143774 0 0.019668558811410948 0.0015185052150473251 0 0.020710102716057159 0.0012427656770876876 0 0.019946964871545927 0.00011403528091448834 0 0.019668558811410948 0.0015185052150473251 0 0.018934282169051971 0.00081334094128143774 0 0.018842697458777771 0.0018941780631360509 0 0.019668558811410948 0.0015185052150473251 0 0.015034144483224909 0.0037445498196916399 0 0.014775146049859165 0.003659207095138341 0 0.015133112598764722 0.0033062811083513937 0 0.017323831419159455 0.0019476540544620434 0 0.017046394987684323 0.0020549110288624614 0 0.015034144483224909 0.0037445498196916399 0 0.015133112598764722 0.0033062811083513937 0 0.015499947830085624 0.003456624893648474 0 0.015133112598764722 0.0033062811083513937 0 0.015499947830085624 0.003456624893648474 0 0.015660622915239845 0.0030440686806534347 0 0.017046394987684323 0.0020549110288624614 0 0.016751170604566854 0.002402133277855907 0 0.018934282169051971 0.00081334094128143774 0 0.017839969732318755 0.0016835170989469791 0 0.018842697458777771 0.0018941780631360509 0 0.015499947830085624 0.003456624893648474 0 0.015660622915239845 0.0030440686806534347 0 0.01590039879426983 0.003253522174871063 0 0.017839969732318755 0.0016835170989469791 0 0.017467063576700206 0.0033948686784102925 0 0.016538180336639403 0.0029622519179601558 0 0.017839969732318755 0.0016835170989469791 0 0.018489837555497761 0.0028421351610955852 0 0.017467063576700206 0.0033948686784102925 0 0.016751170604566854 0.002402133277855907 0 0.016511149196993976 0.0029019773895323192 0 0.017839969732318755 0.0016835170989469791 0 0.018489837555497761 0.0028421351610955852 0 0.018842697458777771 0.0018941780631360509 0 0.018489837555497761 0.0028421351610955852 0 0.018842697458777771 0.0018941780631360509 0 0.01966310483818037 0.0024918345510772958 0 0.018842697458777771 0.0018941780631360509 0 0.019668558811410948 0.0015185052150473251 0 0.01966310483818037 0.0024918345510772958 0 0.019668558811410948 0.0015185052150473251 0 0.01966310483818037 0.0024918345510772958 0 0.020809340056641236 0.0023258235796765124 0 0.01966310483818037 0.0024918345510772958 0 0.019912046874346653 0.0036045504922252373 0 0.020809340056641236 0.0023258235796765124 0 0.019912046874346653 0.0036045504922252373 0 0.018965497229704479 0.003412685541298898 0 0.018823102105603839 0.0041270145556362298 0 0.01966310483818037 0.0024918345510772958 0 0.019912046874346653 0.0036045504922252373 0 0.018965497229704479 0.003412685541298898 0 0.018489837555497761 0.0028421351610955852 0 0.01966310483818037 0.0024918345510772958 0 0.018965497229704479 0.003412685541298898 0 0.018489837555497761 0.0028421351610955852 0 0.018965497229704479 0.003412685541298898 0 0.017978061263760847 0.0038759143504215362 0 0.018965497229704479 0.003412685541298898 0 0.017978061263760847 0.0038759143504215362 0 0.018823102105603839 0.0041270145556362298 0 0.017978061263760847 0.0038759143504215362 0 0.017356587953956761 0.0042779769998868714 0 0.017195360601105995 0.0039988175707484711 0 0.017978061263760847 0.0038759143504215362 0 0.017467063576700206 0.0033948686784102925 0 0.017195360601105995 0.0039988175707484711 0 0.018489837555497761 0.0028421351610955852 0 0.017978061263760847 0.0038759143504215362 0 0.017467063576700206 0.0033948686784102925 0 0.023721813436069945 0.0026301880204667488 0 0.023536376377707835 0.0016996795656495848 0 0.022265682201763701 0.0023091367805072394 0 0.023536376377707835 0.0016996795656495848 0 0.02213829733721176 0.0011229604757348722 0 0.022265682201763701 0.0023091367805072394 0 0.02213829733721176 0.0011229604757348722 0 0.022265682201763701 0.0023091367805072394 0 0.021536823347083976 0.0016631317436029906 0 0.020710102716057159 0.0012427656770876876 0 0.021536823347083976 0.0016631317436029906 0 0.020809340056641236 0.0023258235796765124 0 0.020710102716057159 0.0012427656770876876 0 0.019668558811410948 0.0015185052150473251 0 0.020809340056641236 0.0023258235796765124 0 0.022265682201763701 0.0023091367805072394 0 0.021536823347083976 0.0016631317436029906 0 0.020809340056641236 0.0023258235796765124 0 0.019912046874346653 0.0036045504922252373 0 0.020809340056641236 0.0023258235796765124 0 0.021449771053862136 0.0032980388667049024 0 0.019912046874346653 0.0036045504922252373 0 0.021449771053862136 0.0032980388667049024 0 0.020999166463570165 0.0042844704141169303 0 0.022265682201763701 0.0023091367805072394 0 0.020809340056641236 0.0023258235796765124 0 0.021449771053862136 0.0032980388667049024 0 0.021449771053862136 0.0032980388667049024 0 0.022872003798359533 0.0033764453614633775 0 0.022216920497853836 0.0039763548887892554 0 0.022265682201763701 0.0023091367805072394 0 0.021449771053862136 0.0032980388667049024 0 0.022872003798359533 0.0033764453614633775 0 0.023721813436069945 0.0026301880204667488 0 0.022265682201763701 0.0023091367805072394 0 0.022872003798359533 0.0033764453614633775 0 0.024270548385110721 0.0039319164898172707 0 0.022872003798359533 0.0033764453614633775 0 0.023463299623761365 0.0041051593522976578 0 0.022872003798359533 0.0033764453614633775 0 0.023463299623761365 0.0041051593522976578 0 0.022216920497853836 0.0039763548887892554 0 0.023463299623761365 0.0041051593522976578 0 0.022789817197477177 0.0044634856765197383 0 0.022216920497853836 0.0039763548887892554 0 0.023463299623761365 0.0041051593522976578 0 0.022789817197477177 0.0044634856765197383 0 0.023969658658299694 0.0043673060648138241 0 0.022789817197477177 0.0044634856765197383 0 0.022885664556655822 0.0048189982416273862 0 0.023969658658299694 0.0043673060648138241 0 0.022789817197477177 0.0044634856765197383 0 0.022885664556655822 0.0048189982416273862 0 0.022202540275123282 0.0048338784931541492 0 0.022789817197477177 0.0044634856765197383 0 0.021922198759352782 0.0044879304605632865 0 0.022216920497853836 0.0039763548887892554 0 0.021922198759352782 0.0044879304605632865 0 0.021403348797908707 0.0047790332690393709 0 0.022202540275123282 0.0048338784931541492 0 0.022789817197477177 0.0044634856765197383 0 0.021922198759352782 0.0044879304605632865 0 0.022202540275123282 0.0048338784931541492 0 0.021922198759352782 0.0044879304605632865 0 0.022216920497853836 0.0039763548887892554 0 0.020999166463570165 0.0042844704141169303 0 0.021449771053862136 0.0032980388667049024 0 0.022216920497853836 0.0039763548887892554 0 0.020999166463570165 0.0042844704141169303 0 0.020999166463570165 0.0042844704141169303 0 0.020639457074982572 0.0049465776294783997 0 0.019586118132460098 0.004550735246777027 0 0.020999166463570165 0.0042844704141169303 0 0.021403348797908707 0.0047790332690393709 0 0.020639457074982572 0.0049465776294783997 0 0.021922198759352782 0.0044879304605632865 0 0.020999166463570165 0.0042844704141169303 0 0.021403348797908707 0.0047790332690393709 0 0.021403348797908707 0.0047790332690393709 0 0.020639457074982572 0.0049465776294783997 0 0.0211600282089539 0.0050516694470774696 0 0.020639457074982572 0.0049465776294783997 0 0.020813166131266912 0.0051520442941633956 0 0.020219140233720029 0.0051038997723553319 0 0.020813166131266912 0.0051520442941633956 0 0.0211600282089539 0.0050516694470774696 0 0.02113846459638874 0.005250741129130241 0 0.020639457074982572 0.0049465776294783997 0 0.020813166131266912 0.0051520442941633956 0 0.0211600282089539 0.0050516694470774696 0 0.0211600282089539 0.0050516694470774696 0 0.021663395034406244 0.0051501560604801924 0 0.02113846459638874 0.005250741129130241 0 0.021663395034406244 0.0051501560604801924 0 0.022347112808352342 0.0051017890327660674 0 0.022136034675020021 0.0053415859901669227 0 0.021663395034406244 0.0051501560604801924 0 0.022347112808352342 0.0051017890327660674 0 0.022202540275123282 0.0048338784931541492 0 0.022347112808352342 0.0051017890327660674 0 0.022885664556655822 0.0048189982416273862 0 0.022202540275123282 0.0048338784931541492 0 0.021403348797908707 0.0047790332690393709 0 0.021663395034406244 0.0051501560604801924 0 0.022202540275123282 0.0048338784931541492 0 0.021403348797908707 0.0047790332690393709 0 0.0211600282089539 0.0050516694470774696 0 0.021663395034406244 0.0051501560604801924 0 0.017970790784886614 0.0044108582727081505 0 0.017874811473193083 0.0046653181546214579 0 0.017321963316257433 0.0044698610444771454 0 0.017970790784886614 0.0044108582727081505 0 0.017874811473193083 0.0046653181546214579 0 0.018601478915410998 0.0047734908201809432 0 0.017978061263760847 0.0038759143504215362 0 0.017970790784886614 0.0044108582727081505 0 0.017356587953956761 0.0042779769998868714 0 0.017978061263760847 0.0038759143504215362 0 0.017970790784886614 0.0044108582727081505 0 0.018823102105603839 0.0041270145556362298 0 0.017970790784886614 0.0044108582727081505 0 0.018823102105603839 0.0041270145556362298 0 0.018601478915410998 0.0047734908201809432 0 0.019912046874346653 0.0036045504922252373 0 0.020999166463570165 0.0042844704141169303 0 0.019586118132460098 0.004550735246777027 0 0.018823102105603839 0.0041270145556362298 0 0.019586118132460098 0.004550735246777027 0 0.018601478915410998 0.0047734908201809432 0 0.019912046874346653 0.0036045504922252373 0 0.018823102105603839 0.0041270145556362298 0 0.019586118132460098 0.004550735246777027 0 0.020639457074982572 0.0049465776294783997 0 0.019586118132460098 0.004550735246777027 0 0.020219140233720029 0.0051038997723553319 0 0.019597164535296085 0.0045285675870333202 0 0.019661999968451933 0.0050109336599841632 0 0.019108868942220299 0.0050289477139517378 0 0.018569171634144357 0.0050016382452105317 0 0.018837890644095787 0.0050781283571104683 0 0.019586118132460098 0.004550735246777027 0 0.019108868942220299 0.0050289477139517378 0 0.018601478915410998 0.0047734908201809432 0 0.018601478915410998 0.0047734908201809432 0 0.018569171634144357 0.0050016382452105317 0 0.018189124989056674 0.0048744532974715144 0 0.019108868942220299 0.0050289477139517378 0 0.018601478915410998 0.0047734908201809432 0 0.018569171634144357 0.0050016382452105317 0 0.018569171634144357 0.0050016382452105317 0 0.01812625934380372 0.0050261818041596679 0 0.018189124989056674 0.0048744532974715144 0 0.017874811473193083 0.0046653181546214579 0 0.018601478915410998 0.0047734908201809432 0 0.018189124989056674 0.0048744532974715144 0 0.017874811473193083 0.0046653181546214579 0 0.018189124989056674 0.0048744532974715144 0 0.017634647304893662 0.0048354505733673473 0 0.018555630670319938 0.005192458059041759 0 0.018484670193145553 0.0053084109527717152 0 0.018296544109392528 0.0052616568812499185 0 0.018555630670319938 0.005192458059041759 0 0.01876990602126077 0.005098955135849661 0 0.018733422107637815 0.0051207369392909079 0 0.018555630670319938 0.005192458059041759 0 0.018458683616103519 0.0051353148931689114 0 0.01876990602126077 0.005098955135849661 0 0.018555630670319938 0.005192458059041759 0 0.018458683616103519 0.0051353148931689114 0 0.018296544109392528 0.0052616568812499185 0 0.018458683616103519 0.0051353148931689114 0 0.018050368319509211 0.0051853605093504038 0 0.018296544109392528 0.0052616568812499185 0 0.018569171634144357 0.0050016382452105317 0 0.01812625934380372 0.0050261818041596679 0 0.018458683616103519 0.0051353148931689114 0 0.01812625934380372 0.0050261818041596679 0 0.018458683616103519 0.0051353148931689114 0 0.018050368319509211 0.0051853605093504038 0 0.018569171634144357 0.0050016382452105317 0 0.018458683616103519 0.0051353148931689114 0 0.018837890644095787 0.0050781283571104683 0 0.018837890644095787 0.0050781283571104683 0 0.01876990602126077 0.005098955135849661 0 0.01905394188054715 0.0049591345827712015 0 0.018458683616103519 0.0051353148931689114 0 0.018837890644095787 0.0050781283571104683 0 0.01876990602126077 0.005098955135849661 0 0.018837890644095787 0.0050781283571104683 0 0.019029571595313554 0.0050157988275779906 0 0.01905394188054715 0.0049591345827712015 0 0.019108868942220299 0.0050289477139517378 0 0.018837890644095787 0.0050781283571104683 0 0.019029571595313554 0.0050157988275779906 0 0.019661999968451933 0.0050109336599841632 0 0.019724802438056493 0.0050410059180402171 0 0.020219140233720029 0.0051038997723553319 0 0.020428604300451833 0.0050135005908199925 0 0.020526563765881429 0.0051107678949753564 0 0.020428604300451833 0.0050135005908199925 0 0.020526563765881429 0.0051107678949753564 0 0.020417206483109362 0.0049033678462986931 0 0.019730762309403582 0.0048602369264089942 0 0.020417206483109362 0.0049033678462986931 0 0.020262806288605495 0.0048127730579621362 0 0.020428604300451833 0.0050135005908199925 0 0.019730762309403582 0.0048602369264089942 0 0.020417206483109362 0.0049033678462986931 0 0.019724802438056493 0.0050410059180402171 0 0.019732296165256475 0.0049406723348089958 0 0.019730762309403582 0.0048602369264089942 0 0.020262806288605495 0.0048127730579621362 0 0.019814652162090121 0.0049966259053233833 0 0.019730762309403582 0.0048602369264089942 0 0.019814652162090121 0.0049966259053233833 0 0.019378620644938272 0.0049960698439739833 0 0.019730762309403582 0.0048602369264089942 0 0.019170719749569753 0.0049021569837359134 0 0.019378620644938272 0.0049960698439739833 0 0.019170719749569753 0.0049021569837359134 0 0.019000021541574763 0.0048776829500805138 0 0.019378620644938272 0.0049960698439739833 0 0.019730762309403582 0.0048602369264089942 0 0.019170719749569753 0.0049021569837359134 0 0.01905394188054715 0.0049591345827712015 0 0.019029571595313554 0.0050157988275779906 0 0.019730762309403582 0.0048602369264089942 0 0.01905394188054715 0.0049591345827712015 0 0.019170719749569753 0.0049021569837359134 0 0.01905394188054715 0.0049591345827712015 0 0.018921802527156421 0.004991685845942122 0 0.01876990602126077 0.005098955135849661 0 0.01905394188054715 0.0049591345827712015 0 0.018921802527156421 0.004991685845942122 0 0.01876990602126077 0.005098955135849661 0 0.018921802527156421 0.004991685845942122 0 0.018733422107637815 0.0051207369392909079 0 0.018921802527156421 0.004991685845942122 0 0.01889087029489564 0.0049254433906186692 0 0.018733422107637815 0.0051207369392909079 0 0.018921802527156421 0.004991685845942122 0 0.018971072098249182 0.0048842153548160523 0 0.01889087029489564 0.0049254433906186692 0 0.019170719749569753 0.0049021569837359134 0 0.018921802527156421 0.004991685845942122 0 0.018971072098249182 0.0048842153548160523 0 0.019170719749569753 0.0049021569837359134 0 0.018971072098249182 0.0048842153548160523 0 0.019000021541574763 0.0048776829500805138 0 0.019000021541574763 0.0048776829500805138 0 0.018668511260781392 0.0047495263798263687 0 0.018718788550738674 0.0049255324501547978 0 0.019000021541574763 0.0048776829500805138 0 0.018899798827222616 0.0047988882060728605 0 0.018668511260781392 0.0047495263798263687 0 0.018971072098249182 0.0048842153548160523 0 0.019000021541574763 0.0048776829500805138 0 0.018899798827222616 0.0047988882060728605 0 0.018971072098249182 0.0048842153548160523 0 0.018899798827222616 0.0047988882060728605 0 0.01889087029489564 0.0049254433906186692 0 0.018899798827222616 0.0047988882060728605 0 0.01889087029489564 0.0049254433906186692 0 0.018765528347384878 0.004945112640583422 0 0.018983612897881839 0.0048040710229472232 0 0.017854171690149231 0.0047065901792627939 0 0.018899798827222616 0.0047988882060728605 0 0.018376613089060058 0.0045718019068019125 0 0.018316419358287074 0.0042504442510630626 0 0.018899798827222616 0.0047988882060728605 0 0.018668511260781392 0.0047495263798263687 0 0.018376613089060058 0.0045718019068019125 0 0.018668511260781392 0.0047495263798263687 0 0.018376613089060058 0.0045718019068019125 0 0.018718788550738674 0.0049255324501547978 0 0.018376613089060058 0.0045718019068019125 0 0.018316419358287074 0.0042504442510630626 0 0.017909774490410219 0.0040761655653466207 0 0.018813926026524395 0.0049510222663093446 0 0.018548544516555469 0.0049723692989267106 0 0.01889087029489564 0.0049254433906186692 0 0.018733422107637815 0.0051207369392909079 0 0.018484670193145553 0.0053084109527717152 0 0.01889087029489564 0.0049254433906186692 0 0.018765528347384878 0.004945112640583422 0 0.018698510433089267 0.0047139148733028073 0 0.018555630670319938 0.005192458059041759 0 0.018733422107637815 0.0051207369392909079 0 0.018484670193145553 0.0053084109527717152 0 0.020962547427413439 0.0053308935314387547 0 0.021529015129014065 0.0056473766236618738 0 0.021463016517911899 0.0053187797606724435 0 0.020962547427413439 0.0053308935314387547 0 0.02049097950826553 0.0051113095526359193 0 0.020795698094941605 0.0049343287660674577 0 0.020933567076219503 0.005171772551310857 0 0.02199830669864444 0.0037151229392860322 0 0.02199830669864444 0.0037151229392860322 0 0.022829247632375323 0.0047640354723861326 0 0.023754155398350001 0.0033333962328669776 0 0.023571442351400546 0.0038083818593752875 0 0.023356968871255875 0.0037253599196167466 0 0.021663395034406244 0.0051501560604801924 0 0.022136034675020021 0.0053415859901669227 0 0.021463016517911899 0.0053187797606724435 0 0.021529015129014065 0.0056473766236618738 0 0.022136034675020021 0.0053415859901669227 0 0.021463016517911899 0.0053187797606724435 0 0.020962547427413439 0.0053308935314387547 0 0.02113846459638874 0.005250741129130241 0 0.021463016517911899 0.0053187797606724435 0 0.021663395034406244 0.0051501560604801924 0 0.02113846459638874 0.005250741129130241 0 0.021463016517911899 0.0053187797606724435 0 0.020813166131266912 0.0051520442941633956 0 0.02113846459638874 0.005250741129130241 0 0.020758590051740661 0.0051405923775364711 0 0.020813166131266912 0.0051520442941633956 0 0.020219140233720029 0.0051038997723553319 0 0.020526563765881429 0.0051107678949753564 0 0.020813166131266912 0.0051520442941633956 0 0.020526563765881429 0.0051107678949753564 0 0.020758590051740661 0.0051405923775364711 0 0.020758590051740661 0.0051405923775364711 0 0.020417206483109362 0.0049033678462986931 0 0.020618022729273058 0.0048361461793083056 0 0.020526563765881429 0.0051107678949753564 0 0.020758590051740661 0.0051405923775364711 0 0.020417206483109362 0.0049033678462986931 0 0.020962547427413439 0.0053308935314387547 0 0.020758590051740661 0.0051405923775364711 0 0.020795698094941605 0.0049343287660674577 0 0.020962547427413439 0.0053308935314387547 0 0.02113846459638874 0.005250741129130241 0 0.020758590051740661 0.0051405923775364711 0 0.020758590051740661 0.0051405923775364711 0 0.020795698094941605 0.0049343287660674577 0 0.020618022729273058 0.0048361461793083056 0 0.020795698094941605 0.0049343287660674577 0 0.020618022729273058 0.0048361461793083056 0 0.020720920036038287 0.0045235638685076811 0 0.020417206483109362 0.0049033678462986931 0 0.020618022729273058 0.0048361461793083056 0 0.020262806288605495 0.0048127730579621362 0 0.020618022729273058 0.0048361461793083056 0 0.020262806288605495 0.0048127730579621362 0 0.020720920036038287 0.0045235638685076811 0 0.020262806288605495 0.0048127730579621362 0 0.020720920036038287 0.0045235638685076811 0 0.020407076887965302 0.0048304958415563495 0 0.020756472847425152 0.0040528542320664839 0 0.021228275774623145 0.0018745496895561339 0 0.022341363556281215 0.0031298109454586625 0 0.020740102793786894 0.0039451917486918947 0 0.020965096151204728 0.0031984618411339079 0 0.020720920036038287 0.0045235638685076811 0 0.020756472847425152 0.0040528542320664839 0 0.020556189751880161 0.0046874737935885319 0 0.020795698094941605 0.0049343287660674577 0 0.020720920036038287 0.0045235638685076811 0 0.020556189751880161 0.0046874737935885319 0 0.02049097950826553 0.0051113095526359193 0 0.020795698094941605 0.0049343287660674577 0 0.020556189751880161 0.0046874737935885319 0 0.02199830669864444 0.0037151229392860322 0 0.020965096151204728 0.0031984618411339079 0 0.021867901637548211 0.00033455823327839421 0 0.022676463202963255 0.0016398977585402833 0 0.02386515435686249 0.00098489631126299354 0 0.02199830669864444 0.0037151229392860322 0 0.024224479831166306 0.0019444288648821724 0 0.021867901637548211 0.00033455823327839421 0 0.021228275774623145 0.0018745496895561339 0 0.022676463202963255 0.0016398977585402833 0 0.021228275774623145 0.0018745496895561339 0 0.022676463202963255 0.0016398977585402833 0 0.022341363556281215 0.0031298109454586625 0 0.022341363556281215 0.0031298109454586625 0 0.023493108887001291 0.0030379261638070446 0 0.023938959080022502 0.0017953071582358722 0 0.022676463202963255 0.0016398977585402833 0 0.022341363556281215 0.0031298109454586625 0 0.023938959080022502 0.0017953071582358722 0 0.023493108887001291 0.0030379261638070446 0 0.024778830792253844 0.0017575423564346712 0 0.024062253146660318 0.0042988857419468457 0 0.023493108887001291 0.0030379261638070446 0 0.023938959080022502 0.0017953071582358722 0 0.024778830792253844 0.0017575423564346712 0 0.024778830792253844 0.0017575423564346712 0 0.02583401305069492 0.0012851081476881192 0 0.024062253146660318 0.0042988857419468457 0 0.024778830792253844 0.0017575423564346712 0 0.025717289875394223 0.0011413842185634825 0 0.02583401305069492 0.0012851081476881192 0 0.025534404993047457 0.0017537030226252874 0 0.025591471549142535 0.0020674894225340239 0 0.025951834123134197 0.0020140078491095049 0 0.025642830279351075 0.0014127783150471491 0 0.024224479831166306 0.0019444288648821724 0 0.024778830792253844 0.0017575423564346712 0 0.025717289875394223 0.0011413842185634825 0 0.023970246940527712 0.00055724544409428451 0 0.025534404993047457 0.0017537030226252874 0 0.025591471549142535 0.0020674894225340239 0 0.025376517148949181 0.0021188398653964064 0 0.022676463202963255 0.0016398977585402833 0 0.023938959080022502 0.0017953071582358722 0 0.02386515435686249 0.00098489631126299354 0 0.023938959080022502 0.0017953071582358722 0 0.024778830792253844 0.0017575423564346712 0 0.023970246940527712 0.00055724544409428451 0 0.023987506722931096 0.0013562710131370171 0 0.024224479831166306 0.0019444288648821724 0 0.024224479831166306 0.0019444288648821724 0 0.024662385771759492 0.003408490934784405 0 0.023754155398350001 0.0033333962328669776 0 0.023330669321171529 0.0031648299605204376 0 0.023356968871255875 0.0037253599196167466 0 0.025951834123134197 0.0020140078491095049 0 0.025472439194922682 0.0024598514237122301 0 0.025784410852624444 0.0029547447784395021 0 0.025591471549142535 0.0020674894225340239 0 0.025951834123134197 0.0020140078491095049 0 0.025472439194922682 0.0024598514237122301 0 0.025591471549142535 0.0020674894225340239 0 0.025472439194922682 0.0024598514237122301 0 0.025376517148949181 0.0021188398653964064 0 0.025784410852624444 0.0029547447784395021 0 0.025187383538427276 0.0031209422604512645 0 0.025225474195097908 0.0035542347844000986 0 0.025472439194922682 0.0024598514237122301 0 0.025784410852624444 0.0029547447784395021 0 0.025187383538427276 0.0031209422604512645 0 0.025035416935620249 0.0025085951509267184 0 0.024763157935240521 0.0027043277868434305 0 0.024864763131027947 0.0034214546230986469 0 0.025472439194922682 0.0024598514237122301 0 0.025187383538427276 0.0031209422604512645 0 0.025035416935620249 0.0025085951509267184 0 0.025187383538427276 0.0031209422604512645 0 0.025035416935620249 0.0025085951509267184 0 0.024864763131027947 0.0034214546230986469 0 0.025472439194922682 0.0024598514237122301 0 0.025035416935620249 0.0025085951509267184 0 0.025376517148949181 0.0021188398653964064 0 0.025035416935620249 0.0025085951509267184 0 0.025376517148949181 0.0021188398653964064 0 0.025213790399824555 0.0018559408991198779 0 0.025035416935620249 0.0025085951509267184 0 0.024843350723589515 0.0017978322883901434 0 0.024772500153048556 0.0022488591968560755 0 0.025035416935620249 0.0025085951509267184 0 0.024772500153048556 0.0022488591968560755 0 0.024763157935240521 0.0027043277868434305 0 0.025035416935620249 0.0025085951509267184 0 0.024843350723589515 0.0017978322883901434 0 0.025213790399824555 0.0018559408991198779 0 0.024843350723589515 0.0017978322883901434 0 0.025140997849939801 0.0011829136393467184 0 0.024469329274880759 0.0010530414687175147 0 0.024843350723589515 0.0017978322883901434 0 0.025213790399824555 0.0018559408991198779 0 0.025140997849939801 0.0011829136393467184 0 0.025534404993047457 0.0017537030226252874 0 0.025213790399824555 0.0018559408991198779 0 0.025140997849939801 0.0011829136393467184 0 0.025534404993047457 0.0017537030226252874 0 0.025376517148949181 0.0021188398653964064 0 0.025213790399824555 0.0018559408991198779 0 0.02583401305069492 0.0012851081476881192 0 0.025140997849939801 0.0011829136393467184 0 0.025271027152590192 -0.00017355265970718555 0 0.025642830279351075 0.0014127783150471491 0 0.025123758215977027 0.0012042673087968028 0 0.025717289875394223 0.0011413842185634825 0 0.02583401305069492 0.0012851081476881192 0 0.025140997849939801 0.0011829136393467184 0 0.02583401305069492 0.0012851081476881192 0 0.025929080823616207 -0.00040795426416560972 0 0.025271027152590192 -0.00017355265970718555 0 0.025140997849939801 0.0011829136393467184 0 0.024469329274880759 0.0010530414687175147 0 0.024792922539402452 0.00012371273877529682 0 0.025140997849939801 0.0011829136393467184 0 0.025271027152590192 -0.00017355265970718555 0 0.024792922539402452 0.00012371273877529682 0 0.024469329274880759 0.0010530414687175147 0 0.023908151978878172 0.000754550923419761 0 0.024411629198313595 0.0018752691906175219 0 0.024469329274880759 0.0010530414687175147 0 0.023908151978878172 0.000754550923419761 0 0.024184248379692741 -0.0002772094242348005 0 0.024469329274880759 0.0010530414687175147 0 0.024792922539402452 0.00012371273877529682 0 0.024184248379692741 -0.0002772094242348005 0 0.023908151978878172 0.000754550923419761 0 0.02362502074521278 0.001163726130839763 0 0.022813588784251493 -0.00062245136171928115 0 0.023908151978878172 0.000754550923419761 0 0.024411629198313595 0.0018752691906175219 0 0.02362502074521278 0.001163726130839763 0 0.024411629198313595 0.0018752691906175219 0 0.02362502074521278 0.001163726130839763 0 0.024923518950130789 0.0019542694470395792 0 0.024843350723589515 0.0017978322883901434 0 0.024411629198313595 0.0018752691906175219 0 0.024772500153048556 0.0022488591968560755 0 0.024843350723589515 0.0017978322883901434 0 0.024469329274880759 0.0010530414687175147 0 0.024411629198313595 0.0018752691906175219 0 0.025950192463748269 0.00063736490328394142 0 0.024999171626675212 0.0010769882905959038 0 0.024999973973978549 -0.00041021193798315312 0 0.024801725864888637 0.00081048216591833035 0 0.024891962126081101 0.0017659520599214707 0 0.025950192463748269 0.00063736490328394142 0 0.024999171626675212 0.0010769882905959038 0 0.024923518950130789 0.0019542694470395792 0 0.024999171626675212 0.0010769882905959038 0 0.024923518950130789 0.0019542694470395792 0 0.02499952342953974 0.0025636185376927039 0 0.024931917140664436 0.0029266561224706293 0 0.024778809267577133 0.0024700984809472959 0 0.024825637126136089 0.0031132694172439283 0 0.024923518950130789 0.0019542694470395792 0 0.024931917140664436 0.0029266561224706293 0 0.024778809267577133 0.0024700984809472959 0 0.024923518950130789 0.0019542694470395792 0 0.024931917140664436 0.0029266561224706293 0 0.02499952342953974 0.0025636185376927039 0 0.024411629198313595 0.0018752691906175219 0 0.024772500153048556 0.0022488591968560755 0 0.024763157935240521 0.0027043277868434305 0 0.024411629198313595 0.0018752691906175219 0 0.024923518950130789 0.0019542694470395792 0 0.024778809267577133 0.0024700984809472959 0 0.024411629198313595 0.0018752691906175219 0 0.024778809267577133 0.0024700984809472959 0 0.024763157935240521 0.0027043277868434305 0 0.024778809267577133 0.0024700984809472959 0 0.024763157935240521 0.0027043277868434305 0 0.024825637126136089 0.0031132694172439283 0 0.024763157935240521 0.0027043277868434305 0 0.0247958395801792 0.0032111800243803555 0 0.024825637126136089 0.0031132694172439283 0 0.024763157935240521 0.0027043277868434305 0 0.0247958395801792 0.0032111800243803555 0 0.024864763131027947 0.0034214546230986469 0 0.0247958395801792 0.0032111800243803555 0 0.02477250577027874 0.0036361881280036292 0 0.024864763131027947 0.0034214546230986469 0 0.0247958395801792 0.0032111800243803555 0 0.024825637126136089 0.0031132694172439283 0 0.02477250577027874 0.0036361881280036292 0 0.024825637126136089 0.0031132694172439283 0 0.02477250577027874 0.0036361881280036292 0 0.024845250949662903 0.0036204146028319391 0 0.02477250577027874 0.0036361881280036292 0 0.024716955831285671 0.0039401438694446345 0 0.024864763131027947 0.0034214546230986469 0 0.024931917140664436 0.0029266561224706293 0 0.024845250949662903 0.0036204146028319391 0 0.024998394965626475 0.0040477290503400714 0 0.024931917140664436 0.0029266561224706293 0 0.02499952342953974 0.0025636185376927039 0 0.024998394965626475 0.0040477290503400714 0 0.024931917140664436 0.0029266561224706293 0 0.024825637126136089 0.0031132694172439283 0 0.024845250949662903 0.0036204146028319391 0 0.02477250577027874 0.0036361881280036292 0 0.024845250949662903 0.0036204146028319391 0 0.02486266573828555 0.0040094923139265687 0 0.024845250949662903 0.0036204146028319391 0 0.024730207332777643 0.0039849324931016646 0 0.02486266573828555 0.0040094923139265687 0 0.024998394965626475 0.0040477290503400714 0 0.024730207332777643 0.0039849324931016646 0 0.024348049223394633 0.0043918340239955372 0 0.024845250949662903 0.0036204146028319391 0 0.024998394965626475 0.0040477290503400714 0 0.024730207332777643 0.0039849324931016646 0 0.024999938779508214 0.0040500827643288632 0 0.024908776531485127 0.0049215698350518582 0 0.025000005100594535 0.0040498250752293904 0 0.02499998847134979 0.0052639920688963308 0 0.025423897227486999 0.0053590561124190117 0 0.024730207332777643 0.0039849324931016646 0 0.024348049223394633 0.0043918340239955372 0 0.02486266573828555 0.0040094923139265687 0 0.024348049223394633 0.0043918340239955372 0 0.02486266573828555 0.0040094923139265687 0 0.02487737965597752 0.0050720358792837837 0 0.02486266573828555 0.0040094923139265687 0 0.02487737965597752 0.0050720358792837837 0 0.02568153752822917 0.005452054142532187 0 0.024580208815505888 0.0060430313460657758 0 0.024348049223394633 0.0043918340239955372 0 0.02487737965597752 0.0050720358792837837 0 0.025687028805505871 0.0067252104181271671 0 0.024999896253821294 0.0064783109939416973 0 0.025423897227486999 0.0053590561124190117 0 0.024999896253821294 0.0064783109939416973 0 0.02499998847134979 0.0052639920688963308 0 0.025423897227486999 0.0053590561124190117 0 0.02515015978526982 0.0063480120686915794 0 0.024908776531485127 0.0049215698350518582 0 0.024716955831285671 0.0039401438694446345 0 0.024648349085359265 0.0039928010057430508 0 0.024577545478537778 0.0041952909927034272 0 0.02477250577027874 0.0036361881280036292 0 0.024716955831285671 0.0039401438694446345 0 0.024648349085359265 0.0039928010057430508 0 0.02477250577027874 0.0036361881280036292 0 0.02486266573828555 0.0040094923139265687 0 0.024648349085359265 0.0039928010057430508 0 0.024864371292019825 0.0040807680264151689 0 0.025058473169397934 0.0047980421384095501 0 0.02486266573828555 0.0040094923139265687 0 0.024648349085359265 0.0039928010057430508 0 0.024499893381605336 0.0041295697825514885 0 0.025160684594129627 0.0057686865881472369 0 0.02487737965597752 0.0050720358792837837 0 0.02568153752822917 0.005452054142532187 0 0.024648349085359265 0.0039928010057430508 0 0.024499893381605336 0.0041295697825514885 0 0.024577545478537778 0.0041952909927034272 0 0.024657881229916561 0.0045092628792461446 0 0.024577545478537778 0.0041952909927034272 0 0.024737444425338134 0.0042183152108482809 0 0.024716955831285671 0.0039401438694446345 0 0.024577545478537778 0.0041952909927034272 0 0.024737444425338134 0.0042183152108482809 0 0.024716955831285671 0.0039401438694446345 0 0.024819396679984059 0.0040206187815623271 0 0.024737444425338134 0.0042183152108482809 0 0.024819396679984059 0.0040206187815623271 0 0.024737444425338134 0.0042183152108482809 0 0.02473512684611125 0.0041990024929882512 0 0.024819396679984059 0.0040206187815623271 0 0.02473512684611125 0.0041990024929882512 0 0.024839240981137812 0.004119740159196022 0 0.024737444425338134 0.0042183152108482809 0 0.024670074516389688 0.004233599146064259 0 0.02473512684611125 0.0041990024929882512 0 0.024657881229916561 0.0045092628792461446 0 0.024737444425338134 0.0042183152108482809 0 0.024670074516389688 0.004233599146064259 0 0.024270548385110721 0.0039319164898172707 0 0.024670074516389688 0.004233599146064259 0 0.02438416523870993 0.0041620981416342281 0 0.024670074516389688 0.004233599146064259 0 0.02438416523870993 0.0041620981416342281 0 0.02473512684611125 0.0041990024929882512 0 0.024270548385110721 0.0039319164898172707 0 0.023463299623761365 0.0041051593522976578 0 0.02438416523870993 0.0041620981416342281 0 0.023463299623761365 0.0041051593522976578 0 0.02438416523870993 0.0041620981416342281 0 0.023969658658299694 0.0043673060648138241 0 0.023969658658299694 0.0043673060648138241 0 0.024662934051492474 0.0043756907124782316 0 0.024863695581678776 0.0045243565983234492 0 0.02438416523870993 0.0041620981416342281 0 0.023969658658299694 0.0043673060648138241 0 0.024591546170605428 0.0042798723722342084 0 0.023969658658299694 0.0043673060648138241 0 0.024662934051492474 0.0043756907124782316 0 0.024591546170605428 0.0042798723722342084 0 0.02438416523870993 0.0041620981416342281 0 0.02473512684611125 0.0041990024929882512 0 0.024591546170605428 0.0042798723722342084 0 0.024662934051492474 0.0043756907124782316 0 0.024591546170605428 0.0042798723722342084 0 0.024839240981137812 0.004119740159196022 0 0.02473512684611125 0.0041990024929882512 0 0.024591546170605428 0.0042798723722342084 0 0.024839240981137812 0.004119740159196022 0 0.024839240981137812 0.004119740159196022 0 0.024972449383963279 0.0039718447552659717 0 0.024973950900993913 0.0037290297536311488 0 0.024662934051492474 0.0043756907124782316 0 0.024839240981137812 0.004119740159196022 0 0.024972449383963279 0.0039718447552659717 0 0.024972449383963279 0.0039718447552659717 0 0.025313982281163529 0.0039370422746614368 0 0.025225474195097908 0.0035542347844000986 0 0.024972449383963279 0.0039718447552659717 0 0.025225474195097908 0.0035542347844000986 0 0.024973950900993913 0.0037290297536311488 0 0.023964883138320126 0.0044066017761593083 0 0.024027884032084303 0.0043525513636017959 0 0.022885664556655822 0.0048189982416273862 0 0.023969658658299694 0.0043673060648138241 0 0.023101040150252133 0.0050444290588280592 0 0.024629190271377648 0.0041734038470549748 0 0.024027884032084303 0.0043525513636017959 0 0.024662934051492474 0.0043756907124782316 0 0.024972449383963279 0.0039718447552659717 0 0.025313982281163529 0.0039370422746614368 0 0.022347112808352342 0.0051017890327660674 0 0.022885664556655822 0.0048189982416273862 0 0.023101040150252133 0.0050444290588280592 0 0.022347112808352342 0.0051017890327660674 0 0.022136034675020021 0.0053415859901669227 0 0.023101040150252133 0.0050444290588280592 0 0.023571442351400546 0.0038083818593752875 0 0.023356968871255875 0.0037253599196167466 0 0.023394064634607189 0.0042825373368060088 0 0.024662385771759492 0.003408490934784405 0 0.024027884032084303 0.0043525513636017959 0 0.025784410852624444 0.0029547447784395021 0 0.025313982281163529 0.0039370422746614368 0 0.025225474195097908 0.0035542347844000986 0 0.022829247632375323 0.0047640354723861326 0 0.024027884032084303 0.0043525513636017959 0 0.025187383538427276 0.0031209422604512645 0 0.025225474195097908 0.0035542347844000986 0 0.024973950900993913 0.0037290297536311488 0 0.025187383538427276 0.0031209422604512645 0 0.024864763131027947 0.0034214546230986469 0 0.024973950900993913 0.0037290297536311488 0 0.024716955831285671 0.0039401438694446345 0 0.024819396679984059 0.0040206187815623271 0 0.024864763131027947 0.0034214546230986469 0 0.024819396679984059 0.0040206187815623271 0 0.024864763131027947 0.0034214546230986469 0 0.024973950900993913 0.0037290297536311488 0 0.024819396679984059 0.0040206187815623271 0 0.024839240981137812 0.004119740159196022 0 0.024973950900993913 0.0037290297536311488 0 0.0080312133668034996 -0.0011490733386785724 0 0.0074052180293603387 -0.00092895796973860344 0 0.008302784125291866 0.00032501658241284909 0 0.0080312133668034996 -0.0011490733386785724 0 0.0088145028581462087 -0.00080900532457936741 0 0.008302784125291866 0.00032501658241284909 0 0.0062631104922606737 -0.00071031242706501546 0 0.0086684767714564712 0.00043585757523469906 0 0.0094476767640367734 -5.8533632538231134e-05 0 0.0088145028581462087 -0.00080900532457936741 0 0.0099519898550892126 -0.0014199080646608211 0 0.0094476767640367734 -5.8533632538231134e-05 0 0.0088145028581462087 -0.00080900532457936741 0 0.008302784125291866 0.00032501658241284909 0 0.0086551912452451172 -0.0019175360115820702 0 0.0093205908916748608 -0.0023347609921499073 0 0.0091180831903042211 -0.0026463288525936813 0 0.0088145028581462087 -0.00080900532457936741 0 0.0086551912452451172 -0.0019175360115820702 0 0.0099519898550892126 -0.0014199080646608211 0 0.0086470532083269235 -0.0019599718547732995 0 0.0096938170865973894 -0.0018520926258086413 0 0.0080312133668034996 -0.0011490733386785724 0 0.0088145028581462087 -0.00080900532457936741 0 0.0086551912452451172 -0.0019175360115820702 0 0.0080312133668034996 -0.0011490733386785724 0 0.0086551912452451172 -0.0019175360115820702 0 0.0079362119167774477 -0.0020113231275698919 0 0.0086551912452451172 -0.0019175360115820702 0 0.0079362119167774477 -0.0020113231275698919 0 0.0084462194141090175 -0.0026046697092413956 0 0.0079362119167774477 -0.0020113231275698919 0 0.0072777452525256778 -0.0017485253824419849 0 0.0074147960989065084 -0.0023635138436114271 0 0.0079362119167774477 -0.0020113231275698919 0 0.0076542284548879458 -0.0014473646874286282 0 0.0072777452525256778 -0.0017485253824419849 0 0.0076542284548879458 -0.0014473646874286282 0 0.0072777452525256778 -0.0017485253824419849 0 0.0074052180293603387 -0.00092895796973860344 0 0.0080312133668034996 -0.0011490733386785724 0 0.0079362119167774477 -0.0020113231275698919 0 0.0076542284548879458 -0.0014473646874286282 0 0.0072777452525256778 -0.0017485253824419849 0 0.0068424857238952464 -0.0016184305141039718 0 0.0074052180293603387 -0.00092895796973860344 0 0.0069523750172952366 -0.0019904057915927161 0 0.0072777452525256778 -0.0017485253824419849 0 0.0068424857238952464 -0.0016184305141039718 0 0.0069523750172952366 -0.0019904057915927161 0 0.0072777452525256778 -0.0017485253824419849 0 0.0074147960989065084 -0.0023635138436114271 0 0.0063728783628764288 0.00034953850709576733 0 0.0066761199843777133 0.00011165525514799834 0 0.0059533041346797504 -9.2825289145765687e-05 0 0.0062631104922606737 -0.00071031242706501546 0 0.0096282389455641104 0.00064792368235777002 0 0.0068424857238952464 -0.0016184305141039718 0 0.0074052180293603387 -0.00092895796973860344 0 0.0064986560114780089 -0.0014573505646022146 0 0.0063728783628764288 0.00034953850709576733 0 0.0059533041346797504 -9.2825289145765687e-05 0 0.0060946501060007751 0.00044031346388572048 0 0.0080312133668034996 -0.0011490733386785724 0 0.0076542284548879458 -0.0014473646874286282 0 0.0074052180293603387 -0.00092895796973860344 0 0.0066761199843777133 0.00011165525514799834 0 0.0066310815365612178 0.00059807736016943098 0 0.0073579552751604728 0.0006330495667740899 0 0.0066310815365612178 0.00059807736016943098 0 0.0063702763400085554 0.001153649569383584 0 0.0073579552751604728 0.0006330495667740899 0 0.0051726365316022271 0.0018691936220956182 0 0.0064894720894078193 0.001596956010808469 0 0.0073579552751604728 0.0006330495667740899 0 0.0068679958651352239 0.0026412744512537912 0 0.006942577561275527 0.00040547747596215354 0 0.0063511769906580227 0.00075619360964860965 0 0.0062710209448126678 0.0012124143493704119 0 0.0060946501060007751 0.00044031346388572048 0 0.0096145860656744551 0.0033821788929239822 0 0.010829086111491724 0.0024263524355291536 0 0.0063728783628764288 0.00034953850709576733 0 0.0063511769906580227 0.00075619360964860965 0 0.0060946501060007751 0.00044031346388572048 0 0.0063728783628764288 0.00034953850709576733 0 0.0066761199843777133 0.00011165525514799834 0 0.0066310815365612178 0.00059807736016943098 0 0.0063728783628764288 0.00034953850709576733 0 0.0066310815365612178 0.00059807736016943098 0 0.0063511769906580227 0.00075619360964860965 0 0.0066310815365612178 0.00059807736016943098 0 0.0063511769906580227 0.00075619360964860965 0 0.0063702763400085554 0.001153649569383584 0 0.0063511769906580227 0.00075619360964860965 0 0.0062710209448126678 0.0012124143493704119 0 0.0063702763400085554 0.001153649569383584 0 0.0096145860656744551 0.0033821788929239822 0 0.0068679958651352239 0.0026412744512537912 0 0.0051808725688327773 0.0019944609559710696 0 0.0053811154298580447 0.001871804271241084 0 0.0054267128614181202 0.0027067949258655845 0 0.0053811154298580447 0.001871804271241084 0 0.0062422740015413382 0.002391361055687755 0 0.0054267128614181202 0.0027067949258655845 0 0.0096145860656744551 0.0033821788929239822 0 0.0076268867242662271 0.0048841255913120839 0 0.0087157129405524315 0.0066107392824954637 0 0.0086677219452058387 0.0064948614993966458 0 0.008690673210510598 0.0065050981413613453 0 0.0053811154298580447 0.001871804271241084 0 0.0064894720894078193 0.001596956010808469 0 0.0062422740015413382 0.002391361055687755 0 0.0068679958651352239 0.0026412744512537912 0 0.0059518803996681628 0.0018226525838276524 0 0.0064894720894078193 0.001596956010808469 0 0.0062422740015413382 0.002391361055687755 0 0.0071545174378976496 0.0023053078678890123 0 0.0064894720894078193 0.001596956010808469 0 0.0071545174378976496 0.0023053078678890123 0 0.0076940798125291268 0.001366317285437864 0 0.0071545174378976496 0.0023053078678890123 0 0.007912601740943756 0.0020767619927037312 0 0.0079296959826960327 0.0028633591904617555 0 0.007912601740943756 0.0020767619927037312 0 0.0076940798125291268 0.001366317285437864 0 0.0084013508339603003 0.0015757872211492456 0 0.0071545174378976496 0.0023053078678890123 0 0.007912601740943756 0.0020767619927037312 0 0.0076940798125291268 0.001366317285437864 0 0.0066761199843777133 0.00011165525514799834 0 0.0073579552751604728 0.0006330495667740899 0 0.008302784125291866 0.00032501658241284909 0 0.0064894720894078193 0.001596956010808469 0 0.0076940798125291268 0.001366317285437864 0 0.0073579552751604728 0.0006330495667740899 0 0.0076940798125291268 0.001366317285437864 0 0.008302784125291866 0.00032501658241284909 0 0.0084013508339603003 0.0015757872211492456 0 0.0076940798125291268 0.001366317285437864 0 0.0073579552751604728 0.0006330495667740899 0 0.008302784125291866 0.00032501658241284909 0 0.0094476767640367734 -5.8533632538231134e-05 0 0.008302784125291866 0.00032501658241284909 0 0.0091622567489800071 0.0012201768145631673 0 0.008302784125291866 0.00032501658241284909 0 0.0091622567489800071 0.0012201768145631673 0 0.0084013508339603003 0.0015757872211492456 0 0.0091622567489800071 0.0012201768145631673 0 0.0084013508339603003 0.0015757872211492456 0 0.0086576900194386217 0.0025483489148207072 0 0.007912601740943756 0.0020767619927037312 0 0.0084013508339603003 0.0015757872211492456 0 0.0086576900194386217 0.0025483489148207072 0 0.007912601740943756 0.0020767619927037312 0 0.0086576900194386217 0.0025483489148207072 0 0.0079296959826960327 0.0028633591904617555 0 0.0091622567489800071 0.0012201768145631673 0 0.0086576900194386217 0.0025483489148207072 0 0.0094510659746122778 0.0023908596484222091 0 0.0094510659746122778 0.0023908596484222091 0 0.010615715441149498 0.002230027542095483 0 0.010014471858046553 0.00095534703229540729 0 0.0091622567489800071 0.0012201768145631673 0 0.0094510659746122778 0.0023908596484222091 0 0.010014471858046553 0.00095534703229540729 0 0.0094510659746122778 0.0023908596484222091 0 0.010615715441149498 0.002230027542095483 0 0.0099645827517926 0.0033202039972773604 0 0.010615715441149498 0.002230027542095483 0 0.010895027479887506 0.0011034513189161238 0 0.011991198298621206 0.0021507089416869865 0 0.010615715441149498 0.002230027542095483 0 0.011991198298621206 0.0021507089416869865 0 0.011866353470825628 0.0034690143140082459 0 0.010615715441149498 0.002230027542095483 0 0.010895027479887506 0.0011034513189161238 0 0.010014471858046553 0.00095534703229540729 0 0.010895027479887506 0.0011034513189161238 0 0.012140193189601264 6.2160177868060098e-05 0 0.011261977206496144 -3.5865134809124146e-05 0 0.010895027479887506 0.0011034513189161238 0 0.010504863085545296 -0.00021016082997430205 0 0.011261977206496144 -3.5865134809124146e-05 0 0.0094476767640367734 -5.8533632538231134e-05 0 0.010014471858046553 0.00095534703229540729 0 0.010504863085545296 -0.00021016082997430205 0 0.010895027479887506 0.0011034513189161238 0 0.010014471858046553 0.00095534703229540729 0 0.010504863085545296 -0.00021016082997430205 0 0.0094476767640367734 -5.8533632538231134e-05 0 0.0091622567489800071 0.0012201768145631673 0 0.010014471858046553 0.00095534703229540729 0 0.0066092111656950924 0.00049404280854931266 0 0.0082100476645384831 0.003204877575854186 0 0.0048671479085668976 0.0029696783471117819 0 0.0059064299269957245 0.0058083668270708412 0 0.010331602381862806 0.00049163213973170243 0 0.010895027479887506 0.0011034513189161238 0 0.011991198298621206 0.0021507089416869865 0 0.012957215134085929 0.0013536493914106499 0 0.013642439762802891 0.0025944796600274006 0 0.011991198298621206 0.0021507089416869865 0 0.012957215134085929 0.0013536493914106499 0 0.010895027479887506 0.0011034513189161238 0 0.012488531745177757 0.00089257937089290125 0 0.0127561092958112 0.0011649428408612155 0 0.012053803380476116 0.0013173569439299578 0 0.010331602381862806 0.00049163213973170243 0 0.010895027479887506 0.0011034513189161238 0 0.012140193189601264 6.2160177868060098e-05 0 0.012488531745177757 0.00089257937089290125 0 0.010331107353046484 -0.0018771326417660052 0 0.010331602381862806 0.00049163213973170243 0 0.0087558465773843516 -0.0034352915407799135 0 0.0080753404630111159 -0.0045816156893532687 0 0.0079724134630367594 -0.003591891756975179 0 0.012140193189601264 6.2160177868060098e-05 0 0.012488531745177757 0.00089257937089290125 0 0.012749277184279711 0.001181263757916126 0 0.011406271039391772 0.0011729677548430301 0 0.010331602381862806 0.00049163213973170243 0 0.010331602381862806 0.00049163213973170243 0 0.0059049005527525037 -0.00092421919350769543 0 0.0080753404630111159 -0.0045816156893532687 0 0.0072200801663539751 -0.0037223543551391067 0 0.0066398479222151965 -0.0046976728895330435 0 0.0080753404630111159 -0.0045816156893532687 0 0.0079724134630367594 -0.003591891756975179 0 0.0072200801663539751 -0.0037223543551391067 0 0.0072200801663539751 -0.0037223543551391067 0 0.0078365419384965902 -0.0026184944802496103 0 0.0062676252692317773 -0.0030274667866114352 0 0.007756354912542166 -0.0028403447204296082 0 0.0064928558977628359 -0.0030054524274187189 0 0.0079854762474714201 -0.002954290729364479 0 0.0073874850281780832 -0.0014941831895430681 0 0.0062676252692317773 -0.0030274667866114352 0 0.0079724134630367594 -0.003591891756975179 0 0.0072200801663539751 -0.0037223543551391067 0 0.0078365419384965902 -0.0026184944802496103 0 0.0079854762474714201 -0.002954290729364479 0 0.0088274362601807321 -0.0025309271882169838 0 0.0094076294204242725 -0.0028654890554276917 0 0.0087558465773843516 -0.0034352915407799135 0 0.0078365419384965902 -0.0026184944802496103 0 0.0094469584735906824 -0.002260109489083245 0 0.007756354912542166 -0.0028403447204296082 0 0.010057267696006877 -0.002003202722238597 0 0.0087558465773843516 -0.0034352915407799135 0 0.0079724134630367594 -0.003591891756975179 0 0.0078365419384965902 -0.0026184944802496103 0 0.010331107353046484 -0.0018771326417660052 0 0.010057267696006877 -0.002003202722238597 0 0.0088274362601807321 -0.0025309271882169838 0 0.0073874850281780832 -0.0014941831895430681 0 0.0095756931051806955 -0.0025558382784879618 0 0.0095612100031594229 -0.0036106017225776481 0 0.0095756931051806955 -0.0025558382784879618 0 0.009630532327388629 -0.003030232280166802 0 0.0084736749583029462 -0.002556124370906803 0 0.0094171164987240479 -0.0025544332482387924 0 0.0079854762474714201 -0.002954290729364479 0 0.0088274362601807321 -0.0025309271882169838 0 0.0073874850281780832 -0.0014941831895430681 0 0.0094476767640367734 -5.8533632538231134e-05 0 0.010504863085545296 -0.00021016082997430205 0 0.0099519898550892126 -0.0014199080646608211 0 0.010504863085545296 -0.00021016082997430205 0 0.011500005150857256 -0.0010505509167650384 0 0.0099519898550892126 -0.0014199080646608211 0 0.010504863085545296 -0.00021016082997430205 0 0.011261977206496144 -3.5865134809124146e-05 0 0.011500005150857256 -0.0010505509167650384 0 0.012140193189601264 6.2160177868060098e-05 0 0.011261977206496144 -3.5865134809124146e-05 0 0.011500005150857256 -0.0010505509167650384 0 0.010057267696006877 -0.002003202722238597 0 0.0096938170865973894 -0.0018520926258086413 0 0.0094553511001792927 -0.0025300176393012281 0 0.0095661763376702572 -0.0026054975666239722 0 0.0095756931051806955 -0.0025558382784879618 0 0.0096019925657844125 -0.0025885286607993463 0 0.0094553511001792927 -0.0025300176393012281 0 0.0093205908916748608 -0.0023347609921499073 0 0.0096019925657844125 -0.0025885286607993463 0 0.0094553511001792927 -0.0025300176393012281 0 0.0095661763376702572 -0.0026054975666239722 0 0.0088274362601807321 -0.0025309271882169838 0 0.0095661763376702572 -0.0026054975666239722 0 0.0095756931051806955 -0.0025558382784879618 0 0.0088274362601807321 -0.0025309271882169838 0 0.0094076294204242725 -0.0028654890554276917 0 0.0095661763376702572 -0.0026054975666239722 0 0.010057267696006877 -0.002003202722238597 0 0.0097892636923765722 -0.0024128459718855424 0 0.0095756931051806955 -0.0025558382784879618 0 0.0095275877178076195 -0.002743120531141589 0 0.009630532327388629 -0.003030232280166802 0 0.0094553511001792927 -0.0025300176393012281 0 0.0095756931051806955 -0.0025558382784879618 0 0.0095275877178076195 -0.002743120531141589 0 0.0094553511001792927 -0.0025300176393012281 0 0.0095275877178076195 -0.002743120531141589 0 0.0094185256379973499 -0.0027391579708533212 0 0.0094553511001792927 -0.0025300176393012281 0 0.0093205908916748608 -0.0023347609921499073 0 0.0094185256379973499 -0.0027391579708533212 0 0.0093205908916748608 -0.0023347609921499073 0 0.0094185256379973499 -0.0027391579708533212 0 0.0091180831903042211 -0.0026463288525936813 0 0.0094185256379973499 -0.0027391579708533212 0 0.009360833644524124 -0.003085422251605774 0 0.0091180831903042211 -0.0026463288525936813 0 0.0094185256379973499 -0.0027391579708533212 0 0.0095281931019968076 -0.0030489983596471027 0 0.009360833644524124 -0.003085422251605774 0 0.0094185256379973499 -0.0027391579708533212 0 0.0095577981754917715 -0.0029333259715198599 0 0.0095281931019968076 -0.0030489983596471027 0 0.0095275877178076195 -0.002743120531141589 0 0.0094185256379973499 -0.0027391579708533212 0 0.0095577981754917715 -0.0029333259715198599 0 0.0095275877178076195 -0.002743120531141589 0 0.0095577981754917715 -0.0029333259715198599 0 0.009630532327388629 -0.003030232280166802 0 0.0095577981754917715 -0.0029333259715198599 0 0.0096284840672947788 -0.0031808824910356109 0 0.0095281931019968076 -0.0030489983596471027 0 0.0095577981754917715 -0.0029333259715198599 0 0.0096284840672947788 -0.0031808824910356109 0 0.0096434776440938834 -0.0031543689403352921 0 0.0095281931019968076 -0.0030489983596471027 0 0.0096276316314751649 -0.0032993619863209162 0 0.009360833644524124 -0.003085422251605774 0 0.0096284840672947788 -0.0031808824910356109 0 0.0096276316314751649 -0.0032993619863209162 0 0.0096901814796105622 -0.0033304800020499403 0 0.0096284840672947788 -0.0031808824910356109 0 0.0095281931019968076 -0.0030489983596471027 0 0.0096276316314751649 -0.0032993619863209162 0 0.0096276316314751649 -0.0032993619863209162 0 0.0097037654985787022 -0.0033979838572525704 0 0.0096916763511854555 -0.0035370585459477961 0 0.0096276316314751649 -0.0032993619863209162 0 0.009360833644524124 -0.003085422251605774 0 0.0094305064214692882 -0.0034822464195816013 0 0.009360833644524124 -0.003085422251605774 0 0.0094305064214692882 -0.0034822464195816013 0 0.0090836355911995941 -0.003517083899217443 0 0.0095612100031594229 -0.0036106017225776481 0 0.0096343335767484876 -0.0033834513911527634 0 0.009630532327388629 -0.003030232280166802 0 0.0095612100031594229 -0.0036106017225776481 0 0.0096343335767484876 -0.0033834513911527634 0 0.0093354683471796752 -0.0034686302073218219 0 0.0096343335767484876 -0.0033834513911527634 0 0.0096434776440938834 -0.0031543689403352921 0 0.0096901814796105622 -0.0033304800020499403 0 0.0096343335767484876 -0.0033834513911527634 0 0.009630532327388629 -0.003030232280166802 0 0.0096434776440938834 -0.0031543689403352921 0 0.0095577981754917715 -0.0029333259715198599 0 0.009630532327388629 -0.003030232280166802 0 0.0096434776440938834 -0.0031543689403352921 0 0.0096284840672947788 -0.0031808824910356109 0 0.0096434776440938834 -0.0031543689403352921 0 0.0096901814796105622 -0.0033304800020499403 0 0.0096901814796105622 -0.0033304800020499403 0 0.0097037654985787022 -0.0033979838572525704 0 0.0097582324219409496 -0.0034358960309132844 0 0.0096901814796105622 -0.0033304800020499403 0 0.0096184000031309443 -0.0034066207875749622 0 0.0097582324219409496 -0.0034358960309132844 0 0.0096343335767484876 -0.0033834513911527634 0 0.0096901814796105622 -0.0033304800020499403 0 0.0096184000031309443 -0.0034066207875749622 0 0.0096276316314751649 -0.0032993619863209162 0 0.0096901814796105622 -0.0033304800020499403 0 0.0097037654985787022 -0.0033979838572525704 0 0.0096343335767484876 -0.0033834513911527634 0 0.0096184000031309443 -0.0034066207875749622 0 0.0093354683471796752 -0.0034686302073218219 0 0.0096184000031309443 -0.0034066207875749622 0 0.0095462671478689573 -0.0033302956006995999 0 0.0093354683471796752 -0.0034686302073218219 0 0.0096184000031309443 -0.0034066207875749622 0 0.0095462671478689573 -0.0033302956006995999 0 0.0097582324219409496 -0.0034358960309132844 0 0.0095462671478689573 -0.0033302956006995999 0 0.0097582324219409496 -0.0034358960309132844 0 0.0097208569009687926 -0.0034019632666438507 0 0.0097582324219409496 -0.0034358960309132844 0 0.0099070750750616526 -0.0035553343156313456 0 0.0097208569009687926 -0.0034019632666438507 0 0.0097037654985787022 -0.0033979838572525704 0 0.0097582324219409496 -0.0034358960309132844 0 0.0096916763511854555 -0.0035370585459477961 0 0.0097582324219409496 -0.0034358960309132844 0 0.0099070750750616526 -0.0035553343156313456 0 0.0096916763511854555 -0.0035370585459477961 0 0.0099070750750616526 -0.0035553343156313456 0 0.0096916763511854555 -0.0035370585459477961 0 0.0097006695654432134 -0.0040208666737440776 0 0.0099070750750616526 -0.0035553343156313456 0 0.0097006695654432134 -0.0040208666737440776 0 0.010020781252472875 -0.0041120265303731798 0 0.0099070750750616526 -0.0035553343156313456 0 0.010483255922370562 -0.0040778517964280229 0 0.010020781252472875 -0.0041120265303731798 0 0.0096150682510861441 -0.0031314223876263004 0 0.0091644109482882131 -0.0031711368402849273 0 0.0095969267267232636 -0.0030837217062050296 0 0.0095462671478689573 -0.0033302956006995999 0 0.0096150682510861441 -0.0031314223876263004 0 0.0091644109482882131 -0.0031711368402849273 0 0.0095462671478689573 -0.0033302956006995999 0 0.0097208569009687926 -0.0034019632666438507 0 0.0096150682510861441 -0.0031314223876263004 0 0.0099070750750616526 -0.0035553343156313456 0 0.0097208569009687926 -0.0034019632666438507 0 0.0096150682510861441 -0.0031314223876263004 0 0.0099070750750616526 -0.0035553343156313456 0 0.0096150682510861441 -0.0031314223876263004 0 0.0096281487339989012 -0.0030561298306529929 0 0.0099222185476756861 -0.0035609647204662902 0 0.0092629649357643395 -0.0043002185278895651 0 0.0092917505052325725 -0.004107940054147231 0 0.0092629649357643395 -0.0043002185278895651 0 0.0094305064214692882 -0.0034822464195816013 0 0.0092632509103048148 -0.0039168066853105723 0 0.0090836355911995941 -0.003517083899217443 0 0.0094305064214692882 -0.0034822464195816013 0 0.0095150514575276738 -0.0038450756020996903 0 0.0092632509103048148 -0.0039168066853105723 0 0.0094305064214692882 -0.0034822464195816013 0 0.0096916763511854555 -0.0035370585459477961 0 0.0095150514575276738 -0.0038450756020996903 0 0.0096276316314751649 -0.0032993619863209162 0 0.0094305064214692882 -0.0034822464195816013 0 0.0096916763511854555 -0.0035370585459477961 0 0.0097006695654432134 -0.0040208666737440776 0 0.0094469238869862183 -0.0042766524598720325 0 0.0095150514575276738 -0.0038450756020996903 0 0.0096916763511854555 -0.0035370585459477961 0 0.0097006695654432134 -0.0040208666737440776 0 0.0095150514575276738 -0.0038450756020996903 0 0.0094469238869862183 -0.0042766524598720325 0 0.0095150514575276738 -0.0038450756020996903 0 0.0092632509103048148 -0.0039168066853105723 0 0.0094469238869862183 -0.0042766524598720325 0 0.0092632509103048148 -0.0039168066853105723 0 0.0092023869748004885 -0.0045342752040629965 0 0.0092632509103048148 -0.0039168066853105723 0 0.0088153648374615107 -0.0038373051849653274 0 0.0092023869748004885 -0.0045342752040629965 0 0.0088013794931004613 -0.0043945517551698182 0 0.0088153648374615107 -0.0038373051849653274 0 0.0092023869748004885 -0.0045342752040629965 0 0.0088153648374615107 -0.0038373051849653274 0 0.0085593067666666859 -0.0032398039246832452 0 0.0081865168103436876 -0.0035705204545357335 0 0.0088153648374615107 -0.0038373051849653274 0 0.0090836355911995941 -0.003517083899217443 0 0.0085593067666666859 -0.0032398039246832452 0 0.0088013794931004613 -0.0043945517551698182 0 0.0088153648374615107 -0.0038373051849653274 0 0.0081865168103436876 -0.0035705204545357335 0 0.0092632509103048148 -0.0039168066853105723 0 0.0088153648374615107 -0.0038373051849653274 0 0.0090836355911995941 -0.003517083899217443 0 0.009360833644524124 -0.003085422251605774 0 0.0090836355911995941 -0.003517083899217443 0 0.0089097248362937989 -0.0030448459214790433 0 0.0090836355911995941 -0.003517083899217443 0 0.0089097248362937989 -0.0030448459214790433 0 0.0085593067666666859 -0.0032398039246832452 0 0.0089097248362937989 -0.0030448459214790433 0 0.0085593067666666859 -0.0032398039246832452 0 0.0084462194141090175 -0.0026046697092413956 0 0.0085593067666666859 -0.0032398039246832452 0 0.0084462194141090175 -0.0026046697092413956 0 0.0079806980787520583 -0.0028101512543483825 0 0.0079362119167774477 -0.0020113231275698919 0 0.0084462194141090175 -0.0026046697092413956 0 0.0079806980787520583 -0.0028101512543483825 0 0.0086551912452451172 -0.0019175360115820702 0 0.0084462194141090175 -0.0026046697092413956 0 0.0091180831903042211 -0.0026463288525936813 0 0.0089097248362937989 -0.0030448459214790433 0 0.0084462194141090175 -0.0026046697092413956 0 0.0091180831903042211 -0.0026463288525936813 0 0.009360833644524124 -0.003085422251605774 0 0.0089097248362937989 -0.0030448459214790433 0 0.0091180831903042211 -0.0026463288525936813 0 0.0074147960989065084 -0.0023635138436114271 0 0.0075673666175097793 -0.0029814285435963142 0 0.0068248077632885162 -0.002547581772774042 0 0.0069523750172952366 -0.0019904057915927161 0 0.0074147960989065084 -0.0023635138436114271 0 0.0068248077632885162 -0.002547581772774042 0 0.0079362119167774477 -0.0020113231275698919 0 0.0074147960989065084 -0.0023635138436114271 0 0.0079806980787520583 -0.0028101512543483825 0 0.0074147960989065084 -0.0023635138436114271 0 0.0079806980787520583 -0.0028101512543483825 0 0.0075673666175097793 -0.0029814285435963142 0 0.0079806980787520583 -0.0028101512543483825 0 0.0075673666175097793 -0.0029814285435963142 0 0.0081865168103436876 -0.0035705204545357335 0 0.0085593067666666859 -0.0032398039246832452 0 0.0079806980787520583 -0.0028101512543483825 0 0.0081865168103436876 -0.0035705204545357335 0 0.0086521608294489565 -0.0037826122632764977 0 0.0080543920964832646 -0.0034183608202466294 0 0.0075673666175097793 -0.0029814285435963142 0 0.0074354735738542121 -0.0035674278786996349 0 0.0068248077632885162 -0.002547581772774042 0 0.0075673666175097793 -0.0029814285435963142 0 0.0074354735738542121 -0.0035674278786996349 0 0.0081865168103436876 -0.0035705204545357335 0 0.0098546075284664039 -0.0043029374341460721 0 0.0098964810448399654 -0.0031908624079667854 0 0.0094482671826017928 -0.0039746425008862704 0 0.0074354735738542121 -0.0035674278786996349 0 0.0081865168103436876 -0.0035705204545357335 0 0.0081862265186043032 -0.0043990179450238889 0 0.0086521608294489565 -0.0037826122632764977 0 0.0089377110867912037 -0.004667170779354397 0 0.0088013794931004613 -0.0043945517551698182 0 0.0081865168103436876 -0.0035705204545357335 0 0.0081862265186043032 -0.0043990179450238889 0 0.0098546075284664039 -0.0043029374341460721 0 0.0096713175287986997 -0.0050145568749693512 0 0.0094529137225753835 -0.0048814576011145579 0 0.010096958654550368 -0.0039917711048577586 0 0.0098556296510008586 -0.0036502109156911896 0 0.0097909341986475319 -0.0039381049917098379 0 0.010096958654550368 -0.0039917711048577586 0 0.0098556296510008586 -0.0036502109156911896 0 0.0099650238793572935 -0.0033974162277320545 0 0.0097752128386201786 -0.0044316568732709373 0 0.0097221262082685441 -0.0036899470027330597 0 0.0098546075284664039 -0.0043029374341460721 0 0.0094529137225753835 -0.0048814576011145579 0 0.0094482671826017928 -0.0039746425008862704 0 0.0098556296510008586 -0.0036502109156911896 0 0.0095998827568555614 -0.0036884758159255017 0 0.0096520148484422388 -0.0031077419081572415 0 0.0098556296510008586 -0.0036502109156911896 0 0.0095998827568555614 -0.0036884758159255017 0 0.0097909341986475319 -0.0039381049917098379 0 0.0095998827568555614 -0.0036884758159255017 0 0.0094579771006342885 -0.0043027910642434702 0 0.0096747370839955025 -0.0042197758149980936 0 0.010096958654550368 -0.0039917711048577586 0 0.0097909341986475319 -0.0039381049917098379 0 0.0096747370839955025 -0.0042197758149980936 0 0.0095998827568555614 -0.0036884758159255017 0 0.0097909341986475319 -0.0039381049917098379 0 0.0096747370839955025 -0.0042197758149980936 0 0.015517051118886837 0.0042277818601468139 0 0.015575532366075501 0.004401971899307835 0 0.015312033171710688 0.0045018474356863592 0 0.015471507248235719 0.0044333075118519662 0 0.013297350094262259 0.00068978413191728497 0 0.015886873547291885 0.0039664940398521841 0 0.015666409301687854 0.0037840775601797262 0 0.015745571894053324 0.0034455832414567503 0 0.012584463643511529 -0.00011708753558443395 0 0.013297350094262259 0.00068978413191728497 0 0.015517051118886837 0.0042277818601468139 0 0.015812499671475227 0.0042073893298924759 0 0.015575532366075501 0.004401971899307835 0 0.015812499671475227 0.0042073893298924759 0 0.015575532366075501 0.004401971899307835 0 0.015877593560392075 0.0045314438638007293 0 0.015812499671475227 0.0042073893298924759 0 0.015695833712408232 0.0040649151265114321 0 0.016111195352917877 0.0038383514034716578 0 0.015517051118886837 0.0042277818601468139 0 0.015812499671475227 0.0042073893298924759 0 0.015695833712408232 0.0040649151265114321 0 0.015695833712408232 0.0040649151265114321 0 0.015734657469647462 0.0041183126117885216 0 0.016111195352917877 0.0038383514034716578 0 0.015471507248235719 0.0044333075118519662 0 0.015703669465117753 0.0039098443576361394 0 0.015666409301687854 0.0037840775601797262 0 0.015756747125870631 0.0039678042999484534 0 0.015695833712408232 0.0040649151265114321 0 0.015886873547291885 0.0039664940398521841 0 0.015666409301687854 0.0037840775601797262 0 0.015756747125870631 0.0039678042999484534 0 0.015756747125870631 0.0039678042999484534 0 0.015695833712408232 0.0040649151265114321 0 0.015760727151072521 0.0040966952260981619 0 0.015886873547291885 0.0039664940398521841 0 0.015756747125870631 0.0039678042999484534 0 0.015760727151072521 0.0040966952260981619 0 0.015886873547291885 0.0039664940398521841 0 0.015760727151072521 0.0040966952260981619 0 0.015801198398198282 0.0041820770977486019 0 0.015760727151072521 0.0040966952260981619 0 0.015780443326888018 0.0042126558830415332 0 0.015801198398198282 0.0041820770977486019 0 0.015760727151072521 0.0040966952260981619 0 0.015780443326888018 0.0042126558830415332 0 0.015734657469647462 0.0041183126117885216 0 0.015695833712408232 0.0040649151265114321 0 0.015760727151072521 0.0040966952260981619 0 0.015734657469647462 0.0041183126117885216 0 0.015780443326888018 0.0042126558830415332 0 0.015801198398198282 0.0041820770977486019 0 0.015795197570321568 0.0042463441038885887 0 0.015734657469647462 0.0041183126117885216 0 0.015795549570891847 0.0042360099759713365 0 0.015827249577062035 0.004269136853898352 0 0.015779679059054159 0.0041104887857597999 0 0.015997648474908619 0.0040963091486801717 0 0.015734657469647462 0.0041183126117885216 0 0.015839474059479986 0.0043321807582469615 0 0.015827249577062035 0.004269136853898352 0 0.015780443326888018 0.0042126558830415332 0 0.015734657469647462 0.0041183126117885216 0 0.015795549570891847 0.0042360099759713365 0 0.015780443326888018 0.0042126558830415332 0 0.015795549570891847 0.0042360099759713365 0 0.015811823701342681 0.0042738197400650022 0 0.015863879196681953 0.0043053147807408983 0 0.015834163525499104 0.0042885515703554224 0 0.015827249577062035 0.004269136853898352 0 0.015795549570891847 0.0042360099759713365 0 0.015834163525499104 0.0042885515703554224 0 0.015827249577062035 0.004269136853898352 0 0.015863879196681953 0.0043053147807408983 0 0.015834163525499104 0.0042885515703554224 0 0.01587270092744171 0.0043292849126667513 0 0.015811823701342681 0.0042738197400650022 0 0.015846573663730379 0.0043213869969483598 0 0.015807986269627292 0.004296383358570602 0 0.015834163525499104 0.0042885515703554224 0 0.015811823701342681 0.0042738197400650022 0 0.015846573663730379 0.0043213869969483598 0 0.015795549570891847 0.0042360099759713365 0 0.015834163525499104 0.0042885515703554224 0 0.015811823701342681 0.0042738197400650022 0 0.015843011776890504 0.0043457646068798955 0 0.015846573663730379 0.0043213869969483598 0 0.015910427317936213 0.0043815584692215616 0 0.015843011776890504 0.0043457646068798955 0 0.015846573663730379 0.0043213869969483598 0 0.015807986269627292 0.004296383358570602 0 0.015846573663730379 0.0043213869969483598 0 0.01587270092744171 0.0043292849126667513 0 0.015910427317936213 0.0043815584692215616 0 0.015834163525499104 0.0042885515703554224 0 0.015846573663730379 0.0043213869969483598 0 0.01587270092744171 0.0043292849126667513 0 0.01587270092744171 0.0043292849126667513 0 0.015907662491752798 0.0043498683352945853 0 0.015910427317936213 0.0043815584692215616 0 0.015863879196681953 0.0043053147807408983 0 0.01587270092744171 0.0043292849126667513 0 0.015907662491752798 0.0043498683352945853 0 0.015795197570321568 0.0042463441038885887 0 0.015807986269627292 0.004296383358570602 0 0.015784754293256875 0.0042863675450927159 0 0.015801198398198282 0.0041820770977486019 0 0.015795197570321568 0.0042463441038885887 0 0.015784754293256875 0.0042863675450927159 0 0.015780443326888018 0.0042126558830415332 0 0.015795197570321568 0.0042463441038885887 0 0.015807986269627292 0.004296383358570602 0 0.015780443326888018 0.0042126558830415332 0 0.015811823701342681 0.0042738197400650022 0 0.015807986269627292 0.004296383358570602 0 0.015843011776890504 0.0043457646068798955 0 0.015807986269627292 0.004296383358570602 0 0.015796175350869711 0.0043429449203192024 0 0.015807986269627292 0.004296383358570602 0 0.015784754293256875 0.0042863675450927159 0 0.015796175350869711 0.0043429449203192024 0 0.015784754293256875 0.0042863675450927159 0 0.015750346818776243 0.0042958056624377303 0 0.015694721229776033 0.004341670202894941 0 0.015801198398198282 0.0041820770977486019 0 0.015784754293256875 0.0042863675450927159 0 0.015816588557428207 0.0042391391876761735 0 0.015784754293256875 0.0042863675450927159 0 0.015816588557428207 0.0042391391876761735 0 0.015750346818776243 0.0042958056624377303 0 0.015816588557428207 0.0042391391876761735 0 0.015750346818776243 0.0042958056624377303 0 0.015718942687716248 0.0043229873291811861 0 0.012899350477449459 0.00056935704114819817 0 0.011695261293105172 0.0013530711321474904 0 0.0096520148484422388 -0.0031077419081572415 0 0.0097751287842858803 -0.0028286195975274248 0 0.0099650238793572935 -0.0033974162277320545 0 0.0097751287842858803 -0.0028286195975274248 0 0.0098964810448399654 -0.0031908624079667854 0 0.0094482671826017928 -0.0039746425008862704 0 0.0097751287842858803 -0.0028286195975274248 0 0.0098964810448399654 -0.0031908624079667854 0 0.0097376277831838758 -0.0023938382339197175 0 0.0096520148484422388 -0.0031077419081572415 0 0.0097751287842858803 -0.0028286195975274248 0 0.0097376277831838758 -0.0023938382339197175 0 0.0097566788112357378 -0.0029113259945662386 0 0.0097221262082685441 -0.0036899470027330597 0 0.0098556296510008586 -0.0036502109156911896 0 0.0096520148484422388 -0.0031077419081572415 0 0.0099650238793572935 -0.0033974162277320545 0 0.012584463643511529 -0.00011708753558443395 0 0.012899350477449459 0.00056935704114819817 0 0.015886873547291885 0.0039664940398521841 0 0.015801198398198282 0.0041820770977486019 0 0.015816588557428207 0.0042391391876761735 0 0.016314641591781892 0.0045562673467430901 0 0.016203817295568419 0.0045321529615643119 0 0.016098350359587402 0.0043473487906386154 0 0.017854171690149231 0.0047065901792627939 0 0.017165736694292808 0.0043894679271603522 0 0.018765528347384878 0.004945112640583422 0 0.018698510433089267 0.0047139148733028073 0 0.018396841080914335 0.0046200020916039621 0 0.017854171690149231 0.0047065901792627939 0 0.017038397995673644 0.0043390320210859512 0 0.018376613089060058 0.0045718019068019125 0 0.017909774490410219 0.0040761655653466207 0 0.017806992442735484 0.0045830440616955849 0 0.017909774490410219 0.0040761655653466207 0 0.017806992442735484 0.0045830440616955849 0 0.017457711747966752 0.0042462826385234118 0 0.017909774490410219 0.0040761655653466207 0 0.017457711747966752 0.0042462826385234118 0 0.016927366181056881 0.0038522593294888991 0 0.017457711747966752 0.0042462826385234118 0 0.017213669821190668 0.0044975737115420852 0 0.016927366181056881 0.0038522593294888991 0 0.017806992442735484 0.0045830440616955849 0 0.017457711747966752 0.0042462826385234118 0 0.017213669821190668 0.0044975737115420852 0 0.015953041259535665 0.0044349527090987318 0 0.015965823786949003 0.004330235797020454 0 0.016098350359587402 0.0043473487906386154 0 0.017038397995673644 0.0043390320210859512 0 0.016453333531915755 0.0041483533520532204 0 0.016203817295568419 0.0045321529615643119 0 0.015953041259535665 0.0044349527090987318 0 0.016098350359587402 0.0043473487906386154 0 0.016927366181056881 0.0038522593294888991 0 0.016454826593152318 0.0043589295624460178 0 0.016111195352917877 0.0038383514034716578 0 0.015953041259535665 0.0044349527090987318 0 0.015839474059479986 0.0043321807582469615 0 0.015895439632003631 0.0043120856949742459 0 0.016453333531915755 0.0041483533520532204 0 0.015997648474908619 0.0040963091486801717 0 0.017213669821190668 0.0044975737115420852 0 0.016927366181056881 0.0038522593294888991 0 0.016454826593152318 0.0043589295624460178 0 0.015812499671475227 0.0042073893298924759 0 0.016454826593152318 0.0043589295624460178 0 0.016111195352917877 0.0038383514034716578 0 0.015812499671475227 0.0042073893298924759 0 0.016454826593152318 0.0043589295624460178 0 0.015877593560392075 0.0045314438638007293 0 0.015839474059479986 0.0043321807582469615 0 0.015827249577062035 0.004269136853898352 0 0.015864083028117273 0.0042866745458749276 0 0.015827249577062035 0.004269136853898352 0 0.015873833924141365 0.0043051748399052479 0 0.015864083028117273 0.0042866745458749276 0 0.015863879196681953 0.0043053147807408983 0 0.015827249577062035 0.004269136853898352 0 0.015873833924141365 0.0043051748399052479 0 0.015863879196681953 0.0043053147807408983 0 0.015873833924141365 0.0043051748399052479 0 0.015907662491752798 0.0043498683352945853 0 0.015873833924141365 0.0043051748399052479 0 0.015920593362163286 0.0043612181830977445 0 0.015907662491752798 0.0043498683352945853 0 0.015872744837868883 0.0043091602696799843 0 0.01582657348927612 0.0043371712160714939 0 0.01590189677359137 0.0043571643336486757 0 0.015920593362163286 0.0043612181830977445 0 0.015872744837868883 0.0043091602696799843 0 0.01590189677359137 0.0043571643336486757 0 0.015873833924141365 0.0043051748399052479 0 0.015920593362163286 0.0043612181830977445 0 0.015872744837868883 0.0043091602696799843 0 0.015873833924141365 0.0043051748399052479 0 0.015872744837868883 0.0043091602696799843 0 0.015864083028117273 0.0042866745458749276 0 0.015872744837868883 0.0043091602696799843 0 0.015864083028117273 0.0042866745458749276 0 0.015867600881157174 0.0042907899378768193 0 0.017231130324967359 0.005327500349883778 0 0.016999275107821111 0.0049322238354766092 0 0.01677275857680275 0.0050907189249402313 0 0.015864083028117273 0.0042866745458749276 0 0.015867600881157174 0.0042907899378768193 0 0.015895439632003631 0.0043120856949742459 0 0.015872744837868883 0.0043091602696799843 0 0.015867600881157174 0.0042907899378768193 0 0.01582657348927612 0.0043371712160714939 0 0.015867600881157174 0.0042907899378768193 0 0.015918314042600263 0.00426776536679773 0 0.01582657348927612 0.0043371712160714939 0 0.017016859343521089 0.0047191855946801904 0 0.016762091876930427 0.0050640724155046083 0 0.01694490842170648 0.005328797554277941 0 0.016535093706839175 0.0050327763452770327 0 0.016642005217656131 0.0050081892572760934 0 0.017016859343521089 0.0047191855946801904 0 0.016141137439226245 0.0046349362079970979 0 0.015867600881157174 0.0042907899378768193 0 0.015895439632003631 0.0043120856949742459 0 0.015918314042600263 0.00426776536679773 0 0.015839474059479986 0.0043321807582469615 0 0.015864083028117273 0.0042866745458749276 0 0.015895439632003631 0.0043120856949742459 0 0.015953041259535665 0.0044349527090987318 0 0.015895439632003631 0.0043120856949742459 0 0.015965823786949003 0.004330235797020454 0 0.015895439632003631 0.0043120856949742459 0 0.015965823786949003 0.004330235797020454 0 0.015918314042600263 0.00426776536679773 0 0.015965823786949003 0.004330235797020454 0 0.015918314042600263 0.00426776536679773 0 0.016098350359587402 0.0043473487906386154 0 0.017016859343521089 0.0047191855946801904 0 0.017165736694292808 0.0043894679271603522 0 0.017966899865460573 0.0042185901891989468 0 0.018396841080914335 0.0046200020916039621 0 0.018358513005557835 0.004473475240332531 0 0.017016859343521089 0.0047191855946801904 0 0.018185156786667576 0.0049716602394988705 0 0.017231130324967359 0.005327500349883778 0 0.017649761270898928 0.0052187397243082211 0 0.017365211053379122 0.0049508605745215714 0 0.017231130324967359 0.005327500349883778 0 0.017649761270898928 0.0052187397243082211 0 0.017878121312737145 0.005422779405760538 0 0.017649761270898928 0.0052187397243082211 0 0.017749090099355477 0.0050687730218263007 0 0.017365211053379122 0.0049508605745215714 0 0.017649761270898928 0.0052187397243082211 0 0.018050368319509211 0.0051853605093504038 0 0.017878121312737145 0.005422779405760538 0 0.017649761270898928 0.0052187397243082211 0 0.017749090099355477 0.0050687730218263007 0 0.018050368319509211 0.0051853605093504038 0 0.01812625934380372 0.0050261818041596679 0 0.017749090099355477 0.0050687730218263007 0 0.018050368319509211 0.0051853605093504038 0 0.018484670193145553 0.0053084109527717152 0 0.018296544109392528 0.0052616568812499185 0 0.017878121312737145 0.005422779405760538 0 0.018698510433089267 0.0047139148733028073 0 0.018396841080914335 0.0046200020916039621 0 0.018358513005557835 0.004473475240332531 0 0.018548544516555469 0.0049723692989267106 0 0.018185156786667576 0.0049716602394988705 0 0.018050368319509211 0.0051853605093504038 0 0.018296544109392528 0.0052616568812499185 0 0.017878121312737145 0.005422779405760538 0 0.017634647304893662 0.0048354505733673473 0 0.017246400061456276 0.0046760304584846099 0 0.017400049149007397 0.0046088297850539733 0 0.017874811473193083 0.0046653181546214579 0 0.017634647304893662 0.0048354505733673473 0 0.017400049149007397 0.0046088297850539733 0 0.017749090099355477 0.0050687730218263007 0 0.017634647304893662 0.0048354505733673473 0 0.017365211053379122 0.0049508605745215714 0 0.01812625934380372 0.0050261818041596679 0 0.017749090099355477 0.0050687730218263007 0 0.017634647304893662 0.0048354505733673473 0 0.01812625934380372 0.0050261818041596679 0 0.018189124989056674 0.0048744532974715144 0 0.017634647304893662 0.0048354505733673473 0 0.017231130324967359 0.005327500349883778 0 0.017365211053379122 0.0049508605745215714 0 0.016999275107821111 0.0049322238354766092 0 0.017634647304893662 0.0048354505733673473 0 0.017365211053379122 0.0049508605745215714 0 0.017246400061456276 0.0046760304584846099 0 0.017365211053379122 0.0049508605745215714 0 0.016956612407563063 0.0046553271661762255 0 0.016999275107821111 0.0049322238354766092 0 0.016956612407563063 0.0046553271661762255 0 0.017246400061456276 0.0046760304584846099 0 0.016924608644875244 0.0045041691519327395 0 0.016956612407563063 0.0046553271661762255 0 0.016712493514628782 0.0044853633835895482 0 0.016924608644875244 0.0045041691519327395 0 0.017365211053379122 0.0049508605745215714 0 0.016956612407563063 0.0046553271661762255 0 0.017246400061456276 0.0046760304584846099 0 0.017246400061456276 0.0046760304584846099 0 0.016924608644875244 0.0045041691519327395 0 0.017400049149007397 0.0046088297850539733 0 0.016956612407563063 0.0046553271661762255 0 0.016712493514628782 0.0044853633835895482 0 0.016559579266348785 0.0045211061932014596 0 0.016712493514628782 0.0044853633835895482 0 0.016559579266348785 0.0045211061932014596 0 0.01645819337082597 0.004360584786050851 0 0.016559579266348785 0.0045211061932014596 0 0.016729408626967385 0.0047206154425419771 0 0.016318400085317705 0.0046130436902840554 0 0.016956612407563063 0.0046553271661762255 0 0.016559579266348785 0.0045211061932014596 0 0.016729408626967385 0.0047206154425419771 0 0.016956612407563063 0.0046553271661762255 0 0.016999275107821111 0.0049322238354766092 0 0.016729408626967385 0.0047206154425419771 0 0.016999275107821111 0.0049322238354766092 0 0.016710743284377407 0.004842152867529351 0 0.016729408626967385 0.0047206154425419771 0 0.016999275107821111 0.0049322238354766092 0 0.01677275857680275 0.0050907189249402313 0 0.016710743284377407 0.004842152867529351 0 0.016535093706839175 0.0050327763452770327 0 0.016642005217656131 0.0050081892572760934 0 0.016318400085317705 0.0046130436902840554 0 0.01677275857680275 0.0050907189249402313 0 0.016710743284377407 0.004842152867529351 0 0.016318400085317705 0.0046130436902840554 0 0.016710743284377407 0.004842152867529351 0 0.016729408626967385 0.0047206154425419771 0 0.016318400085317705 0.0046130436902840554 0 0.016762091876930427 0.0050640724155046083 0 0.016362699089883873 0.0046545241664874178 0 0.016535093706839175 0.0050327763452770327 0 0.016318400085317705 0.0046130436902840554 0 0.016062265918989092 0.0045614401274934636 0 0.016141137439226245 0.0046349362079970979 0 0.016095488057067658 0.0045975061919220116 0 0.01582657348927612 0.0043371712160714939 0 0.015958966046393068 0.0044194081288639712 0 0.016062265918989092 0.0045614401274934636 0 0.01582657348927612 0.0043371712160714939 0 0.015958966046393068 0.0044194081288639712 0 0.01590189677359137 0.0043571643336486757 0 0.015920593362163286 0.0043612181830977445 0 0.015958966046393068 0.0044194081288639712 0 0.01590189677359137 0.0043571643336486757 0 0.015920593362163286 0.0043612181830977445 0 0.015907662491752798 0.0043498683352945853 0 0.015978584500349013 0.0044314855964506152 0 0.015920593362163286 0.0043612181830977445 0 0.015958966046393068 0.0044194081288639712 0 0.015978584500349013 0.0044314855964506152 0 0.015958966046393068 0.0044194081288639712 0 0.015978584500349013 0.0044314855964506152 0 0.016062265918989092 0.0045614401274934636 0 0.015978584500349013 0.0044314855964506152 0 0.016062265918989092 0.0045614401274934636 0 0.015957577282297235 0.0044261745683555793 0 0.016318400085317705 0.0046130436902840554 0 0.016062265918989092 0.0045614401274934636 0 0.016203630894635515 0.004404316756375432 0 0.016062265918989092 0.0045614401274934636 0 0.016203630894635515 0.004404316756375432 0 0.016040924283622769 0.0044321930214826742 0 0.016559579266348785 0.0045211061932014596 0 0.016318400085317705 0.0046130436902840554 0 0.016203630894635515 0.004404316756375432 0 0.016559579266348785 0.0045211061932014596 0 0.016203630894635515 0.004404316756375432 0 0.01645819337082597 0.004360584786050851 0 0.016203630894635515 0.004404316756375432 0 0.016108030842813332 0.0042366577933325954 0 0.01645819337082597 0.004360584786050851 0 0.016405170542059196 0.0043198600105029206 0 0.016410215378937932 0.0042051680012972605 0 0.01645819337082597 0.004360584786050851 0 0.016442536002226109 0.004442668712145219 0 0.016405295668146511 0.0044467522070775313 0 0.016108030842813332 0.0042366577933325954 0 0.01645819337082597 0.004360584786050851 0 0.016127729476911868 0.0039193717796881973 0 0.016442536002226109 0.004442668712145219 0 0.016392672375792793 0.0045540177151214521 0 0.0163160576420542 0.004523956548781979 0 0.016392672375792793 0.0045540177151214521 0 0.0163160576420542 0.004523956548781979 0 0.016253079794008203 0.0046650694544441481 0 0.016442536002226109 0.004442668712145219 0 0.0163160576420542 0.004523956548781979 0 0.016405295668146511 0.0044467522070775313 0 0.0163160576420542 0.004523956548781979 0 0.016405295668146511 0.0044467522070775313 0 0.016377703414332284 0.0044788633701985745 0 0.016405295668146511 0.0044467522070775313 0 0.016377703414332284 0.0044788633701985745 0 0.016574680927981748 0.004443179365298212 0 0.0163160576420542 0.004523956548781979 0 0.016377703414332284 0.0044788633701985745 0 0.01622948628747159 0.004577083640519208 0 0.016377703414332284 0.0044788633701985745 0 0.016461321360274384 0.0044595126818834895 0 0.01622948628747159 0.004577083640519208 0 0.016377703414332284 0.0044788633701985745 0 0.016461321360274384 0.0044595126818834895 0 0.016574680927981748 0.004443179365298212 0 0.016712493514628782 0.0044853633835895482 0 0.01645819337082597 0.004360584786050851 0 0.016574680927981748 0.004443179365298212 0 0.016712493514628782 0.0044853633835895482 0 0.016574680927981748 0.004443179365298212 0 0.016924608644875244 0.0045041691519327395 0 0.01645819337082597 0.004360584786050851 0 0.016405295668146511 0.0044467522070775313 0 0.016574680927981748 0.004443179365298212 0 0.016924608644875244 0.0045041691519327395 0 0.016842354524611098 0.0044174223834149151 0 0.017321963316257433 0.0044698610444771454 0 0.016924608644875244 0.0045041691519327395 0 0.017321963316257433 0.0044698610444771454 0 0.017400049149007397 0.0046088297850539733 0 0.016574680927981748 0.004443179365298212 0 0.016924608644875244 0.0045041691519327395 0 0.016842354524611098 0.0044174223834149151 0 0.016842354524611098 0.0044174223834149151 0 0.017356587953956761 0.0042779769998868714 0 0.016664851319642043 0.0042544683798351659 0 0.016461321360274384 0.0044595126818834895 0 0.016574680927981748 0.004443179365298212 0 0.016842354524611098 0.0044174223834149151 0 0.016461321360274384 0.0044595126818834895 0 0.016842354524611098 0.0044174223834149151 0 0.016664851319642043 0.0042544683798351659 0 0.017970790784886614 0.0044108582727081505 0 0.017356587953956761 0.0042779769998868714 0 0.017321963316257433 0.0044698610444771454 0 0.016842354524611098 0.0044174223834149151 0 0.017356587953956761 0.0042779769998868714 0 0.017321963316257433 0.0044698610444771454 0 0.017874811473193083 0.0046653181546214579 0 0.017321963316257433 0.0044698610444771454 0 0.017400049149007397 0.0046088297850539733 0 0.015600664394744763 0.0042000084192782413 0 0.015751511222029405 0.0041636361873797966 0 0.015484159041272233 0.0040348426061275972 0 0.015600664394744763 0.0042000084192782413 0 0.015395748513852295 0.0042126279224077691 0 0.015484159041272233 0.0040348426061275972 0 0.015570319213202342 0.0042729403259712936 0 0.015600664394744763 0.0042000084192782413 0 0.015395748513852295 0.0042126279224077691 0 0.015570319213202342 0.0042729403259712936 0 0.015600664394744763 0.0042000084192782413 0 0.015748183250593947 0.0043089901041347906 0 0.015395748513852295 0.0042126279224077691 0 0.015484159041272233 0.0040348426061275972 0 0.015209149486989353 0.0040663337167336118 0 0.0096282389455641104 0.00064792368235777002 0 0.010829086111491724 0.0024263524355291536 0 0.015395748513852295 0.0042126279224077691 0 0.015341113089437024 0.0042875944007893336 0 0.015209149486989353 0.0040663337167336118 0 0.015570319213202342 0.0042729403259712936 0 0.015395748513852295 0.0042126279224077691 0 0.015364372417856167 0.0043364010822625164 0 0.015395748513852295 0.0042126279224077691 0 0.015343837717633183 0.0043043796208832473 0 0.015341113089437024 0.0042875944007893336 0 0.013417206884640246 0.0036635636218431212 0 0.011695261293105172 0.0013530711321474904 0 0.0069523750172952366 -0.0019904057915927161 0 0.0068248077632885162 -0.002547581772774042 0 0.0064697808107774066 -0.0015151974139073674 0 0.0080543920964832646 -0.0034183608202466294 0 0.011695261293105172 0.0013530711321474904 0 0.011695261293105172 0.0013530711321474904 0 0.0096282389455641104 0.00064792368235777002 0 0.0068424857238952464 -0.0016184305141039718 0 0.0064697808107774066 -0.0015151974139073674 0 0.0064986560114780089 -0.0014573505646022146 0 0.0069523750172952366 -0.0019904057915927161 0 0.0068424857238952464 -0.0016184305141039718 0 0.0064697808107774066 -0.0015151974139073674 0 0.015784754293256875 0.0042863675450927159 0 0.015694721229776033 0.004341670202894941 0 0.015796175350869711 0.0043429449203192024 0 0.015750346818776243 0.0042958056624377303 0 0.015718942687716248 0.0043229873291811861 0 0.015694721229776033 0.004341670202894941 0 0.015570319213202342 0.0042729403259712936 0 0.015364372417856167 0.0043364010822625164 0 0.015694721229776033 0.004341670202894941 0 0.011695261293105172 0.0013530711321474904 0 0.017048633030251104 0.0046970961881561222 0 0.015570319213202342 0.0042729403259712936 0 0.015694721229776033 0.004341670202894941 0 0.015748183250593947 0.0043089901041347906 0 0.015843011776890504 0.0043457646068798955 0 0.015796175350869711 0.0043429449203192024 0 0.015858449729968738 0.0043673618776286435 0 0.015796175350869711 0.0043429449203192024 0 0.015858449729968738 0.0043673618776286435 0 0.015748183250593947 0.0043089901041347906 0 0.015858449729968738 0.0043673618776286435 0 0.01586516467657903 0.0043460827272827534 0 0.015748183250593947 0.0043089901041347906 0 0.015694721229776033 0.004341670202894941 0 0.015796175350869711 0.0043429449203192024 0 0.015748183250593947 0.0043089901041347906 0 0.015907662491752798 0.0043498683352945853 0 0.015978584500349013 0.0044314855964506152 0 0.015910427317936213 0.0043815584692215616 0 0.015978584500349013 0.0044314855964506152 0 0.015910427317936213 0.0043815584692215616 0 0.015957577282297235 0.0044261745683555793 0 0.015843011776890504 0.0043457646068798955 0 0.015858449729968738 0.0043673618776286435 0 0.015910427317936213 0.0043815584692215616 0 0.015858449729968738 0.0043673618776286435 0 0.015910427317936213 0.0043815584692215616 0 0.015957577282297235 0.0044261745683555793 0 0.015858449729968738 0.0043673618776286435 0 0.015957577282297235 0.0044261745683555793 0 0.01586516467657903 0.0043460827272827534 0 0.016062265918989092 0.0045614401274934636 0 0.015957577282297235 0.0044261745683555793 0 0.016040924283622769 0.0044321930214826742 0 0.015954613869817266 0.0043093321683167225 0 0.015751511222029405 0.0041636361873797966 0 0.015945380884927668 0.0041308433353311634 0 0.015957577282297235 0.0044261745683555793 0 0.016040924283622769 0.0044321930214826742 0 0.015954613869817266 0.0043093321683167225 0 0.016203630894635515 0.004404316756375432 0 0.016040924283622769 0.0044321930214826742 0 0.015954613869817266 0.0043093321683167225 0 0.015957577282297235 0.0044261745683555793 0 0.01586516467657903 0.0043460827272827534 0 0.015954613869817266 0.0043093321683167225 0 0.016203630894635515 0.004404316756375432 0 0.016108030842813332 0.0042366577933325954 0 0.015954613869817266 0.0043093321683167225 0 0.01586516467657903 0.0043460827272827534 0 0.015954613869817266 0.0043093321683167225 0 0.015751511222029405 0.0041636361873797966 0 0.01586516467657903 0.0043460827272827534 0 0.015748183250593947 0.0043089901041347906 0 0.015751511222029405 0.0041636361873797966 0 0.015600664394744763 0.0042000084192782413 0 0.015748183250593947 0.0043089901041347906 0 0.015751511222029405 0.0041636361873797966 0 0.015751511222029405 0.0041636361873797966 0 0.015850256980339192 0.0039663955213917685 0 0.015945380884927668 0.0041308433353311634 0 0.015751511222029405 0.0041636361873797966 0 0.015850256980339192 0.0039663955213917685 0 0.015642299569011319 0.0039484803501254172 0 0.016127729476911868 0.0039193717796881973 0 0.015850256980339192 0.0039663955213917685 0 0.015945380884927668 0.0041308433353311634 0 0.016108030842813332 0.0042366577933325954 0 0.015954613869817266 0.0043093321683167225 0 0.015945380884927668 0.0041308433353311634 0 0.016108030842813332 0.0042366577933325954 0 0.016127729476911868 0.0039193717796881973 0 0.015945380884927668 0.0041308433353311634 0 0.016410215378937932 0.0042051680012972605 0 0.015034777981042939 0.0046174417045632176 0 0.016442536002226109 0.004442668712145219 0 0.016392672375792793 0.0045540177151214521 0 0.016587655183803566 0.0046187579899222087 0 0.016127729476911868 0.0039193717796881973 0 0.015850256980339192 0.0039663955213917685 0 0.015903939773820708 0.0036825001752396249 0 0.014563893811172818 0.0045081832760464234 0 0.015034777981042939 0.0046174417045632176 0 0.015506366976228397 0.0037439650130983494 0 0.015642299569011319 0.0039484803501254172 0 0.015903939773820708 0.0036825001752396249 0 0.015850256980339192 0.0039663955213917685 0 0.015642299569011319 0.0039484803501254172 0 0.015903939773820708 0.0036825001752396249 0 0.015506366976228397 0.0037439650130983494 0 0.015484159041272233 0.0040348426061275972 0 0.015314918575978137 0.0039108001729919045 0 0.015506366976228397 0.0037439650130983494 0 0.015484159041272233 0.0040348426061275972 0 0.015642299569011319 0.0039484803501254172 0 0.015751511222029405 0.0041636361873797966 0 0.015484159041272233 0.0040348426061275972 0 0.015642299569011319 0.0039484803501254172 0 0.015484159041272233 0.0040348426061275972 0 0.015314918575978137 0.0039108001729919045 0 0.015209149486989353 0.0040663337167336118 0 0.015053930365396659 0.0037795103631564591 0 0.015314918575978137 0.0039108001729919045 0 0.015209149486989353 0.0040663337167336118 0 0.0087157129405524315 0.0066107392824954637 0 0.0090227947794656888 0.0064788616929433666 0 0.008690673210510598 0.0065050981413613453 0 0.0096145860656744551 0.0033821788929239822 0 0.010234826960880019 0.005914157525981025 0 0.0096145860656744551 0.0033821788929239822 0 0.014563893811172818 0.0045081832760464234 0 0.015053930365396659 0.0037795103631564591 0 0.015506366976228397 0.0037439650130983494 0 0.015314918575978137 0.0039108001729919045 0 0.010557882263797877 0.0053920840056264048 0 0.012311204803420584 0.0051324317233371625 0 0.011913229672593281 0.0046553270051812997 0 0.0090227947794656888 0.0064788616929433666 0 0.0088181360130711525 0.0063876364148692513 0 0.008690673210510598 0.0065050981413613453 0 0.0090227947794656888 0.0064788616929433666 0 0.0088181360130711525 0.0063876364148692513 0 0.0089442438066675515 0.0062595834771526125 0 0.0088181360130711525 0.0063876364148692513 0 0.0089442438066675515 0.0062595834771526125 0 0.0086933270184227432 0.0062821884876228546 0 0.0089442438066675515 0.0062595834771526125 0 0.0092518953224660291 0.0061769955912160468 0 0.0088640353121046019 0.0060481641978609993 0 0.0089442438066675515 0.0062595834771526125 0 0.0088640353121046019 0.0060481641978609993 0 0.0086933270184227432 0.0062821884876228546 0 0.0090227947794656888 0.0064788616929433666 0 0.0089442438066675515 0.0062595834771526125 0 0.0092518953224660291 0.0061769955912160468 0 0.0090227947794656888 0.0064788616929433666 0 0.0092518953224660291 0.0061769955912160468 0 0.0093740271694545442 0.0063007559215416519 0 0.012311204803420584 0.0051324317233371625 0 0.011913229672593281 0.0046553270051812997 0 0.013253906226957041 0.0038911008627173951 0 0.010234826960880019 0.005914157525981025 0 0.012030583947623567 0.0053135882863667681 0 0.012311204803420584 0.0051324317233371625 0 0.014025829368786069 0.004781314589744185 0 0.013253906226957041 0.0038911008627173951 0 0.014084688398604822 0.005689270608519331 0 0.01317968739715043 0.0046413952226258843 0 0.013513177550200085 0.0044467135858924185 0 0.015034777981042939 0.0046174417045632176 0 0.012030583947623567 0.0053135882863667681 0 0.012697325001141749 0.0054009923635488042 0 0.01572740534746353 0.005115947626442888 0 0.014084688398604822 0.005689270608519331 0 0.013513177550200085 0.0044467135858924185 0 0.015453362099773358 0.0053967601413273192 0 0.015034777981042939 0.0046174417045632176 0 0.01572740534746353 0.005115947626442888 0 0.016392672375792793 0.0045540177151214521 0 0.016587655183803566 0.0046187579899222087 0 0.016361505393399662 0.0046945558540691977 0 0.013989089800849926 0.0049311859765360424 0 0.012927909106379433 0.0054245584705158115 0 0.015189338018460221 0.0055502358549123351 0 0.012927909106379433 0.0054245584705158115 0 0.012591767479621265 0.005662640135630807 0 0.015189338018460221 0.0055502358549123351 0 0.013989089800849926 0.0049311859765360424 0 0.012927909106379433 0.0054245584705158115 0 0.012678583207111982 0.0049511767558953019 0 0.013989089800849926 0.0049311859765360424 0 0.014647181658535386 0.0039684889917070299 0 0.014889277489301696 0.0045786129746725121 0 0.011018262399188948 0.0060193295535728381 0 0.012030583947623567 0.0053135882863667681 0 0.01152884866982469 0.0054687251910285296 0 0.011870308894540389 0.0058618300674120327 0 0.0120836097815411 0.0057372409315658611 0 0.011018262399188948 0.0060193295535728381 0 0.012697325001141749 0.0054009923635488042 0 0.012030583947623567 0.0053135882863667681 0 0.012697325001141749 0.0054009923635488042 0 0.012740035328593665 0.0054081079658969073 0 0.012697325001141749 0.0054009923635488042 0 0.012927909106379433 0.0054245584705158115 0 0.012559573529056185 0.0056331642382970839 0 0.012360525391184712 0.0053438164382759393 0 0.012927909106379433 0.0054245584705158115 0 0.012360525391184712 0.0053438164382759393 0 0.012678583207111982 0.0049511767558953019 0 0.012057628303687069 0.0055118006027267902 0 0.012559573529056185 0.0056331642382970839 0 0.012360525391184712 0.0053438164382759393 0 0.012057628303687069 0.0055118006027267902 0 0.012360525391184712 0.0053438164382759393 0 0.011964235504117739 0.0056721387440297755 0 0.011964235504117739 0.0056721387440297755 0 0.012678583207111982 0.0049511767558953019 0 0.011537649741316344 0.0063092346283264615 0 0.012360525391184712 0.0053438164382759393 0 0.011964235504117739 0.0056721387440297755 0 0.012678583207111982 0.0049511767558953019 0 0.012654147962198412 0.0051091221998110442 0 0.012745958048703092 0.0049705698645823521 0 0.012678583207111982 0.0049511767558953019 0 0.014647181658535386 0.0039684889917070299 0 0.014711886241823706 0.0030617883899223034 0 0.013989089800849926 0.0049311859765360424 0 0.012678583207111982 0.0049511767558953019 0 0.014647181658535386 0.0039684889917070299 0 0.014647181658535386 0.0039684889917070299 0 0.014711886241823706 0.0030617883899223034 0 0.01534983374290118 0.0033387273073204383 0 0.012678583207111982 0.0049511767558953019 0 0.010760341120908797 0.0066407254143055327 0 0.011537649741316344 0.0063092346283264615 0 0.010760341120908797 0.0066407254143055327 0 0.011537649741316344 0.0063092346283264615 0 0.010962644139193905 0.0072364172853871039 0 0.011649962010342208 0.006421165219054884 0 0.011471392450700085 0.007021929448706216 0 0.011393326241800398 0.0069474408933111586 0 0.011537649741316344 0.0063092346283264615 0 0.011649962010342208 0.006421165219054884 0 0.011393326241800398 0.0069474408933111586 0 0.011471392450700085 0.007021929448706216 0 0.011411547844359158 0.0071062091365049112 0 0.01135238399806868 0.0071609163414052962 0 0.011649962010342208 0.006421165219054884 0 0.011471392450700085 0.007021929448706216 0 0.01184073074037822 0.0060942626199033583 0 0.011472321643684261 0.0068434574010312922 0 0.011683514945247555 0.0066614181888098338 0 0.011471392450700085 0.007021929448706216 0 0.011411547844359158 0.0071062091365049112 0 0.011429706722542708 0.0070886933452201017 0 0.011018262399188948 0.0060193295535728381 0 0.010503916708666195 0.0063044226970055163 0 0.011431727121361262 0.0070639455189743603 0 0.011411547844359158 0.0071062091365049112 0 0.011429706722542708 0.0070886933452201017 0 0.012057628303687069 0.0055118006027267902 0 0.011964235504117739 0.0056721387440297755 0 0.01184073074037822 0.0060942626199033583 0 0.011018262399188948 0.0060193295535728381 0 0.011683514945247555 0.0066614181888098338 0 0.011964235504117739 0.0056721387440297755 0 0.011649962010342208 0.006421165219054884 0 0.01184073074037822 0.0060942626199033583 0 0.011964235504117739 0.0056721387440297755 0 0.011537649741316344 0.0063092346283264615 0 0.011649962010342208 0.006421165219054884 0 0.017467063576700206 0.0033948686784102925 0 0.016828729714286807 0.0036580084493699153 0 0.017195360601105995 0.0039988175707484711 0 0.017356587953956761 0.0042779769998868714 0 0.017195360601105995 0.0039988175707484711 0 0.016664851319642043 0.0042544683798351659 0 0.016828729714286807 0.0036580084493699153 0 0.017195360601105995 0.0039988175707484711 0 0.016664851319642043 0.0042544683798351659 0 0.016461321360274384 0.0044595126818834895 0 0.016664851319642043 0.0042544683798351659 0 0.016291652064786076 0.0045205796627205792 0 0.016664851319642043 0.0042544683798351659 0 0.016384202490137278 0.004023960453549193 0 0.016210986160630977 0.0044337495277584947 0 0.016828729714286807 0.0036580084493699153 0 0.016664851319642043 0.0042544683798351659 0 0.016384202490137278 0.004023960453549193 0 0.016828729714286807 0.0036580084493699153 0 0.016384202490137278 0.004023960453549193 0 0.016193438077492364 0.0033681798176152561 0 0.016384202490137278 0.004023960453549193 0 0.015866706674158185 0.0042778542358825186 0 0.016193438077492364 0.0033681798176152561 0 0.015866706674158185 0.0042778542358825186 0 0.016210986160630977 0.0044337495277584947 0 0.015920249071233045 0.0046740120717238976 0 0.015866706674158185 0.0042778542358825186 0 0.015920249071233045 0.0046740120717238976 0 0.0154996815600222 0.0047821357261107842 0 0.016384202490137278 0.004023960453549193 0 0.015866706674158185 0.0042778542358825186 0 0.016210986160630977 0.0044337495277584947 0 0.016664851319642043 0.0042544683798351659 0 0.016210986160630977 0.0044337495277584947 0 0.016291652064786076 0.0045205796627205792 0 0.016210986160630977 0.0044337495277584947 0 0.016291652064786076 0.0045205796627205792 0 0.016093471881444041 0.0047014489440797775 0 0.016461321360274384 0.0044595126818834895 0 0.016291652064786076 0.0045205796627205792 0 0.01622948628747159 0.004577083640519208 0 0.0163160576420542 0.004523956548781979 0 0.016140322413546192 0.0046685962897534952 0 0.01622948628747159 0.004577083640519208 0 0.016291652064786076 0.0045205796627205792 0 0.01622948628747159 0.004577083640519208 0 0.016093471881444041 0.0047014489440797775 0 0.016140322413546192 0.0046685962897534952 0 0.01622948628747159 0.004577083640519208 0 0.016093471881444041 0.0047014489440797775 0 0.016140322413546192 0.0046685962897534952 0 0.016093471881444041 0.0047014489440797775 0 0.015945798953506448 0.0050069802981987854 0 0.016210986160630977 0.0044337495277584947 0 0.016093471881444041 0.0047014489440797775 0 0.015920249071233045 0.0046740120717238976 0 0.016093471881444041 0.0047014489440797775 0 0.015920249071233045 0.0046740120717238976 0 0.015945798953506448 0.0050069802981987854 0 0.015920249071233045 0.0046740120717238976 0 0.015945798953506448 0.0050069802981987854 0 0.0154996815600222 0.0047821357261107842 0 0.015945798953506448 0.0050069802981987854 0 0.015189338018460221 0.0055502358549123351 0 0.0154996815600222 0.0047821357261107842 0 0.016140322413546192 0.0046685962897534952 0 0.015945798953506448 0.0050069802981987854 0 0.016253079794008203 0.0046650694544441481 0 0.015945798953506448 0.0050069802981987854 0 0.016253079794008203 0.0046650694544441481 0 0.016737448447418875 0.0049083756378698858 0 0.015893848644673757 0.0050862499632837515 0 0.01572740534746353 0.005115947626442888 0 0.016058140637331027 0.005070787354139703 0 0.01572740534746353 0.005115947626442888 0 0.0163160576420542 0.004523956548781979 0 0.016140322413546192 0.0046685962897534952 0 0.016253079794008203 0.0046650694544441481 0 0.016392672375792793 0.0045540177151214521 0 0.016253079794008203 0.0046650694544441481 0 0.016361505393399662 0.0046945558540691977 0 0.015189338018460221 0.0055502358549123351 0 0.0154996815600222 0.0047821357261107842 0 0.014889277489301696 0.0045786129746725121 0 0.015866706674158185 0.0042778542358825186 0 0.014889277489301696 0.0045786129746725121 0 0.015563912514682452 0.0037046105501360926 0 0.015866706674158185 0.0042778542358825186 0 0.0154996815600222 0.0047821357261107842 0 0.014889277489301696 0.0045786129746725121 0 0.013989089800849926 0.0049311859765360424 0 0.015189338018460221 0.0055502358549123351 0 0.014889277489301696 0.0045786129746725121 0 0.014647181658535386 0.0039684889917070299 0 0.014889277489301696 0.0045786129746725121 0 0.015563912514682452 0.0037046105501360926 0 0.014647181658535386 0.0039684889917070299 0 0.015563912514682452 0.0037046105501360926 0 0.01534983374290118 0.0033387273073204383 0 0.01534983374290118 0.0033387273073204383 0 0.015851865352840881 0.0032879728227011486 0 0.015727236377502812 0.0031301409025281009 0 0.014711886241823706 0.0030617883899223034 0 0.01534983374290118 0.0033387273073204383 0 0.015727236377502812 0.0031301409025281009 0 0.015563912514682452 0.0037046105501360926 0 0.01534983374290118 0.0033387273073204383 0 0.015851865352840881 0.0032879728227011486 0 0.015851865352840881 0.0032879728227011486 0 0.016193438077492364 0.0033681798176152561 0 0.016029649211019369 0.0031638573039938947 0 0.015563912514682452 0.0037046105501360926 0 0.015851865352840881 0.0032879728227011486 0 0.016193438077492364 0.0033681798176152561 0 0.015866706674158185 0.0042778542358825186 0 0.015563912514682452 0.0037046105501360926 0 0.016193438077492364 0.0033681798176152561 0 0.016538180336639403 0.0029622519179601558 0 0.01590039879426983 0.003253522174871063 0 0.016029649211019369 0.0031638573039938947 0 0.015660622915239845 0.0030440686806534347 0 0.016538180336639403 0.0029622519179601558 0 0.01590039879426983 0.003253522174871063 0 0.016828729714286807 0.0036580084493699153 0 0.016193438077492364 0.0033681798176152561 0 0.016538180336639403 0.0029622519179601558 0 0.016193438077492364 0.0033681798176152561 0 0.016538180336639403 0.0029622519179601558 0 0.016029649211019369 0.0031638573039938947 0 0.017467063576700206 0.0033948686784102925 0 0.016828729714286807 0.0036580084493699153 0 0.016538180336639403 0.0029622519179601558 0 0.01590039879426983 0.003253522174871063 0 0.015885570269374809 0.0033450312856882405 0 0.015656028150159339 0.0036462890079485013 0 0.015499947830085624 0.003456624893648474 0 0.01590039879426983 0.003253522174871063 0 0.015656028150159339 0.0036462890079485013 0 0.01590039879426983 0.003253522174871063 0 0.016029649211019369 0.0031638573039938947 0 0.015885570269374809 0.0033450312856882405 0 0.016029649211019369 0.0031638573039938947 0 0.015885570269374809 0.0033450312856882405 0 0.015877394460869894 0.0032638549088925884 0 0.015885570269374809 0.0033450312856882405 0 0.015877394460869894 0.0032638549088925884 0 0.015888800944870052 0.0035168432230598652 0 0.015877394460869894 0.0032638549088925884 0 0.015727236377502812 0.0031301409025281009 0 0.015832025339247418 0.0032605293155737627 0 0.015877394460869894 0.0032638549088925884 0 0.015832025339247418 0.0032605293155737627 0 0.015940275377115943 0.0034316568844547949 0 0.016029649211019369 0.0031638573039938947 0 0.015877394460869894 0.0032638549088925884 0 0.015727236377502812 0.0031301409025281009 0 0.015851865352840881 0.0032879728227011486 0 0.016029649211019369 0.0031638573039938947 0 0.015727236377502812 0.0031301409025281009 0 0.015832025339247418 0.0032605293155737627 0 0.015930275215185061 0.0033981429462942346 0 0.015654788110763446 0.0031666928245248195 0 0.015727236377502812 0.0031301409025281009 0 0.015832025339247418 0.0032605293155737627 0 0.015654788110763446 0.0031666928245248195 0 0.015832025339247418 0.0032605293155737627 0 0.015930275215185061 0.0033981429462942346 0 0.015940275377115943 0.0034316568844547949 0 0.015930275215185061 0.0033981429462942346 0 0.016060550840691065 0.0035938459065034101 0 0.015940275377115943 0.0034316568844547949 0 0.015930275215185061 0.0033981429462942346 0 0.016060550840691065 0.0035938459065034101 0 0.016187412131149742 0.0036630859146249638 0 0.016060550840691065 0.0035938459065034101 0 0.016187412131149742 0.0036630859146249638 0 0.016235877800702309 0.003825700507743105 0 0.016060550840691065 0.0035938459065034101 0 0.01600863676485996 0.0036768548750686874 0 0.016235877800702309 0.003825700507743105 0 0.01600863676485996 0.0036768548750686874 0 0.016046829864753653 0.0039687477761428339 0 0.016235877800702309 0.003825700507743105 0 0.01600863676485996 0.0036768548750686874 0 0.01583528755535649 0.0038595200109299167 0 0.016046829864753653 0.0039687477761428339 0 0.01600863676485996 0.0036768548750686874 0 0.015940275377115943 0.0034316568844547949 0 0.015888800944870052 0.0035168432230598652 0 0.015877394460869894 0.0032638549088925884 0 0.015940275377115943 0.0034316568844547949 0 0.015888800944870052 0.0035168432230598652 0 0.016060550840691065 0.0035938459065034101 0 0.01600863676485996 0.0036768548750686874 0 0.015940275377115943 0.0034316568844547949 0 0.015885570269374809 0.0033450312856882405 0 0.015888800944870052 0.0035168432230598652 0 0.015656028150159339 0.0036462890079485013 0 0.015888800944870052 0.0035168432230598652 0 0.01583528755535649 0.0038595200109299167 0 0.015656028150159339 0.0036462890079485013 0 0.01600863676485996 0.0036768548750686874 0 0.015888800944870052 0.0035168432230598652 0 0.01583528755535649 0.0038595200109299167 0 0.01583528755535649 0.0038595200109299167 0 0.015656028150159339 0.0036462890079485013 0 0.015518203455532691 0.0042195205309657887 0 0.015295230605747341 0.004060393005880159 0 0.015656028150159339 0.0036462890079485013 0 0.015518203455532691 0.0042195205309657887 0 0.011002952021537277 0.0075659141245130812 0 0.010945221202440406 0.0078641259845238821 0 0.011186459655532388 0.0074838170603463254 0 0.011002952021537277 0.0075659141245130812 0 0.010945221202440406 0.0078641259845238821 0 0.010809463733558754 0.0079847435311757222 0 0.010945221202440406 0.0078641259845238821 0 0.010931251225459352 0.0080231842646194228 0 0.011186459655532388 0.0074838170603463254 0 0.010931251225459352 0.0080231842646194228 0 0.011186459655532388 0.0074838170603463254 0 0.011044081509890332 0.0078525920551328014 0 0.011471392450700085 0.007021929448706216 0 0.011186459655532388 0.0074838170603463254 0 0.01122977953647976 0.0074578821867719918 0 0.011471392450700085 0.007021929448706216 0 0.011186459655532388 0.0074838170603463254 0 0.011393326241800398 0.0069474408933111586 0 0.011186459655532388 0.0074838170603463254 0 0.011044081509890332 0.0078525920551328014 0 0.01122977953647976 0.0074578821867719918 0 0.011002952021537277 0.0075659141245130812 0 0.011393326241800398 0.0069474408933111586 0 0.010962644139193905 0.0072364172853871039 0 0.011002952021537277 0.0075659141245130812 0 0.011186459655532388 0.0074838170603463254 0 0.011393326241800398 0.0069474408933111586 0 0.011537649741316344 0.0063092346283264615 0 0.011393326241800398 0.0069474408933111586 0 0.010962644139193905 0.0072364172853871039 0 0.014711886241823706 0.0030617883899223034 0 0.015727236377502812 0.0031301409025281009 0 0.015654788110763446 0.0031666928245248195 0 0.012745958048703092 0.0049705698645823521 0 0.013009850250192415 0.0054676507815862325 0 0.010760341120908797 0.0066407254143055327 0 0.010962644139193905 0.0072364172853871039 0 0.010393235978957095 0.0076997404359468377 0 0.010962644139193905 0.0072364172853871039 0 0.010393235978957095 0.0076997404359468377 0 0.010719208327223964 0.0078263790957208441 0 0.011002952021537277 0.0075659141245130812 0 0.010962644139193905 0.0072364172853871039 0 0.010719208327223964 0.0078263790957208441 0 0.011002952021537277 0.0075659141245130812 0 0.010719208327223964 0.0078263790957208441 0 0.010809463733558754 0.0079847435311757222 0 0.010719208327223964 0.0078263790957208441 0 0.010663806658582884 0.0081225524942816797 0 0.010441770267395616 0.0081436060047270099 0 0.010719208327223964 0.0078263790957208441 0 0.010663806658582884 0.0081225524942816797 0 0.010809463733558754 0.0079847435311757222 0 0.010393235978957095 0.0076997404359468377 0 0.010441770267395616 0.0081436060047270099 0 0.010330367778424547 0.0082399597557133754 0 0.015930275215185061 0.0033981429462942346 0 0.015654788110763446 0.0031666928245248195 0 0.016187412131149742 0.0036630859146249638 0 0.010393235978957095 0.0076997404359468377 0 0.010719208327223964 0.0078263790957208441 0 0.010441770267395616 0.0081436060047270099 0 0.013009850250192415 0.0054676507815862325 0 0.013266114227280305 0.0059186736703155055 0 0.010444433548872206 0.0081756162396920008 0 0.010567282057481413 0.0087391684458884965 0 0.010441770267395616 0.0081436060047270099 0 0.010330367778424547 0.0082399597557133754 0 0.010604403097909557 0.0085907580939140644 0 0.010663806658582884 0.0081225524942816797 0 0.010690592405397711 0.0084567862864292249 0 0.011098424167998489 0.008647680295062049 0 0.010441770267395616 0.0081436060047270099 0 0.010690592405397711 0.0084567862864292249 0 0.010518227130386337 0.0088543852398807691 0 0.010671215332323101 0.0081765954257974824 0 0.010832023794784155 0.0086178717330065834 0 0.010663806658582884 0.0081225524942816797 0 0.010441770267395616 0.0081436060047270099 0 0.010690592405397711 0.0084567862864292249 0 0.010663806658582884 0.0081225524942816797 0 0.010747169810220357 0.0082623371659743868 0 0.010536991170865189 0.0085587873282277002 0 0.010747169810220357 0.0082623371659743868 0 0.010623199677518468 0.0085946240346992941 0 0.010536991170865189 0.0085587873282277002 0 0.010945221202440406 0.0078641259845238821 0 0.010747169810220357 0.0082623371659743868 0 0.010809463733558754 0.0079847435311757222 0 0.010663806658582884 0.0081225524942816797 0 0.010747169810220357 0.0082623371659743868 0 0.010809463733558754 0.0079847435311757222 0 0.010945221202440406 0.0078641259845238821 0 0.010931251225459352 0.0080231842646194228 0 0.010747169810220357 0.0082623371659743868 0 0.010931251225459352 0.0080231842646194228 0 0.010747169810220357 0.0082623371659743868 0 0.010756533540634711 0.0083920740407741889 0 0.010747169810220357 0.0082623371659743868 0 0.010756533540634711 0.0083920740407741889 0 0.010623199677518468 0.0085946240346992941 0 0.010623199677518468 0.0085946240346992941 0 0.010631724730195193 0.0086591035788775861 0 0.010469522803230271 0.0088129453950135522 0 0.010756533540634711 0.0083920740407741889 0 0.010623199677518468 0.0085946240346992941 0 0.010631724730195193 0.0086591035788775861 0 0.010631724730195193 0.0086591035788775861 0 0.010417044983924839 0.0089237515021360486 0 0.010469522803230271 0.0088129453950135522 0 0.010417044983924839 0.0089237515021360486 0 0.010200196316915213 0.0091019513304790335 0 0.010176377964468202 0.0090448701484149383 0 0.010200196316915213 0.0091019513304790335 0 0.0097152542353425818 0.0092019221428847452 0 0.010176377964468202 0.0090448701484149383 0 0.010417044983924839 0.0089237515021360486 0 0.010200196316915213 0.0091019513304790335 0 0.010447004247717342 0.0089171367453418221 0 0.010447004247717342 0.0089171367453418221 0 0.010618123371194266 0.0086855675928753252 0 0.010677789583662658 0.0086950340491837967 0 0.010200196316915213 0.0091019513304790335 0 0.010447004247717342 0.0089171367453418221 0 0.010399293661626502 0.0091158797147970518 0 0.010447004247717342 0.0089171367453418221 0 0.010677789583662658 0.0086950340491837967 0 0.010399293661626502 0.0091158797147970518 0 0.010417044983924839 0.0089237515021360486 0 0.010447004247717342 0.0089171367453418221 0 0.010618123371194266 0.0086855675928753252 0 0.010631724730195193 0.0086591035788775861 0 0.010417044983924839 0.0089237515021360486 0 0.010618123371194266 0.0086855675928753252 0 0.010618123371194266 0.0086855675928753252 0 0.010677789583662658 0.0086950340491837967 0 0.01082388872886436 0.0083395726586017113 0 0.010677789583662658 0.0086950340491837967 0 0.01082388872886436 0.0083395726586017113 0 0.011063756648926304 0.0082931286626935202 0 0.010631724730195193 0.0086591035788775861 0 0.010618123371194266 0.0086855675928753252 0 0.01082388872886436 0.0083395726586017113 0 0.010931251225459352 0.0080231842646194228 0 0.010756533540634711 0.0083920740407741889 0 0.01082388872886436 0.0083395726586017113 0 0.010756533540634711 0.0083920740407741889 0 0.010631724730195193 0.0086591035788775861 0 0.01082388872886436 0.0083395726586017113 0 -0.00072378783843256333 0.016186302983476925 0 -0.0018098982801703907 0.017155139277633197 0 -0.0020579717394051521 0.016134682388359394 0 -0.00072378783843256333 0.016186302983476925 0 -0.0020579717394051521 0.016134682388359394 0 -0.001061196051532928 0.015660732736200309 0 -0.00072378783843256333 0.016186302983476925 0 -0.00012853196110842408 0.015889089643169613 0 -0.001061196051532928 0.015660732736200309 0 -0.00072378783843256333 0.016186302983476925 0 -0.00012853196110842408 0.015889089643169613 0 0.0002247231854028446 0.016632827100563012 0 -0.00072378783843256333 0.016186302983476925 0 0.0002247231854028446 0.016632827100563012 0 -0.0018098982801703907 0.017155139277633197 0 0.0032355800555412214 0.015050463551799809 0 0.0018820734348754193 0.01635934173242996 0 0.0069246502153878474 0.010144269611026617 0 0.0024312696493791102 0.016529208926963263 0 0.0030772275218373057 0.013044602986910203 0 -0.00012853196110842408 0.015889089643169613 0 0.0018820734348754193 0.01635934173242996 0 -0.00053183377581423154 0.015308172156973582 0 -0.00012853196110842408 0.015889089643169613 0 0.0002247231854028446 0.016632827100563012 0 0.0018820734348754193 0.01635934173242996 0 0.010399293661626502 0.0091158797147970518 0 0.0092969752317658104 0.009250350416550427 0 0.0097152542353425818 0.0092019221428847452 0 0.010200196316915213 0.0091019513304790335 0 0.010399293661626502 0.0091158797147970518 0 0.0097152542353425818 0.0092019221428847452 0 0.010677789583662658 0.0086950340491837967 0 0.010399293661626502 0.0091158797147970518 0 0.011063756648926304 0.0082931286626935202 0 0.0018820734348754193 0.01635934173242996 0 0.0012880484271400206 0.018086153384482384 0 0.0016814194408399919 0.018307171568948132 0 0.0018820734348754193 0.01635934173242996 0 0.00060741068576663777 0.017567671984747388 0 0.0012880484271400206 0.018086153384482384 0 0.0068578224907655224 0.011676199217362069 0 0.0063978962175057844 0.013068182000645117 0 0.0032355800555412214 0.015050463551799809 0 0.0018820734348754193 0.01635934173242996 0 0.0016814194408399919 0.018307171568948132 0 0.0002247231854028446 0.016632827100563012 0 0.0018820734348754193 0.01635934173242996 0 0.00060741068576663777 0.017567671984747388 0 -0.0008045794486169572 0.017986658136090638 0 -0.002283335685316518 0.019262799119754259 0 -0.0018098982801703907 0.017155139277633197 0 0.0002247231854028446 0.016632827100563012 0 0.00060741068576663777 0.017567671984747388 0 -0.0008045794486169572 0.017986658136090638 0 0.00060741068576663777 0.017567671984747388 0 -0.0008045794486169572 0.017986658136090638 0 -0.00049156344340697627 0.01921788802525377 0 0.0002247231854028446 0.016632827100563012 0 -0.0008045794486169572 0.017986658136090638 0 -0.0018098982801703907 0.017155139277633197 0 0.0075729758798423865 0.0077002867854098463 0 0.0073624718982369516 0.0074366144561272413 0 0.0073551894958462476 0.0073738517380253265 0 0.00043881098262952406 0.018908924852215611 0 0.0019741866769243718 0.016440162246711881 0 -0.00049156344340697627 0.01921788802525377 0 0.0003030727281926031 0.020899663804320307 0 -0.002283335685316518 0.019262799119754259 0 0.00060741068576663777 0.017567671984747388 0 -0.00049156344340697627 0.01921788802525377 0 0.0003030727281926031 0.020899663804320307 0 0.0019741866769243718 0.016440162246711881 0 0.0031055255136822274 0.013009500380154537 0 -0.0008045794486169572 0.017986658136090638 0 -0.00049156344340697627 0.01921788802525377 0 -0.002283335685316518 0.019262799119754259 0 0.00060741068576663777 0.017567671984747388 0 0.0012880484271400206 0.018086153384482384 0 0.0015631118881310137 0.018236388353613377 0 0.0012880484271400206 0.018086153384482384 0 0.0015106382724005937 0.018132686075435299 0 0.0015631118881310137 0.018236388353613377 0 0.0012880484271400206 0.018086153384482384 0 0.0015106382724005937 0.018132686075435299 0 0.0016814194408399919 0.018307171568948132 0 0.001625681813533502 0.017833310782160019 0 0.0010857459924995532 0.017749335257585 0 0.0014383903253055341 0.01701401534668346 0 0.001625681813533502 0.017833310782160019 0 0.0020492493778673901 0.017285173920978985 0 0.0014383903253055341 0.01701401534668346 0 0.0015106382724005937 0.018132686075435299 0 0.001625681813533502 0.017833310782160019 0 0.0010857459924995532 0.017749335257585 0 0.0015106382724005937 0.018132686075435299 0 0.001625681813533502 0.017833310782160019 0 0.0015631118881310137 0.018236388353613377 0 0.001625681813533502 0.017833310782160019 0 0.0019838913941307677 0.017920662012490381 0 0.0020492493778673901 0.017285173920978985 0 0.0019800126240836378 0.017221042679582327 0 0.0019741866769243718 0.016440162246711881 0 0.0075729758798423865 0.0077002867854098463 0 0.007569769095903553 0.0079575625070252079 0 0.0073624718982369516 0.0074366144561272413 0 0.0063913955985170851 0.0062048422338307607 0 0.0069529381075320263 0.006102633715834558 0 0.0072124281857626777 0.0065665028188971958 0 0.0067630962838581589 0.0085831538811388906 0 0.007298568226864751 0.0068309817009732975 0 0.0019741866769243718 0.016440162246711881 0 0.0067630962838581589 0.0085831538811388906 0 0.01082388872886436 0.0083395726586017113 0 0.011044081509890332 0.0078525920551328014 0 0.01111461654034295 0.0078659278306427473 0 0.010931251225459352 0.0080231842646194228 0 0.01082388872886436 0.0083395726586017113 0 0.011044081509890332 0.0078525920551328014 0 0.011044081509890332 0.0078525920551328014 0 0.01111461654034295 0.0078659278306427473 0 0.01122977953647976 0.0074578821867719918 0 0.0063978962175057844 0.013068182000645117 0 0.0062160180730977876 0.013079397659420528 0 0.0015106382724005937 0.018132686075435299 0 0.0016814194408399919 0.018307171568948132 0 0.0010857459924995532 0.017749335257585 0 0.011063756648926304 0.0082931286626935202 0 0.01111461654034295 0.0078659278306427473 0 0.01136903539456433 0.0076103285604871137 0 0.01082388872886436 0.0083395726586017113 0 0.011063756648926304 0.0082931286626935202 0 0.01111461654034295 0.0078659278306427473 0 0.01111461654034295 0.0078659278306427473 0 0.01136903539456433 0.0076103285604871137 0 0.011311089219668925 0.0073668031081376185 0 0.01111461654034295 0.0078659278306427473 0 0.011311089219668925 0.0073668031081376185 0 0.01122977953647976 0.0074578821867719918 0 0.011311089219668925 0.0073668031081376185 0 0.01122977953647976 0.0074578821867719918 0 0.01135238399806868 0.0071609163414052962 0 0.011471392450700085 0.007021929448706216 0 0.01122977953647976 0.0074578821867719918 0 0.01135238399806868 0.0071609163414052962 0 0.011411547844359158 0.0071062091365049112 0 0.01135238399806868 0.0071609163414052962 0 0.011363171343584321 0.0071838195098158988 0 0.011311089219668925 0.0073668031081376185 0 0.01135238399806868 0.0071609163414052962 0 0.011363171343584321 0.0071838195098158988 0 0.0088640353121046019 0.0060481641978609993 0 0.0085481304011862762 0.0060641763599177754 0 0.0085079895655885938 0.0059643233828562429 0 0.0088640353121046019 0.0060481641978609993 0 0.0085481304011862762 0.0060641763599177754 0 0.008651439174032478 0.0061515230890083874 0 0.010503916708666195 0.0063044226970055163 0 0.0069530167612032422 0.0096607205925365106 0 0.0084865293053813292 0.0061447642529714125 0 0.0084292375612013051 0.0060659353956359326 0 0.0083586661393600051 0.0061608887435713865 0 0.0084865293053813292 0.0061447642529714125 0 0.0085481304011862762 0.0060641763599177754 0 0.0084292375612013051 0.0060659353956359326 0 0.0084865293053813292 0.0061447642529714125 0 0.0085481304011862762 0.0060641763599177754 0 0.008651439174032478 0.0061515230890083874 0 0.0085481304011862762 0.0060641763599177754 0 0.0084292375612013051 0.0060659353956359326 0 0.0084998336581281805 0.0060142120372978086 0 0.007469696394872564 0.0060973768163148151 0 0.0069530167612032422 0.0096607205925365106 0 0.01136903539456433 0.0076103285604871137 0 0.011311089219668925 0.0073668031081376185 0 0.011363171343584321 0.0071838195098158988 0 0.0062160180730977876 0.013079397659420528 0 0.0069530167612032422 0.0096607205925365106 0 0.0084292375612013051 0.0060659353956359326 0 0.0084998336581281805 0.0060142120372978086 0 0.0083622011138761478 0.0059786441025750665 0 0.0010857459924995532 0.017749335257585 0 0.00079679730143169104 0.016609629097089254 0 0.0014383903253055341 0.01701401534668346 0 0.0069530167612032422 0.0096607205925365106 0 0.0047683166611661304 0.011259234114343019 0 0.0084292375612013051 0.0060659353956359326 0 0.0083622011138761478 0.0059786441025750665 0 0.008248051167578702 0.006079559780470669 0 0.0082513763592546238 0.0059463572455652385 0 0.0083622011138761478 0.0059786441025750665 0 0.008248051167578702 0.006079559780470669 0 0.0067630962838581589 0.0085831538811388906 0 0.0047683166611661304 0.011259234114343019 0 0.0067630962838581589 0.0085831538811388906 0 0.0073400209197964274 0.0052371523098409109 0 0.0063913955985170851 0.0062048422338307607 0 0.0068333525817788699 0.0057016169136658414 0 0.0064004526822891783 0.0052755254680395347 0 0.0063913955985170851 0.0062048422338307607 0 0.0068333525817788699 0.0057016169136658414 0 0.0069529381075320263 0.006102633715834558 0 0.0068333525817788699 0.0057016169136658414 0 0.0064004526822891783 0.0052755254680395347 0 0.0070513234460687878 0.0052091396430371632 0 0.0064004526822891783 0.0052755254680395347 0 0.0067952099087540668 0.0048685121170836468 0 0.0070513234460687878 0.0052091396430371632 0 0.0084292375612013051 0.0060659353956359326 0 0.008248051167578702 0.006079559780470669 0 0.0083586661393600051 0.0061608887435713865 0 0.0083586661393600051 0.0061608887435713865 0 0.0084056470260531688 0.0062504738912404524 0 0.008225415510683445 0.0062739130838374993 0 0.008248051167578702 0.006079559780470669 0 0.0083586661393600051 0.0061608887435713865 0 0.008225415510683445 0.0062739130838374993 0 0.0084056470260531688 0.0062504738912404524 0 0.008225415510683445 0.0062739130838374993 0 0.0084179242653576562 0.0063757603413552655 0 0.0083605984091158526 0.0041447317004363882 0 0.0091325885858865394 0.0041453234199199411 0 0.0094237647196660848 0.0046762864700349927 0 0.0064004526822891783 0.0052755254680395347 0 0.0067952099087540668 0.0048685121170836468 0 0.0064440653691331898 0.0043335792525645549 0 0.0073400209197964274 0.0052371523098409109 0 0.0078442117433199111 0.0049877111750687309 0 0.0078442117433199111 0.0049877111750687309 0 0.0082194072014872485 0.0046000443184772161 0 0.0067952099087540668 0.0048685121170836468 0 0.0064440653691331898 0.0043335792525645549 0 0.0072983913118325854 0.0046577443418372765 0 0.0087584444091985299 0.0037457192348147924 0 0.0087306602919748622 0.003211296015445164 0 0.0092279107318770509 0.0035248257434362064 0 0.0083605984091158526 0.0041447317004363882 0 0.0087584444091985299 0.0037457192348147924 0 0.0091325885858865394 0.0041453234199199411 0 0.0087584444091985299 0.0037457192348147924 0 0.0092279107318770509 0.0035248257434362064 0 0.0091325885858865394 0.0041453234199199411 0 0.0087584444091985299 0.0037457192348147924 0 0.0083314032951617451 0.003555523152525269 0 0.0087306602919748622 0.003211296015445164 0 0.0083605984091158526 0.0041447317004363882 0 0.0087584444091985299 0.0037457192348147924 0 0.0083314032951617451 0.003555523152525269 0 0.0078442117433199111 0.0049877111750687309 0 0.0080651423942514205 0.0038639366881602754 0 0.0086576900194386217 0.0025483489148207072 0 0.0087306602919748622 0.003211296015445164 0 0.0079296959826960327 0.0028633591904617555 0 0.0083314032951617451 0.003555523152525269 0 0.0087306602919748622 0.003211296015445164 0 0.0079296959826960327 0.0028633591904617555 0 0.0094510659746122778 0.0023908596484222091 0 0.0087306602919748622 0.003211296015445164 0 0.0092279107318770509 0.0035248257434362064 0 0.0086576900194386217 0.0025483489148207072 0 0.0094510659746122778 0.0023908596484222091 0 0.0087306602919748622 0.003211296015445164 0 0.0083314032951617451 0.003555523152525269 0 0.0079296959826960327 0.0028633591904617555 0 0.0069122530566249419 0.0033667674261902963 0 0.0083095636207545977 0.0040693182127435387 0 0.0083314032951617451 0.003555523152525269 0 0.0069122530566249419 0.0033667674261902963 0 0.0078442117433199111 0.0049877111750687309 0 0.0076357314967474173 0.004860215288357124 0 0.0071545174378976496 0.0023053078678890123 0 0.0079296959826960327 0.0028633591904617555 0 0.0069122530566249419 0.0033667674261902963 0 0.0076357314967474173 0.004860215288357124 0 0.0076268867242662271 0.0048841255913120839 0 0.0084179242653576562 0.0063757603413552655 0 0.0085676911693716353 0.0063283090961326859 0 0.0086302027796196518 0.006413652050106639 0 0.0084179242653576562 0.0063757603413552655 0 0.0086531246624663681 0.0064827821493571502 0 0.0086302027796196518 0.006413652050106639 0 0.0062422740015413382 0.002391361055687755 0 0.0069122530566249419 0.0033667674261902963 0 0.0054267128614181202 0.0027067949258655845 0 0.0062422740015413382 0.002391361055687755 0 0.0071545174378976496 0.0023053078678890123 0 0.0069122530566249419 0.0033667674261902963 0 0.0086659337168491519 0.0064963879336988918 0 0.008690673210510598 0.0065050981413613453 0 0.0087036965687221218 0.0064338582144259568 0 0.0076268867242662271 0.0048841255913120839 0 0.0078040137400322398 0.0049992478538812956 0 0.0076268867242662271 0.0048841255913120839 0 0.0082611698625814512 0.0062332071629011589 0 0.0086659337168491519 0.0064963879336988918 0 0.0086302027796196518 0.006413652050106639 0 0.0087036965687221218 0.0064338582144259568 0 0.0088181360130711525 0.0063876364148692513 0 0.008690673210510598 0.0065050981413613453 0 0.0087036965687221218 0.0064338582144259568 0 0.0088181360130711525 0.0063876364148692513 0 0.0087036965687221218 0.0064338582144259568 0 0.0086933270184227432 0.0062821884876228546 0 0.0085676911693716353 0.0063283090961326859 0 0.0086302027796196518 0.006413652050106639 0 0.0086933270184227432 0.0062821884876228546 0 0.0086302027796196518 0.006413652050106639 0 0.0087036965687221218 0.0064338582144259568 0 0.0086933270184227432 0.0062821884876228546 0 0.0085676911693716353 0.0063283090961326859 0 0.0086933270184227432 0.0062821884876228546 0 0.008538896496868861 0.0062374005754743727 0 0.0088640353121046019 0.0060481641978609993 0 0.0086933270184227432 0.0062821884876228546 0 0.008651439174032478 0.0061515230890083874 0 0.0086933270184227432 0.0062821884876228546 0 0.008651439174032478 0.0061515230890083874 0 0.008538896496868861 0.0062374005754743727 0 0.0084865293053813292 0.0061447642529714125 0 0.008651439174032478 0.0061515230890083874 0 0.008538896496868861 0.0062374005754743727 0 0.0084865293053813292 0.0061447642529714125 0 0.0083586661393600051 0.0061608887435713865 0 0.0084056470260531688 0.0062504738912404524 0 0.0084865293053813292 0.0061447642529714125 0 0.0084056470260531688 0.0062504738912404524 0 0.008538896496868861 0.0062374005754743727 0 0.0084056470260531688 0.0062504738912404524 0 0.0084179242653576562 0.0063757603413552655 0 0.008538896496868861 0.0062374005754743727 0 0.0084179242653576562 0.0063757603413552655 0 0.0085676911693716353 0.0063283090961326859 0 0.008538896496868861 0.0062374005754743727 0 0.008503614870173936 0.0051288104435844133 0 0.0086591803948324469 0.005222462028547455 0 0.0088251182186331063 0.0048956501689287578 0 0.008503614870173936 0.0051288104435844133 0 0.0088251182186331063 0.0048956501689287578 0 0.0084030522847887042 0.0050313472946977023 0 0.008503614870173936 0.0051288104435844133 0 0.0085268063234907061 0.0054314348685896019 0 0.0086404912686539326 0.0053266290097420867 0 0.008503614870173936 0.0051288104435844133 0 0.0086404912686539326 0.0053266290097420867 0 0.0086456427850757321 0.0051645566975316547 0 0.008503614870173936 0.0051288104435844133 0 0.00852869649030066 0.0051540545582896584 0 0.0086456427850757321 0.0051645566975316547 0 0.0085190084211704941 0.0051924065504214837 0 0.008503614870173936 0.0051288104435844133 0 0.00852869649030066 0.0051540545582896584 0 0.0059064299269957245 0.0058083668270708412 0 0.0037241150453927352 0.0073149283258953828 0 0.0059064299269957245 0.0058083668270708412 0 0.011396253620981426 0.0038578807769114112 0 0.013642439762802891 0.0025944796600274006 0 0.011991198298621206 0.0021507089416869865 0 0.011866353470825628 0.0034690143140082459 0 0.0085190084211704941 0.0051924065504214837 0 0.008503614870173936 0.0051288104435844133 0 0.0086591803948324469 0.005222462028547455 0 0.011396253620981426 0.0038578807769114112 0 0.0090695105029417657 0.0047805790306159977 0 0.010615715441149498 0.002230027542095483 0 0.011866353470825628 0.0034690143140082459 0 0.0099645827517926 0.0033202039972773604 0 0.011866353470825628 0.0034690143140082459 0 0.0099645827517926 0.0033202039972773604 0 0.0095005788265585811 0.0045681399897866187 0 0.0094510659746122778 0.0023908596484222091 0 0.0099645827517926 0.0033202039972773604 0 0.0092279107318770509 0.0035248257434362064 0 0.0099645827517926 0.0033202039972773604 0 0.009434761022904364 0.0039051344191806709 0 0.0095005788265585811 0.0045681399897866187 0 0.0099645827517926 0.0033202039972773604 0 0.009434761022904364 0.0039051344191806709 0 0.0092279107318770509 0.0035248257434362064 0 0.009434761022904364 0.0039051344191806709 0 0.0092279107318770509 0.0035248257434362064 0 0.0091325885858865394 0.0041453234199199411 0 0.0091325885858865394 0.0041453234199199411 0 0.0095005788265585811 0.0045681399897866187 0 0.0094237647196660848 0.0046762864700349927 0 0.009434761022904364 0.0039051344191806709 0 0.0091325885858865394 0.0041453234199199411 0 0.0095005788265585811 0.0045681399897866187 0 0.0095005788265585811 0.0045681399897866187 0 0.0094237647196660848 0.0046762864700349927 0 0.0088251182186331063 0.0048956501689287578 0 0.0094237647196660848 0.0046762864700349927 0 0.0088251182186331063 0.0048956501689287578 0 0.0084030522847887042 0.0050313472946977023 0 0.0086591803948324469 0.005222462028547455 0 0.0095005788265585811 0.0045681399897866187 0 0.0088251182186331063 0.0048956501689287578 0 0.0082194072014872485 0.0046000443184772161 0 0.0085328261653576879 0.0050116205202334774 0 0.0072983913118325854 0.0046577443418372765 0 0.0084030522847887042 0.0050313472946977023 0 0.0075997141485358872 0.0052873420677178882 0 0.0084030522847887042 0.0050313472946977023 0 0.0078708470144858191 0.0057316472773856347 0 0.0082971543962364995 0.005713771046178949 0 0.0084030522847887042 0.0050313472946977023 0 0.0075997141485358872 0.0052873420677178882 0 0.0078708470144858191 0.0057316472773856347 0 0.0067952099087540668 0.0048685121170836468 0 0.0072983913118325854 0.0046577443418372765 0 0.0070513234460687878 0.0052091396430371632 0 0.0072983913118325854 0.0046577443418372765 0 0.0075997141485358872 0.0052873420677178882 0 0.0070513234460687878 0.0052091396430371632 0 0.0075997141485358872 0.0052873420677178882 0 0.0070513234460687878 0.0052091396430371632 0 0.0073785182299910008 0.0056967546784962506 0 0.0068333525817788699 0.0057016169136658414 0 0.0070513234460687878 0.0052091396430371632 0 0.0073785182299910008 0.0056967546784962506 0 0.0073785182299910008 0.0056967546784962506 0 0.0069529381075320263 0.006102633715834558 0 0.0074535256612429414 0.0061642376418016521 0 0.0068333525817788699 0.0057016169136658414 0 0.0073785182299910008 0.0056967546784962506 0 0.0069529381075320263 0.006102633715834558 0 0.0075997141485358872 0.0052873420677178882 0 0.0073785182299910008 0.0056967546784962506 0 0.0078708470144858191 0.0057316472773856347 0 0.0073785182299910008 0.0056967546784962506 0 0.0078708470144858191 0.0057316472773856347 0 0.0074535256612429414 0.0061642376418016521 0 0.0078708470144858191 0.0057316472773856347 0 0.0074535256612429414 0.0061642376418016521 0 0.0078657266939473128 0.0062576975105226446 0 0.0078708470144858191 0.0057316472773856347 0 0.0082971543962364995 0.005713771046178949 0 0.0078657266939473128 0.0062576975105226446 0 0.0082971543962364995 0.005713771046178949 0 0.0085586828052391581 0.0059806984908390834 0 0.0082707400289264276 0.0064280628250863265 0 0.0084030522847887042 0.0050313472946977023 0 0.0082971543962364995 0.005713771046178949 0 0.0085268063234907061 0.0054314348685896019 0 0.008503614870173936 0.0051288104435844133 0 0.0084030522847887042 0.0050313472946977023 0 0.0085268063234907061 0.0054314348685896019 0 0.0085268063234907061 0.0054314348685896019 0 0.0086404912686539326 0.0053266290097420867 0 0.0087706615656694773 0.0056963230190786619 0 0.0085268063234907061 0.0054314348685896019 0 0.0085586828052391581 0.0059806984908390834 0 0.0087706615656694773 0.0056963230190786619 0 0.0082971543962364995 0.005713771046178949 0 0.0085268063234907061 0.0054314348685896019 0 0.0085586828052391581 0.0059806984908390834 0 0.0085586828052391581 0.0059806984908390834 0 0.0086222579382097229 0.006482958016194979 0 0.0082707400289264276 0.0064280628250863265 0 0.0082707400289264276 0.0064280628250863265 0 0.0078657266939473128 0.0062576975105226446 0 0.007780532641850667 0.0070109839640283 0 0.0082971543962364995 0.005713771046178949 0 0.0082707400289264276 0.0064280628250863265 0 0.0078657266939473128 0.0062576975105226446 0 0.0082707400289264276 0.0064280628250863265 0 0.007780532641850667 0.0070109839640283 0 0.0083729485403885532 0.0070711265713467621 0 0.0086222579382097229 0.006482958016194979 0 0.0082707400289264276 0.0064280628250863265 0 0.0083729485403885532 0.0070711265713467621 0 0.0069529381075320263 0.006102633715834558 0 0.0074535256612429414 0.0061642376418016521 0 0.0072124281857626777 0.0065665028188971958 0 0.0074535256612429414 0.0061642376418016521 0 0.0072124281857626777 0.0065665028188971958 0 0.007574345327783053 0.0064988788571751534 0 0.007574345327783053 0.0064988788571751534 0 0.0078657266939473128 0.0062576975105226446 0 0.007780532641850667 0.0070109839640283 0 0.0074535256612429414 0.0061642376418016521 0 0.007574345327783053 0.0064988788571751534 0 0.0078657266939473128 0.0062576975105226446 0 0.007298568226864751 0.0068309817009732975 0 0.0077946962456444547 0.0071004684956647831 0 0.0072124281857626777 0.0065665028188971958 0 0.007574345327783053 0.0064988788571751534 0 0.007780532641850667 0.0070109839640283 0 0.007780532641850667 0.0070109839640283 0 0.0073551894958462476 0.0073738517380253265 0 0.0076446725900088585 0.0074175839224101736 0 0.0073624718982369516 0.0074366144561272413 0 0.007780532641850667 0.0070109839640283 0 0.0073551894958462476 0.0073738517380253265 0 -0.002283335685316518 0.019262799119754259 0 -0.0018098982801703907 0.017155139277633197 0 -0.0044201338144845741 0.017949983983153481 0 -0.0034396307075088501 0.017982770883773019 0 -0.00092700368518760286 0.015120190095649697 0 0.0031055255136822274 0.013009500380154537 0 -0.00092700368518760286 0.015120190095649697 0 -0.0042283454702955097 0.017486141389311701 0 -0.004448230945039335 0.016556685929901158 0 -0.0034577989076790016 0.016512624846022124 0 -0.004448230945039335 0.016556685929901158 0 -0.0048373007710087188 0.0161848125660367 0 -0.0042555348706031964 0.016177069107906235 0 -0.004448230945039335 0.016556685929901158 0 -0.0034577989076790016 0.016512624846022124 0 -0.0042555348706031964 0.016177069107906235 0 -0.0018098982801703907 0.017155139277633197 0 -0.0042283454702955097 0.017486141389311701 0 -0.0034577989076790016 0.016512624846022124 0 -0.0034577989076790016 0.016512624846022124 0 -0.0020579717394051521 0.016134682388359394 0 -0.0034672428902894369 0.015898817270403511 0 -0.0018098982801703907 0.017155139277633197 0 -0.0034577989076790016 0.016512624846022124 0 -0.0020579717394051521 0.016134682388359394 0 -0.0046584118523783644 0.015894216378965723 0 -0.0048385488504428462 0.016250839349769258 0 -0.0046372447935056496 0.015804966303881129 0 -0.00092700368518760286 0.015120190095649697 0 -0.0058439100906598398 0.016309914459853608 0 0.007780532641850667 0.0070109839640283 0 0.0076446725900088585 0.0074175839224101736 0 0.0083729485403885532 0.0070711265713467621 0 -0.00092700368518760286 0.015120190095649697 0 0.0022525656367925902 0.010992150050256349 0 -0.0050653590708542836 0.016046901136192442 0 -0.0046584118523783644 0.015894216378965723 0 -0.0048385488504428462 0.016250839349769258 0 -0.0048385488504428462 0.016250839349769258 0 -0.0047909057267308541 0.016166572199055859 0 -0.0048373007710087188 0.0161848125660367 0 -0.004448230945039335 0.016556685929901158 0 -0.0048385488504428462 0.016250839349769258 0 -0.0048373007710087188 0.0161848125660367 0 -0.0042283454702955097 0.017486141389311701 0 -0.004448230945039335 0.016556685929901158 0 -0.0048385488504428462 0.016250839349769258 0 -0.0048385488504428462 0.016250839349769258 0 -0.0047909057267308541 0.016166572199055859 0 -0.0046372447935056496 0.015804966303881129 0 -0.0047909057267308541 0.016166572199055859 0 -0.0051157778510493935 0.016767309722130454 0 -0.0044738235798303504 0.016304018839493131 0 -0.0047909057267308541 0.016166572199055859 0 -0.0048373007710087188 0.0161848125660367 0 -0.0051157778510493935 0.016767309722130454 0 -0.0048373007710087188 0.0161848125660367 0 -0.0051157778510493935 0.016767309722130454 0 -0.0047600462244831842 0.016013688534176149 0 -0.0051157778510493935 0.016767309722130454 0 -0.0052963022924471014 0.016277670818263507 0 -0.0047600462244831842 0.016013688534176149 0 -0.0051157778510493935 0.016767309722130454 0 -0.0044738235798303504 0.016304018839493131 0 -0.0044579984891981363 0.018623420878167235 0 -0.0051157778510493935 0.016767309722130454 0 -0.0051893700978442002 0.018515247426043158 0 -0.0044579984891981363 0.018623420878167235 0 -0.0051157778510493935 0.016767309722130454 0 -0.0056357655293152549 0.01773256251280558 0 -0.0052963022924471014 0.016277670818263507 0 -0.0051157778510493935 0.016767309722130454 0 -0.0056357655293152549 0.01773256251280558 0 -0.0051893700978442002 0.018515247426043158 0 -0.0051893700978442002 0.018515247426043158 0 -0.0053175049029505336 0.020189830927138646 0 -0.0065309206521785082 0.019701454761188293 0 -0.0056357655293152549 0.01773256251280558 0 -0.0051893700978442002 0.018515247426043158 0 -0.0065309206521785082 0.019701454761188293 0 -0.0051893700978442002 0.018515247426043158 0 -0.0047616885245250927 0.019395492882135608 0 -0.0044579984891981363 0.018623420878167235 0 -0.0051893700978442002 0.018515247426043158 0 -0.0047616885245250927 0.019395492882135608 0 -0.0053175049029505336 0.020189830927138646 0 -0.0036051107085058229 0.010475189586025932 0 -0.004671024185565204 0.012572865457454391 0 -0.0027569746573951051 0.012503714876055153 0 -0.0036051107085058229 0.010475189586025932 0 -0.0027569746573951051 0.012503714876055153 0 -0.0019064086934956225 0.010948728073401684 0 -0.0014889545936294765 0.016196412764702964 0 -0.00093301350281068242 0.014857243242183658 0 -0.00039000287232499135 0.016267169723451977 0 -0.0038530287728837523 0.015150434724589925 0 -0.0033947626515643723 0.018231444640272546 0 -0.0030173157242968825 0.013701785205738559 0 -0.0038530287728837523 0.015150434724589925 0 -0.0056357655293152549 0.01773256251280558 0 -0.0066243272141494362 0.017735298481797519 0 -0.0065309206521785082 0.019701454761188293 0 -0.0038530287728837523 0.015150434724589925 0 -0.0055956464366199513 0.017046124996904204 0 -0.0056357655293152549 0.01773256251280558 0 -0.0066243272141494362 0.017735298481797519 0 -0.0052963022924471014 0.016277670818263507 0 -0.004671024185565204 0.012572865457454391 0 -0.0027569746573951051 0.012503714876055153 0 -0.0026908194382069647 0.013879006503308852 0 -0.0026908194382069647 0.013879006503308852 0 -0.0038893452584066544 0.015457466659556445 0 -0.0014302702361571439 0.014693693268442068 0 -0.004671024185565204 0.012572865457454391 0 -0.0026908194382069647 0.013879006503308852 0 -0.0038893452584066544 0.015457466659556445 0 -0.0052709282862658802 0.01606031741416911 0 -0.0038893452584066544 0.015457466659556445 0 -0.0052963022924471014 0.016277670818263507 0 -0.0038530287728837523 0.015150434724589925 0 -0.0043058725532688661 0.015137901703576201 0 -0.0038893452584066544 0.015457466659556445 0 -0.0052963022924471014 0.016277670818263507 0 -0.0047600462244831842 0.016013688534176149 0 -0.0038893452584066544 0.015457466659556445 0 -0.0047600462244831842 0.016013688534176149 0 -0.0034672428902894369 0.015898817270403511 0 -0.0034577989076790016 0.016512624846022124 0 -0.0042555348706031964 0.016177069107906235 0 -0.0034672428902894369 0.015898817270403511 0 -0.0047600462244831842 0.016013688534176149 0 -0.0042555348706031964 0.016177069107906235 0 -0.0034672428902894369 0.015898817270403511 0 -0.0048373007710087188 0.0161848125660367 0 -0.0047600462244831842 0.016013688534176149 0 -0.0042555348706031964 0.016177069107906235 0 -0.0038893452584066544 0.015457466659556445 0 -0.0021543874666501476 0.015567068945964347 0 -0.0014302702361571439 0.014693693268442068 0 -0.0038893452584066544 0.015457466659556445 0 -0.0021543874666501476 0.015567068945964347 0 -0.0034672428902894369 0.015898817270403511 0 -0.0020579717394051521 0.016134682388359394 0 -0.0021543874666501476 0.015567068945964347 0 -0.0034672428902894369 0.015898817270403511 0 -0.0020579717394051521 0.016134682388359394 0 -0.0021543874666501476 0.015567068945964347 0 -0.001061196051532928 0.015660732736200309 0 -0.0021543874666501476 0.015567068945964347 0 -0.001116194669130171 0.015348345519236993 0 -0.001061196051532928 0.015660732736200309 0 -0.0021543874666501476 0.015567068945964347 0 -0.001116194669130171 0.015348345519236993 0 -0.0014302702361571439 0.014693693268442068 0 -0.001116194669130171 0.015348345519236993 0 -0.00053183377581423154 0.015308172156973582 0 -0.0014302702361571439 0.014693693268442068 0 -0.00012853196110842408 0.015889089643169613 0 -0.00071147135305321837 0.015541721866697094 0 -0.00053183377581423154 0.015308172156973582 0 -0.001116194669130171 0.015348345519236993 0 -0.00071147135305321837 0.015541721866697094 0 -0.00053183377581423154 0.015308172156973582 0 -0.001116194669130171 0.015348345519236993 0 -0.00071147135305321837 0.015541721866697094 0 -0.001061196051532928 0.015660732736200309 0 -0.00012853196110842408 0.015889089643169613 0 -0.00071147135305321837 0.015541721866697094 0 -0.001061196051532928 0.015660732736200309 0 0.010399293661626502 0.0091158797147970518 0 0.0092969752317658104 0.009250350416550427 0 0.0079427708902441319 0.0094015164887452062 0 0.0068578224907655224 0.011676199217362069 0 0.0074370970978473172 0.0091801471496621052 0 0.0032355800555412214 0.015050463551799809 0 0.0079427708902441319 0.0094015164887452062 0 0.0069246502153878474 0.010144269611026617 0 0.0092969752317658104 0.009250350416550427 0 0.0097152542353425818 0.0092019221428847452 0 0.0093289501057958173 0.0090697765013214773 0 0.0097152542353425818 0.0092019221428847452 0 0.0093289501057958173 0.0090697765013214773 0 0.010176377964468202 0.0090448701484149383 0 0.0093289501057958173 0.0090697765013214773 0 0.0079427708902441319 0.0094015164887452062 0 0.0089703269346322664 0.0083845596920720748 0 0.0093289501057958173 0.0090697765013214773 0 0.0089703269346322664 0.0083845596920720748 0 0.010178767469545267 0.0088154945832084972 0 0.0092969752317658104 0.009250350416550427 0 0.0093289501057958173 0.0090697765013214773 0 0.0079427708902441319 0.0094015164887452062 0 0.0079427708902441319 0.0094015164887452062 0 0.0069246502153878474 0.010144269611026617 0 0.0081751512818580632 0.0081084461298812621 0 0.0081751512818580632 0.0081084461298812621 0 0.0089703269346322664 0.0083845596920720748 0 0.0087960388720460352 0.0068899137176738458 0 0.0079427708902441319 0.0094015164887452062 0 0.0081751512818580632 0.0081084461298812621 0 0.0089703269346322664 0.0083845596920720748 0 0.0081751512818580632 0.0081084461298812621 0 0.0074918217465620154 0.0068149706318491876 0 0.0087960388720460352 0.0068899137176738458 0 0.0089703269346322664 0.0083845596920720748 0 0.010178767469545267 0.0088154945832084972 0 0.0087960388720460352 0.0068899137176738458 0 0.0030772275218373057 0.013044602986910203 0 0.0031779988488614508 0.01038000471345101 0 -0.00053183377581423154 0.015308172156973582 0 -0.0014302702361571439 0.014693693268442068 0 -0.0012078028317441237 0.013564633143366905 0 0.0069246502153878474 0.010144269611026617 0 0.0081751512818580632 0.0081084461298812621 0 0.0074918217465620154 0.0068149706318491876 0 -0.0026908194382069647 0.013879006503308852 0 -0.0014302702361571439 0.014693693268442068 0 -0.0012078028317441237 0.013564633143366905 0 0.010623199677518468 0.0085946240346992941 0 0.010462729472778671 0.0087384032389672718 0 0.010469522803230271 0.0088129453950135522 0 0.010462729472778671 0.0087384032389672718 0 0.010469522803230271 0.0088129453950135522 0 0.01035195956930844 0.00876798204220911 0 0.010469522803230271 0.0088129453950135522 0 0.010178767469545267 0.0088154945832084972 0 0.01035195956930844 0.00876798204220911 0 0.010469522803230271 0.0088129453950135522 0 0.010176377964468202 0.0090448701484149383 0 0.010178767469545267 0.0088154945832084972 0 0.010417044983924839 0.0089237515021360486 0 0.010469522803230271 0.0088129453950135522 0 0.010176377964468202 0.0090448701484149383 0 0.0093289501057958173 0.0090697765013214773 0 0.010176377964468202 0.0090448701484149383 0 0.010178767469545267 0.0088154945832084972 0 0.010178767469545267 0.0088154945832084972 0 0.01035195956930844 0.00876798204220911 0 0.010488367613730447 0.0088462547582328407 0 0.01013307453819879 0.0088000849737973601 0 0.009672034948949311 0.0079317453392829789 0 0.01035195956930844 0.00876798204220911 0 0.01030865696910534 0.0088740460705994083 0 0.010488367613730447 0.0088462547582328407 0 0.010462729472778671 0.0087384032389672718 0 0.01035195956930844 0.00876798204220911 0 0.01030865696910534 0.0088740460705994083 0 0.01030865696910534 0.0088740460705994083 0 0.010404867530017419 0.0091274083750648889 0 0.010249359579525519 0.00908460089738416 0 0.01030865696910534 0.0088740460705994083 0 0.010249359579525519 0.00908460089738416 0 0.01016070742901776 0.0090493841094422926 0 0.01030865696910534 0.0088740460705994083 0 0.010404867530017419 0.0091274083750648889 0 0.010488367613730447 0.0088462547582328407 0 0.010404867530017419 0.0091274083750648889 0 0.010271840204059491 0.0093080899258547317 0 0.010445665192823377 0.009567672036779315 0 0.010404867530017419 0.0091274083750648889 0 0.010271840204059491 0.0093080899258547317 0 0.010249359579525519 0.00908460089738416 0 0.012839100371909509 0.01142474004715986 0 0.012149423280680197 0.011039456818480906 0 0.012255963759451361 0.010383574857646441 0 0.01012043991757877 0.0093445017231621273 0 0.010062907202884509 0.0094800827305516599 0 0.01016070742901776 0.0090493841094422926 0 0.010649730015002202 0.01028271598289031 0 0.011333187553798507 0.0098079329301012531 0 0.010271840204059491 0.0093080899258547317 0 0.010249359579525519 0.00908460089738416 0 0.01012043991757877 0.0093445017231621273 0 0.010271840204059491 0.0093080899258547317 0 0.01012043991757877 0.0093445017231621273 0 0.010205681663543398 0.0095466530813067465 0 0.010249359579525519 0.00908460089738416 0 0.01012043991757877 0.0093445017231621273 0 0.01016070742901776 0.0090493841094422926 0 -0.0027569746573951051 0.012503714876055153 0 -0.0012078028317441237 0.013564633143366905 0 -0.0019064086934956225 0.010948728073401684 0 0.0031779988488614508 0.01038000471345101 0 0.0026014115150977454 0.0077827664492822113 0 -0.0027569746573951051 0.012503714876055153 0 -0.0026908194382069647 0.013879006503308852 0 -0.0012078028317441237 0.013564633143366905 0 0.0074918217465620154 0.0068149706318491876 0 0.0087960388720460352 0.0068899137176738458 0 0.0079957494115974262 0.006043284587868381 0 0.010404867530017419 0.0091274083750648889 0 0.010488367613730447 0.0088462547582328407 0 0.010825343583192497 0.009272507485717188 0 0.009672034948949311 0.0079317453392829789 0 0.0094489944020354679 0.0077422676659999494 0 0.010404867530017419 0.0091274083750648889 0 0.010825343583192497 0.009272507485717188 0 0.010445665192823377 0.009567672036779315 0 0.0074918217465620154 0.0068149706318491876 0 0.0079957494115974262 0.006043284587868381 0 0.0076139404149937768 0.0060852006672615427 0 0.0076139404149937768 0.0060852006672615427 0 0.0077205209401584691 0.0060415074309241191 0 0.0077362237854243839 0.0060929193093016108 0 0.0079957494115974262 0.006043284587868381 0 0.0076139404149937768 0.0060852006672615427 0 0.0077205209401584691 0.0060415074309241191 0 0.0094489944020354679 0.0077422676659999494 0 0.0093189396298957467 0.0077998756617223431 0 0.010825343583192497 0.009272507485717188 0 0.011154710289171437 0.010015504820165499 0 0.01072271150461172 0.0098676266961891766 0 0.010825343583192497 0.009272507485717188 0 0.01072271150461172 0.0098676266961891766 0 0.010445665192823377 0.009567672036779315 0 0.01072271150461172 0.0098676266961891766 0 0.010445665192823377 0.009567672036779315 0 0.010443596603267682 0.010154405815598464 0 0.011154710289171437 0.010015504820165499 0 0.01072271150461172 0.0098676266961891766 0 0.010733884428150608 0.010443637995171364 0 0.011154710289171437 0.010015504820165499 0 0.010733884428150608 0.010443637995171364 0 0.011107299032605414 0.010603981755502701 0 0.01072271150461172 0.0098676266961891766 0 0.010733884428150608 0.010443637995171364 0 0.010443596603267682 0.010154405815598464 0 0.010733884428150608 0.010443637995171364 0 0.010322961999730429 0.010746249147015855 0 0.010760284106824813 0.010889778768767278 0 0.010733884428150608 0.010443637995171364 0 0.010443596603267682 0.010154405815598464 0 0.010322961999730429 0.010746249147015855 0 0.010733884428150608 0.010443637995171364 0 0.011107299032605414 0.010603981755502701 0 0.010760284106824813 0.010889778768767278 0 0.0093189396298957467 0.0077998756617223431 0 0.010508587680743496 0.0096547708198304813 0 0.0077205209401584691 0.0060415074309241191 0 0.0077361282317443278 0.0062355471434129223 0 0.0077362237854243839 0.0060929193093016108 0 0.011154710289171437 0.010015504820165499 0 0.011107299032605414 0.010603981755502701 0 0.011534859437082979 0.010980358315988325 0 0.012839100371909509 0.01142474004715986 0 0.012705660154026641 0.012220083428049037 0 0.012185976352234288 0.011674695708934655 0 0.01012043991757877 0.0093445017231621273 0 0.0099241089846776754 0.0096800863071820238 0 0.010205681663543398 0.0095466530813067465 0 0.010406538852796103 0.0094720049697414842 0 0.010649730015002202 0.01028271598289031 0 0.0099241089846776754 0.0096800863071820238 0 0.010229055344667276 0.0098717066731142927 0 0.010089269296623033 0.010419573006876612 0 0.0099241089846776754 0.0096800863071820238 0 0.010229055344667276 0.0098717066731142927 0 0.010205681663543398 0.0095466530813067465 0 0.010229055344667276 0.0098717066731142927 0 0.010205681663543398 0.0095466530813067465 0 0.010445665192823377 0.009567672036779315 0 0.010271840204059491 0.0093080899258547317 0 0.010205681663543398 0.0095466530813067465 0 0.010445665192823377 0.009567672036779315 0 0.010229055344667276 0.0098717066731142927 0 0.010445665192823377 0.009567672036779315 0 0.010443596603267682 0.010154405815598464 0 0.010089269296623033 0.010419573006876612 0 0.0096887476570343637 0.010448365028271844 0 0.010322961999730429 0.010746249147015855 0 0.010443596603267682 0.010154405815598464 0 0.010089269296623033 0.010419573006876612 0 0.010322961999730429 0.010746249147015855 0 0.010229055344667276 0.0098717066731142927 0 0.010443596603267682 0.010154405815598464 0 0.010089269296623033 0.010419573006876612 0 0.010649730015002202 0.01028271598289031 0 0.0099089494398908549 0.010123110431267615 0 0.0097903112650127924 0.0098752578722370137 0 0.010089269296623033 0.010419573006876612 0 0.0096887476570343637 0.010448365028271844 0 0.010649730015002202 0.01028271598289031 0 0.011359565539052596 0.01157834097413989 0 0.011359565539052596 0.01157834097413989 0 0.012623550839680104 0.012116977684918692 0 0.01058591352847249 0.012777757878143338 0 0.011433068381641293 0.01369843955659833 0 0.010406542524231637 0.013960828881768599 0 0.011359565539052596 0.01157834097413989 0 0.011060825255658656 0.015405867522827551 0 0.011359565539052596 0.01157834097413989 0 0.010216088130538658 0.013653151539928144 0 0.0096887476570343637 0.010448365028271844 0 0.010322961999730429 0.010746249147015855 0 0.010310479114434787 0.011215969223649105 0 0.010278825542802081 0.018933359225304102 0 0.010292466891965878 0.018845647250476577 0 0.010185173444477766 0.01890345119039713 0 0.010278825542802081 0.018933359225304102 0 0.010292466891965878 0.018845647250476577 0 0.010333691078389134 0.018921059971287239 0 0.010216088130538658 0.013653151539928144 0 0.011060825255658656 0.015405867522827551 0 0.010278825542802081 0.018933359225304102 0 0.010185173444477766 0.01890345119039713 0 0.010227316803918904 0.01901091535032351 0 0.011065433958836328 0.011246257344053791 0 0.011534859437082979 0.010980358315988325 0 0.011143055526777922 0.011909624401850531 0 0.011350531825577822 0.011707603358143616 0 0.011503840619777501 0.012027887959785896 0 0.011532773456125528 0.01183085427327836 0 0.010508587680743496 0.0096547708198304813 0 0.011602120777565695 0.012355868203081944 0 0.011332954247906975 0.011510963637094989 0 0.011143055526777922 0.011909624401850531 0 0.011503840619777501 0.012027887959785896 0 0.010508587680743496 0.0096547708198304813 0 0.010793464770827802 0.011861310647399308 0 0.011107299032605414 0.010603981755502701 0 0.011534859437082979 0.010980358315988325 0 0.011120254921116098 0.010917820224399483 0 0.011107299032605414 0.010603981755502701 0 0.011120254921116098 0.010917820224399483 0 0.010760284106824813 0.010889778768767278 0 0.011065433958836328 0.011246257344053791 0 0.011120254921116098 0.010917820224399483 0 0.010760284106824813 0.010889778768767278 0 0.011065433958836328 0.011246257344053791 0 0.011534859437082979 0.010980358315988325 0 0.011120254921116098 0.010917820224399483 0 0.010310479114434787 0.011215969223649105 0 0.011065433958836328 0.011246257344053791 0 0.010760284106824813 0.010889778768767278 0 0.010216088130538658 0.013653151539928144 0 0.010929915518228807 0.010760555282225743 0 0.010322961999730429 0.010746249147015855 0 0.010310479114434787 0.011215969223649105 0 0.010760284106824813 0.010889778768767278 0 0.0092292497247080142 0.011785533024463108 0 0.010745986840801145 0.01220998958676661 0 0.010289057490933305 0.012823222453666627 0 0.0092292497247080142 0.011785533024463108 0 0.011065433958836328 0.011246257344053791 0 0.010745986840801145 0.01220998958676661 0 0.010216088130538658 0.013653151539928144 0 0.010310157572424735 0.015862626100323417 0 0.010745986840801145 0.01220998958676661 0 0.011165928323397193 0.012883999549686451 0 0.010289057490933305 0.012823222453666627 0 0.010745986840801145 0.01220998958676661 0 0.011308965965350368 0.012353942002471073 0 0.011165928323397193 0.012883999549686451 0 0.010745986840801145 0.01220998958676661 0 0.011143055526777922 0.011909624401850531 0 0.011308965965350368 0.012353942002471073 0 0.011065433958836328 0.011246257344053791 0 0.010745986840801145 0.01220998958676661 0 0.011143055526777922 0.011909624401850531 0 0.011143055526777922 0.011909624401850531 0 0.011308965965350368 0.012353942002471073 0 0.011503840619777501 0.012027887959785896 0 0.011308965965350368 0.012353942002471073 0 0.011883703727878094 0.012733466502750136 0 0.011165928323397193 0.012883999549686451 0 0.0030932455165769116 0.01937973898059759 0 0.0025144343433493622 0.025078361748942832 0 0.0083797343785945964 0.015534915976252154 0 0.0030932455165769116 0.01937973898059759 0 0.011308965965350368 0.012353942002471073 0 0.011883703727878094 0.012733466502750136 0 0.011503840619777501 0.012027887959785896 0 0.0040769991045888476 0.020884290089918975 0 0.0043502129101717643 0.019503416986744258 0 0.0048197352254388528 0.021079558020625225 0 0.011883703727878094 0.012733466502750136 0 0.011675317946978422 0.012015546854168752 0 0.011860337644815278 0.011901286722534054 0 0.011883703727878094 0.012733466502750136 0 0.011675317946978422 0.012015546854168752 0 0.011503840619777501 0.012027887959785896 0 0.011532773456125528 0.01183085427327836 0 0.011753758117447504 0.0118730165189407 0 0.011484882088990872 0.011207437800996978 0 0.011753758117447504 0.0118730165189407 0 0.011801147845996529 0.011871357181104622 0 0.011484882088990872 0.011207437800996978 0 0.011350531825577822 0.011707603358143616 0 0.011532773456125528 0.01183085427327836 0 0.011484882088990872 0.011207437800996978 0 0.011675317946978422 0.012015546854168752 0 0.011503840619777501 0.012027887959785896 0 0.011532773456125528 0.01183085427327836 0 0.011675317946978422 0.012015546854168752 0 0.011532773456125528 0.01183085427327836 0 0.011753758117447504 0.0118730165189407 0 -0.0017509930516182682 0.019712686089511489 0 -0.0017864977814865614 0.019592514837612596 0 -0.0012131344414172578 0.019033885920215814 0 0.011675317946978422 0.012015546854168752 0 0.011860337644815278 0.011901286722534054 0 0.011753758117447504 0.0118730165189407 0 0.0030932455165769116 0.01937973898059759 0 0.004332830843449628 0.019208830985142655 0 0.01180422336791161 0.011916614584914319 0 0.011753758117447504 0.0118730165189407 0 0.011801147845996529 0.011871357181104622 0 0.0030932455165769116 0.01937973898059759 0 0.0027136558635545466 0.018283952505447655 0 0.0027136558635545466 0.018283952505447655 0 -0.0013371970968747942 0.018220475339216172 0 -0.0017864977814865614 0.019592514837612596 0 -0.0012131344414172578 0.019033885920215814 0 -0.0015570781408449468 0.01829771555654458 0 -0.0017509930516182682 0.019712686089511489 0 -0.00044025939945431313 0.019181991694407069 0 -0.0012131344414172578 0.019033885920215814 0 -0.0017509930516182682 0.019712686089511489 0 -0.00044025939945431313 0.019181991694407069 0 -0.00012719973455434006 0.02061675726930284 0 -0.00044025939945431313 0.019181991694407069 0 -0.0012131344414172578 0.019033885920215814 0 -0.00074447319381073021 0.017897256681093911 0 1.1293409704761472e-05 0.027847437731776902 0 -0.00020387402486733873 0.027883055192611767 0 -4.0999093503381136e-05 0.027748906380122351 0 0.0030932455165769116 0.01937973898059759 0 -0.00039354266001038259 0.024564936031184023 0 -0.00039354266001038259 0.024564936031184023 0 -0.0010700514697814985 0.024910884314081928 0 -0.00012719973455434006 0.02061675726930284 0 0.00091162835715234171 0.019685936726808892 0 0.0015201224463392905 0.021538302291596655 0 -0.0062884328279637349 0.023203595833883959 0 -0.0057441607343575399 0.025612228990467372 0 -0.0045057468324015736 0.025046519609266592 0 -0.0028203685291678031 0.021183055079220948 0 -0.0010700514697814985 0.024910884314081928 0 -0.0062884328279637349 0.023203595833883959 0 -0.0043118766923011843 0.022812247311679437 0 -0.0045057468324015736 0.025046519609266592 0 -0.0062884328279637349 0.023203595833883959 0 -0.0050364111625658386 0.021460521183415526 0 -0.0043118766923011843 0.022812247311679437 0 -0.00044025939945431313 0.019181991694407069 0 0.00091162835715234171 0.019685936726808892 0 0.00026207909595028176 0.017871294282418942 0 -0.00044025939945431313 0.019181991694407069 0 -0.00012719973455434006 0.02061675726930284 0 0.00091162835715234171 0.019685936726808892 0 -0.0028203685291678031 0.021183055079220948 0 -0.0030799620132259545 0.019685431724619885 0 -0.0062884328279637349 0.023203595833883959 0 -0.006465308808640647 0.021403835394883337 0 -0.0050364111625658386 0.021460521183415526 0 -0.006465308808640647 0.021403835394883337 0 -0.0050364111625658386 0.021460521183415526 0 -0.0053175049029505336 0.020189830927138646 0 -0.0050364111625658386 0.021460521183415526 0 -0.0053175049029505336 0.020189830927138646 0 -0.0045233527574799542 0.020578118862002916 0 -0.0047616885245250927 0.019395492882135608 0 -0.0053175049029505336 0.020189830927138646 0 -0.0045233527574799542 0.020578118862002916 0 -0.006465308808640647 0.021403835394883337 0 -0.0053175049029505336 0.020189830927138646 0 -0.0065309206521785082 0.019701454761188293 0 -0.0030799620132259545 0.019685431724619885 0 -0.0033947626515643723 0.018231444640272546 0 -0.0014889545936294765 0.016196412764702964 0 -0.00039000287232499135 0.016267169723451977 0 -0.001257003220549656 0.017026727046663429 0 0.00026207909595028176 0.017871294282418942 0 -0.00039000287232499135 0.016267169723451977 0 -0.00074447319381073021 0.017897256681093911 0 -0.00039000287232499135 0.016267169723451977 0 -0.001257003220549656 0.017026727046663429 0 -0.00074447319381073021 0.017897256681093911 0 -0.0014889545936294765 0.016196412764702964 0 -0.001257003220549656 0.017026727046663429 0 -0.0018284153892842588 0.017323680683283053 0 0.0026014115150977454 0.0077827664492822113 0 0.0038376209785090576 0.010671772441367763 0 -0.0030173157242968825 0.013701785205738559 0 0.0038376209785090576 0.010671772441367763 0 -0.0036051107085058229 0.010475189586025932 0 -0.0019064086934956225 0.010948728073401684 0 -0.0025951551144868649 0.0084118536005915734 0 -0.001257003220549656 0.017026727046663429 0 -0.0018284153892842588 0.017323680683283053 0 -0.0013769639051338092 0.017682460121640015 0 0.010508587680743496 0.0096547708198304813 0 0.0038376209785090576 0.010671772441367763 0 -0.0014204466351835129 0.018298659151916453 0 -0.0018284153892842588 0.017323680683283053 0 -0.0013769639051338092 0.017682460121640015 0 0.0027136558635545466 0.018283952505447655 0 0.0038376209785090576 0.010671772441367763 0 -0.0012726431611838442 0.017104031097088041 0 -0.0013371970968747942 0.018220475339216172 0 -0.00044025939945431313 0.019181991694407069 0 0.00026207909595028176 0.017871294282418942 0 -0.00074447319381073021 0.017897256681093911 0 -0.0012131344414172578 0.019033885920215814 0 -0.0015570781408449468 0.01829771555654458 0 -0.00074447319381073021 0.017897256681093911 0 -0.001257003220549656 0.017026727046663429 0 -0.0015570781408449468 0.01829771555654458 0 -0.00074447319381073021 0.017897256681093911 0 0.015114058239742385 0.0053986349573955329 0 0.015704350439755377 0.005752497826705491 0 0.015124591395485424 0.0060931997305581492 0 0.015114058239742385 0.0053986349573955329 0 0.015704350439755377 0.005752497826705491 0 0.015558701484750753 0.0051653158083005898 0 0.015704350439755377 0.005752497826705491 0 0.01597390954351758 0.005229854639304643 0 0.016411591254830733 0.0056825353202868602 0 0.015704350439755377 0.005752497826705491 0 0.016411591254830733 0.0056825353202868602 0 0.015957626235938736 0.0062847640243012511 0 0.015704350439755377 0.005752497826705491 0 0.01597390954351758 0.005229854639304643 0 0.015558701484750753 0.0051653158083005898 0 0.01597390954351758 0.005229854639304643 0 0.015739271792329923 0.0047454864953218618 0 0.016276530940265165 0.0049238465533623958 0 0.01597390954351758 0.005229854639304643 0 0.015558701484750753 0.0051653158083005898 0 0.015739271792329923 0.0047454864953218618 0 0.015280038271953959 0.0048083319667806155 0 0.015558701484750753 0.0051653158083005898 0 0.015739271792329923 0.0047454864953218618 0 0.015280038271953959 0.0048083319667806155 0 0.015114058239742385 0.0053986349573955329 0 0.015558701484750753 0.0051653158083005898 0 0.015280038271953959 0.0048083319667806155 0 0.015518203455532691 0.0042195205309657887 0 0.015739271792329923 0.0047454864953218618 0 0.01583528755535649 0.0038595200109299167 0 0.015518203455532691 0.0042195205309657887 0 0.015917112307220146 0.0043048989376255143 0 0.01583528755535649 0.0038595200109299167 0 0.015917112307220146 0.0043048989376255143 0 0.016046829864753653 0.0039687477761428339 0 0.015917112307220146 0.0043048989376255143 0 0.015739271792329923 0.0047454864953218618 0 0.016276530940265165 0.0049238465533623958 0 0.015518203455532691 0.0042195205309657887 0 0.015917112307220146 0.0043048989376255143 0 0.015739271792329923 0.0047454864953218618 0 0.015917112307220146 0.0043048989376255143 0 0.016276530940265165 0.0049238465533623958 0 0.016275811759780611 0.0043057315140688501 0 0.015917112307220146 0.0043048989376255143 0 0.016275811759780611 0.0043057315140688501 0 0.016046829864753653 0.0039687477761428339 0 0.016275811759780611 0.0043057315140688501 0 0.016046829864753653 0.0039687477761428339 0 0.016235877800702309 0.003825700507743105 0 0.016275811759780611 0.0043057315140688501 0 0.016235877800702309 0.003825700507743105 0 0.017004040344209135 0.0044223565762825214 0 0.016727100607354918 0.0036343667000504733 0 0.01305962264428338 0.0065019532023321228 0 0.016187412131149742 0.0036630859146249638 0 0.016235877800702309 0.003825700507743105 0 0.016243317487254411 0.0039186247490826829 0 0.016276530940265165 0.0049238465533623958 0 0.017004040344209135 0.0044223565762825214 0 0.01711491320344705 0.0055568118601604117 0 0.01305962264428338 0.0065019532023321228 0 0.013124246557647488 0.007714354996217713 0 0.016276530940265165 0.0049238465533623958 0 0.016275811759780611 0.0043057315140688501 0 0.017004040344209135 0.0044223565762825214 0 0.016283262295417673 0.0050082456331598108 0 0.016206109524169284 0.0060693701304402152 0 0.016276530940265165 0.0049238465533623958 0 0.01711491320344705 0.0055568118601604117 0 0.015997789948168317 0.0064542725384225345 0 0.01597390954351758 0.005229854639304643 0 0.016276530940265165 0.0049238465533623958 0 0.016411591254830733 0.0056825353202868602 0 0.01711491320344705 0.0055568118601604117 0 0.015997789948168317 0.0064542725384225345 0 0.017058348239361025 0.0071594291963228106 0 0.013124246557647488 0.007714354996217713 0 0.012977396776169704 0.0092158712981672899 0 0.0091174824037665355 0.0098620760871920721 0 0.009692154392408418 0.010293817880942456 0 0.0089037180887625248 0.011259101062104543 0 0.009692154392408418 0.010293817880942456 0 0.0099052400164285712 0.01091997737171679 0 0.0089037180887625248 0.011259101062104543 0 0.009692154392408418 0.010293817880942456 0 0.01026732233515089 0.010466154988735467 0 0.010203675259108513 0.0097405650837782028 0 0.009692154392408418 0.010293817880942456 0 0.0099052400164285712 0.01091997737171679 0 0.01026732233515089 0.010466154988735467 0 0.0099052400164285712 0.01091997737171679 0 0.010397795911419001 0.01096216045493221 0 0.01026732233515089 0.010466154988735467 0 0.010397795911419001 0.01096216045493221 0 0.011003593981843956 0.011019443018612414 0 0.01026732233515089 0.010466154988735467 0 0.011019872563428915 0.010698080359397092 0 0.0099600770352238233 0.0096896194640352287 0 0.011019872563428915 0.010698080359397092 0 0.010729963986957015 0.0094545678176190459 0 0.010933195367931444 0.0110289578229367 0 0.010688259083931909 0.0098479788723750232 0 0.011300155720820774 0.010602785556191515 0 0.011003593981843956 0.011019443018612414 0 0.01026732233515089 0.010466154988735467 0 0.010203675259108513 0.0097405650837782028 0 0.010984768680250511 0.0098794041194246781 0 0.010796558486315467 0.0091508186656799953 0 0.010565367756104827 0.0092477070644202113 0 0.010796558486315467 0.0091508186656799953 0 0.010565367756104827 0.0092477070644202113 0 0.01055640500394789 0.00890013516344316 0 0.0091174824037665355 0.0098620760871920721 0 0.009692154392408418 0.010293817880942456 0 0.010203675259108513 0.0097405650837782028 0 0.0093654916961765453 0.0084336961465723229 0 0.0091174824037665355 0.0098620760871920721 0 0.010203675259108513 0.0097405650837782028 0 0.01305962264428338 0.0065019532023321228 0 0.0099600770352238233 0.0096896194640352287 0 0.010267687973814965 0.0087280209190282853 0 0.010565367756104827 0.0092477070644202113 0 0.01055640500394789 0.00890013516344316 0 0.010267687973814965 0.0087280209190282853 0 0.01055640500394789 0.00890013516344316 0 0.010604403097909557 0.0085907580939140644 0 0.013266114227280305 0.0059186736703155055 0 0.01305962264428338 0.0065019532023321228 0 0.010330367778424547 0.0082399597557133754 0 0.010267687973814965 0.0087280209190282853 0 0.010604403097909557 0.0085907580939140644 0 0.010518227130386337 0.0088543852398807691 0 0.010986283241763116 0.0092373203988338065 0 0.011098424167998489 0.008647680295062049 0 0.010690592405397711 0.0084567862864292249 0 0.010518227130386337 0.0088543852398807691 0 0.011098424167998489 0.008647680295062049 0 0.010688259083931909 0.0098479788723750232 0 0.010518227130386337 0.0088543852398807691 0 0.010986283241763116 0.0092373203988338065 0 0.010796558486315467 0.0091508186656799953 0 0.01055640500394789 0.00890013516344316 0 0.010604403097909557 0.0085907580939140644 0 0.010688259083931909 0.0098479788723750232 0 0.010986283241763116 0.0092373203988338065 0 0.011190275914968245 0.0096641227096310352 0 0.010729963986957015 0.0094545678176190459 0 0.010567282057481413 0.0087391684458884965 0 0.010986283241763116 0.0092373203988338065 0 0.011190275914968245 0.0096641227096310352 0 0.011645530060899681 0.009428496324596785 0 0.010986283241763116 0.0092373203988338065 0 0.011098424167998489 0.008647680295062049 0 0.011645530060899681 0.009428496324596785 0 0.010536991170865189 0.0085587873282277002 0 0.010503501662876429 0.0086705006971971883 0 0.010375864411218651 0.0087871139087014709 0 0.010832023794784155 0.0086178717330065834 0 0.0109980594936544 0.0091096768622567804 0 0.010623199677518468 0.0085946240346992941 0 0.010462729472778671 0.0087384032389672718 0 0.010503501662876429 0.0086705006971971883 0 0.010623199677518468 0.0085946240346992941 0 0.010536991170865189 0.0085587873282277002 0 0.010503501662876429 0.0086705006971971883 0 0.010462729472778671 0.0087384032389672718 0 0.01030865696910534 0.0088740460705994083 0 0.010375864411218651 0.0087871139087014709 0 0.010462729472778671 0.0087384032389672718 0 0.010503501662876429 0.0086705006971971883 0 0.010375864411218651 0.0087871139087014709 0 0.011645530060899681 0.009428496324596785 0 0.011449924582222605 0.010164084381741665 0 0.012255963759451361 0.010383574857646441 0 0.01030865696910534 0.0088740460705994083 0 0.010375864411218651 0.0087871139087014709 0 0.01016070742901776 0.0090493841094422926 0 0.0109980594936544 0.0091096768622567804 0 0.011333187553798507 0.0098079329301012531 0 0.010688259083931909 0.0098479788723750232 0 0.011449924582222605 0.010164084381741665 0 0.011300155720820774 0.010602785556191515 0 0.010688259083931909 0.0098479788723750232 0 0.011190275914968245 0.0096641227096310352 0 0.011449924582222605 0.010164084381741665 0 0.011190275914968245 0.0096641227096310352 0 0.011645530060899681 0.009428496324596785 0 0.011449924582222605 0.010164084381741665 0 0.011449924582222605 0.010164084381741665 0 0.011300155720820774 0.010602785556191515 0 0.011760957564073889 0.010662244221615562 0 0.010933195367931444 0.0110289578229367 0 0.011300155720820774 0.010602785556191515 0 0.011659927925261809 0.01114125481604707 0 0.011300155720820774 0.010602785556191515 0 0.011760957564073889 0.010662244221615562 0 0.011659927925261809 0.01114125481604707 0 0.011449924582222605 0.010164084381741665 0 0.012255963759451361 0.010383574857646441 0 0.011760957564073889 0.010662244221615562 0 0.012149423280680197 0.011039456818480906 0 0.011760957564073889 0.010662244221615562 0 0.011659927925261809 0.01114125481604707 0 0.012149423280680197 0.011039456818480906 0 0.012255963759451361 0.010383574857646441 0 0.011760957564073889 0.010662244221615562 0 0.012185976352234288 0.011674695708934655 0 0.011659927925261809 0.01114125481604707 0 0.011437716752366604 0.011819798673476087 0 0.012839100371909509 0.01142474004715986 0 0.012149423280680197 0.011039456818480906 0 0.012185976352234288 0.011674695708934655 0 0.012149423280680197 0.011039456818480906 0 0.012185976352234288 0.011674695708934655 0 0.011659927925261809 0.01114125481604707 0 0.01098488689675702 0.01105993950129835 0 0.011122747619799828 0.011649387851451899 0 0.011537591399846888 0.011909303876641048 0 0.011019872563428915 0.010698080359397092 0 0.011521609137105445 0.011925823974434081 0 0.010933195367931444 0.0110289578229367 0 0.011659927925261809 0.01114125481604707 0 0.011437716752366604 0.011819798673476087 0 0.011019872563428915 0.010698080359397092 0 0.011147444243790855 0.011555498907859257 0 0.011122747619799828 0.011649387851451899 0 0.011159729745536733 0.012080108362520086 0 0.010697112032307037 0.011974483502798139 0 0.011122747619799828 0.011649387851451899 0 0.011537591399846888 0.011909303876641048 0 0.011159729745536733 0.012080108362520086 0 0.011537591399846888 0.011909303876641048 0 0.011426483403331729 0.01243891437382544 0 0.012069055532804346 0.012735086775432792 0 0.011537591399846888 0.011909303876641048 0 0.011159729745536733 0.012080108362520086 0 0.011426483403331729 0.01243891437382544 0 0.011426483403331729 0.01243891437382544 0 0.011364813241574198 0.013004279227849792 0 0.010964402265998974 0.012507392666052832 0 0.011159729745536733 0.012080108362520086 0 0.011426483403331729 0.01243891437382544 0 0.010964402265998974 0.012507392666052832 0 0.011426483403331729 0.01243891437382544 0 0.012069055532804346 0.012735086775432792 0 0.011364813241574198 0.013004279227849792 0 0.012185976352234288 0.011674695708934655 0 0.011437716752366604 0.011819798673476087 0 0.012069055532804346 0.012735086775432792 0 0.012907991743852633 0.012428081076929406 0 0.012185976352234288 0.011674695708934655 0 0.012069055532804346 0.012735086775432792 0 0.011521609137105445 0.011925823974434081 0 0.012005576564285546 0.012630338079119211 0 0.012907991743852633 0.012428081076929406 0 0.012686446780517446 0.013934733630267922 0 0.012069055532804346 0.012735086775432792 0 0.012686446780517446 0.013934733630267922 0 0.012069055532804346 0.012735086775432792 0 0.011791248111740309 0.01351624499188378 0 0.011626264573663465 0.014369755456377548 0 0.010656970609960532 0.014607030415719136 0 0.010956492865754543 0.015068437880968412 0 0.011060825255658656 0.015405867522827551 0 0.011286429518310437 0.014262764476434065 0 0.012686446780517446 0.013934733630267922 0 0.011791248111740309 0.01351624499188378 0 0.011389673960201902 0.014278613390803666 0 0.011791248111740309 0.01351624499188378 0 0.011389673960201902 0.014278613390803666 0 0.011050699453096011 0.013576125946618313 0 0.011050699453096011 0.013576125946618313 0 0.011364813241574198 0.013004279227849792 0 0.010601450896877345 0.013041854711320912 0 0.011791248111740309 0.01351624499188378 0 0.011050699453096011 0.013576125946618313 0 0.011364813241574198 0.013004279227849792 0 0.012069055532804346 0.012735086775432792 0 0.011791248111740309 0.01351624499188378 0 0.011364813241574198 0.013004279227849792 0 0.011364813241574198 0.013004279227849792 0 0.010601450896877345 0.013041854711320912 0 0.010964402265998974 0.012507392666052832 0 0.010601450896877345 0.013041854711320912 0 0.009868052390343102 0.012818044824166314 0 0.010408219212732482 0.012475741806658305 0 0.010601450896877345 0.013041854711320912 0 0.010081401507123687 0.013323222501669911 0 0.009868052390343102 0.012818044824166314 0 0.010601450896877345 0.013041854711320912 0 0.010286849210297331 0.013843572285179385 0 0.010081401507123687 0.013323222501669911 0 0.011050699453096011 0.013576125946618313 0 0.010601450896877345 0.013041854711320912 0 0.010286849210297331 0.013843572285179385 0 0.011286429518310437 0.014262764476434065 0 0.0098936749795077369 0.014735236887148199 0 0.011389673960201902 0.014278613390803666 0 0.011050699453096011 0.013576125946618313 0 0.010286849210297331 0.013843572285179385 0 0.011389673960201902 0.014278613390803666 0 0.010286849210297331 0.013843572285179385 0 0.0099613826574255736 0.014689949081377583 0 0.010286849210297331 0.013843572285179385 0 0.0094506425491615795 0.014315322388941325 0 0.0095810574408001642 0.013580039646052899 0 0.010286849210297331 0.013843572285179385 0 0.0094506425491615795 0.014315322388941325 0 0.0099613826574255736 0.014689949081377583 0 0.010286849210297331 0.013843572285179385 0 0.0095810574408001642 0.013580039646052899 0 0.010081401507123687 0.013323222501669911 0 0.0095810574408001642 0.013580039646052899 0 0.010081401507123687 0.013323222501669911 0 0.009868052390343102 0.012818044824166314 0 0.0095810574408001642 0.013580039646052899 0 0.009868052390343102 0.012818044824166314 0 0.0092698487497755843 0.013027533855291444 0 0.009868052390343102 0.012818044824166314 0 0.0093936155379289888 0.012209880355050311 0 0.0092698487497755843 0.013027533855291444 0 0.0093936155379289888 0.012209880355050311 0 0.01001838555978652 0.012066127624259288 0 0.0097288119212360323 0.011581274142848839 0 0.009868052390343102 0.012818044824166314 0 0.01001838555978652 0.012066127624259288 0 0.010408219212732482 0.012475741806658305 0 0.009868052390343102 0.012818044824166314 0 0.0093936155379289888 0.012209880355050311 0 0.01001838555978652 0.012066127624259288 0 0.010601450896877345 0.013041854711320912 0 0.010408219212732482 0.012475741806658305 0 0.010964402265998974 0.012507392666052832 0 0.011159729745536733 0.012080108362520086 0 0.010964402265998974 0.012507392666052832 0 0.010697112032307037 0.011974483502798139 0 0.010408219212732482 0.012475741806658305 0 0.010964402265998974 0.012507392666052832 0 0.010697112032307037 0.011974483502798139 0 0.01001838555978652 0.012066127624259288 0 0.010408219212732482 0.012475741806658305 0 0.010697112032307037 0.011974483502798139 0 0.01001838555978652 0.012066127624259288 0 0.010697112032307037 0.011974483502798139 0 0.010413754510426353 0.011442033291347697 0 0.011122747619799828 0.011649387851451899 0 0.010697112032307037 0.011974483502798139 0 0.010413754510426353 0.011442033291347697 0 0.011003593981843956 0.011019443018612414 0 0.011122747619799828 0.011649387851451899 0 0.010413754510426353 0.011442033291347697 0 0.010397795911419001 0.01096216045493221 0 0.011003593981843956 0.011019443018612414 0 0.010413754510426353 0.011442033291347697 0 0.0099052400164285712 0.01091997737171679 0 0.010397795911419001 0.01096216045493221 0 0.010413754510426353 0.011442033291347697 0 0.0099052400164285712 0.01091997737171679 0 0.010413754510426353 0.011442033291347697 0 0.0097288119212360323 0.011581274142848839 0 0.0099052400164285712 0.01091997737171679 0 0.0097288119212360323 0.011581274142848839 0 0.0089037180887625248 0.011259101062104543 0 0.01001838555978652 0.012066127624259288 0 0.010413754510426353 0.011442033291347697 0 0.0097288119212360323 0.011581274142848839 0 0.0093936155379289888 0.012209880355050311 0 0.0097288119212360323 0.011581274142848839 0 0.0089037180887625248 0.011259101062104543 0 0.016411591254830733 0.0056825353202868602 0 0.016445938358891767 0.0067275848796112215 0 0.015957626235938736 0.0062847640243012511 0 0.016206109524169284 0.0060693701304402152 0 0.016152897160249046 0.0074370413702416699 0 0.015997789948168317 0.0064542725384225345 0 0.017058348239361025 0.0071594291963228106 0 0.01584724875004985 0.0081358077341315057 0 0.01584724875004985 0.0081358077341315057 0 0.016929229037803601 0.0087901788417556227 0 0.015790350253264012 0.0097331686075848786 0 0.017058348239361025 0.0071594291963228106 0 0.01584724875004985 0.0081358077341315057 0 0.016929229037803601 0.0087901788417556227 0 0.012977396776169704 0.0092158712981672899 0 0.012814376887406392 0.010719852694960386 0 0.0093936155379289888 0.012209880355050311 0 0.0089037180887625248 0.011259101062104543 0 0.0087145904880922675 0.012628343350862131 0 0.0093936155379289888 0.012209880355050311 0 0.0087145904880922675 0.012628343350862131 0 0.0092698487497755843 0.013027533855291444 0 0.012814376887406392 0.010719852694960386 0 0.012779953386950623 0.012081162493930464 0 0.0087145904880922675 0.012628343350862131 0 0.0092698487497755843 0.013027533855291444 0 0.0085777623061601936 0.013958161247252063 0 0.0095810574408001642 0.013580039646052899 0 0.0092698487497755843 0.013027533855291444 0 0.0085777623061601936 0.013958161247252063 0 0.0094506425491615795 0.014315322388941325 0 0.0095810574408001642 0.013580039646052899 0 0.0085777623061601936 0.013958161247252063 0 0.0094506425491615795 0.014315322388941325 0 0.0085777623061601936 0.013958161247252063 0 0.0089756796975462554 0.014593013667823701 0 0.016813755681125846 0.010282240555424474 0 0.015790350253264012 0.0097331686075848786 0 0.016383101622650404 0.010900531240233442 0 0.016152897160249046 0.0074370413702416699 0 0.01608022311017902 0.0090824078593815891 0 0.016929229037803601 0.0087901788417556227 0 0.016813755681125846 0.010282240555424474 0 0.015790350253264012 0.0097331686075848786 0 0.015637037406046644 0.0077351170117605028 0 0.016416898462773478 0.0083747661208531457 0 0.014654885536875537 0.0093273720010651467 0 0.016445938358891767 0.0067275848796112215 0 0.015637037406046644 0.0077351170117605028 0 0.016416898462773478 0.0083747661208531457 0 0.01608022311017902 0.0090824078593815891 0 0.015823412682105735 0.010963432602112771 0 0.016416898462773478 0.0083747661208531457 0 0.01512984139535248 0.010278274413508251 0 0.014654885536875537 0.0093273720010651467 0 0.016416898462773478 0.0083747661208531457 0 0.01512984139535248 0.010278274413508251 0 0.015798786598474782 0.011117335201146989 0 0.015790350253264012 0.0097331686075848786 0 0.015798786598474782 0.011117335201146989 0 0.016383101622650404 0.010900531240233442 0 0.013252369956879402 0.0098955158403078117 0 0.014654885536875537 0.0093273720010651467 0 0.014059941158303411 0.010786632018497663 0 0.01512984139535248 0.010278274413508251 0 0.014654885536875537 0.0093273720010651467 0 0.014059941158303411 0.010786632018497663 0 0.013252369956879402 0.0098955158403078117 0 0.014654885536875537 0.0093273720010651467 0 0.01347317890386413 0.0085681656278994399 0 0.015637037406046644 0.0077351170117605028 0 0.014654885536875537 0.0093273720010651467 0 0.01347317890386413 0.0085681656278994399 0 0.015525448156612318 0.0077519778076584108 0 0.014257123466488372 0.0081802613277248241 0 0.015637037406046644 0.0077351170117605028 0 0.015019653831713132 0.0078069784125366325 0 0.015193215112046235 0.0072816036323567869 0 0.014735614637436825 0.0066050639246379213 0 0.015193215112046235 0.0072816036323567869 0 0.015435414001663773 0.0065246825885201306 0 0.015637037406046644 0.0077351170117605028 0 0.015193215112046235 0.0072816036323567869 0 0.015744049074208264 0.0068678764698732291 0 0.015193215112046235 0.0072816036323567869 0 0.015744049074208264 0.0068678764698732291 0 0.015435414001663773 0.0065246825885201306 0 0.016445938358891767 0.0067275848796112215 0 0.015637037406046644 0.0077351170117605028 0 0.015744049074208264 0.0068678764698732291 0 0.016445938358891767 0.0067275848796112215 0 0.015744049074208264 0.0068678764698732291 0 0.015957626235938736 0.0062847640243012511 0 0.015704350439755377 0.005752497826705491 0 0.015957626235938736 0.0062847640243012511 0 0.015435414001663773 0.0065246825885201306 0 0.015744049074208264 0.0068678764698732291 0 0.015957626235938736 0.0062847640243012511 0 0.015435414001663773 0.0065246825885201306 0 0.015704350439755377 0.005752497826705491 0 0.015124591395485424 0.0060931997305581492 0 0.015435414001663773 0.0065246825885201306 0 0.014735614637436825 0.0066050639246379213 0 0.015124591395485424 0.0060931997305581492 0 0.015435414001663773 0.0065246825885201306 0 0.012792823192847098 0.015551650367299526 0 0.013602029482594915 0.015337560492839047 0 0.01285641464852726 0.016426713186457227 0 0.012792823192847098 0.015551650367299526 0 0.013602029482594915 0.015337560492839047 0 0.012747203116486522 0.014665732942294151 0 0.011970262284814676 0.015452129885628059 0 0.012792823192847098 0.015551650367299526 0 0.012747203116486522 0.014665732942294151 0 0.012042412132036055 0.016326010975681784 0 0.011970262284814676 0.015452129885628059 0 0.012792823192847098 0.015551650367299526 0 0.013602029482594915 0.015337560492839047 0 0.014362688657732478 0.016094118150037792 0 0.013640061837731084 0.016624655710938338 0 0.013602029482594915 0.015337560492839047 0 0.013706421856312965 0.014450725383852669 0 0.012747203116486522 0.014665732942294151 0 0.013602029482594915 0.015337560492839047 0 0.013706421856312965 0.014450725383852669 0 0.014473201770549509 0.014838820212124088 0 0.014648000917973893 0.014810606862914353 0 0.011368705457879344 0.015572450466238886 0 0.013706421856312965 0.014450725383852669 0 0.012747203116486522 0.014665732942294151 0 0.013051922369901698 0.013721245786393296 0 0.012062271299752379 0.013859381605969704 0 0.014114581664902299 0.013210097307890779 0 0.013271834186186125 0.012395817123853722 0 0.014685588905227216 0.012571672338880777 0 0.014845484454989252 0.011582284769392805 0 0.012110912589206669 0.013911072612842001 0 0.012747203116486522 0.014665732942294151 0 0.013051922369901698 0.013721245786393296 0 0.013271834186186125 0.012395817123853722 0 0.014845484454989252 0.011582284769392805 0 0.014059941158303411 0.010786632018497663 0 0.01512984139535248 0.010278274413508251 0 0.014845484454989252 0.011582284769392805 0 0.014059941158303411 0.010786632018497663 0 0.01512984139535248 0.010278274413508251 0 0.014845484454989252 0.011582284769392805 0 0.015798786598474782 0.011117335201146989 0 0.014845484454989252 0.011582284769392805 0 0.015798786598474782 0.011117335201146989 0 0.015917650934838084 0.012066702067296825 0 0.015798786598474782 0.011117335201146989 0 0.015917650934838084 0.012066702067296825 0 0.016219797444636034 0.011427871947122754 0 0.013706421856312965 0.014450725383852669 0 0.013051922369901698 0.013721245786393296 0 0.014627994466169468 0.013718993962178329 0 0.014588883540258909 0.01327949828687691 0 0.01342846341711516 0.013576375017757904 0 0.01234778789502235 0.013336364758262376 0 0.014114581664902299 0.013210097307890779 0 0.011797625905722276 0.014462244217389359 0 0.014685588905227216 0.012571672338880777 0 0.014845484454989252 0.011582284769392805 0 0.015917650934838084 0.012066702067296825 0 0.014114581664902299 0.013210097307890779 0 0.01512198358226065 0.012718271809571632 0 0.0090840760664668545 0.015290020701885459 0 0.009192896437891028 0.015379892533179118 0 0.0090472068444988982 0.01560914348382994 0 0.011797625905722276 0.014462244217389359 0 0.011829535417303643 0.013566522968423715 0 0.01342846341711516 0.013576375017757904 0 0.01234778789502235 0.013336364758262376 0 0.012265946836709262 0.013873160294241901 0 0.01512198358226065 0.012718271809571632 0 0.011829535417303643 0.013566522968423715 0 0.012779953386950623 0.012081162493930464 0 0.011829535417303643 0.013566522968423715 0 0.015917650934838084 0.012066702067296825 0 0.016219797444636034 0.011427871947122754 0 0.016734634600586398 0.011695157866574202 0 0.016219797444636034 0.011427871947122754 0 0.016734634600586398 0.011695157866574202 0 0.016383101622650404 0.010900531240233442 0 0.016813755681125846 0.010282240555424474 0 0.016734634600586398 0.011695157866574202 0 0.016383101622650404 0.010900531240233442 0 0.015798786598474782 0.011117335201146989 0 0.016219797444636034 0.011427871947122754 0 0.016383101622650404 0.010900531240233442 0 0.011829535417303643 0.013566522968423715 0 0.008154156523010261 0.015333822173531856 0 0.0084496328020836065 0.015176833186399225 0 0.0089756796975462554 0.014593013667823701 0 0.0093978342806528437 0.014942644298688816 0 0.0085777623061601936 0.013958161247252063 0 0.0084496328020836065 0.015176833186399225 0 0.0089756796975462554 0.014593013667823701 0 0.0094506425491615795 0.014315322388941325 0 0.0089756796975462554 0.014593013667823701 0 0.0093978342806528437 0.014942644298688816 0 0.0090259156959231601 0.015092218468034239 0 0.0093978342806528437 0.014942644298688816 0 0.0092993253284752546 0.01524710681332621 0 0.011797625905722276 0.014462244217389359 0 0.0085144179020331841 0.015178260961046866 0 0.0090106346866159325 0.015236424104682346 0 0.0090259156959231601 0.015092218468034239 0 0.0092993253284752546 0.01524710681332621 0 0.0090840760664668545 0.015290020701885459 0 0.0092993253284752546 0.01524710681332621 0 0.009192896437891028 0.015379892533179118 0 0.0092993253284752546 0.01524710681332621 0 0.009192896437891028 0.015379892533179118 0 0.009322877652425017 0.015490753432545232 0 0.0087416314813284299 0.016208638907708305 0 0.008573408921056928 0.016731121088551053 0 0.0080867383283394507 0.016600491993929281 0 0.009192896437891028 0.015379892533179118 0 0.009322877652425017 0.015490753432545232 0 0.0090472068444988982 0.01560914348382994 0 0.0085500548404989843 0.016055246747936517 0 0.011368705457879344 0.015572450466238886 0 0.0087416314813284299 0.016208638907708305 0 0.008573408921056928 0.016731121088551053 0 0.0090591680316360473 0.016611773018523658 0 0.011797625905722276 0.014462244217389359 0 0.011368705457879344 0.015572450466238886 0 0.013706421856312965 0.014450725383852669 0 0.014627994466169468 0.013718993962178329 0 0.014473201770549509 0.014838820212124088 0 0.0080867383283394507 0.016600491993929281 0 0.0083860284276167842 0.017119274219615534 0 0.0079819567077598352 0.017414579602062791 0 0.011368705457879344 0.015572450466238886 0 0.011153546544042159 0.016877174814664136 0 0.008573408921056928 0.016731121088551053 0 0.0080867383283394507 0.016600491993929281 0 0.0083860284276167842 0.017119274219615534 0 0.013602029482594915 0.015337560492839047 0 0.014515346917451112 0.014867666844104347 0 0.014362688657732478 0.016094118150037792 0 0.0083860284276167842 0.017119274219615534 0 0.0087738135373940217 0.01715204992299461 0 0.0085202973601386234 0.017700575552759515 0 0.008573408921056928 0.016731121088551053 0 0.0087738135373940217 0.01715204992299461 0 0.0090591680316360473 0.016611773018523658 0 0.008573408921056928 0.016731121088551053 0 0.0083860284276167842 0.017119274219615534 0 0.0087738135373940217 0.01715204992299461 0 0.0092646767864402509 0.017192008827491057 0 0.0097498102154096079 0.017125123510838787 0 0.0096182305059515968 0.016570136080276906 0 0.0092646767864402509 0.017192008827491057 0 0.0096182305059515968 0.016570136080276906 0 0.0090591680316360473 0.016611773018523658 0 0.0087738135373940217 0.01715204992299461 0 0.0092646767864402509 0.017192008827491057 0 0.0090591680316360473 0.016611773018523658 0 0.0087738135373940217 0.01715204992299461 0 0.0092646767864402509 0.017192008827491057 0 0.0090754045607257094 0.01773224158945811 0 0.0092646767864402509 0.017192008827491057 0 0.0097498102154096079 0.017125123510838787 0 0.0096262690637212069 0.017656472479391529 0 0.0097498102154096079 0.017125123510838787 0 0.01015431999212706 0.017499918425432096 0 0.0096262690637212069 0.017656472479391529 0 0.0097498102154096079 0.017125123510838787 0 0.0096182305059515968 0.016570136080276906 0 0.010277912851041548 0.016687543908099213 0 0.0097498102154096079 0.017125123510838787 0 0.010277912851041548 0.016687543908099213 0 0.01015431999212706 0.017499918425432096 0 0.0096182305059515968 0.016570136080276906 0 0.0094329939102682035 0.01574199586582898 0 0.010096682222530934 0.015988211192654814 0 0.0096182305059515968 0.016570136080276906 0 0.010096682222530934 0.015988211192654814 0 0.010277912851041548 0.016687543908099213 0 0.0096182305059515968 0.016570136080276906 0 0.0090591680316360473 0.016611773018523658 0 0.0094329939102682035 0.01574199586582898 0 0.0087416314813284299 0.016208638907708305 0 0.0090591680316360473 0.016611773018523658 0 0.0094329939102682035 0.01574199586582898 0 0.0085500548404989843 0.016055246747936517 0 0.0097520411965442942 0.015481557149428025 0 0.0092993253284752546 0.01524710681332621 0 0.009322877652425017 0.015490753432545232 0 0.0098237926167295802 0.015345493945934914 0 0.0093978342806528437 0.014942644298688816 0 0.0092993253284752546 0.01524710681332621 0 0.0098237926167295802 0.015345493945934914 0 0.0093978342806528437 0.014942644298688816 0 0.0098237926167295802 0.015345493945934914 0 0.0099613826574255736 0.014689949081377583 0 0.0094506425491615795 0.014315322388941325 0 0.0093978342806528437 0.014942644298688816 0 0.0099613826574255736 0.014689949081377583 0 0.010656970609960532 0.014607030415719136 0 0.0099613826574255736 0.014689949081377583 0 0.010334748157061506 0.015178751731498538 0 0.0098237926167295802 0.015345493945934914 0 0.0099613826574255736 0.014689949081377583 0 0.010334748157061506 0.015178751731498538 0 0.0097520411965442942 0.015481557149428025 0 0.010242749180726004 0.015225725147559346 0 0.0094329939102682035 0.01574199586582898 0 0.010334748157061506 0.015178751731498538 0 0.010096682222530934 0.015988211192654814 0 0.010334748157061506 0.015178751731498538 0 0.010096682222530934 0.015988211192654814 0 0.010808586651898492 0.0157241929302336 0 0.010334748157061506 0.015178751731498538 0 0.010808586651898492 0.0157241929302336 0 0.010956492865754543 0.015068437880968412 0 0.010656970609960532 0.014607030415719136 0 0.010334748157061506 0.015178751731498538 0 0.010956492865754543 0.015068437880968412 0 0.011626264573663465 0.014369755456377548 0 0.010956492865754543 0.015068437880968412 0 0.011514228865093542 0.015283824970212634 0 0.010841146072939943 0.017409139945638506 0 0.010868015201205929 0.017569567910450175 0 0.010808586651898492 0.0157241929302336 0 0.011514228865093542 0.015283824970212634 0 0.011365976680472761 0.016319349348519165 0 0.010808586651898492 0.0157241929302336 0 0.010956492865754543 0.015068437880968412 0 0.011514228865093542 0.015283824970212634 0 0.010096682222530934 0.015988211192654814 0 0.010808586651898492 0.0157241929302336 0 0.010277912851041548 0.016687543908099213 0 0.010808586651898492 0.0157241929302336 0 0.011365976680472761 0.016319349348519165 0 0.010277912851041548 0.016687543908099213 0 0.010277912851041548 0.016687543908099213 0 0.011088325303476443 0.017392086510552171 0 0.01015431999212706 0.017499918425432096 0 0.011365976680472761 0.016319349348519165 0 0.010277912851041548 0.016687543908099213 0 0.011088325303476443 0.017392086510552171 0 0.010362696517787014 0.018950289501766637 0 0.010499657280261839 0.018740400738451641 0 0.010293820855604523 0.018781457774616862 0 0.010868015201205929 0.017569567910450175 0 0.010778821124937244 0.018061888354852357 0 0.010499657280261839 0.018740400738451641 0 0.010612735384141984 0.018388415808175865 0 0.010362097546165417 0.018569393275589308 0 0.011088325303476443 0.017392086510552171 0 0.010455371058732966 0.017920300665084096 0 0.010612735384141984 0.018388415808175865 0 0.010778821124937244 0.018061888354852357 0 0.010650543550191804 0.018344090470416935 0 0.010455371058732966 0.017920300665084096 0 0.01015431999212706 0.017499918425432096 0 0.010087668390496249 0.018195351130742034 0 0.011088325303476443 0.017392086510552171 0 0.010455371058732966 0.017920300665084096 0 0.01015431999212706 0.017499918425432096 0 0.010455371058732966 0.017920300665084096 0 0.010612735384141984 0.018388415808175865 0 0.010087668390496249 0.018195351130742034 0 0.010612735384141984 0.018388415808175865 0 0.010346048436978644 0.018750436461217063 0 0.010087668390496249 0.018195351130742034 0 0.010612735384141984 0.018388415808175865 0 0.010346048436978644 0.018750436461217063 0 0.010517396958648829 0.018398864831507419 0 0.010612735384141984 0.018388415808175865 0 0.010362097546165417 0.018569393275589308 0 0.010517396958648829 0.018398864831507419 0 0.0089278216695871642 0.022447581020596047 0 0.0082673481024931189 0.022425042669180897 0 0.0066880472235131714 0.025740405402826752 0 0.007507888440110605 0.026130292627041991 0 0.0061412744416024009 0.026390254912777623 0 0.0066880472235131714 0.025740405402826752 0 0.0063367917189348514 0.025000054974663035 0 0.0078054956661514699 0.024999910404723484 0 0.0066880472235131714 0.025740405402826752 0 0.0078054956661514699 0.024999910404723484 0 0.007507888440110605 0.026130292627041991 0 0.0089278216695871642 0.022447581020596047 0 0.00907520486854781 0.022345677028834492 0 0.010346048436978644 0.018750436461217063 0 0.0098203646125971048 0.018595113118669189 0 0.0093990351853216747 0.019120165941814704 0 0.0078054956661514699 0.024999910404723484 0 0.007507888440110605 0.026130292627041991 0 0.0088553079989253155 0.025829747863262704 0 0.0078054956661514699 0.024999910404723484 0 0.0092740215080140045 0.024999966485673736 0 0.0088553079989253155 0.025829747863262704 0 0.0093990351853216747 0.019120165941814704 0 0.0094043555001702868 0.018341120017718076 0 0.0088856573402549977 0.01879091907822086 0 0.0098203646125971048 0.018595113118669189 0 0.0093990351853216747 0.019120165941814704 0 0.0094043555001702868 0.018341120017718076 0 0.0094043555001702868 0.018341120017718076 0 0.0090754045607257094 0.01773224158945811 0 0.0088507386077261233 0.018320540982570951 0 0.0094043555001702868 0.018341120017718076 0 0.0088507386077261233 0.018320540982570951 0 0.0088856573402549977 0.01879091907822086 0 0.0098203646125971048 0.018595113118669189 0 0.0094043555001702868 0.018341120017718076 0 0.010087668390496249 0.018195351130742034 0 0.010346048436978644 0.018750436461217063 0 0.0098203646125971048 0.018595113118669189 0 0.010087668390496249 0.018195351130742034 0 0.0094043555001702868 0.018341120017718076 0 0.010087668390496249 0.018195351130742034 0 0.0096262690637212069 0.017656472479391529 0 0.01015431999212706 0.017499918425432096 0 0.010087668390496249 0.018195351130742034 0 0.0096262690637212069 0.017656472479391529 0 0.0094043555001702868 0.018341120017718076 0 0.0096262690637212069 0.017656472479391529 0 0.0090754045607257094 0.01773224158945811 0 0.0092646767864402509 0.017192008827491057 0 0.0096262690637212069 0.017656472479391529 0 0.0090754045607257094 0.01773224158945811 0 0.0090754045607257094 0.01773224158945811 0 0.0085202973601386234 0.017700575552759515 0 0.0088507386077261233 0.018320540982570951 0 0.0087738135373940217 0.01715204992299461 0 0.0090754045607257094 0.01773224158945811 0 0.0085202973601386234 0.017700575552759515 0 0.0085202973601386234 0.017700575552759515 0 0.0079819567077598352 0.017414579602062791 0 0.0078882713184924413 0.018225872034314684 0 0.0083860284276167842 0.017119274219615534 0 0.0085202973601386234 0.017700575552759515 0 0.0079819567077598352 0.017414579602062791 0 0.011153546544042159 0.016877174814664136 0 0.011060050784596221 0.017319100576573935 0 0.0078882713184924413 0.018225872034314684 0 0.0088507386077261233 0.018320540982570951 0 0.0083664998299439047 0.018776771185829003 0 0.0085202973601386234 0.017700575552759515 0 0.0078882713184924413 0.018225872034314684 0 0.0088507386077261233 0.018320540982570951 0 0.0088856573402549977 0.01879091907822086 0 0.0083999033066572224 0.019406192954743141 0 0.0083664998299439047 0.018776771185829003 0 0.0093990351853216747 0.019120165941814704 0 0.0088856573402549977 0.01879091907822086 0 0.0083999033066572224 0.019406192954743141 0 0.0088507386077261233 0.018320540982570951 0 0.0088856573402549977 0.01879091907822086 0 0.0083664998299439047 0.018776771185829003 0 0.00907520486854781 0.022345677028834492 0 0.0095715413291817437 0.023427752171057987 0 0.009275778572028626 0.025001425089265793 0 0.0095715413291817437 0.023427752171057987 0 0.0092741273355622916 0.024999998827823607 0 0.010224276579891892 0.024999990548889663 0 0.010202748926713167 0.025543576836774207 0 0.0092740215080140045 0.024999966485673736 0 0.0088553079989253155 0.025829747863262704 0 0.01013623837789336 0.025491497962907214 0 0.010224276579891892 0.024999990548889663 0 0.011174428241620194 0.024999995853368238 0 0.011122800006170531 0.025323606167597996 0 0.010224276579891892 0.024999990548889663 0 0.010202748926713167 0.025543576836774207 0 0.011122800006170531 0.025323606167597996 0 0.010575076044160416 0.023224520795196608 0 0.010635684192163743 0.023249819450788918 0 0.010641871051327592 0.023213448863099329 0 0.0095715413291817437 0.023427752171057987 0 0.01101153659769975 0.024927742867958888 0 0.0083999033066572224 0.019406192954743141 0 0.0083664998299439047 0.018776771185829003 0 0.0077906431657096317 0.019039292808816534 0 0.0095715413291817437 0.023427752171057987 0 0.011325012564760126 0.021301176510550225 0 0.0078882713184924413 0.018225872034314684 0 0.0083664998299439047 0.018776771185829003 0 0.0077906431657096317 0.019039292808816534 0 0.011060050784596221 0.017319100576573935 0 0.011325012564760126 0.021301176510550225 0 0.011258093056091158 0.025807426709625738 0 0.011862322759690219 0.025623531426512136 0 0.012363825835491093 0.026426660217171397 0 0.011325012564760126 0.021301176510550225 0 0.012768734620675019 0.022081403249918481 0 0.011325012564760126 0.021301176510550225 0 0.01101153659769975 0.024927742867958888 0 0.011258093056091158 0.025807426709625738 0 0.011358653827305288 0.02524608771024316 0 0.011862322759690219 0.025623531426512136 0 0.011358653827305288 0.02524608771024316 0 0.011936662570402974 0.025120699633633274 0 0.011862322759690219 0.025623531426512136 0 0.01117452144488895 0.025000000731189426 0 0.011123463099164942 0.025333892830186784 0 0.011936662570402974 0.025120699633633274 0 0.01101153659769975 0.024927742867958888 0 0.011884873634037339 0.02511508422814341 0 0.01117419881611836 0.025000096885717072 0 0.01101153659769975 0.024927742867958888 0 0.012575324475438118 0.024999864478030712 0 0.01117452144488895 0.025000000731189426 0 0.011936662570402974 0.025120699633633274 0 0.012575324475438118 0.024999864478030712 0 0.011936662570402974 0.025120699633633274 0 0.012503837333134527 0.025579119186745009 0 0.011936662570402974 0.025120699633633274 0 0.012503837333134527 0.025579119186745009 0 0.011862322759690219 0.025623531426512136 0 0.012503837333134527 0.025579119186745009 0 0.011862322759690219 0.025623531426512136 0 0.012363825835491093 0.026426660217171397 0 0.014184487062214788 0.017369016888594126 0 0.013984562819750784 0.018646507254518607 0 0.012543189621503512 0.017738548371082321 0 0.014184487062214788 0.017369016888594126 0 0.012543189621503512 0.017738548371082321 0 0.013640061837731084 0.016624655710938338 0 0.014362688657732478 0.016094118150037792 0 0.014184487062214788 0.017369016888594126 0 0.013640061837731084 0.016624655710938338 0 0.013602029482594915 0.015337560492839047 0 0.013640061837731084 0.016624655710938338 0 0.01285641464852726 0.016426713186457227 0 0.012543189621503512 0.017738548371082321 0 0.013640061837731084 0.016624655710938338 0 0.01285641464852726 0.016426713186457227 0 0.012042412132036055 0.016326010975681784 0 0.012543189621503512 0.017738548371082321 0 0.01285641464852726 0.016426713186457227 0 0.012042412132036055 0.016326010975681784 0 0.012792823192847098 0.015551650367299526 0 0.01285641464852726 0.016426713186457227 0 0.0010528016557776929 0.027012742014682831 0 0.00072447531269327669 0.026894075034718298 0 0.00097472428489384837 0.026717018405500573 0 0.0010528016557776929 0.027012742014682831 0 0.00072447531269327669 0.026894075034718298 0 0.00081855549677602244 0.027155550582385207 0 0.00072447531269327669 0.026894075034718298 0 0.00081855549677602244 0.027155550582385207 0 0.00030873375420929175 0.027051082928397311 0 0.00081855549677602244 0.027155550582385207 0 0.0010925184141241896 0.027317135017730143 0 0.00088696960572915307 0.027552756387091832 0 0.00081855549677602244 0.027155550582385207 0 0.00030873375420929175 0.027051082928397311 0 0.00088696960572915307 0.027552756387091832 0 0.0010528016557776929 0.027012742014682831 0 0.0010925184141241896 0.027317135017730143 0 0.0013241559650540202 0.027120261385680081 0 0.0010528016557776929 0.027012742014682831 0 0.00081855549677602244 0.027155550582385207 0 0.0010925184141241896 0.027317135017730143 0 0.0010925184141241896 0.027317135017730143 0 0.0013241559650540202 0.027120261385680081 0 0.0013543571533488868 0.027397343379173877 0 0.0013241559650540202 0.027120261385680081 0 0.0016859953914470651 0.027064543018363384 0 0.0013543571533488868 0.027397343379173877 0 0.0013241559650540202 0.027120261385680081 0 0.0016859953914470651 0.027064543018363384 0 0.0013903824344686283 0.026838037261907356 0 0.0010528016557776929 0.027012742014682831 0 0.0013241559650540202 0.027120261385680081 0 0.0013903824344686283 0.026838037261907356 0 0.0016859953914470651 0.027064543018363384 0 0.0013903824344686283 0.026838037261907356 0 0.0017570232863377423 0.02657387128968727 0 0.0013903824344686283 0.026838037261907356 0 0.0014026302072478625 0.026589740051206921 0 0.0017570232863377423 0.02657387128968727 0 0.0014026302072478625 0.026589740051206921 0 0.00097472428489384837 0.026717018405500573 0 0.0010482314685647425 0.026482294585457332 0 0.0013903824344686283 0.026838037261907356 0 0.0014026302072478625 0.026589740051206921 0 0.00097472428489384837 0.026717018405500573 0 0.0010528016557776929 0.027012742014682831 0 0.0013903824344686283 0.026838037261907356 0 0.00097472428489384837 0.026717018405500573 0 0.00072447531269327669 0.026894075034718298 0 0.00097472428489384837 0.026717018405500573 0 0.00045388872051673037 0.026579666865704708 0 0.00097472428489384837 0.026717018405500573 0 0.00045388872051673037 0.026579666865704708 0 0.0010482314685647425 0.026482294585457332 0 0.00045388872051673037 0.026579666865704708 0 -0.00052558948542790189 0.026651376487373871 0 -0.00023006578522714199 0.026283151017949528 0 -0.00052558948542790189 0.026651376487373871 0 0.00030873375420929175 0.027051082928397311 0 -0.00047565663590187296 0.027289499102342286 0 -0.00052558948542790189 0.026651376487373871 0 -0.00047565663590187296 0.027289499102342286 0 -0.0015233262009105763 0.026761033000752714 0 0.00045388872051673037 0.026579666865704708 0 -0.00052558948542790189 0.026651376487373871 0 0.00030873375420929175 0.027051082928397311 0 0.00072447531269327669 0.026894075034718298 0 0.00045388872051673037 0.026579666865704708 0 0.00030873375420929175 0.027051082928397311 0 0.00030873375420929175 0.027051082928397311 0 -0.00047565663590187296 0.027289499102342286 0 0.00088696960572915307 0.027552756387091832 0 -0.00047565663590187296 0.027289499102342286 0 0.00094512534776371453 0.027755556414408359 0 0.00088696960572915307 0.027552756387091832 0 -0.00047565663590187296 0.027289499102342286 0 -0.00055305641028398551 0.027629877656970045 0 -0.00028944261919907016 0.027660904390347782 0 -0.00047565663590187296 0.027289499102342286 0 -0.00028944261919907016 0.027660904390347782 0 -8.6411536033652425e-05 0.027466958160256981 0 -0.0008781341045434681 0.02774483316663038 0 0.0016930430530685333 0.025695007918136732 0 -0.00047565663590187296 0.027289499102342286 0 -0.0015233262009105763 0.026761033000752714 0 -0.0014796572227581952 0.027188621654399479 0 -0.00047565663590187296 0.027289499102342286 0 -0.00088449951554399288 0.027580371582311261 0 -0.0014796572227581952 0.027188621654399479 0 -0.00047565663590187296 0.027289499102342286 0 -0.00088449951554399288 0.027580371582311261 0 -0.00055305641028398551 0.027629877656970045 0 -0.00088449951554399288 0.027580371582311261 0 -0.00068014359608673588 0.027900106166047944 0 -0.0014349432975712256 0.027909627967582822 0 -0.00088449951554399288 0.027580371582311261 0 -0.00055305641028398551 0.027629877656970045 0 -0.00068014359608673588 0.027900106166047944 0 -0.00055305641028398551 0.027629877656970045 0 -0.00068014359608673588 0.027900106166047944 0 -0.00045629337752520644 0.027778677917292209 0 -0.00062457884254808803 0.027907013507836479 0 -0.00068014359608673588 0.027900106166047944 0 -0.00045629337752520644 0.027778677917292209 0 -0.0010700514697814985 0.024910884314081928 0 -0.00072640135251348867 0.026149487766084004 0 -0.0057441607343575399 0.025612228990467372 0 -0.0042055820508774587 0.026580355433966786 0 -0.0045057468324015736 0.025046519609266592 0 -0.0010700514697814985 0.024910884314081928 0 -0.0029744411123064749 0.027090117789682181 0 -0.00060732786825985427 0.028041131080219835 0 -0.00068014359608673588 0.027900106166047944 0 -0.0014349432975712256 0.027909627967582822 0 -0.00020387402486733873 0.027883055192611767 0 -0.00028944261919907016 0.027660904390347782 0 -0.00045629337752520644 0.027778677917292209 0 -0.00020387402486733873 0.027883055192611767 0 -0.00062457884254808803 0.027907013507836479 0 -0.00045629337752520644 0.027778677917292209 0 -0.00055305641028398551 0.027629877656970045 0 -0.00028944261919907016 0.027660904390347782 0 -0.00045629337752520644 0.027778677917292209 0 -0.00020387402486733873 0.027883055192611767 0 -0.00028944261919907016 0.027660904390347782 0 -4.0999093503381136e-05 0.027748906380122351 0 -0.00028944261919907016 0.027660904390347782 0 -4.0999093503381136e-05 0.027748906380122351 0 -8.6411536033652425e-05 0.027466958160256981 0 0.0025144343433493622 0.025078361748942832 0 0.0016930430530685333 0.025695007918136732 0 0.00093560100410019316 0.027651411734783013 0 0.0011791370938284266 0.027528575551611405 0 0.00088696960572915307 0.027552756387091832 0 0.0010925184141241896 0.027317135017730143 0 0.0011791370938284266 0.027528575551611405 0 0.00088696960572915307 0.027552756387091832 0 0.0010925184141241896 0.027317135017730143 0 0.0011791370938284266 0.027528575551611405 0 0.0013543571533488868 0.027397343379173877 0 0.0016930430530685333 0.025695007918136732 0 0.0017178758105479643 0.026372237815456234 0 0.00093560100410019316 0.027651411734783013 0 0.0011791370938284266 0.027528575551611405 0 0.0016171966098088859 0.027719365196417319 0 0.0097267904384675617 0.018983064506737247 0 0.0096908758184947093 0.019153066997557092 0 0.0097834269903935289 0.019050432734818396 0 0.0016859953914470651 0.027064543018363384 0 0.0013543571533488868 0.027397343379173877 0 0.0016171966098088859 0.027719365196417319 0 0.0016930430530685333 0.025695007918136732 0 0.006481107715898873 0.021005948310516664 0 0.0055853066271504487 0.023557125423993013 0 0.006481107715898873 0.021005948310516664 0 0.0011791370938284266 0.027528575551611405 0 0.0013543571533488868 0.027397343379173877 0 0.0016171966098088859 0.027719365196417319 0 0.0083797343785945964 0.015534915976252154 0 0.006481107715898873 0.021005948310516664 0 0.0040769991045888476 0.020884290089918975 0 0.0048197352254388528 0.021079558020625225 0 0.0038373347953854012 0.022285778187584388 0 0.0048197352254388528 0.021079558020625225 0 0.0052550835072378357 0.022643117959042607 0 0.0038373347953854012 0.022285778187584388 0 0.011883703727878094 0.012733466502750136 0 0.011735486726120879 0.013863789451023869 0 0.011469662946618943 0.013289004853801209 0 0.011883703727878094 0.012733466502750136 0 0.011165928323397193 0.012883999549686451 0 0.011469662946618943 0.013289004853801209 0 0.011735486726120879 0.013863789451023869 0 0.011469662946618943 0.013289004853801209 0 0.011097837186679357 0.013691956495476961 0 0.011165928323397193 0.012883999549686451 0 0.011469662946618943 0.013289004853801209 0 0.011097837186679357 0.013691956495476961 0 0.010163580384731532 0.018060101888420603 0 0.010310157572424735 0.015862626100323417 0 0.011165928323397193 0.012883999549686451 0 0.011097837186679357 0.013691956495476961 0 0.010289057490933305 0.012823222453666627 0 0.010349040705708938 0.018937239836414394 0 0.010318669529745887 0.018955145533917136 0 0.010333691078389134 0.018921059971287239 0 0.010163580384731532 0.018060101888420603 0 0.010188684059589195 0.019115158140264075 0 0.010278825542802081 0.018933359225304102 0 0.010318669529745887 0.018955145533917136 0 0.010333691078389134 0.018921059971287239 0 0.0098208503074717832 0.019162829835678113 0 0.010053574638919614 0.019138685262790309 0 0.0099920518478780213 0.019069767267118877 0 0.010053574638919614 0.019138685262790309 0 0.0099920518478780213 0.019069767267118877 0 0.010157992772504986 0.019054657678869567 0 0.0099920518478780213 0.019069767267118877 0 0.010137576979120847 0.019005218335197489 0 0.0099857934891537884 0.018985941638384213 0 0.0099920518478780213 0.019069767267118877 0 0.0098902346551307772 0.019034292280227329 0 0.0099857934891537884 0.018985941638384213 0 0.0099920518478780213 0.019069767267118877 0 0.0098902346551307772 0.019034292280227329 0 0.009851343552455363 0.019088724785460736 0 0.0098902346551307772 0.019034292280227329 0 0.0097834269903935289 0.019050432734818396 0 0.009851343552455363 0.019088724785460736 0 0.0098208503074717832 0.019162829835678113 0 0.0099920518478780213 0.019069767267118877 0 0.009851343552455363 0.019088724785460736 0 0.0097834269903935289 0.019050432734818396 0 0.0097658411819805998 0.019128109351815095 0 0.009851343552455363 0.019088724785460736 0 0.0098208503074717832 0.019162829835678113 0 0.0097658411819805998 0.019128109351815095 0 0.009851343552455363 0.019088724785460736 0 0.0096908758184947093 0.019153066997557092 0 0.0098087004671228873 0.01916779532419273 0 0.0097658411819805998 0.019128109351815095 0 0.0096908758184947093 0.019153066997557092 0 0.0097834269903935289 0.019050432734818396 0 0.0097658411819805998 0.019128109351815095 0 0.006481107715898873 0.021005948310516664 0 0.010163580384731532 0.018060101888420603 0 0.010163580384731532 0.018060101888420603 0 0.010205882027269167 0.018582100720671599 0 0.011060825255658656 0.015405867522827551 0 0.010841146072939943 0.017409139945638506 0 0.010235431870845066 0.019023943365166541 0 0.010227316803918904 0.01901091535032351 0 0.010222717850825293 0.019019309202072572 0 0.010227316803918904 0.01901091535032351 0 0.010157992772504986 0.019054657678869567 0 0.010222717850825293 0.019019309202072572 0 0.010185173444477766 0.01890345119039713 0 0.010235431870845066 0.019023943365166541 0 0.010227316803918904 0.01901091535032351 0 0.010188684059589195 0.019115158140264075 0 0.010199419491005057 0.019006056304593091 0 0.010053574638919614 0.019138685262790309 0 0.010227316803918904 0.01901091535032351 0 0.010157992772504986 0.019054657678869567 0 0.010278825542802081 0.018933359225304102 0 0.010318669529745887 0.018955145533917136 0 0.010227316803918904 0.01901091535032351 0 0.010137576979120847 0.019005218335197489 0 0.010222717850825293 0.019019309202072572 0 0.010227512514740156 0.018923312450622162 0 0.0099920518478780213 0.019069767267118877 0 0.010157992772504986 0.019054657678869567 0 0.010137576979120847 0.019005218335197489 0 0.010157992772504986 0.019054657678869567 0 0.010137576979120847 0.019005218335197489 0 0.010222717850825293 0.019019309202072572 0 0.010235431870845066 0.019023943365166541 0 0.010362696517787014 0.018950289501766637 0 0.010222717850825293 0.019019309202072572 0 0.010362696517787014 0.018950289501766637 0 0.010222717850825293 0.019019309202072572 0 0.010227512514740156 0.018923312450622162 0 0.010362696517787014 0.018950289501766637 0 0.010227512514740156 0.018923312450622162 0 0.010293820855604523 0.018781457774616862 0 0.010227512514740156 0.018923312450622162 0 0.010090456171036277 0.018922241194816541 0 0.010106110602813686 0.018805366184906136 0 0.010137576979120847 0.019005218335197489 0 0.010227512514740156 0.018923312450622162 0 0.010090456171036277 0.018922241194816541 0 0.010137576979120847 0.019005218335197489 0 0.010090456171036277 0.018922241194816541 0 0.0099857934891537884 0.018985941638384213 0 0.010227512514740156 0.018923312450622162 0 0.010106110602813686 0.018805366184906136 0 0.010293820855604523 0.018781457774616862 0 0.010106110602813686 0.018805366184906136 0 0.010293820855604523 0.018781457774616862 0 0.010096618830643691 0.018650955359758626 0 0.0097267904384675617 0.018983064506737247 0 0.0098457815710580477 0.018961788094725329 0 0.0097350073247823143 0.018811507947397423 0 0.0097267904384675617 0.018983064506737247 0 0.0097834269903935289 0.019050432734818396 0 0.0098457815710580477 0.018961788094725329 0 0.0098902346551307772 0.019034292280227329 0 0.0097834269903935289 0.019050432734818396 0 0.0098457815710580477 0.018961788094725329 0 0.0098902346551307772 0.019034292280227329 0 0.0098457815710580477 0.018961788094725329 0 0.0099857934891537884 0.018985941638384213 0 0.0098457815710580477 0.018961788094725329 0 0.0099857934891537884 0.018985941638384213 0 0.0099003888955676977 0.018870413321624604 0 0.010090456171036277 0.018922241194816541 0 0.0099857934891537884 0.018985941638384213 0 0.0099003888955676977 0.018870413321624604 0 0.010106110602813686 0.018805366184906136 0 0.0099003888955676977 0.018870413321624604 0 0.0099338199051809926 0.018742782054820023 0 0.010090456171036277 0.018922241194816541 0 0.010106110602813686 0.018805366184906136 0 0.0099003888955676977 0.018870413321624604 0 0.0099003888955676977 0.018870413321624604 0 0.0098474389580248244 0.018785750545392988 0 0.0099338199051809926 0.018742782054820023 0 0.0055853066271504487 0.023557125423993013 0 0.005816430425243063 0.022426380666600815 0 0.0099003888955676977 0.018870413321624604 0 0.0098474389580248244 0.018785750545392988 0 0.0097350073247823143 0.018811507947397423 0 0.0098457815710580477 0.018961788094725329 0 0.0099003888955676977 0.018870413321624604 0 0.0097350073247823143 0.018811507947397423 0 0.0017570232863377423 0.02657387128968727 0 0.0018577220924307666 0.026387754261773366 0 0.0017268928029489164 0.026444015321546853 0 0.0097350073247823143 0.018811507947397423 0 0.0098225757365539481 0.018714579993882038 0 0.0097300580387602725 0.018603713917606818 0 0.005816430425243063 0.022426380666600815 0 0.0053727512299312965 0.023316739524372698 0 0.0098225757365539481 0.018714579993882038 0 0.0099258905954191286 0.018637845446274039 0 0.0097300580387602725 0.018603713917606818 0 0.0098474389580248244 0.018785750545392988 0 0.0097350073247823143 0.018811507947397423 0 0.0098225757365539481 0.018714579993882038 0 0.0098474389580248244 0.018785750545392988 0 0.0098225757365539481 0.018714579993882038 0 0.0099338199051809926 0.018742782054820023 0 0.0099258905954191286 0.018637845446274039 0 0.010096618830643691 0.018650955359758626 0 0.010056851400433478 0.018474624182786115 0 0.0098225757365539481 0.018714579993882038 0 0.0099338199051809926 0.018742782054820023 0 0.0099258905954191286 0.018637845446274039 0 0.0099338199051809926 0.018742782054820023 0 0.0099258905954191286 0.018637845446274039 0 0.010096618830643691 0.018650955359758626 0 0.0033111073006884067 0.02625043632938822 0 0.0028502438277203767 0.026730991935289692 0 0.0046835356123452951 0.026609292252170166 0 0.0053727512299312965 0.023316739524372698 0 0.0076008592938145592 0.022424974029486146 0 0.0099258905954191286 0.018637845446274039 0 0.0097300580387602725 0.018603713917606818 0 0.010056851400433478 0.018474624182786115 0 0.0033111073006884067 0.02625043632938822 0 0.0026023950553570019 0.026199020119227381 0 0.0028623821066644864 0.026633029957537465 0 0.0033111073006884067 0.02625043632938822 0 0.0026023950553570019 0.026199020119227381 0 0.0027841751797045072 0.02593477612229049 0 0.0028623821066644864 0.026633029957537465 0 0.0023311883518323702 0.026366895276189493 0 0.0028237428627206343 0.026727431991739214 0 0.0026023950553570019 0.026199020119227381 0 0.0028623821066644864 0.026633029957537465 0 0.0023311883518323702 0.026366895276189493 0 0.0052553221307751518 0.02368363163458314 0 0.0053727512299312965 0.023316739524372698 0 0.0033111073006884067 0.02625043632938822 0 0.0028623821066644864 0.026633029957537465 0 0.0028502438277203767 0.026730991935289692 0 0.010499657280261839 0.018740400738451641 0 0.010293820855604523 0.018781457774616862 0 0.010362097546165417 0.018569393275589308 0 0.010293820855604523 0.018781457774616862 0 0.010362097546165417 0.018569393275589308 0 0.010096618830643691 0.018650955359758626 0 0.010106110602813686 0.018805366184906136 0 0.0099338199051809926 0.018742782054820023 0 0.010096618830643691 0.018650955359758626 0 0.010362097546165417 0.018569393275589308 0 0.010096618830643691 0.018650955359758626 0 0.010056851400433478 0.018474624182786115 0 0.0076008592938145592 0.022424974029486146 0 0.0082673481024931189 0.022425042669180897 0 0.010362097546165417 0.018569393275589308 0 0.010056851400433478 0.018474624182786115 0 0.010517396958648829 0.018398864831507419 0 0.0066880472235131714 0.025740405402826752 0 0.0061412744416024009 0.026390254912777623 0 0.0053628564499868664 0.025749255524094353 0 0.0046835356123452951 0.026609292252170166 0 0.0061412744416024009 0.026390254912777623 0 0.0053628564499868664 0.025749255524094353 0 0.0046835356123452951 0.026609292252170166 0 0.0053628564499868664 0.025749255524094353 0 0.0043602871366244774 0.025733984161780857 0 0.0053628564499868664 0.025749255524094353 0 0.0048679288729700804 0.024999236095386394 0 0.0043602871366244774 0.025733984161780857 0 0.0066880472235131714 0.025740405402826752 0 0.0063367917189348514 0.025000054974663035 0 0.0053628564499868664 0.025749255524094353 0 0.0063367917189348514 0.025000054974663035 0 0.0053628564499868664 0.025749255524094353 0 0.0048679288729700804 0.024999236095386394 0 0.0034446254821739312 0.025309160193113561 0 0.0027841751797045072 0.02593477612229049 0 0.0018160278767754641 0.025919520468067375 0 0.0033111073006884067 0.02625043632938822 0 0.0034446254821739312 0.025309160193113561 0 0.0027841751797045072 0.02593477612229049 0 0.0035500463433463503 0.025510268209623405 0 0.0020831863963661052 0.026021870482016263 0 0.0033111073006884067 0.02625043632938822 0 0.0034446254821739312 0.025309160193113561 0 0.0043602871366244774 0.025733984161780857 0 0.0033111073006884067 0.02625043632938822 0 0.0046835356123452951 0.026609292252170166 0 0.0043602871366244774 0.025733984161780857 0 0.0048681784340973509 0.025000054786278293 0 0.003701012527136568 0.025691189241036642 0 0.0033885029606032621 0.024999818140015298 0 0.0048679288729700804 0.024999236095386394 0 0.0034446254821739312 0.025309160193113561 0 0.0043602871366244774 0.025733984161780857 0 0.0048678302688225997 0.025000085604746664 0 0.0035500463433463503 0.025510268209623405 0 0.003701012527136568 0.025691189241036642 0 0.0033885029606032621 0.024999818140015298 0 0.0027443636679615035 0.025538711500352765 0 0.0033885029606032621 0.024999818140015298 0 0.0027443636679615035 0.025538711500352765 0 0.0019089367375978313 0.02499970442851444 0 0.0027443636679615035 0.025538711500352765 0 0.0019089367375978313 0.02499970442851444 0 0.0020343300471133475 0.025685798469448146 0 0.0019089367375978313 0.02499970442851444 0 0.0012727505701076191 0.025721811157320636 0 0.0020343300471133475 0.025685798469448146 0 0.0012727505701076191 0.025721811157320636 0 0.0020343300471133475 0.025685798469448146 0 0.0023445243691724198 0.026166513192623034 0 0.003701012527136568 0.025691189241036642 0 0.0027443636679615035 0.025538711500352765 0 0.0023445243691724198 0.026166513192623034 0 0.0027443636679615035 0.025538711500352765 0 0.0020343300471133475 0.025685798469448146 0 0.0023445243691724198 0.026166513192623034 0 0.0026023950553570019 0.026199020119227381 0 0.0027841751797045072 0.02593477612229049 0 0.0018160278767754641 0.025919520468067375 0 0.0023311883518323702 0.026366895276189493 0 0.0018160278767754641 0.025919520468067375 0 0.0017268928029489164 0.026444015321546853 0 0.0026023950553570019 0.026199020119227381 0 0.0023311883518323702 0.026366895276189493 0 0.0018160278767754641 0.025919520468067375 0 0.0053727512299312965 0.023316739524372698 0 0.0008469622417662478 0.026445590562757988 0 0.0023311883518323702 0.026366895276189493 0 0.0028237428627206343 0.026727431991739214 0 0.0017268928029489164 0.026444015321546853 0 0.0018160278767754641 0.025919520468067375 0 0.00092450246214749563 0.026266797260372867 0 0.0017268928029489164 0.026444015321546853 0 0.0020831863963661052 0.026021870482016263 0 0.0010407605258385907 0.026291679104582983 0 0.0012727505701076191 0.025721811157320636 0 0.0023445243691724198 0.026166513192623034 0 0.00092450246214749563 0.026266797260372867 0 0.00045388872051673037 0.026579666865704708 0 0.00092450246214749563 0.026266797260372867 0 0.0010482314685647425 0.026482294585457332 0 0.00092450246214749563 0.026266797260372867 0 0.0010482314685647425 0.026482294585457332 0 0.0017268928029489164 0.026444015321546853 0 0.0014026302072478625 0.026589740051206921 0 0.0010482314685647425 0.026482294585457332 0 0.0017268928029489164 0.026444015321546853 0 0.0014026302072478625 0.026589740051206921 0 0.0017570232863377423 0.02657387128968727 0 0.0017268928029489164 0.026444015321546853 0 -0.00023006578522714199 0.026283151017949528 0 0.00010796989235823297 0.025809524045948815 0 -0.00078815712907848753 0.026167831228803808 0 0.00045388872051673037 0.026579666865704708 0 0.00092450246214749563 0.026266797260372867 0 -0.00023006578522714199 0.026283151017949528 0 0.00092450246214749563 0.026266797260372867 0 -0.00023006578522714199 0.026283151017949528 0 0.00010796989235823297 0.025809524045948815 0 0.0012727505701076191 0.025721811157320636 0 0.00092450246214749563 0.026266797260372867 0 0.00010796989235823297 0.025809524045948815 0 0.0012727505701076191 0.025721811157320636 0 0.00010796989235823297 0.025809524045948815 0 0.00042955769301708822 0.024999838698800732 0 0.00010796989235823297 0.025809524045948815 0 0.00042955769301708822 0.024999838698800732 0 -0.00052973199807249073 0.025347401054843881 0 0.0019089367375978313 0.02499970442851444 0 0.0012727505701076191 0.025721811157320636 0 0.00042955769301708822 0.024999838698800732 0 0.00042955769301708822 0.024999838698800732 0 -0.0010494354219809706 0.024998777444593504 0 -0.00052973199807249073 0.025347401054843881 0 -0.0010494354219809706 0.024998777444593504 0 -0.0013398433074872328 0.025221259124990267 0 -0.00052973199807249073 0.025347401054843881 0 -0.0010494354219809706 0.024998777444593504 0 -0.0013398433074872328 0.025221259124990267 0 -0.0021900312531025327 0.024858696366210194 0 -0.0013398433074872328 0.025221259124990267 0 -0.0022696199338797509 0.025554645546733944 0 -0.00097404623168273453 0.025700499551351324 0 -0.0013398433074872328 0.025221259124990267 0 -0.00052973199807249073 0.025347401054843881 0 -0.00097404623168273453 0.025700499551351324 0 0.00010796989235823297 0.025809524045948815 0 -0.00052973199807249073 0.025347401054843881 0 -0.00097404623168273453 0.025700499551351324 0 -0.002376193858675543 0.024999834030041551 0 -0.003139026037463306 0.025409951531794567 0 -0.0022068510895902329 0.025607994779628808 0 -0.002376193858675543 0.024999834030041551 0 -0.003139026037463306 0.025409951531794567 0 -0.0037028302743741313 0.024999747412203198 0 -0.0010497711702861668 0.025000036737594888 0 -0.0022232318020483093 0.025247173602842871 0 -0.0010493863826587376 0.02500006046055692 0 -0.002376193858675543 0.024999834030041551 0 -0.0022068510895902329 0.025607994779628808 0 -0.0013398433074872328 0.025221259124990267 0 -0.0021900312531025327 0.024858696366210194 0 -0.0022696199338797509 0.025554645546733944 0 -0.0021900312531025327 0.024858696366210194 0 -0.0022696199338797509 0.025554645546733944 0 -0.0034828778447988568 0.025158186575898942 0 -0.003139026037463306 0.025409951531794567 0 -0.0022068510895902329 0.025607994779628808 0 -0.0035206844437098415 0.025913106674769617 0 -0.0022232318020483093 0.025247173602842871 0 -0.0034941788778842424 0.025522575545089778 0 -0.0022696199338797509 0.025554645546733944 0 -0.0035269669750696252 0.026099358411744454 0 -0.0034828778447988568 0.025158186575898942 0 -0.0022696199338797509 0.025554645546733944 0 -0.001955820349160206 0.026224419422869013 0 -0.0035269669750696252 0.026099358411744454 0 0.00010796989235823297 0.025809524045948815 0 -0.00097404623168273453 0.025700499551351324 0 -0.00078815712907848753 0.026167831228803808 0 -0.0022696199338797509 0.025554645546733944 0 -0.001955820349160206 0.026224419422869013 0 -0.00097404623168273453 0.025700499551351324 0 -0.001955820349160206 0.026224419422869013 0 -0.00097404623168273453 0.025700499551351324 0 -0.00078815712907848753 0.026167831228803808 0 -0.001955820349160206 0.026224419422869013 0 -0.00078815712907848753 0.026167831228803808 0 -0.0012256321825311494 0.026798898960673809 0 -0.00023006578522714199 0.026283151017949528 0 -0.00078815712907848753 0.026167831228803808 0 -0.0012256321825311494 0.026798898960673809 0 -0.00052558948542790189 0.026651376487373871 0 -0.00023006578522714199 0.026283151017949528 0 -0.0019651571393447865 0.025920621259140748 0 -0.00037883022877711973 0.026262840014999553 0 -0.0015973572422514435 0.026375993753838364 0 -0.00052558948542790189 0.026651376487373871 0 -0.0015233262009105763 0.026761033000752714 0 -0.0019651571393447865 0.025920621259140748 0 -0.0015233262009105763 0.026761033000752714 0 -0.0025231207920836988 0.02667879338269406 0 -0.0014796572227581952 0.027188621654399479 0 -0.0025231207920836988 0.02667879338269406 0 -0.0019651571393447865 0.025920621259140748 0 -0.0032232655511836095 0.026108263161801239 0 -0.0015233262009105763 0.026761033000752714 0 -0.0025231207920836988 0.02667879338269406 0 -0.0019651571393447865 0.025920621259140748 0 -0.001955820349160206 0.026224419422869013 0 -0.0012256321825311494 0.026798898960673809 0 -0.0026856483418047075 0.026875114434200639 0 -0.0015973572422514435 0.026375993753838364 0 -0.0029364141507222377 0.026467050925168017 0 -0.001955820349160206 0.026224419422869013 0 -0.0035269669750696252 0.026099358411744454 0 -0.0026856483418047075 0.026875114434200639 0 -0.0035269669750696252 0.026099358411744454 0 -0.0026856483418047075 0.026875114434200639 0 -0.0040102454873320852 0.026434173888134425 0 -0.0029364141507222377 0.026467050925168017 0 -0.0038936414726989999 0.026471293348888088 0 -0.0032232655511836095 0.026108263161801239 0 -0.0032059329344232106 0.026635250347003481 0 -0.0040102454873320852 0.026434173888134425 0 -0.0025231207920836988 0.02667879338269406 0 -0.0032232655511836095 0.026108263161801239 0 -0.0032059329344232106 0.026635250347003481 0 -0.0032059329344232106 0.026635250347003481 0 -0.0034626540474570382 0.02665936211392576 0 -0.0030068778264441104 0.026757815740137688 0 -0.0032059329344232106 0.026635250347003481 0 -0.003992441681114396 0.026516990006273194 0 -0.0040102454873320852 0.026434173888134425 0 -0.0032059329344232106 0.026635250347003481 0 -0.0034626540474570382 0.02665936211392576 0 -0.003992441681114396 0.026516990006273194 0 -0.0034626540474570382 0.02665936211392576 0 -0.0035010881477165546 0.02675548745618193 0 -0.0040100543607603035 0.026743047130362831 0 -0.0034626540474570382 0.02665936211392576 0 -0.003992441681114396 0.026516990006273194 0 -0.0040100543607603035 0.026743047130362831 0 -0.0034626540474570382 0.02665936211392576 0 -0.0030068778264441104 0.026757815740137688 0 -0.0031079673821555569 0.026562553660622431 0 -0.0034626540474570382 0.02665936211392576 0 -0.0031079673821555569 0.026562553660622431 0 -0.0035010881477165546 0.02675548745618193 0 -0.0030068778264441104 0.026757815740137688 0 -0.0030752238758041377 0.026396885949865796 0 -0.0031079673821555569 0.026562553660622431 0 -0.0030068778264441104 0.026757815740137688 0 -0.0030752238758041377 0.026396885949865796 0 -0.0027178293848637942 0.027147296364721893 0 -0.0030752238758041377 0.026396885949865796 0 -0.0042055820508774587 0.026580355433966786 0 -0.0045057468324015736 0.025046519609266592 0 -0.0029744411123064749 0.027090117789682181 0 -0.0026903933202823823 0.027212010656544494 0 -0.0030752238758041377 0.026396885949865796 0 -0.0042055820508774587 0.026580355433966786 0 -0.0027178293848637942 0.027147296364721893 0 -0.0014349432975712256 0.027909627967582822 0 -0.0014796572227581952 0.027188621654399479 0 -0.0027178293848637942 0.027147296364721893 0 -0.00088449951554399288 0.027580371582311261 0 -0.0014349432975712256 0.027909627967582822 0 -0.0014796572227581952 0.027188621654399479 0 -0.0025231207920836988 0.02667879338269406 0 -0.0032059329344232106 0.026635250347003481 0 -0.0027178293848637942 0.027147296364721893 0 -0.0032059329344232106 0.026635250347003481 0 -0.0030068778264441104 0.026757815740137688 0 -0.0027178293848637942 0.027147296364721893 0 -0.0025231207920836988 0.02667879338269406 0 -0.0014796572227581952 0.027188621654399479 0 -0.0027178293848637942 0.027147296364721893 0 -0.0055916986046148486 0.026127026932208225 0 -0.0048287275465332524 0.026280726456279279 0 -0.0057083875750930761 0.026076979657892296 0 -0.0055916986046148486 0.026127026932208225 0 -0.0057083875750930761 0.026076979657892296 0 -0.0061986420258499358 0.025922360746963087 0 -0.0055916986046148486 0.026127026932208225 0 -0.0061986420258499358 0.025922360746963087 0 -0.0060496154610683202 0.025491214679370662 0 -0.0055916986046148486 0.026127026932208225 0 -0.0051036212892707003 0.026457026003584933 0 -0.0053915820005444358 0.026600902215136536 0 -0.0055916986046148486 0.026127026932208225 0 -0.0051036212892707003 0.026457026003584933 0 -0.0046199357935289365 0.026457794620590537 0 -0.0051036212892707003 0.026457026003584933 0 -0.0046199357935289365 0.026457794620590537 0 -0.0046008477118956309 0.02668947522312461 0 -0.0046199357935289365 0.026457794620590537 0 -0.0040100543607603035 0.026743047130362831 0 -0.0046008477118956309 0.02668947522312461 0 -0.0046199357935289365 0.026457794620590537 0 -0.003992441681114396 0.026516990006273194 0 -0.0040100543607603035 0.026743047130362831 0 -0.003992441681114396 0.026516990006273194 0 -0.0048287275465332524 0.026280726456279279 0 -0.0040102454873320852 0.026434173888134425 0 -0.0046199357935289365 0.026457794620590537 0 -0.003992441681114396 0.026516990006273194 0 -0.0048287275465332524 0.026280726456279279 0 -0.0055916986046148486 0.026127026932208225 0 -0.0046199357935289365 0.026457794620590537 0 -0.0048287275465332524 0.026280726456279279 0 -0.0048287275465332524 0.026280726456279279 0 -0.0040102454873320852 0.026434173888134425 0 -0.0048616521931312958 0.026100276624379106 0 -0.0035269669750696252 0.026099358411744454 0 -0.0040102454873320852 0.026434173888134425 0 -0.0048616521931312958 0.026100276624379106 0 -0.0048616521931312958 0.026100276624379106 0 -0.0057083875750930761 0.026076979657892296 0 -0.0061153868479553661 0.025893613050063834 0 -0.0048287275465332524 0.026280726456279279 0 -0.0048616521931312958 0.026100276624379106 0 -0.0057083875750930761 0.026076979657892296 0 -0.0048616521931312958 0.026100276624379106 0 -0.0061153868479553661 0.025893613050063834 0 -0.0053992393976323057 0.025810619284510582 0 -0.0061153868479553661 0.025893613050063834 0 -0.0053992393976323057 0.025810619284510582 0 -0.0061223894281737792 0.025630401866305757 0 -0.0048616521931312958 0.026100276624379106 0 -0.0053992393976323057 0.025810619284510582 0 -0.0046203786847042669 0.02574284325611537 0 -0.0053992393976323057 0.025810619284510582 0 -0.0046203786847042669 0.02574284325611537 0 -0.0052625651232318001 0.025558312706776481 0 -0.0053992393976323057 0.025810619284510582 0 -0.0061223894281737792 0.025630401866305757 0 -0.0052625651232318001 0.025558312706776481 0 -0.0035269669750696252 0.026099358411744454 0 -0.0048616521931312958 0.026100276624379106 0 -0.0046203786847042669 0.02574284325611537 0 -0.0035269669750696252 0.026099358411744454 0 -0.0046203786847042669 0.02574284325611537 0 -0.0034828778447988568 0.025158186575898942 0 -0.0044999818731354148 0.025759691567331832 0 -0.0034941788778842424 0.025522575545089778 0 -0.0046203786847042669 0.02574284325611537 0 -0.0035206844437098415 0.025913106674769617 0 -0.0042757111646473623 0.025491573658134332 0 -0.003139026037463306 0.025409951531794567 0 -0.0035206844437098415 0.025913106674769617 0 -0.0042757111646473623 0.025491573658134332 0 -0.0046203786847042669 0.02574284325611537 0 -0.0042757111646473623 0.025491573658134332 0 -0.0052625651232318001 0.025558312706776481 0 -0.0042757111646473623 0.025491573658134332 0 -0.0037028302743741313 0.024999747412203198 0 -0.0050292297446253159 0.024999703335896729 0 -0.003139026037463306 0.025409951531794567 0 -0.0042757111646473623 0.025491573658134332 0 -0.0037028302743741313 0.024999747412203198 0 -0.0061223894281737792 0.025630401866305757 0 -0.0060156832788321431 0.025343621701089714 0 -0.0052625651232318001 0.025558312706776481 0 -0.0042757111646473623 0.025491573658134332 0 -0.0052625651232318001 0.025558312706776481 0 -0.0050292297446253159 0.024999703335896729 0 -0.0060156832788321431 0.025343621701089714 0 -0.0052625651232318001 0.025558312706776481 0 -0.0050292297446253159 0.024999703335896729 0 -0.0060156832788321431 0.025343621701089714 0 -0.0050292297446253159 0.024999703335896729 0 -0.0063554299441136199 0.024999581145264283 0 -0.0060156832788321431 0.025343621701089714 0 -0.0063554299441136199 0.024999581145264283 0 -0.0068820170553525982 0.02537011194543469 0 -0.0063554299441136199 0.024999581145264283 0 -0.0068820170553525982 0.02537011194543469 0 -0.0076823401306812178 0.024999654962869999 0 -0.0061223894281737792 0.025630401866305757 0 -0.0060156832788321431 0.025343621701089714 0 -0.0068820170553525982 0.02537011194543469 0 -0.0068820170553525982 0.02537011194543469 0 -0.0076823401306812178 0.024999654962869999 0 -0.0076748946586949725 0.025426617427810501 0 -0.0076823401306812178 0.024999654962869999 0 -0.0090064735905178491 0.024999529552507047 0 -0.0083448546824958624 0.025221677518020222 0 -0.0090086564196503061 0.024999983888902261 0 -0.0092452362157442528 0.025315869956283554 0 -0.0090064735905178491 0.024999529552507047 0 -0.0083448546824958624 0.025221677518020222 0 -0.0085888195750865072 0.025107545415394793 0 -0.0083448546824958624 0.025221677518020222 0 -0.0082651631935756233 0.02540751126580942 0 -0.0085888195750865072 0.025107545415394793 0 -0.0083448546824958624 0.025221677518020222 0 -0.0076748946586949725 0.025426617427810501 0 -0.0082651631935756233 0.02540751126580942 0 -0.0076823401306812178 0.024999654962869999 0 -0.0083448546824958624 0.025221677518020222 0 -0.0076748946586949725 0.025426617427810501 0 -0.0076748946586949725 0.025426617427810501 0 -0.0082651631935756233 0.02540751126580942 0 -0.0076243222307922414 0.025701264526878216 0 -0.0076748946586949725 0.025426617427810501 0 -0.0076243222307922414 0.025701264526878216 0 -0.0069207449779698166 0.02564366071151037 0 -0.0082651631935756233 0.02540751126580942 0 -0.0076243222307922414 0.025701264526878216 0 -0.0082592368433199569 0.025890310428183561 0 -0.0076243222307922414 0.025701264526878216 0 -0.0069207449779698166 0.02564366071151037 0 -0.007002982879798063 0.025805265789701364 0 -0.0061153868479553661 0.025893613050063834 0 -0.0069207449779698166 0.02564366071151037 0 -0.007002982879798063 0.025805265789701364 0 -0.0061153868479553661 0.025893613050063834 0 -0.0061223894281737792 0.025630401866305757 0 -0.0069207449779698166 0.02564366071151037 0 -0.0061223894281737792 0.025630401866305757 0 -0.0068820170553525982 0.02537011194543469 0 -0.0069207449779698166 0.02564366071151037 0 -0.0068820170553525982 0.02537011194543469 0 -0.0076748946586949725 0.025426617427810501 0 -0.0069207449779698166 0.02564366071151037 0 -0.010892620291428826 0.02551325232219576 0 -0.010594249744078342 0.024999668639474126 0 -0.012751123801965259 0.02499940697200775 0 -0.010892620291428826 0.02551325232219576 0 -0.011360041023670659 0.025776060048948651 0 -0.012751123801965259 0.02499940697200775 0 -0.011360041023670659 0.025776060048948651 0 -0.012751123801965259 0.02499940697200775 0 -0.012536792197497565 0.02580474642297689 0 -0.0090091381408485202 0.024999947828275047 0 -0.010594249744078342 0.024999668639474126 0 -0.0098842040079964305 0.025636072217531891 0 -0.010892620291428826 0.02551325232219576 0 -0.010575385408901739 0.025976098343909924 0 -0.011360041023670659 0.025776060048948651 0 -0.010892620291428826 0.02551325232219576 0 -0.0098842040079964305 0.025636072217531891 0 -0.010575385408901739 0.025976098343909924 0 -0.010892620291428826 0.02551325232219576 0 -0.010594249744078342 0.024999668639474126 0 -0.0098842040079964305 0.025636072217531891 0 -0.0092452362157442528 0.025315869956283554 0 -0.0097774541613169889 0.025602103575612298 0 -0.0082651631935756233 0.02540751126580942 0 -0.0087749191056601464 0.025703917334453746 0 -0.0089460505506852358 0.025139792716899662 0 -0.0082651631935756233 0.02540751126580942 0 -0.0085888195750865072 0.025107545415394793 0 -0.0089460505506852358 0.025139792716899662 0 -0.0082651631935756233 0.02540751126580942 0 -0.0087749191056601464 0.025703917334453746 0 -0.0082592368433199569 0.025890310428183561 0 -0.0087749191056601464 0.025703917334453746 0 -0.0090353690560644774 0.026101654679976341 0 -0.0082592368433199569 0.025890310428183561 0 -0.0087749191056601464 0.025703917334453746 0 -0.010345478728498777 0.026020531236807577 0 -0.0090353690560644774 0.026101654679976341 0 -0.0087749191056601464 0.025703917334453746 0 -0.0089460505506852358 0.025139792716899662 0 -0.010345478728498777 0.026020531236807577 0 -0.010575385408901739 0.025976098343909924 0 -0.011360041023670659 0.025776060048948651 0 -0.010816151320619196 0.025929015329288232 0 -0.0097774541613169889 0.025602103575612298 0 -0.010308834704857269 0.026043767715186683 0 -0.010575385408901739 0.025976098343909924 0 -0.010816151320619196 0.025929015329288232 0 -0.010345478728498777 0.026020531236807577 0 -0.011360041023670659 0.025776060048948651 0 -0.011276504020402811 0.025972357019453968 0 -0.011907557303194248 0.026054635012990039 0 -0.011360041023670659 0.025776060048948651 0 -0.011276504020402811 0.025972357019453968 0 -0.010816151320619196 0.025929015329288232 0 -0.011276504020402811 0.025972357019453968 0 -0.010816151320619196 0.025929015329288232 0 -0.010707241974516361 0.026033744740737375 0 -0.010707241974516361 0.026033744740737375 0 -0.010345478728498777 0.026020531236807577 0 -0.0090538333745132128 0.026175454361195886 0 -0.010816151320619196 0.025929015329288232 0 -0.010707241974516361 0.026033744740737375 0 -0.010345478728498777 0.026020531236807577 0 -0.010707241974516361 0.026033744740737375 0 -0.011454169496357169 0.026419880456468297 0 -0.011589412090007994 0.026227827971646214 0 -0.011454169496357169 0.026419880456468297 0 -0.011589412090007994 0.026227827971646214 0 -0.011852434169263019 0.026564919315024436 0 -0.011276504020402811 0.025972357019453968 0 -0.010707241974516361 0.026033744740737375 0 -0.011589412090007994 0.026227827971646214 0 -0.011276504020402811 0.025972357019453968 0 -0.011589412090007994 0.026227827971646214 0 -0.011907557303194248 0.026054635012990039 0 -0.011589412090007994 0.026227827971646214 0 -0.012085523836331862 0.026350185510949437 0 -0.011907557303194248 0.026054635012990039 0 -0.011589412090007994 0.026227827971646214 0 -0.012085523836331862 0.026350185510949437 0 -0.011852434169263019 0.026564919315024436 0 -0.012085523836331862 0.026350185510949437 0 -0.012415119719539226 0.026531564130459033 0 -0.012629887496016144 0.026282980034293177 0 -0.012085523836331862 0.026350185510949437 0 -0.011907557303194248 0.026054635012990039 0 -0.012629887496016144 0.026282980034293177 0 -0.011360041023670659 0.025776060048948651 0 -0.011907557303194248 0.026054635012990039 0 -0.012536792197497565 0.02580474642297689 0 -0.011907557303194248 0.026054635012990039 0 -0.012536792197497565 0.02580474642297689 0 -0.012629887496016144 0.026282980034293177 0 -0.012273693491693069 0.02673783013757812 0 -0.012532677638185693 0.026752307783904018 0 -0.012644510355023401 0.026708984359076572 0 -0.012273693491693069 0.02673783013757812 0 -0.012219274456383072 0.026675161610236718 0 -0.011984937202473806 0.026727517369026652 0 -0.012273693491693069 0.02673783013757812 0 -0.012219274456383072 0.026675161610236718 0 -0.012644510355023401 0.026708984359076572 0 -0.012219274456383072 0.026675161610236718 0 -0.012415119719539226 0.026531564130459033 0 -0.012644510355023401 0.026708984359076572 0 -0.012085523836331862 0.026350185510949437 0 -0.012415119719539226 0.026531564130459033 0 -0.011852434169263019 0.026564919315024436 0 -0.012219274456383072 0.026675161610236718 0 -0.012415119719539226 0.026531564130459033 0 -0.011852434169263019 0.026564919315024436 0 -0.012219274456383072 0.026675161610236718 0 -0.011852434169263019 0.026564919315024436 0 -0.011984937202473806 0.026727517369026652 0 -0.011852434169263019 0.026564919315024436 0 -0.011695845777493189 0.02671427947184362 0 -0.011984937202473806 0.026727517369026652 0 -0.010649878761856883 0.025902644441299347 0 -0.010413008784900353 0.026291609023042627 0 -0.010707241974516361 0.026033744740737375 0 -0.011454169496357169 0.026419880456468297 0 -0.011695845777493189 0.02671427947184362 0 -0.011454169496357169 0.026419880456468297 0 -0.011852434169263019 0.026564919315024436 0 -0.011695845777493189 0.02671427947184362 0 -0.011695845777493189 0.02671427947184362 0 -0.011984937202473806 0.026727517369026652 0 -0.012058252168353639 0.02674505310956482 0 -0.012273693491693069 0.02673783013757812 0 -0.011984937202473806 0.026727517369026652 0 -0.012097876172902568 0.026734675021780233 0 -0.011984937202473806 0.026727517369026652 0 -0.012058252168353639 0.02674505310956482 0 -0.012097876172902568 0.026734675021780233 0 -0.010413008784900353 0.026291609023042627 0 -0.010320257942225771 0.026432223748141279 0 -0.0085739259595177947 0.026060758808193214 0 -0.0081974158560068518 0.025905339942474296 0 -0.0084633105119740013 0.025975835464504275 0 -0.0090538333745132128 0.026175454361195886 0 -0.0085739259595177947 0.026060758808193214 0 -0.0084633105119740013 0.025975835464504275 0 -0.0090538333745132128 0.026175454361195886 0 -0.0085739259595177947 0.026060758808193214 0 -0.0090353690560644774 0.026101654679976341 0 -0.010345478728498777 0.026020531236807577 0 -0.0090538333745132128 0.026175454361195886 0 -0.0090353690560644774 0.026101654679976341 0 -0.0085739259595177947 0.026060758808193214 0 -0.0090353690560644774 0.026101654679976341 0 -0.0082592368433199569 0.025890310428183561 0 -0.0085739259595177947 0.026060758808193214 0 -0.0079749217078408027 0.025930582158616374 0 -0.0081974158560068518 0.025905339942474296 0 -0.0085739259595177947 0.026060758808193214 0 -0.0082592368433199569 0.025890310428183561 0 -0.0079749217078408027 0.025930582158616374 0 -0.0079749217078408027 0.025930582158616374 0 -0.0081974158560068518 0.025905339942474296 0 -0.0078169108636675019 0.025599460095115094 0 -0.0084745206198266684 0.024991839419128813 0 -0.0078169108636675019 0.025599460095115094 0 -0.0081425238850908223 0.025295571098052413 0 -0.0081974158560068518 0.025905339942474296 0 -0.0083357179439306987 0.026069593316295471 0 -0.0078169108636675019 0.025599460095115094 0 -0.0094170191802350738 0.02579538694809777 0 -0.0074762989236329645 0.025500924397735089 0 -0.0084745206198266684 0.024991839419128813 0 -0.0085762768079500895 0.025098809930675554 0 -0.0081425238850908223 0.025295571098052413 0 -0.0086728265206642008 0.024282236659631126 0 -0.0092053453526504733 0.024744708614793824 0 -0.0085762768079500895 0.025098809930675554 0 -0.0094170191802350738 0.02579538694809777 0 -0.0088387028917036332 0.024848433968233417 0 -0.012146858447067794 0.026550410954356743 0 -0.012058252168353639 0.02674505310956482 0 -0.012070454649266097 0.026615459281136167 0 -0.0094170191802350738 0.02579538694809777 0 -0.010320257942225771 0.026432223748141279 0 -0.0081974158560068518 0.025905339942474296 0 -0.0083357179439306987 0.026069593316295471 0 -0.0084633105119740013 0.025975835464504275 0 -0.012058252168353639 0.02674505310956482 0 -0.012105656413210385 0.026704732107499143 0 -0.012097876172902568 0.026734675021780233 0 -0.012105656413210385 0.026704732107499143 0 -0.012097876172902568 0.026734675021780233 0 -0.012259669420939081 0.026760666360699709 0 -0.012105656413210385 0.026704732107499143 0 -0.012070454649266097 0.026615459281136167 0 -0.012259669420939081 0.026760666360699709 0 -0.012058252168353639 0.02674505310956482 0 -0.012105656413210385 0.026704732107499143 0 -0.012070454649266097 0.026615459281136167 0 -0.0086728265206642008 0.024282236659631126 0 -0.0092053453526504733 0.024744708614793824 0 -0.009912450472090056 0.024393054722480701 0 -0.012146858447067794 0.026550410954356743 0 -0.012070454649266097 0.026615459281136167 0 -0.012008120376356096 0.026178878827681804 0 -0.0094170191802350738 0.02579538694809777 0 -0.011122335174894341 0.025277230254851839 0 -0.009912450472090056 0.024393054722480701 0 -0.01047162006399485 0.024936791135567932 0 -0.01120086319831695 0.024611319659597727 0 -0.011122335174894341 0.025277230254851839 0 -0.011577426943977618 0.025191821629592603 0 -0.012070454649266097 0.026615459281136167 0 -0.012008120376356096 0.026178878827681804 0 -0.012021194925357498 0.025864847426978949 0 -0.012133688561772516 0.026589367000435227 0 -0.012325873035983863 0.02638376233944404 0 -0.012008120376356096 0.026178878827681804 0 -0.012021194925357498 0.025864847426978949 0 -0.012097568241885806 0.025729224736573922 0 -0.012070454649266097 0.026615459281136167 0 -0.012541185048319069 0.026952816933210517 0 -0.012259669420939081 0.026760666360699709 0 -0.012541185048319069 0.026952816933210517 0 -0.012259669420939081 0.026760666360699709 0 -0.012532677638185693 0.026752307783904018 0 -0.012273693491693069 0.02673783013757812 0 -0.012259669420939081 0.026760666360699709 0 -0.012532677638185693 0.026752307783904018 0 -0.012273693491693069 0.02673783013757812 0 -0.012097876172902568 0.026734675021780233 0 -0.012259669420939081 0.026760666360699709 0 -0.0065515766019641859 0.025928180221786834 0 -0.0073830572790986645 0.025877099466227932 0 -0.0068329443723091268 0.02580081367729713 0 -0.0057083875750930761 0.026076979657892296 0 -0.0065515766019641859 0.025928180221786834 0 -0.0061986420258499358 0.025922360746963087 0 -0.0057083875750930761 0.026076979657892296 0 -0.0061153868479553661 0.025893613050063834 0 -0.0065515766019641859 0.025928180221786834 0 -0.0061153868479553661 0.025893613050063834 0 -0.0065515766019641859 0.025928180221786834 0 -0.007002982879798063 0.025805265789701364 0 -0.0065515766019641859 0.025928180221786834 0 -0.007002982879798063 0.025805265789701364 0 -0.0073830572790986645 0.025877099466227932 0 -0.0076243222307922414 0.025701264526878216 0 -0.007002982879798063 0.025805265789701364 0 -0.0073830572790986645 0.025877099466227932 0 -0.0076243222307922414 0.025701264526878216 0 -0.0082592368433199569 0.025890310428183561 0 -0.0073830572790986645 0.025877099466227932 0 -0.0079749217078408027 0.025930582158616374 0 -0.0073830572790986645 0.025877099466227932 0 -0.0074591146172169982 0.02579334162857096 0 -0.0082592368433199569 0.025890310428183561 0 -0.0079749217078408027 0.025930582158616374 0 -0.0073830572790986645 0.025877099466227932 0 -0.0073830572790986645 0.025877099466227932 0 -0.0074591146172169982 0.02579334162857096 0 -0.0068329443723091268 0.02580081367729713 0 -0.0079749217078408027 0.025930582158616374 0 -0.0074591146172169982 0.02579334162857096 0 -0.0078169108636675019 0.025599460095115094 0 -0.0074591146172169982 0.02579334162857096 0 -0.0078169108636675019 0.025599460095115094 0 -0.0070606312291110378 0.025501241679569901 0 -0.0074591146172169982 0.02579334162857096 0 -0.0068329443723091268 0.02580081367729713 0 -0.0070606312291110378 0.025501241679569901 0 -0.0065070835319931833 0.025609730725080309 0 -0.0068329443723091268 0.02580081367729713 0 -0.0061986420258499358 0.025922360746963087 0 -0.0065070835319931833 0.025609730725080309 0 -0.0068329443723091268 0.02580081367729713 0 -0.0070606312291110378 0.025501241679569901 0 -0.0065515766019641859 0.025928180221786834 0 -0.0068329443723091268 0.02580081367729713 0 -0.0061986420258499358 0.025922360746963087 0 -0.0065070835319931833 0.025609730725080309 0 -0.0061986420258499358 0.025922360746963087 0 -0.0060496154610683202 0.025491214679370662 0 -0.0060496154610683202 0.025491214679370662 0 -0.0059152303089351679 0.024672056719849129 0 -0.0063672115745752643 0.025264553760601501 0 -0.0065070835319931833 0.025609730725080309 0 -0.0060496154610683202 0.025491214679370662 0 -0.0063672115745752643 0.025264553760601501 0 -0.0059152303089351679 0.024672056719849129 0 -0.0063672115745752643 0.025264553760601501 0 -0.0063197709967963752 0.025012295392402708 0 -0.0067230148945726046 0.025319508948167976 0 -0.0063672115745752643 0.025264553760601501 0 -0.0063197709967963752 0.025012295392402708 0 -0.0067230148945726046 0.025319508948167976 0 -0.0063672115745752643 0.025264553760601501 0 -0.0070606312291110378 0.025501241679569901 0 -0.0065070835319931833 0.025609730725080309 0 -0.0063672115745752643 0.025264553760601501 0 -0.0070606312291110378 0.025501241679569901 0 -0.0078169108636675019 0.025599460095115094 0 -0.0070606312291110378 0.025501241679569901 0 -0.0078197355804259273 0.025380955752225501 0 -0.0070606312291110378 0.025501241679569901 0 -0.0072068420669442025 0.025406632600608877 0 -0.0078197355804259273 0.025380955752225501 0 -0.0072068420669442025 0.025406632600608877 0 -0.0078197355804259273 0.025380955752225501 0 -0.0079206043537684446 0.025671825804558613 0 -0.0067230148945726046 0.025319508948167976 0 -0.0070606312291110378 0.025501241679569901 0 -0.0072068420669442025 0.025406632600608877 0 -0.0067230148945726046 0.025319508948167976 0 -0.0072068420669442025 0.025406632600608877 0 -0.0070077611881984216 0.025579327347067166 0 -0.0070077611881984216 0.025579327347067166 0 -0.0068034996748170184 0.025404883508513085 0 -0.0066039068430918842 0.025254281275614524 0 -0.0072068420669442025 0.025406632600608877 0 -0.0070077611881984216 0.025579327347067166 0 -0.0079206043537684446 0.025671825804558613 0 -0.0070077611881984216 0.025579327347067166 0 -0.0077207654617839237 0.026424582790195637 0 -0.0079206043537684446 0.025671825804558613 0 -0.00701851735336029 0.02560235701776099 0 -0.0072066513314735696 0.025799505998526227 0 -0.0070077611881984216 0.025579327347067166 0 -0.006702508798917501 0.025330352848269729 0 -0.0068034996748170184 0.025404883508513085 0 -0.0068034996748170184 0.025404883508513085 0 -0.0066306038467044675 0.025401745380095979 0 -0.0064632138976912718 0.025273293524288032 0 -0.0068034996748170184 0.025404883508513085 0 -0.0064632138976912718 0.025273293524288032 0 -0.0066039068430918842 0.025254281275614524 0 -0.0066306038467044675 0.025401745380095979 0 -0.0064632138976912718 0.025273293524288032 0 -0.0057723567951004926 0.025399099522883658 0 -0.0064632138976912718 0.025273293524288032 0 -0.0060459831870183483 0.024848025026320341 0 -0.0057723567951004926 0.025399099522883658 0 -0.0064632138976912718 0.025273293524288032 0 -0.0060459831870183483 0.024848025026320341 0 -0.0066039068430918842 0.025254281275614524 0 -0.0059152303089351679 0.024672056719849129 0 -0.0063197709967963752 0.025012295392402708 0 -0.0060459831870183483 0.024848025026320341 0 -0.0063197709967963752 0.025012295392402708 0 -0.0060459831870183483 0.024848025026320341 0 -0.0066039068430918842 0.025254281275614524 0 -0.0067230148945726046 0.025319508948167976 0 -0.0063197709967963752 0.025012295392402708 0 -0.0066039068430918842 0.025254281275614524 0 -0.0067230148945726046 0.025319508948167976 0 -0.0070077611881984216 0.025579327347067166 0 -0.0066039068430918842 0.025254281275614524 0 -0.010491458143569337 0.025468647252584509 0 -0.010178817649362543 0.026432622346143131 0 -0.011354607146210852 0.025740538738824596 0 -0.010491458143569337 0.025468647252584509 0 -0.0096049788800751778 0.025179654352506037 0 -0.010178817649362543 0.026432622346143131 0 -0.010491458143569337 0.025468647252584509 0 -0.01047162006399485 0.024936791135567932 0 -0.011092548420275539 0.025251933358538928 0 -0.009912450472090056 0.024393054722480701 0 -0.01047162006399485 0.024936791135567932 0 -0.0096049788800751778 0.025179654352506037 0 -0.010491458143569337 0.025468647252584509 0 -0.01047162006399485 0.024936791135567932 0 -0.0096049788800751778 0.025179654352506037 0 -0.0096049788800751778 0.025179654352506037 0 -0.0089696841919152948 0.025474979935810414 0 -0.0085762768079500895 0.025098809930675554 0 -0.0092053453526504733 0.024744708614793824 0 -0.0096049788800751778 0.025179654352506037 0 -0.0085762768079500895 0.025098809930675554 0 -0.0092053453526504733 0.024744708614793824 0 -0.009912450472090056 0.024393054722480701 0 -0.0096049788800751778 0.025179654352506037 0 -0.0089696841919152948 0.025474979935810414 0 -0.0088188829865549732 0.025551645546051414 0 -0.010178817649362543 0.026432622346143131 0 -0.0096049788800751778 0.025179654352506037 0 -0.0089696841919152948 0.025474979935810414 0 -0.010178817649362543 0.026432622346143131 0 -0.0089696841919152948 0.025474979935810414 0 -0.0084421427625634565 0.025370431485596236 0 -0.0088188829865549732 0.025551645546051414 0 -0.0089696841919152948 0.025474979935810414 0 -0.0085762768079500895 0.025098809930675554 0 -0.0084421427625634565 0.025370431485596236 0 -0.0085762768079500895 0.025098809930675554 0 -0.0084421427625634565 0.025370431485596236 0 -0.0081425238850908223 0.025295571098052413 0 -0.0078169108636675019 0.025599460095115094 0 -0.0081425238850908223 0.025295571098052413 0 -0.0078197355804259273 0.025380955752225501 0 -0.0084421427625634565 0.025370431485596236 0 -0.0081425238850908223 0.025295571098052413 0 -0.0078197355804259273 0.025380955752225501 0 -0.0084421427625634565 0.025370431485596236 0 -0.0078197355804259273 0.025380955752225501 0 -0.0088188829865549732 0.025551645546051414 0 -0.0078197355804259273 0.025380955752225501 0 -0.0079206043537684446 0.025671825804558613 0 -0.0088188829865549732 0.025551645546051414 0 -0.0079206043537684446 0.025671825804558613 0 -0.0086984907254686154 0.026095539163620701 0 -0.0088188829865549732 0.025551645546051414 0 -0.0077207654617839237 0.026424582790195637 0 -0.0079206043537684446 0.025671825804558613 0 -0.0086984907254686154 0.026095539163620701 0 -0.0086984907254686154 0.026095539163620701 0 -0.0098466125158573597 0.025897381109969531 0 -0.0092608137023299994 0.026458153434244784 0 -0.0086984907254686154 0.026095539163620701 0 -0.0088188829865549732 0.025551645546051414 0 -0.0098466125158573597 0.025897381109969531 0 -0.0089802258724465279 0.025558014298696238 0 -0.010412305157701545 0.025615404933127542 0 -0.0088188829865549732 0.025551645546051414 0 -0.0098466125158573597 0.025897381109969531 0 -0.01058408633040624 0.024800120884725906 0 -0.0098466125158573597 0.025897381109969531 0 -0.010742120337329339 0.026233059490633356 0 -0.011344701997986628 0.025591275892658773 0 -0.0098466125158573597 0.025897381109969531 0 -0.01058408633040624 0.024800120884725906 0 -0.011344701997986628 0.025591275892658773 0 -0.010804558881588598 0.027562079636913012 0 -0.01048468469503833 0.027069003823947196 0 -0.011747708004467401 0.026351398669727345 0 -0.010665329338066836 0.027408001562071339 0 -0.01048468469503833 0.027069003823947196 0 -0.010218245843064806 0.027363650475691739 0 -0.010665329338066836 0.027408001562071339 0 -0.010218245843064806 0.027363650475691739 0 -0.01009436919360345 0.027894116545150584 0 -0.011739620391047437 0.026137427506365361 0 -0.011307179517342092 0.0267113999993287 0 -0.011739620391047437 0.026137427506365361 0 -0.011509417346022923 0.026654349748934603 0 -0.01048468469503833 0.027069003823947196 0 -0.010742120337329339 0.026233059490633356 0 -0.011747708004467401 0.026351398669727345 0 -0.010742120337329339 0.026233059490633356 0 -0.011344701997986628 0.025591275892658773 0 -0.011747708004467401 0.026351398669727345 0 -0.01048468469503833 0.027069003823947196 0 -0.010742120337329339 0.026233059490633356 0 -0.009908380247288736 0.026593201081238936 0 -0.0098466125158573597 0.025897381109969531 0 -0.009908380247288736 0.026593201081238936 0 -0.0092608137023299994 0.026458153434244784 0 -0.0098466125158573597 0.025897381109969531 0 -0.010742120337329339 0.026233059490633356 0 -0.009908380247288736 0.026593201081238936 0 -0.009908380247288736 0.026593201081238936 0 -0.0099886702521127264 0.02702502587462103 0 -0.0092565804164396019 0.026993476252846517 0 -0.009908380247288736 0.026593201081238936 0 -0.0092565804164396019 0.026993476252846517 0 -0.0092608137023299994 0.026458153434244784 0 -0.0098367918479586904 0.02740501039276369 0 -0.0092565804164396019 0.026993476252846517 0 -0.0094914575717136157 0.027689065207697081 0 -0.0099886702521127264 0.02702502587462103 0 -0.0098367918479586904 0.02740501039276369 0 -0.0092565804164396019 0.026993476252846517 0 -0.01048468469503833 0.027069003823947196 0 -0.0099886702521127264 0.02702502587462103 0 -0.010218245843064806 0.027363650475691739 0 -0.01048468469503833 0.027069003823947196 0 -0.009908380247288736 0.026593201081238936 0 -0.0099886702521127264 0.02702502587462103 0 -0.0099886702521127264 0.02702502587462103 0 -0.010218245843064806 0.027363650475691739 0 -0.0098367918479586904 0.02740501039276369 0 -0.010218245843064806 0.027363650475691739 0 -0.0098367918479586904 0.02740501039276369 0 -0.01009436919360345 0.027894116545150584 0 -0.0092484366069963391 0.026829823211767745 0 -0.0096012300235886611 0.028324326235016465 0 -0.0088885972130124651 0.027274608034553564 0 -0.0092565804164396019 0.026993476252846517 0 -0.0092723947631723584 0.027534031626925904 0 -0.0088885972130124651 0.027274608034553564 0 -0.0092565804164396019 0.026993476252846517 0 -0.0086716433900712684 0.026726614772056085 0 -0.0086984907254686154 0.026095539163620701 0 -0.0092608137023299994 0.026458153434244784 0 -0.0086716433900712684 0.026726614772056085 0 -0.0092565804164396019 0.026993476252846517 0 -0.0092608137023299994 0.026458153434244784 0 -0.0086716433900712684 0.026726614772056085 0 -0.0077207654617839237 0.026424582790195637 0 -0.0086716433900712684 0.026726614772056085 0 -0.0083430992653103324 0.027163806470688594 0 -0.0077207654617839237 0.026424582790195637 0 -0.0086984907254686154 0.026095539163620701 0 -0.0086716433900712684 0.026726614772056085 0 -0.0088885972130124651 0.027274608034553564 0 -0.0083430992653103324 0.027163806470688594 0 -0.0088871891961415095 0.027856196362421183 0 -0.0088885972130124651 0.027274608034553564 0 -0.0086716433900712684 0.026726614772056085 0 -0.0083430992653103324 0.027163806470688594 0 -0.0067354876199489577 0.025260618035416332 0 -0.0067302135080054993 0.025299026064406337 0 -0.0067173512441528367 0.025271303713741165 0 -0.0067354876199489577 0.025260618035416332 0 -0.0067302135080054993 0.025299026064406337 0 -0.0068440461341451363 0.025337583200783269 0 -0.0066989180506690314 0.024209748913275906 0 -0.0091285169372388193 0.02456152555705381 0 -0.0074572309124533121 0.026544461304804166 0 -0.0091285169372388193 0.02456152555705381 0 -0.0072712910325130808 0.02334890206273307 0 -0.0077930715149600394 0.023510373274836724 0 -0.0072988064893813841 0.023638320455242497 0 -0.012589336794325371 0.011609461462301246 0 -0.010699911103956655 0.01755514415036883 0 -0.014111951438171335 0.0081899384401382877 0 -0.015107267680653383 0.010361457335587363 0 -0.015305846647776225 0.0090896037899920925 0 -0.014111951438171335 0.0081899384401382877 0 -0.011235481036374678 0.0086780846589662782 0 -0.015107267680653383 0.010361457335587363 0 -0.0079684478044288343 0.023728649962525366 0 -0.0077930715149600394 0.023510373274836724 0 -0.0072988064893813841 0.023638320455242497 0 -0.012043139756305613 0.015097991492835477 0 -0.0091285169372388193 0.02456152555705381 0 -0.0079684478044288343 0.023728649962525366 0 -0.0079999004980373135 0.023695081828636607 0 -0.0077930715149600394 0.023510373274836724 0 -0.013100493622524113 0.0098274151126531359 0 -0.012589336794325371 0.011609461462301246 0 -0.013100493622524113 0.0098274151126531359 0 -0.012043139756305613 0.015097991492835477 0 -0.012046645591848974 0.013547863060743631 0 -0.010183416416729407 0.012586779792200329 0 -0.011010408310727303 0.011762389779607457 0 -0.012589336794325371 0.011609461462301246 0 -0.012043139756305613 0.015097991492835477 0 -0.015353313693767804 0.010841866573841515 0 -0.015990455184636741 0.011975501224756347 0 -0.014615137890539181 0.01189449774901109 0 -0.015990455184636741 0.011975501224756347 0 -0.014615137890539181 0.01189449774901109 0 -0.014560379991061899 0.012545030667513311 0 -0.015353313693767804 0.010841866573841515 0 -0.014615137890539181 0.01189449774901109 0 -0.013296517617006457 0.012036721771720748 0 -0.014615137890539181 0.01189449774901109 0 -0.014560379991061899 0.012545030667513311 0 -0.013895975262096382 0.01222801191266216 0 -0.010840883560848041 0.019730465876880932 0 -0.010181915739491931 0.020395728075630924 0 -0.011689166245757877 0.021271040582022355 0 -0.014560379991061899 0.012545030667513311 0 -0.014044640159520403 0.012906359727379111 0 -0.013895975262096382 0.01222801191266216 0 -0.009292845692518252 0.028027225214868837 0 -0.0088871891961415095 0.027856196362421183 0 -0.0093495482831910358 0.02797374565240851 0 -0.012043139756305613 0.015097991492835477 0 -0.012535945456357198 0.020030757612399981 0 -0.012535945456357198 0.020030757612399981 0 -0.0091285169372388193 0.02456152555705381 0 -0.014560379991061899 0.012545030667513311 0 -0.014254679543731752 0.013719960803714966 0 -0.014044640159520403 0.012906359727379111 0 -0.015990455184636741 0.011975501224756347 0 -0.014560379991061899 0.012545030667513311 0 -0.014254679543731752 0.013719960803714966 0 -0.0088885972130124651 0.027274608034553564 0 -0.0088871891961415095 0.027856196362421183 0 -0.0092723947631723584 0.027534031626925904 0 -0.0088871891961415095 0.027856196362421183 0 -0.0092723947631723584 0.027534031626925904 0 -0.0093495482831910358 0.02797374565240851 0 -0.0096012300235886611 0.028324326235016465 0 -0.012172178834191572 0.022864284540590901 0 -0.0094914575717136157 0.027689065207697081 0 -0.01009436919360345 0.027894116545150584 0 -0.009637371175155245 0.028301329223823665 0 -0.0098367918479586904 0.02740501039276369 0 -0.0094914575717136157 0.027689065207697081 0 -0.01009436919360345 0.027894116545150584 0 -0.014481743122946885 0.022221822235747445 0 -0.01447223593064683 0.020946378145782485 0 -0.01350816752185542 0.021781595235647946 0 -0.014481743122946885 0.022221822235747445 0 -0.015687762735186 0.020983030689185261 0 -0.01447223593064683 0.020946378145782485 0 -0.012229333569366488 0.025042916766249115 0 -0.012172178834191572 0.022864284540590901 0 -0.015687762735186 0.020983030689185261 0 -0.015632451636777327 0.020615596036663648 0 -0.01447223593064683 0.020946378145782485 0 -0.012172178834191572 0.022864284540590901 0 -0.013849503207720361 0.018016388416801244 0 -0.013165777864753528 0.019645522389535784 0 -0.014018847261485442 0.01879730540067958 0 -0.014248108901068885 0.020247032952873258 0 -0.012535945456357198 0.020030757612399981 0 -0.012172178834191572 0.022864284540590901 0 -0.012535945456357198 0.020030757612399981 0 -0.013849503207720361 0.018016388416801244 0 -0.014254679543731752 0.013719960803714966 0 -0.013493348835217656 0.013288129353102231 0 -0.014044640159520403 0.012906359727379111 0 -0.013849503207720361 0.018016388416801244 0 -0.015689511751832232 0.0099729679816256151 0 -0.013493348835217656 0.013288129353102231 0 -0.013895975262096382 0.01222801191266216 0 -0.013305165464062444 0.012043422628522796 0 -0.013493348835217656 0.013288129353102231 0 -0.014044640159520403 0.012906359727379111 0 -0.013895975262096382 0.01222801191266216 0 -0.014615137890539181 0.01189449774901109 0 -0.013895975262096382 0.01222801191266216 0 -0.013296517617006457 0.012036721771720748 0 -0.019221687052981471 0.0021101251811287657 0 -0.019266944328618918 0.0020503141292913373 0 -0.019233027035091992 0.0020927408130942036 0 -0.014816504171700976 0.012006829717142198 0 -0.014862458117510743 0.012259712456851464 0 -0.015855297274175801 0.01250414719148134 0 -0.015493583917387253 0.010017215181653513 0 -0.015689511751832232 0.0099729679816256151 0 -0.015353313693767804 0.010841866573841515 0 -0.013296517617006457 0.012036721771720748 0 -0.012912896685739344 0.0095351289370268974 0 -0.015689511751832232 0.0099729679816256151 0 -0.015532719365792 0.0047129910563227058 0 -0.013100493622524113 0.0098274151126531359 0 -0.015532719365792 0.0047129910563227058 0 -0.013849503207720361 0.018016388416801244 0 -0.017087042634583029 0.0093494999516647876 0 -0.015689511751832232 0.0099729679816256151 0 -0.017087042634583029 0.0093494999516647876 0 -0.015632451636777327 0.020615596036663648 0 -0.01447223593064683 0.020946378145782485 0 -0.014006251230817099 0.019674268321248564 0 -0.01447223593064683 0.020946378145782485 0 -0.014006251230817099 0.019674268321248564 0 -0.013140131348715955 0.020571919303224547 0 -0.013446363583853989 0.019500187421463259 0 -0.013140131348715955 0.020571919303224547 0 -0.011144349609390461 0.019978386536976298 0 -0.01447223593064683 0.020946378145782485 0 -0.013140131348715955 0.020571919303224547 0 -0.01350816752185542 0.021781595235647946 0 -0.013446363583853989 0.019500187421463259 0 -0.014006251230817099 0.019674268321248564 0 -0.013140131348715955 0.020571919303224547 0 -0.016000918957746503 0.010013676944269039 0 -0.017087042634583029 0.0093494999516647876 0 -0.013140131348715955 0.020571919303224547 0 -0.01350816752185542 0.021781595235647946 0 -0.012191181552845711 0.02171046356759114 0 -0.013254182466581083 0.023466000952998597 0 -0.014481743122946885 0.022221822235747445 0 -0.01350816752185542 0.021781595235647946 0 -0.011739620391047437 0.026137427506365361 0 -0.012229333569366488 0.025042916766249115 0 -0.011739620391047437 0.026137427506365361 0 -0.01208253945483953 0.024151358423220678 0 -0.013254182466581083 0.023466000952998597 0 -0.01350816752185542 0.021781595235647946 0 -0.012191181552845711 0.02171046356759114 0 -0.0047129804620708263 0.022223824967567373 0 -0.0046044164262973274 0.021564237710440751 0 -0.0066492360752064897 0.023283467026331463 0 -0.0068044360329513739 0.025556900786309313 0 -0.0067190203600252197 0.025039329027565383 0 -0.0066492360752064897 0.023283467026331463 0 -0.0072519257003885416 0.018635960778804545 0 -0.011110388776346816 0.016344739454048306 0 -0.0047129804620708263 0.022223824967567373 0 -0.0041633686490744537 0.022325394083027566 0 -0.0062667769135872327 0.023562441035574217 0 -0.01289571207966277 0.0088659785898857462 0 -0.015680910714432974 0.010072146770652091 0 -0.014016666348601667 0.010202439655993756 0 -0.0048527880664337763 0.020148176015286002 0 -0.0072519257003885416 0.018635960778804545 0 -0.0047129804620708263 0.022223824967567373 0 -0.0043173617374063196 0.022116247616325177 0 -0.0044351217191612993 0.021884411836195432 0 -0.01289571207966277 0.0088659785898857462 0 -0.014016666348601667 0.010202439655993756 0 -0.013060268191247745 0.010047012871984293 0 -0.01289571207966277 0.0088659785898857462 0 -0.011857634546386327 0.010421792281709653 0 -0.013060268191247745 0.010047012871984293 0 -0.01289571207966277 0.0088659785898857462 0 -0.011857634546386327 0.010421792281709653 0 -0.01012589472797327 0.0099581134580961957 0 -0.0072519257003885416 0.018635960778804545 0 -0.0073670109485905085 0.015257698519049919 0 -0.0042668040341916685 0.021714207049384638 0 -0.0039501128900854389 0.021640052635749737 0 -0.0037536798148985234 0.021483504865669124 0 -0.0043173617374063196 0.022116247616325177 0 -0.0041401305846451211 0.021661330373301247 0 -0.0044351217191612993 0.021884411836195432 0 -0.0072519257003885416 0.018635960778804545 0 -0.0042573472252479035 0.020790781619807287 0 -0.0043173617374063196 0.022116247616325177 0 -0.0041401305846451211 0.021661330373301247 0 -0.0039501128900854389 0.021640052635749737 0 -0.0041401305846451211 0.021661330373301247 0 -0.0039501128900854389 0.021640052635749737 0 -0.0034251339503802419 0.021597388580289225 0 -0.0056769175999204684 0.023512273164893981 0 -0.0046698747186553488 0.023503182745760298 0 -0.0041401305846451211 0.021661330373301247 0 -0.0046044164262973274 0.021564237710440751 0 -0.0044351217191612993 0.021884411836195432 0 -0.0066306038467044675 0.025401745380095979 0 -0.0068044360329513739 0.025556900786309313 0 -0.0057723567951004926 0.025399099522883658 0 -0.0041401305846451211 0.021661330373301247 0 -0.0046044164262973274 0.021564237710440751 0 -0.0034251339503802419 0.021597388580289225 0 -0.0066306038467044675 0.025401745380095979 0 -0.0068044360329513739 0.025556900786309313 0 -0.0067615144190989462 0.025349239390093828 0 -0.0047129804620708263 0.022223824967567373 0 -0.0046044164262973274 0.021564237710440751 0 -0.0044351217191612993 0.021884411836195432 0 -0.0068044360329513739 0.025556900786309313 0 -0.0067190203600252197 0.025039329027565383 0 -0.0067615144190989462 0.025349239390093828 0 -0.0068034996748170184 0.025404883508513085 0 -0.0066306038467044675 0.025401745380095979 0 -0.0067615144190989462 0.025349239390093828 0 -0.006702508798917501 0.025330352848269729 0 -0.0068034996748170184 0.025404883508513085 0 -0.006720123193049066 0.025290976833290939 0 -0.0068034996748170184 0.025404883508513085 0 -0.0067615144190989462 0.025349239390093828 0 -0.006720123193049066 0.025290976833290939 0 -0.006720123193049066 0.025290976833290939 0 -0.0067058065859205386 0.025235779898020481 0 -0.0067092791530724239 0.025264565334824796 0 -0.006720123193049066 0.025290976833290939 0 -0.0067058065859205386 0.025235779898020481 0 -0.0066983036812332053 0.025190016178291742 0 -0.0067190203600252197 0.025039329027565383 0 -0.0067615144190989462 0.025349239390093828 0 -0.0066983036812332053 0.025190016178291742 0 -0.0067615144190989462 0.025349239390093828 0 -0.006720123193049066 0.025290976833290939 0 -0.0066983036812332053 0.025190016178291742 0 -0.006702508798917501 0.025330352848269729 0 -0.0067354876199489577 0.025260618035416332 0 -0.0067092791530724239 0.025264565334824796 0 -0.0072066513314735696 0.025799505998526227 0 -0.0074572309124533121 0.026544461304804166 0 -0.006702508798917501 0.025330352848269729 0 -0.006720123193049066 0.025290976833290939 0 -0.0067092791530724239 0.025264565334824796 0 -0.0066989180506690314 0.024209748913275906 0 -0.0067713436544257072 0.024458340836146029 0 -0.0067302135080054993 0.025299026064406337 0 -0.0067173512441528367 0.025271303713741165 0 -0.0066971254816830363 0.02526847491950325 0 -0.0072712910325130808 0.02334890206273307 0 -0.0066492360752064897 0.023283467026331463 0 -0.0066197900129188799 0.023376723525668615 0 -0.0067354876199489577 0.025260618035416332 0 -0.0067092791530724239 0.025264565334824796 0 -0.0067173512441528367 0.025271303713741165 0 -0.0067092791530724239 0.025264565334824796 0 -0.0067173512441528367 0.025271303713741165 0 -0.0066971254816830363 0.02526847491950325 0 -0.0067190203600252197 0.025039329027565383 0 -0.0066983036812332053 0.025190016178291742 0 -0.0066971254816830363 0.02526847491950325 0 -0.0056769175999204684 0.023512273164893981 0 -0.0064712668107689943 0.023306811061377049 0 -0.0047129804620708263 0.022223824967567373 0 -0.0066492360752064897 0.023283467026331463 0 -0.0062667769135872327 0.023562441035574217 0 -0.0067190203600252197 0.025039329027565383 0 -0.0066492360752064897 0.023283467026331463 0 -0.0066197900129188799 0.023376723525668615 0 -0.0068361074077104445 0.024914812011659085 0 -0.0067713436544257072 0.024458340836146029 0 -0.0067058065859205386 0.025235779898020481 0 -0.0067092791530724239 0.025264565334824796 0 -0.0066971254816830363 0.02526847491950325 0 -0.0067058065859205386 0.025235779898020481 0 -0.0066983036812332053 0.025190016178291742 0 -0.0066971254816830363 0.02526847491950325 0 -0.015680910714432974 0.010072146770652091 0 -0.015007052281796596 0.010739429014337677 0 -0.014016666348601667 0.010202439655993756 0 -0.015680910714432974 0.010072146770652091 0 -0.015809917359348225 0.010255936794282232 0 -0.015007052281796596 0.010739429014337677 0 -0.0066492360752064897 0.023283467026331463 0 -0.0062667769135872327 0.023562441035574217 0 -0.0072988064893813841 0.023638320455242497 0 -0.011110388776346816 0.016344739454048306 0 -0.010699911103956655 0.01755514415036883 0 -0.0072712910325130808 0.02334890206273307 0 -0.0066492360752064897 0.023283467026331463 0 -0.0072988064893813841 0.023638320455242497 0 -0.015680910714432974 0.010072146770652091 0 -0.015809917359348225 0.010255936794282232 0 -0.015107267680653383 0.010361457335587363 0 -0.016208527472760068 0.010201628283021888 0 -0.017191631868535787 0.007119118731693754 0 -0.015698666705857726 0.0073415032262928353 0 -0.015809917359348225 0.010255936794282232 0 -0.015107267680653383 0.010361457335587363 0 -0.016208527472760068 0.010201628283021888 0 -0.015107267680653383 0.010361457335587363 0 -0.015305846647776225 0.0090896037899920925 0 -0.016208527472760068 0.010201628283021888 0 -0.015305846647776225 0.0090896037899920925 0 -0.016208527472760068 0.010201628283021888 0 -0.015698666705857726 0.0073415032262928353 0 -0.014111951438171335 0.0081899384401382877 0 -0.015305846647776225 0.0090896037899920925 0 -0.015698666705857726 0.0073415032262928353 0 -0.015007052281796596 0.010739429014337677 0 -0.016208527472760068 0.010201628283021888 0 -0.014857213975051693 0.012518905412215424 0 -0.016208527472760068 0.010201628283021888 0 -0.018792915512980062 0.008328267804694818 0 -0.017191631868535787 0.007119118731693754 0 -0.015809917359348225 0.010255936794282232 0 -0.015007052281796596 0.010739429014337677 0 -0.016208527472760068 0.010201628283021888 0 -0.016204676870692238 0.01042478090135707 0 -0.016947285545917855 0.010245501434758336 0 -0.015007052281796596 0.010739429014337677 0 -0.013257703973527341 0.012273450419343289 0 -0.01324256073256652 0.010918699082867071 0 -0.015007052281796596 0.010739429014337677 0 -0.014857213975051693 0.012518905412215424 0 -0.013257703973527341 0.012273450419343289 0 -0.015007052281796596 0.010739429014337677 0 -0.01324256073256652 0.010918699082867071 0 -0.014016666348601667 0.010202439655993756 0 -0.01324256073256652 0.010918699082867071 0 -0.014016666348601667 0.010202439655993756 0 -0.013060268191247745 0.010047012871984293 0 -0.01324256073256652 0.010918699082867071 0 -0.011857634546386327 0.010421792281709653 0 -0.013060268191247745 0.010047012871984293 0 -0.01324256073256652 0.010918699082867071 0 -0.011857634546386327 0.010421792281709653 0 -0.01200098110319724 0.011681224952349044 0 -0.011857634546386327 0.010421792281709653 0 -0.01200098110319724 0.011681224952349044 0 -0.010538553208009029 0.011652539685597875 0 -0.013257703973527341 0.012273450419343289 0 -0.01200098110319724 0.011681224952349044 0 -0.011111309668490799 0.013286302664760347 0 -0.013257703973527341 0.012273450419343289 0 -0.01324256073256652 0.010918699082867071 0 -0.01200098110319724 0.011681224952349044 0 -0.0091222211899915223 0.012883905410195568 0 -0.010538553208009029 0.011652539685597875 0 -0.011111309668490799 0.013286302664760347 0 -0.01200098110319724 0.011681224952349044 0 -0.010538553208009029 0.011652539685597875 0 -0.011111309668490799 0.013286302664760347 0 -0.0085363230379163421 0.01299754049276217 0 -0.0096004500181350733 0.013414302019242149 0 -0.0091222211899915223 0.012883905410195568 0 -0.0091487777042018655 0.011491355193879449 0 -0.010538553208009029 0.011652539685597875 0 -0.0091487777042018655 0.011491355193879449 0 -0.01012589472797327 0.0099581134580961957 0 -0.0077544112357844598 0.011411401629451517 0 -0.0091222211899915223 0.012883905410195568 0 -0.0091487777042018655 0.011491355193879449 0 -0.0073184429770933729 0.012868247022788085 0 -0.011857634546386327 0.010421792281709653 0 -0.010538553208009029 0.011652539685597875 0 -0.01012589472797327 0.0099581134580961957 0 -0.0091487777042018655 0.011491355193879449 0 -0.010538553208009029 0.011652539685597875 0 -0.01012589472797327 0.0099581134580961957 0 -0.0039501128900854389 0.021640052635749737 0 -0.0037536798148985234 0.021483504865669124 0 -0.003693658647465676 0.021549216756336927 0 -0.0073670109485905085 0.015257698519049919 0 -0.0056667976725244427 0.016232242419690544 0 -0.0037536798148985234 0.021483504865669124 0 -0.0036553050289577296 0.021262936666349222 0 -0.0035873505636078119 0.020971931027204564 0 -0.0037536798148985234 0.021483504865669124 0 -0.0036553050289577296 0.021262936666349222 0 -0.0036726997709780225 0.021499368262399777 0 -0.0036553050289577296 0.021262936666349222 0 -0.0036726997709780225 0.021499368262399777 0 -0.0038041698788662741 0.021564033148937834 0 -0.0036726997709780225 0.021499368262399777 0 -0.0038041698788662741 0.021564033148937834 0 -0.0038491824315708975 0.02196584414895332 0 -0.0039501128900854389 0.021640052635749737 0 -0.003693658647465676 0.021549216756336927 0 -0.0034251339503802419 0.021597388580289225 0 -0.0037536798148985234 0.021483504865669124 0 -0.0036726997709780225 0.021499368262399777 0 -0.003693658647465676 0.021549216756336927 0 -0.0036726997709780225 0.021499368262399777 0 -0.003693658647465676 0.021549216756336927 0 -0.0034251339503802419 0.021597388580289225 0 -0.0036932464955319972 0.021313650245567299 0 -0.0035423237494674816 0.020816637336303234 0 -0.0035895553883358664 0.02121542644614053 0 -0.0036932464955319972 0.021313650245567299 0 -0.0036533347616544091 0.021145164724574755 0 -0.0035423237494674816 0.020816637336303234 0 -0.0036553050289577296 0.021262936666349222 0 -0.0038041698788662741 0.021564033148937834 0 -0.0036533347616544091 0.021145164724574755 0 -0.0036932464955319972 0.021313650245567299 0 -0.0038041698788662741 0.021564033148937834 0 -0.0036533347616544091 0.021145164724574755 0 -0.0036533347616544091 0.021145164724574755 0 -0.0035423237494674816 0.020816637336303234 0 -0.0035873505636078119 0.020971931027204564 0 -0.0036553050289577296 0.021262936666349222 0 -0.0036533347616544091 0.021145164724574755 0 -0.0035873505636078119 0.020971931027204564 0 -0.0035423237494674816 0.020816637336303234 0 -0.0035873505636078119 0.020971931027204564 0 -0.0033784135693240504 0.020017654102322129 0 -0.0056667976725244427 0.016232242419690544 0 -0.0049147518344125297 0.016416120590452388 0 -0.0077544112357844598 0.011411401629451517 0 -0.0073184429770933729 0.012868247022788085 0 -0.0061949440634647595 0.012929761620979181 0 -0.0091487777042018655 0.011491355193879449 0 -0.0077544112357844598 0.011411401629451517 0 -0.0073184429770933729 0.012868247022788085 0 -0.0078943132835936573 0.013156065108729055 0 -0.0073184429770933729 0.012868247022788085 0 -0.0071891285192987441 0.013868741678380318 0 -0.0085363230379163421 0.01299754049276217 0 -0.0073637652853232359 0.012810639836133316 0 -0.0073184429770933729 0.012868247022788085 0 -0.0063362743022111158 0.01387343476207197 0 -0.0061949440634647595 0.012929761620979181 0 -0.0073184429770933729 0.012868247022788085 0 -0.0063362743022111158 0.01387343476207197 0 -0.0071891285192987441 0.013868741678380318 0 -0.0063362743022111158 0.01387343476207197 0 -0.0050799070839293468 0.014378371764866709 0 -0.0057996324729727355 0.014650336250436486 0 -0.0050799070839293468 0.014378371764866709 0 -0.0049994293642816106 0.01523838442621441 0 -0.0057996324729727355 0.014650336250436486 0 -0.0034847404784800191 0.018438377961162076 0 -0.0033784135693240504 0.020017654102322129 0 -0.0034876985303882034 0.019759732985949272 0 -0.0034847404784800191 0.018438377961162076 0 -0.0037650254854757711 0.018933358437897341 0 -0.0034876985303882034 0.019759732985949272 0 -0.0063362743022111158 0.01387343476207197 0 -0.0050799070839293468 0.014378371764866709 0 -0.0061949440634647595 0.012929761620979181 0 -0.0044421611408586564 0.016384958306955983 0 -0.0049147518344125297 0.016416120590452388 0 -0.0047909057267308541 0.016166572199055859 0 -0.0044738235798303504 0.016304018839493131 0 -0.0046372447935056496 0.015804966303881129 0 -0.0044421611408586564 0.016384958306955983 0 -0.0046306194503649674 0.016275936848531115 0 -0.0050799070839293468 0.014378371764866709 0 -0.0044738235798303504 0.016304018839493131 0 -0.0049994293642816106 0.01523838442621441 0 -0.0034847404784800191 0.018438377961162076 0 -0.0044738235798303504 0.016304018839493131 0 -0.0037650254854757711 0.018933358437897341 0 -0.0044738235798303504 0.016304018839493131 0 -0.0044579984891981363 0.018623420878167235 0 -0.0037650254854757711 0.018933358437897341 0 -0.0037650254854757711 0.018933358437897341 0 -0.0037315777388551396 0.020021508328016444 0 -0.0034876985303882034 0.019759732985949272 0 -0.0044579984891981363 0.018623420878167235 0 -0.0037650254854757711 0.018933358437897341 0 -0.0037315777388551396 0.020021508328016444 0 -0.0037315777388551396 0.020021508328016444 0 -0.0042296562720773078 0.019995618442169107 0 -0.0038975983284943406 0.020808667946519688 0 -0.0044579984891981363 0.018623420878167235 0 -0.0037315777388551396 0.020021508328016444 0 -0.0042296562720773078 0.019995618442169107 0 -0.0047616885245250927 0.019395492882135608 0 -0.0044579984891981363 0.018623420878167235 0 -0.0042296562720773078 0.019995618442169107 0 -0.0047616885245250927 0.019395492882135608 0 -0.0042296562720773078 0.019995618442169107 0 -0.0045233527574799542 0.020578118862002916 0 -0.0033784135693240504 0.020017654102322129 0 -0.0034833730305999355 0.020503948080936907 0 -0.0034876985303882034 0.019759732985949272 0 -0.0035423237494674816 0.020816637336303234 0 -0.0033784135693240504 0.020017654102322129 0 -0.0034833730305999355 0.020503948080936907 0 -0.0037315777388551396 0.020021508328016444 0 -0.0034876985303882034 0.019759732985949272 0 -0.0035084314680735281 0.02085482795505593 0 -0.0037315777388551396 0.020021508328016444 0 -0.0035084314680735281 0.02085482795505593 0 -0.0035955364804508487 0.020953095277750956 0 -0.0034833730305999355 0.020503948080936907 0 -0.0034876985303882034 0.019759732985949272 0 -0.0035084314680735281 0.02085482795505593 0 -0.0034833730305999355 0.020503948080936907 0 -0.0035084314680735281 0.02085482795505593 0 -0.0035895553883358664 0.02121542644614053 0 -0.0035423237494674816 0.020816637336303234 0 -0.0034833730305999355 0.020503948080936907 0 -0.0035895553883358664 0.02121542644614053 0 -0.0035084314680735281 0.02085482795505593 0 -0.0034439577643120816 0.021506101509334845 0 -0.0035696801702151202 0.021798428919525149 0 -0.0035084314680735281 0.02085482795505593 0 -0.0035895553883358664 0.02121542644614053 0 -0.0035696801702151202 0.021798428919525149 0 -0.0035084314680735281 0.02085482795505593 0 -0.0035955364804508487 0.020953095277750956 0 -0.0034439577643120816 0.021506101509334845 0 -0.0035955364804508487 0.020953095277750956 0 -0.0034439577643120816 0.021506101509334845 0 -0.0035564161311904376 0.021549039132259896 0 -0.0032189548791887834 0.021927938048136392 0 -0.0035564161311904376 0.021549039132259896 0 -0.0035107677405927804 0.02241576580365931 0 -0.0034439577643120816 0.021506101509334845 0 -0.0032189548791887834 0.021927938048136392 0 -0.0035696801702151202 0.021798428919525149 0 -0.0034439577643120816 0.021506101509334845 0 -0.0032189548791887834 0.021927938048136392 0 -0.0035564161311904376 0.021549039132259896 0 -0.0035696801702151202 0.021798428919525149 0 -0.003667014385115454 0.021886644765489995 0 -0.0038882874603351487 0.022175585695075842 0 -0.0032189548791887834 0.021927938048136392 0 -0.0035696801702151202 0.021798428919525149 0 -0.003667014385115454 0.021886644765489995 0 -0.0042296562720773078 0.019995618442169107 0 -0.0045233527574799542 0.020578118862002916 0 -0.0038975983284943406 0.020808667946519688 0 -0.0045233527574799542 0.020578118862002916 0 -0.0038975983284943406 0.020808667946519688 0 -0.004087336815869474 0.021632984777512899 0 -0.0037315777388551396 0.020021508328016444 0 -0.0035955364804508487 0.020953095277750956 0 -0.0038975983284943406 0.020808667946519688 0 -0.0035955364804508487 0.020953095277750956 0 -0.0038975983284943406 0.020808667946519688 0 -0.0035564161311904376 0.021549039132259896 0 -0.0035564161311904376 0.021549039132259896 0 -0.004087336815869474 0.021632984777512899 0 -0.0035107677405927804 0.02241576580365931 0 -0.0038975983284943406 0.020808667946519688 0 -0.0035564161311904376 0.021549039132259896 0 -0.004087336815869474 0.021632984777512899 0 -0.0050364111625658386 0.021460521183415526 0 -0.0045233527574799542 0.020578118862002916 0 -0.004087336815869474 0.021632984777512899 0 -0.0050364111625658386 0.021460521183415526 0 -0.004087336815869474 0.021632984777512899 0 -0.0043118766923011843 0.022812247311679437 0 -0.004087336815869474 0.021632984777512899 0 -0.0043118766923011843 0.022812247311679437 0 -0.0035107677405927804 0.02241576580365931 0 -0.0035107677405927804 0.02241576580365931 0 -0.0035265045314740156 0.023506308712450706 0 -0.003090371439009483 0.022672346978760968 0 -0.0043118766923011843 0.022812247311679437 0 -0.0035107677405927804 0.02241576580365931 0 -0.0035265045314740156 0.023506308712450706 0 -0.0035065887022134716 0.024839567034088243 0 -0.0031183689444625531 0.024853078351118534 0 -0.0030752238758041377 0.026396885949865796 0 -0.0030975990174124286 0.026086245125054662 0 -0.0031079673821555569 0.026562553660622431 0 -0.0035065887022134716 0.024839567034088243 0 -0.0045257512484129106 0.02510997171471914 0 -0.0043118766923011843 0.022812247311679437 0 -0.0035265045314740156 0.023506308712450706 0 -0.0045057468324015736 0.025046519609266592 0 -0.0030752238758041377 0.026396885949865796 0 -0.0030975990174124286 0.026086245125054662 0 -0.0045057468324015736 0.025046519609266592 0 -0.0036876737956178444 0.023509421883155308 0 -0.0031183689444625531 0.024853078351118534 0 -0.0032189548791887834 0.021927938048136392 0 -0.0021406296510988261 0.022276462905773529 0 -0.003090371439009483 0.022672346978760968 0 -0.0030256639317665047 0.021836339295135874 0 -0.0036876737956178444 0.023509421883155308 0 -0.0038088008358365417 0.027274864768739249 0 -0.0032442786603679571 0.026876466400635006 0 -0.0035010881477165546 0.02675548745618193 0 -0.0032189548791887834 0.021927938048136392 0 -0.0035107677405927804 0.02241576580365931 0 -0.003090371439009483 0.022672346978760968 0 -0.0030975990174124286 0.026086245125054662 0 -0.0032442786603679571 0.026876466400635006 0 -0.0031079673821555569 0.026562553660622431 0 -0.0032442786603679571 0.026876466400635006 0 -0.0031079673821555569 0.026562553660622431 0 -0.0035010881477165546 0.02675548745618193 0 -0.0038088008358365417 0.027274864768739249 0 -0.0035010881477165546 0.02675548745618193 0 -0.0040100543607603035 0.026743047130362831 0 -0.0040100543607603035 0.026743047130362831 0 -0.0045466066927944892 0.027145367931047132 0 -0.0046008477118956309 0.02668947522312461 0 -0.0036876737956178444 0.023509421883155308 0 -0.004543639646078625 0.02538824006979451 0 -0.0049928552901563851 0.023101546234966516 0 -0.0043521075767238666 0.023336628584470793 0 -0.0042562874833916098 0.02281629191546437 0 -0.0038088008358365417 0.027274864768739249 0 -0.0040100543607603035 0.026743047130362831 0 -0.0045466066927944892 0.027145367931047132 0 -0.0036876737956178444 0.023509421883155308 0 -0.0043813746049028513 0.02259556154645035 0 -0.004543639646078625 0.02538824006979451 0 -0.0051676773316125541 0.025306260318132063 0 -0.0043521075767238666 0.023336628584470793 0 -0.0051521782102129801 0.023911443406302444 0 -0.0045195430080353068 0.023490527601793518 0 -0.0043521075767238666 0.023336628584470793 0 -0.0045195430080353068 0.023490527601793518 0 -0.0042562874833916098 0.02281629191546437 0 -0.0045466066927944892 0.027145367931047132 0 -0.0046008477118956309 0.02668947522312461 0 -0.0053915820005444358 0.026600902215136536 0 -0.0051036212892707003 0.026457026003584933 0 -0.0046008477118956309 0.02668947522312461 0 -0.0053915820005444358 0.026600902215136536 0 -0.0060496154610683202 0.025491214679370662 0 -0.0059152303089351679 0.024672056719849129 0 -0.0051521782102129801 0.023911443406302444 0 -0.0055916986046148486 0.026127026932208225 0 -0.0060496154610683202 0.025491214679370662 0 -0.0053915820005444358 0.026600902215136536 0 -0.0058250959502091394 0.025451116584694355 0 -0.0051676773316125541 0.025306260318132063 0 -0.0059152303089351679 0.024672056719849129 0 -0.0051521782102129801 0.023911443406302444 0 -0.0051902140962382364 0.024035671707491151 0 -0.0051521782102129801 0.023911443406302444 0 -0.0045195430080353068 0.023490527601793518 0 -0.0051902140962382364 0.024035671707491151 0 -0.0041701938785486886 0.023264576221840291 0 -0.0051902140962382364 0.024035671707491151 0 -0.0057723567951004926 0.025399099522883658 0 -0.0045195430080353068 0.023490527601793518 0 -0.0041701938785486886 0.023264576221840291 0 -0.0051902140962382364 0.024035671707491151 0 -0.0059152303089351679 0.024672056719849129 0 -0.0060459831870183483 0.024848025026320341 0 -0.0051902140962382364 0.024035671707491151 0 -0.0060459831870183483 0.024848025026320341 0 -0.0051902140962382364 0.024035671707491151 0 -0.0057723567951004926 0.025399099522883658 0 -0.0036726997709780225 0.021499368262399777 0 -0.0034251339503802419 0.021597388580289225 0 -0.0038491824315708975 0.02196584414895332 0 -0.0042609217105639852 0.023327946965409109 0 -0.0046698747186553488 0.023503182745760298 0 -0.0041701938785486886 0.023264576221840291 0 -0.0034251339503802419 0.021597388580289225 0 -0.0038491824315708975 0.02196584414895332 0 -0.0038041698788662741 0.021564033148937834 0 -0.0038491824315708975 0.02196584414895332 0 -0.0040631025122881354 0.022312557106311814 0 -0.0041701938785486886 0.023264576221840291 0 -0.0038491824315708975 0.02196584414895332 0 -0.0040631025122881354 0.022312557106311814 0 -0.0036932464955319972 0.021313650245567299 0 -0.0038041698788662741 0.021564033148937834 0 -0.0038827745621225424 0.021954829216113272 0 -0.0038041698788662741 0.021564033148937834 0 -0.0040631025122881354 0.022312557106311814 0 -0.0038827745621225424 0.021954829216113272 0 -0.0035895553883358664 0.02121542644614053 0 -0.0035696801702151202 0.021798428919525149 0 -0.0038827745621225424 0.021954829216113272 0 -0.0036932464955319972 0.021313650245567299 0 -0.0035895553883358664 0.02121542644614053 0 -0.0038827745621225424 0.021954829216113272 0 -0.0035696801702151202 0.021798428919525149 0 -0.0038827745621225424 0.021954829216113272 0 -0.0038882874603351487 0.022175585695075842 0 -0.003667014385115454 0.021886644765489995 0 -0.0038882874603351487 0.022175585695075842 0 -0.0042562874833916098 0.02281629191546437 0 -0.0038827745621225424 0.021954829216113272 0 -0.0038882874603351487 0.022175585695075842 0 -0.0042562874833916098 0.02281629191546437 0 -0.0041701938785486886 0.023264576221840291 0 -0.0040631025122881354 0.022312557106311814 0 -0.0042562874833916098 0.02281629191546437 0 -0.0040631025122881354 0.022312557106311814 0 -0.0038827745621225424 0.021954829216113272 0 -0.0042562874833916098 0.02281629191546437 0 -0.0045195430080353068 0.023490527601793518 0 -0.0041701938785486886 0.023264576221840291 0 -0.0042562874833916098 0.02281629191546437 0 -0.025964525749343964 0.019613975802477163 0 -0.026956412540381957 0.0199715331687545 0 -0.026035624027327186 0.020486147176379407 0 -0.025964525749343964 0.019613975802477163 0 -0.024999717585806974 0.020259062149298724 0 -0.026035624027327186 0.020486147176379407 0 -0.025964525749343964 0.019613975802477163 0 -0.024999717585806974 0.020259062149298724 0 -0.025000062363558825 0.018992213096726791 0 -0.025964525749343964 0.019613975802477163 0 -0.025000062363558825 0.018992213096726791 0 -0.025936223371608721 0.018286253956859625 0 -0.025964525749343964 0.019613975802477163 0 -0.026912335758799609 0.018885213100293341 0 -0.025936223371608721 0.018286253956859625 0 -0.025964525749343964 0.019613975802477163 0 -0.026912335758799609 0.018885213100293341 0 -0.026956412540381957 0.0199715331687545 0 -0.02710263325392856 0.018779864030110387 0 -0.024918839593127521 0.020466810349967234 0 -0.026553144666942006 0.018602309445929142 0 -0.027264708864874525 0.019062835560697017 0 -0.026968977925545964 0.018073504388380339 0 -0.026912335758799609 0.018885213100293341 0 -0.027877449537462979 0.019506455014660192 0 -0.026956412540381957 0.0199715331687545 0 -0.021071105725719793 0.022039913190560756 0 -0.021217552186856694 0.021911855105978269 0 -0.0211119431083482 0.021626917431715714 0 -0.024918839593127521 0.020466810349967234 0 -0.023826146817476787 0.019736260132675466 0 -0.021071105725719793 0.022039913190560756 0 -0.021157551344433305 0.022085759573643733 0 -0.021217552186856694 0.021911855105978269 0 -0.024918839593127521 0.020466810349967234 0 -0.023620627889144218 0.020317972713663469 0 -0.027877449537462979 0.019506455014660192 0 -0.028133786258072505 0.020312883185583733 0 -0.026956412540381957 0.0199715331687545 0 -0.024918839593127521 0.020466810349967234 0 -0.024611480115045044 0.021253303598949235 0 -0.02109326232874735 0.022040884710126336 0 -0.021157551344433305 0.022085759573643733 0 -0.021195198622194957 0.022332765970149653 0 -0.028133786258072505 0.020312883185583733 0 -0.026956412540381957 0.0199715331687545 0 -0.026959620288810243 0.021195185881986982 0 -0.026956412540381957 0.0199715331687545 0 -0.026959620288810243 0.021195185881986982 0 -0.026035624027327186 0.020486147176379407 0 -0.028133786258072505 0.020312883185583733 0 -0.026959620288810243 0.021195185881986982 0 -0.028365355895861793 0.021086187539694261 0 -0.025863618313339772 0.022574226170508374 0 -0.023778675653176356 0.022907058927501826 0 -0.023439733021442206 0.02383312225798067 0 -0.022119646593395801 0.024349397615599344 0 -0.022213764647089348 0.025093836319174417 0 -0.02423518370962852 0.024001632300685659 0 -0.023439733021442206 0.02383312225798067 0 -0.022382467803097172 0.025315455377314597 0 -0.023439733021442206 0.02383312225798067 0 -0.022213764647089348 0.025093836319174417 0 -0.022382467803097172 0.025315455377314597 0 -0.02423518370962852 0.024001632300685659 0 -0.023439733021442206 0.02383312225798067 0 -0.025034577442201424 0.022552509041276824 0 -0.02423518370962852 0.024001632300685659 0 -0.02526566052747236 0.02153328738004754 0 -0.025034577442201424 0.022552509041276824 0 -0.026959620288810243 0.021195185881986982 0 -0.026035624027327186 0.020486147176379407 0 -0.02526566052747236 0.02153328738004754 0 -0.025863618313339772 0.022574226170508374 0 -0.025003873643509245 0.02171701688954069 0 -0.024999717585806974 0.020259062149298724 0 -0.026035624027327186 0.020486147176379407 0 -0.02526566052747236 0.02153328738004754 0 -0.024999717585806974 0.020259062149298724 0 -0.02526566052747236 0.02153328738004754 0 -0.024999661611819914 0.021527650097630486 0 -0.02526566052747236 0.02153328738004754 0 -0.024999661611819914 0.021527650097630486 0 -0.025034577442201424 0.022552509041276824 0 -0.024999661611819914 0.021527650097630486 0 -0.025034577442201424 0.022552509041276824 0 -0.02499990684257895 0.022790260260839638 0 -0.024999908482021972 0.024995924854555842 0 -0.022406711347333026 0.025219621756054047 0 -0.019686342287490319 0.024998601075343393 0 -0.025034577442201424 0.022552509041276824 0 -0.024638268031051642 0.022503245838278878 0 -0.02499990684257895 0.022790260260839638 0 -0.024172915145272499 0.023577792921870108 0 -0.024999475001389389 0.022792352622713091 0 -0.023890756503735212 0.024688670431440404 0 -0.024999908482021972 0.024995924854555842 0 -0.022406711347333026 0.025219621756054047 0 -0.023890756503735212 0.024688670431440404 0 -0.024997245664865213 0.022800015614888678 0 -0.024999908482021972 0.024995924854555842 0 -0.024172915145272499 0.023577792921870108 0 -0.022614481296826239 0.024273294593453752 0 -0.023439733021442206 0.02383312225798067 0 -0.024638268031051642 0.022503245838278878 0 -0.022718664436719448 0.023243599886305408 0 -0.023439733021442206 0.02383312225798067 0 -0.025034577442201424 0.022552509041276824 0 -0.024638268031051642 0.022503245838278878 0 -0.023439733021442206 0.02383312225798067 0 -0.022718664436719448 0.023243599886305408 0 -0.022119646593395801 0.024349397615599344 0 -0.022718664436719448 0.023243599886305408 0 -0.022119646593395801 0.024349397615599344 0 -0.020930210320668025 0.025096101444980045 0 -0.021143647834620118 0.025010537675352121 0 -0.020930210320668025 0.025096101444980045 0 -0.020315496430000319 0.025349309556422207 0 -0.022119646593395801 0.024349397615599344 0 -0.021143647834620118 0.025010537675352121 0 -0.020930210320668025 0.025096101444980045 0 -0.022614481296826239 0.024273294593453752 0 -0.021100179843202248 0.024954818908912345 0 -0.022406711347333026 0.025219621756054047 0 -0.020930210320668025 0.025096101444980045 0 -0.019686342287490319 0.024998601075343393 0 -0.020930210320668025 0.025096101444980045 0 -0.019686342287490319 0.024998601075343393 0 -0.019755958606006131 0.025365361767181963 0 -0.019686342287490319 0.024998601075343393 0 -0.019755958606006131 0.025365361767181963 0 -0.018535720758140934 0.025684226777742347 0 -0.019755958606006131 0.025365361767181963 0 -0.019601686839607186 0.025611724907440559 0 -0.020315496430000319 0.025349309556422207 0 -0.019755958606006131 0.025365361767181963 0 -0.019601686839607186 0.025611724907440559 0 -0.018535720758140934 0.025684226777742347 0 -0.020930210320668025 0.025096101444980045 0 -0.019755958606006131 0.025365361767181963 0 -0.020315496430000319 0.025349309556422207 0 -0.021143647834620118 0.025010537675352121 0 -0.020315496430000319 0.025349309556422207 0 -0.020758641445513176 0.025376524382880829 0 -0.020315496430000319 0.025349309556422207 0 -0.020268362130614503 0.025500416472241928 0 -0.020758641445513176 0.025376524382880829 0 -0.018854533578133048 0.026433982004809203 0 -0.019084153055390393 0.026924698592522101 0 -0.018612935445483231 0.026880385966305324 0 -0.01913619300736007 0.02591836667558654 0 -0.019820272165391981 0.026459853075093454 0 -0.019601686839607186 0.025611724907440559 0 -0.020315496430000319 0.025349309556422207 0 -0.020268362130614503 0.025500416472241928 0 -0.01693182851112229 0.027385079328781228 0 -0.018182261402919973 0.026636493090787829 0 -0.019084153055390393 0.026924698592522101 0 -0.018951701019170247 0.027336729499894248 0 -0.018612935445483231 0.026880385966305324 0 -0.019084153055390393 0.026924698592522101 0 -0.018951701019170247 0.027336729499894248 0 -0.019313102741193813 0.027301860348944891 0 -0.017459572984433416 0.026617310896380246 0 -0.017469148778532097 0.026638860691580651 0 -0.017354902973347849 0.026529057895801775 0 -0.013571931374555937 0.026593422854882857 0 -0.013725357270632921 0.026439370264072278 0 -0.013870195223370414 0.026585602160786859 0 -0.015697948631809604 0.027280267706108082 0 -0.015570724700715296 0.027082195635406037 0 -0.015182038045707169 0.027053323958354351 0 -0.01693182851112229 0.027385079328781228 0 -0.015404177443021912 0.026560200728461502 0 -0.01693182851112229 0.027385079328781228 0 -0.019108486485626342 0.025369203493853548 0 -0.015697948631809604 0.027280267706108082 0 -0.015182038045707169 0.027053323958354351 0 -0.014692433759412251 0.0273228329116438 0 -0.015570724700715296 0.027082195635406037 0 -0.015182038045707169 0.027053323958354351 0 -0.014766660217537411 0.026530700878179603 0 -0.015182038045707169 0.027053323958354351 0 -0.014692433759412251 0.0273228329116438 0 -0.014766660217537411 0.026530700878179603 0 -0.015404177443021912 0.026560200728461502 0 -0.01453093728158787 0.026411614043590385 0 -0.019820272165391981 0.026459853075093454 0 -0.019108486485626342 0.025369203493853548 0 -0.020268362130614503 0.025500416472241928 0 -0.020666913322525099 0.025800042148360524 0 -0.020758641445513176 0.025376524382880829 0 -0.021143647834620118 0.025010537675352121 0 -0.020758641445513176 0.025376524382880829 0 -0.021477067140656492 0.02511507124862963 0 -0.020758641445513176 0.025376524382880829 0 -0.021477067140656492 0.02511507124862963 0 -0.021298347717290417 0.025703802693003538 0 -0.022119646593395801 0.024349397615599344 0 -0.021143647834620118 0.025010537675352121 0 -0.021477067140656492 0.02511507124862963 0 -0.022119646593395801 0.024349397615599344 0 -0.021477067140656492 0.02511507124862963 0 -0.022213764647089348 0.025093836319174417 0 -0.021477067140656492 0.02511507124862963 0 -0.022213764647089348 0.025093836319174417 0 -0.021298347717290417 0.025703802693003538 0 -0.023778675653176356 0.022907058927501826 0 -0.021468509603754186 0.024139743105296475 0 -0.021296958735068417 0.022604803209688988 0 -0.021574248741326053 0.022595014500645629 0 -0.021409000195683391 0.022371093838896121 0 -0.022213764647089348 0.025093836319174417 0 -0.022350919899138726 0.025479514744498818 0 -0.021298347717290417 0.025703802693003538 0 -0.023554311372584288 0.024320750486368895 0 -0.023778675653176356 0.022907058927501826 0 -0.024611480115045044 0.021253303598949235 0 -0.023778675653176356 0.022907058927501826 0 -0.021195198622194957 0.022332765970149653 0 -0.021296958735068417 0.022604803209688988 0 -0.021409000195683391 0.022371093838896121 0 -0.020666913322525099 0.025800042148360524 0 -0.020758641445513176 0.025376524382880829 0 -0.021298347717290417 0.025703802693003538 0 -0.019108486485626342 0.025369203493853548 0 -0.021468509603754186 0.024139743105296475 0 -0.021838057382895671 0.022596611129631752 0 -0.021574248741326053 0.022595014500645629 0 -0.021626701524722403 0.022175321919437212 0 -0.013820839833827835 0.026070713828368015 0 -0.013938044594091136 0.02602525131903748 0 -0.014766660217537411 0.026530700878179603 0 -0.019108486485626342 0.025369203493853548 0 -0.017586337629067434 0.024004358323611471 0 -0.021574248741326053 0.022595014500645629 0 -0.021626701524722403 0.022175321919437212 0 -0.021409000195683391 0.022371093838896121 0 -0.021626701524722403 0.022175321919437212 0 -0.021409000195683391 0.022371093838896121 0 -0.021345370303172646 0.022131883235198355 0 -0.021195198622194957 0.022332765970149653 0 -0.021409000195683391 0.022371093838896121 0 -0.021345370303172646 0.022131883235198355 0 -0.021157551344433305 0.022085759573643733 0 -0.021195198622194957 0.022332765970149653 0 -0.021345370303172646 0.022131883235198355 0 -0.017586337629067434 0.024004358323611471 0 -0.017350904313439053 0.023590788779509257 0 -0.021345370303172646 0.022131883235198355 0 -0.021217552186856694 0.021911855105978269 0 -0.02139091138481803 0.021657186673583479 0 -0.021626701524722403 0.022175321919437212 0 -0.021345370303172646 0.022131883235198355 0 -0.02139091138481803 0.021657186673583479 0 -0.021157551344433305 0.022085759573643733 0 -0.021345370303172646 0.022131883235198355 0 -0.021217552186856694 0.021911855105978269 0 -0.013938044594091136 0.02602525131903748 0 -0.014339894690808035 0.026027970284773758 0 -0.013912060258082941 0.025479517199860229 0 -0.013820839833827835 0.026070713828368015 0 -0.013938044594091136 0.02602525131903748 0 -0.013912060258082941 0.025479517199860229 0 -0.013820839833827835 0.026070713828368015 0 -0.013912060258082941 0.025479517199860229 0 -0.013370392998153626 0.025440405812849926 0 -0.013696667424019222 0.026089173994290036 0 -0.013571458166124773 0.025759225422192531 0 -0.01336627586355737 0.026272342234464379 0 -0.013379611169735803 0.026012542050875824 0 -0.013182240980310702 0.025970183246953802 0 -0.013554969919501067 0.026142491232727508 0 -0.01336627586355737 0.026272342234464379 0 -0.013379611169735803 0.026012542050875824 0 -0.013554969919501067 0.026142491232727508 0 -0.013514668793036153 0.025924148247976422 0 -0.013379611169735803 0.026012542050875824 0 -0.013554969919501067 0.026142491232727508 0 -0.013771316398714515 0.026062483387236362 0 -0.013514668793036153 0.025924148247976422 0 -0.013554969919501067 0.026142491232727508 0 -0.01357971926676051 0.026352418684572172 0 -0.013714540876850255 0.026262956101969964 0 -0.013554969919501067 0.026142491232727508 0 -0.013714540876850255 0.026262956101969964 0 -0.013771316398714515 0.026062483387236362 0 -0.013554969919501067 0.026142491232727508 0 -0.01357971926676051 0.026352418684572172 0 -0.01336627586355737 0.026272342234464379 0 -0.013571931374555937 0.026593422854882857 0 -0.01357971926676051 0.026352418684572172 0 -0.01336627586355737 0.026272342234464379 0 -0.01357971926676051 0.026352418684572172 0 -0.013725357270632921 0.026439370264072278 0 -0.013714540876850255 0.026262956101969964 0 -0.013571931374555937 0.026593422854882857 0 -0.01357971926676051 0.026352418684572172 0 -0.013725357270632921 0.026439370264072278 0 -0.015404177443021912 0.026560200728461502 0 -0.013696667424019222 0.026089173994290036 0 -0.014692433759412251 0.0273228329116438 0 -0.013820839833827835 0.026070713828368015 0 -0.014766660217537411 0.026530700878179603 0 -0.014728331354198229 0.026602505253646932 0 -0.0143203946696414 0.026313125283621727 0 -0.014339894690808035 0.026027970284773758 0 -0.013938044594091136 0.02602525131903748 0 -0.0143203946696414 0.026313125283621727 0 -0.014339894690808035 0.026027970284773758 0 -0.014025272614310797 0.026073349896943075 0 -0.01453093728158787 0.026411614043590385 0 -0.013974136869915662 0.02620174353665293 0 -0.014153258508357145 0.026648230622154611 0 -0.013903332116095441 0.026358265203096469 0 -0.014085857557063016 0.026207904916898488 0 -0.014212218864177048 0.026663069737012626 0 -0.013800369280482082 0.026213362427558735 0 -0.014180454824514112 0.026415431741197079 0 -0.014333830100697054 0.026673644133296745 0 -0.013725357270632921 0.026439370264072278 0 -0.013903332116095441 0.026358265203096469 0 -0.013870195223370414 0.026585602160786859 0 -0.013725357270632921 0.026439370264072278 0 -0.013714540876850255 0.026262956101969964 0 -0.013903332116095441 0.026358265203096469 0 -0.013771316398714515 0.026062483387236362 0 -0.014085857557063016 0.026207904916898488 0 -0.013952323587596417 0.025781272603803085 0 -0.013903332116095441 0.026358265203096469 0 -0.013771316398714515 0.026062483387236362 0 -0.014085857557063016 0.026207904916898488 0 -0.013714540876850255 0.026262956101969964 0 -0.013903332116095441 0.026358265203096469 0 -0.013771316398714515 0.026062483387236362 0 -0.01446947032360011 0.026451107475343009 0 -0.014180454824514112 0.026415431741197079 0 -0.01392455034354708 0.025806263215478915 0 -0.013800369280482082 0.026213362427558735 0 -0.014180454824514112 0.026415431741197079 0 -0.01392455034354708 0.025806263215478915 0 -0.013878563148739401 0.026063083249211041 0 -0.013907822541291847 0.025828247152178362 0 -0.013317029150356615 0.025604251783976989 0 -0.01341351180050997 0.025681544985231071 0 -0.01392455034354708 0.025806263215478915 0 -0.01446947032360011 0.026451107475343009 0 -0.014180454824514112 0.026415431741197079 0 -0.014411392093766923 0.026640769224743885 0 -0.01446947032360011 0.026451107475343009 0 -0.014411392093766923 0.026640769224743885 0 -0.014393459477881549 0.026702199285952029 0 -0.014180454824514112 0.026415431741197079 0 -0.014411392093766923 0.026640769224743885 0 -0.014333830100697054 0.026673644133296745 0 -0.014411392093766923 0.026640769224743885 0 -0.01458399859223096 0.026638299513727363 0 -0.014333830100697054 0.026673644133296745 0 -0.014411392093766923 0.026640769224743885 0 -0.014538855510884017 0.026656790787931182 0 -0.014393459477881549 0.026702199285952029 0 -0.014411392093766923 0.026640769224743885 0 -0.014538855510884017 0.026656790787931182 0 -0.01458399859223096 0.026638299513727363 0 -0.014538855510884017 0.026656790787931182 0 -0.014799956188857705 0.026548441855835932 0 -0.014470799344916189 0.026489205436423552 0 -0.014538855510884017 0.026656790787931182 0 -0.01458399859223096 0.026638299513727363 0 -0.014799956188857705 0.026548441855835932 0 -0.01458399859223096 0.026638299513727363 0 -0.014333830100697054 0.026673644133296745 0 -0.014805075507315246 0.026566018567323664 0 -0.01458399859223096 0.026638299513727363 0 -0.014805075507315246 0.026566018567323664 0 -0.014799956188857705 0.026548441855835932 0 -0.014153258508357145 0.026648230622154611 0 -0.015381150398145882 0.02674033331799858 0 -0.015728332582105462 0.026725488653454702 0 -0.015381150398145882 0.02674033331799858 0 -0.014212218864177048 0.026663069737012626 0 -0.01394118594057245 0.026863909133483969 0 -0.014327448980625452 0.027133688348575546 0 -0.014212218864177048 0.026663069737012626 0 -0.013870195223370414 0.026585602160786859 0 -0.01394118594057245 0.026863909133483969 0 -0.013903332116095441 0.026358265203096469 0 -0.014212218864177048 0.026663069737012626 0 -0.013870195223370414 0.026585602160786859 0 -0.013571931374555937 0.026593422854882857 0 -0.013870195223370414 0.026585602160786859 0 -0.01394118594057245 0.026863909133483969 0 -0.015404177443021912 0.026560200728461502 0 -0.015728332582105462 0.026725488653454702 0 -0.017459572984433416 0.026617310896380246 0 -0.017354902973347849 0.026529057895801775 0 -0.01740784080068818 0.026445436546524804 0 -0.017354902973347849 0.026529057895801775 0 -0.01740784080068818 0.026445436546524804 0 -0.017282242034200555 0.026337824567637707 0 -0.019686342287490319 0.024998601075343393 0 -0.015686416765261148 0.024999603680629617 0 -0.016538326449813751 0.025239053434734166 0 -0.019686342287490319 0.024998601075343393 0 -0.016538326449813751 0.025239053434734166 0 -0.017053405311385803 0.025521127856600167 0 -0.018182261402919973 0.026636493090787829 0 -0.017618028722143023 0.026158013359377015 0 -0.018854533578133048 0.026433982004809203 0 -0.018612935445483231 0.026880385966305324 0 -0.0180542552228414 0.026244124344176716 0 -0.017282242034200555 0.026337824567637707 0 -0.017302332457263779 0.026124965053553318 0 -0.017077039114679234 0.02636915781145218 0 -0.017354902973347849 0.026529057895801775 0 -0.017282242034200555 0.026337824567637707 0 -0.017077039114679234 0.02636915781145218 0 -0.01740784080068818 0.026445436546524804 0 -0.017282242034200555 0.026337824567637707 0 -0.017302332457263779 0.026124965053553318 0 -0.01913619300736007 0.02591836667558654 0 -0.01862461297525023 0.025646875077236949 0 -0.018854533578133048 0.026433982004809203 0 -0.0180542552228414 0.026244124344176716 0 -0.018535720758140934 0.025684226777742347 0 -0.019686342287490319 0.024998601075343393 0 -0.018535720758140934 0.025684226777742347 0 -0.017053405311385803 0.025521127856600167 0 -0.0180542552228414 0.026244124344176716 0 -0.018535720758140934 0.025684226777742347 0 -0.017053405311385803 0.025521127856600167 0 -0.017618028722143023 0.026158013359377015 0 -0.017100751588872389 0.025526321714697413 0 -0.015686416765261148 0.024999603680629617 0 -0.016538326449813751 0.025239053434734166 0 -0.015707302387333168 0.025713459150593056 0 -0.016538326449813751 0.025239053434734166 0 -0.017053405311385803 0.025521127856600167 0 -0.016974074078125602 0.025947181858284832 0 -0.016538326449813751 0.025239053434734166 0 -0.015707302387333168 0.025713459150593056 0 -0.01571240241312084 0.02597405219316614 0 -0.017302332457263779 0.026124965053553318 0 -0.017053405311385803 0.025521127856600167 0 -0.016974074078125602 0.025947181858284832 0 -0.016442276067181291 0.02522533617587876 0 -0.016462554681439097 0.025892175569146601 0 -0.015686416765261148 0.024999603680629617 0 -0.015707302387333168 0.025713459150593056 0 -0.015005786647888866 0.025836534896223163 0 -0.015707302387333168 0.025713459150593056 0 -0.015324647958859591 0.02606521047395494 0 -0.01571240241312084 0.02597405219316614 0 -0.015707302387333168 0.025713459150593056 0 -0.015324647958859591 0.02606521047395494 0 -0.015005786647888866 0.025836534896223163 0 -0.015324647958859591 0.02606521047395494 0 -0.014866342310689087 0.026299356535600581 0 -0.015005786647888866 0.025836534896223163 0 -0.015324647958859591 0.02606521047395494 0 -0.01514494430303231 0.026430002132855755 0 -0.014866342310689087 0.026299356535600581 0 -0.016462554681439097 0.025892175569146601 0 -0.015381150398145882 0.02674033331799858 0 -0.017302332457263779 0.026124965053553318 0 -0.016974074078125602 0.025947181858284832 0 -0.017077039114679234 0.02636915781145218 0 -0.01514494430303231 0.026430002132855755 0 -0.01571240241312084 0.02597405219316614 0 -0.015624067415616642 0.026784030632284316 0 -0.015324647958859591 0.02606521047395494 0 -0.01514494430303231 0.026430002132855755 0 -0.01571240241312084 0.02597405219316614 0 -0.01514494430303231 0.026430002132855755 0 -0.014805075507315246 0.026566018567323664 0 -0.014799956188857705 0.026548441855835932 0 -0.015064894643377505 0.026440947199024567 0 -0.015381150398145882 0.02674033331799858 0 -0.014866342310689087 0.026299356535600581 0 -0.014799956188857705 0.026548441855835932 0 -0.014470799344916189 0.026489205436423552 0 -0.01514494430303231 0.026430002132855755 0 -0.014866342310689087 0.026299356535600581 0 -0.014799956188857705 0.026548441855835932 0 -0.014470799344916189 0.026489205436423552 0 -0.014000859072414237 0.026376642938580733 0 -0.014317088241124367 0.026178316447069215 0 -0.014866342310689087 0.026299356535600581 0 -0.014470799344916189 0.026489205436423552 0 -0.014317088241124367 0.026178316447069215 0 -0.014000859072414237 0.026376642938580733 0 -0.014317088241124367 0.026178316447069215 0 -0.013659037943302539 0.026130027346138042 0 -0.014317088241124367 0.026178316447069215 0 -0.013754604995730507 0.025699005966305023 0 -0.013659037943302539 0.026130027346138042 0 -0.014866342310689087 0.026299356535600581 0 -0.014317088241124367 0.026178316447069215 0 -0.015005786647888866 0.025836534896223163 0 -0.015686416765261148 0.024999603680629617 0 -0.015005786647888866 0.025836534896223163 0 -0.013754604995730507 0.025699005966305023 0 -0.015686416765261148 0.024999603680629617 0 -0.012751123801965259 0.02499940697200775 0 -0.013754604995730507 0.025699005966305023 0 -0.014317088241124367 0.026178316447069215 0 -0.015005786647888866 0.025836534896223163 0 -0.013754604995730507 0.025699005966305023 0 -0.012751123801965259 0.02499940697200775 0 -0.013754604995730507 0.025699005966305023 0 -0.012536792197497565 0.02580474642297689 0 -0.012536792197497565 0.02580474642297689 0 -0.013166406907268415 0.026033198021289193 0 -0.012629887496016144 0.026282980034293177 0 -0.013754604995730507 0.025699005966305023 0 -0.013166406907268415 0.026033198021289193 0 -0.013659037943302539 0.026130027346138042 0 -0.013754604995730507 0.025699005966305023 0 -0.012536792197497565 0.02580474642297689 0 -0.013166406907268415 0.026033198021289193 0 -0.014000859072414237 0.026376642938580733 0 -0.013659037943302539 0.026130027346138042 0 -0.013264648635239403 0.026425768340823955 0 -0.013166406907268415 0.026033198021289193 0 -0.013659037943302539 0.026130027346138042 0 -0.013264648635239403 0.026425768340823955 0 -0.013264648635239403 0.026425768340823955 0 -0.012629887496016144 0.026282980034293177 0 -0.012885368336028113 0.026599734632821056 0 -0.013166406907268415 0.026033198021289193 0 -0.013264648635239403 0.026425768340823955 0 -0.012629887496016144 0.026282980034293177 0 -0.012415119719539226 0.026531564130459033 0 -0.012885368336028113 0.026599734632821056 0 -0.012644510355023401 0.026708984359076572 0 -0.012415119719539226 0.026531564130459033 0 -0.012629887496016144 0.026282980034293177 0 -0.012885368336028113 0.026599734632821056 0 -0.012644510355023401 0.026708984359076572 0 -0.013223952820196635 0.026733590394647708 0 -0.012924305993884793 0.026678062646804796 0 -0.012885368336028113 0.026599734632821056 0 -0.012644510355023401 0.026708984359076572 0 -0.013223952820196635 0.026733590394647708 0 -0.013264648635239403 0.026425768340823955 0 -0.012885368336028113 0.026599734632821056 0 -0.013223952820196635 0.026733590394647708 0 -0.013264648635239403 0.026425768340823955 0 -0.013223952820196635 0.026733590394647708 0 -0.014062615705316632 0.026612134557836245 0 -0.014470799344916189 0.026489205436423552 0 -0.014000859072414237 0.026376642938580733 0 -0.014062615705316632 0.026612134557836245 0 -0.014000859072414237 0.026376642938580733 0 -0.013264648635239403 0.026425768340823955 0 -0.014062615705316632 0.026612134557836245 0 -0.014538855510884017 0.026656790787931182 0 -0.014470799344916189 0.026489205436423552 0 -0.014062615705316632 0.026612134557836245 0 -0.014538855510884017 0.026656790787931182 0 -0.014062615705316632 0.026612134557836245 0 -0.01432343953139054 0.026709415417719543 0 -0.01432343953139054 0.026709415417719543 0 -0.014183806395439541 0.026917773955398336 0 -0.014393459477881549 0.026702199285952029 0 -0.014062615705316632 0.026612134557836245 0 -0.01432343953139054 0.026709415417719543 0 -0.014183806395439541 0.026917773955398336 0 -0.014538855510884017 0.026656790787931182 0 -0.01432343953139054 0.026709415417719543 0 -0.014393459477881549 0.026702199285952029 0 -0.013223952820196635 0.026733590394647708 0 -0.014062615705316632 0.026612134557836245 0 -0.014183806395439541 0.026917773955398336 0 -0.013267525629659957 0.02669562009731884 0 -0.013659514063543463 0.02659222413062793 0 -0.01313269356237756 0.026321495184330183 0 -0.013193147434542809 0.026259062869577476 0 -0.01321690170728672 0.02568915884940547 0 -0.013223952820196635 0.026733590394647708 0 -0.01313269356237756 0.026321495184330183 0 -0.013171938086026708 0.026472705970358942 0 -0.01313269356237756 0.026321495184330183 0 -0.013193147434542809 0.026259062869577476 0 -0.013171938086026708 0.026472705970358942 0 -0.01446947032360011 0.026451107475343009 0 -0.014183806395439541 0.026917773955398336 0 -0.014393459477881549 0.026702199285952029 0 -0.013878563148739401 0.026063083249211041 0 -0.013659514063543463 0.02659222413062793 0 -0.013317029150356615 0.025604251783976989 0 -0.01313269356237756 0.026321495184330183 0 -0.01321690170728672 0.02568915884940547 0 -0.01321690170728672 0.02568915884940547 0 -0.012876352769134862 0.025515085232275653 0 -0.013226324950644585 0.025655455007103135 0 -0.01321690170728672 0.02568915884940547 0 -0.013226324950644585 0.025655455007103135 0 -0.01341351180050997 0.025681544985231071 0 -0.013317029150356615 0.025604251783976989 0 -0.01321690170728672 0.02568915884940547 0 -0.01341351180050997 0.025681544985231071 0 -0.013193147434542809 0.026259062869577476 0 -0.01321690170728672 0.02568915884940547 0 -0.013149893205146264 0.026582412271762515 0 -0.01321690170728672 0.02568915884940547 0 -0.012395057199922743 0.025185806783066127 0 -0.012876352769134862 0.025515085232275653 0 -0.013114819376992892 0.025713683565142507 0 -0.01274721636228263 0.025909963150546968 0 -0.012396365381783913 0.025270102555144554 0 -0.012395057199922743 0.025185806783066127 0 -0.012876352769134862 0.025515085232275653 0 -0.012396365381783913 0.025270102555144554 0 -0.012395057199922743 0.025185806783066127 0 -0.012097568241885806 0.025729224736573922 0 -0.012021194925357498 0.025864847426978949 0 -0.012395057199922743 0.025185806783066127 0 -0.012097568241885806 0.025729224736573922 0 -0.012276122198360799 0.025249202906770987 0 -0.011577426943977618 0.025191821629592603 0 -0.012541185048319069 0.026952816933210517 0 -0.013149893205146264 0.026582412271762515 0 -0.012924305993884793 0.026678062646804796 0 -0.012325873035983863 0.02638376233944404 0 -0.01274721636228263 0.025909963150546968 0 -0.012532677638185693 0.026752307783904018 0 -0.012644510355023401 0.026708984359076572 0 -0.012924305993884793 0.026678062646804796 0 -0.012541185048319069 0.026952816933210517 0 -0.012532677638185693 0.026752307783904018 0 -0.012924305993884793 0.026678062646804796 0 -0.013149893205146264 0.026582412271762515 0 -0.012924305993884793 0.026678062646804796 0 -0.013171938086026708 0.026472705970358942 0 -0.013223952820196635 0.026733590394647708 0 -0.012924305993884793 0.026678062646804796 0 -0.013171938086026708 0.026472705970358942 0 -0.013193147434542809 0.026259062869577476 0 -0.013149893205146264 0.026582412271762515 0 -0.013171938086026708 0.026472705970358942 0 -0.011354607146210852 0.025740538738824596 0 -0.012479388497622049 0.025739688298665617 0 -0.011979441170561123 0.02656961109664047 0 -0.010178817649362543 0.026432622346143131 0 -0.011354607146210852 0.025740538738824596 0 -0.011979441170561123 0.02656961109664047 0 -0.012396365381783913 0.025270102555144554 0 -0.01120086319831695 0.024611319659597727 0 -0.011760572346443652 0.025311292119080224 0 -0.011354607146210852 0.025740538738824596 0 -0.011092548420275539 0.025251933358538928 0 -0.011760572346443652 0.025311292119080224 0 -0.010491458143569337 0.025468647252584509 0 -0.011354607146210852 0.025740538738824596 0 -0.011092548420275539 0.025251933358538928 0 -0.01047162006399485 0.024936791135567932 0 -0.01120086319831695 0.024611319659597727 0 -0.011092548420275539 0.025251933358538928 0 -0.01120086319831695 0.024611319659597727 0 -0.011092548420275539 0.025251933358538928 0 -0.011760572346443652 0.025311292119080224 0 -0.011354607146210852 0.025740538738824596 0 -0.011760572346443652 0.025311292119080224 0 -0.012479388497622049 0.025739688298665617 0 -0.012396365381783913 0.025270102555144554 0 -0.011760572346443652 0.025311292119080224 0 -0.012479388497622049 0.025739688298665617 0 -0.012396365381783913 0.025270102555144554 0 -0.012479388497622049 0.025739688298665617 0 -0.012876352769134862 0.025515085232275653 0 -0.012479388497622049 0.025739688298665617 0 -0.012876352769134862 0.025515085232275653 0 -0.013076421170614749 0.025751039999712694 0 -0.012876352769134862 0.025515085232275653 0 -0.013076421170614749 0.025751039999712694 0 -0.013226324950644585 0.025655455007103135 0 -0.013076421170614749 0.025751039999712694 0 -0.013226324950644585 0.025655455007103135 0 -0.013547201630458618 0.025735871167284253 0 -0.013226324950644585 0.025655455007103135 0 -0.013547201630458618 0.025735871167284253 0 -0.01341351180050997 0.025681544985231071 0 -0.013076421170614749 0.025751039999712694 0 -0.013201807085302688 0.026228168355755775 0 -0.013547201630458618 0.025735871167284253 0 -0.013201807085302688 0.026228168355755775 0 -0.013813199083668648 0.02547936317896864 0 -0.013547201630458618 0.025735871167284253 0 -0.012479388497622049 0.025739688298665617 0 -0.013201807085302688 0.026228168355755775 0 -0.011979441170561123 0.02656961109664047 0 -0.012479388497622049 0.025739688298665617 0 -0.013076421170614749 0.025751039999712694 0 -0.013201807085302688 0.026228168355755775 0 -0.013203472296277764 0.02557289342256177 0 -0.012054646879792887 0.025638063386484455 0 -0.013305479889069369 0.024927073066664644 0 -0.013716362919680022 0.025323857192610801 0 -0.013813199083668648 0.02547936317896864 0 -0.013203472296277764 0.02557289342256177 0 -0.01372651978049735 0.025495531599852225 0 -0.013305479889069369 0.024927073066664644 0 -0.013142116968126465 0.025374700904247965 0 -0.013716362919680022 0.025323857192610801 0 -0.013305479889069369 0.024927073066664644 0 -0.013142116968126465 0.025374700904247965 0 -0.012447764295041507 0.025583351412187805 0 -0.013305479889069369 0.024927073066664644 0 -0.012447764295041507 0.025583351412187805 0 -0.012165880125562686 0.024717664907946028 0 -0.010412305157701545 0.025615404933127542 0 -0.012054646879792887 0.025638063386484455 0 -0.01058408633040624 0.024800120884725906 0 -0.012165880125562686 0.024717664907946028 0 -0.011344701997986628 0.025591275892658773 0 -0.012447764295041507 0.025583351412187805 0 -0.012165880125562686 0.024717664907946028 0 -0.011344701997986628 0.025591275892658773 0 -0.012447764295041507 0.025583351412187805 0 -0.011344701997986628 0.025591275892658773 0 -0.011747708004467401 0.026351398669727345 0 -0.012447764295041507 0.025583351412187805 0 -0.011747708004467401 0.026351398669727345 0 -0.012335780426033491 0.026066997039203104 0 -0.012447764295041507 0.025583351412187805 0 -0.012335780426033491 0.026066997039203104 0 -0.01299157040495943 0.025737825641366542 0 -0.012335780426033491 0.026066997039203104 0 -0.012038358349614316 0.026291912060344619 0 -0.012537018750293175 0.026176031154997243 0 -0.012335780426033491 0.026066997039203104 0 -0.012537018750293175 0.026176031154997243 0 -0.01299157040495943 0.025737825641366542 0 -0.011747708004467401 0.026351398669727345 0 -0.012335780426033491 0.026066997039203104 0 -0.012038358349614316 0.026291912060344619 0 -0.011853959562531092 0.026306633840284036 0 -0.011747708004467401 0.026351398669727345 0 -0.012038358349614316 0.026291912060344619 0 -0.011853959562531092 0.026306633840284036 0 -0.012038358349614316 0.026291912060344619 0 -0.011959616148263352 0.02643286736325217 0 -0.012038358349614316 0.026291912060344619 0 -0.011959616148263352 0.02643286736325217 0 -0.01228512052136614 0.026430699532822812 0 -0.012038358349614316 0.026291912060344619 0 -0.01228512052136614 0.026430699532822812 0 -0.012537018750293175 0.026176031154997243 0 -0.01228512052136614 0.026430699532822812 0 -0.012537018750293175 0.026176031154997243 0 -0.012845482015097774 0.026562296059429048 0 -0.014434441456288988 0.020428673599186528 0 -0.014976861302638582 0.023681272095466506 0 -0.01228512052136614 0.026430699532822812 0 -0.012158631833020909 0.026729672710805858 0 -0.012845482015097774 0.026562296059429048 0 -0.017681144815841439 0.019907970395781446 0 -0.016927999051558958 0.020122389399043351 0 -0.017461903648643303 0.019511934779977615 0 -0.016000918957746503 0.010013676944269039 0 -0.014434441456288988 0.020428673599186528 0 -0.011959616148263352 0.02643286736325217 0 -0.01228512052136614 0.026430699532822812 0 -0.012158631833020909 0.026729672710805858 0 -0.013140131348715955 0.020571919303224547 0 -0.012191181552845711 0.02171046356759114 0 -0.011144349609390461 0.019978386536976298 0 -0.01208253945483953 0.024151358423220678 0 -0.014434441456288988 0.020428673599186528 0 -0.014976861302638582 0.023681272095466506 0 -0.014648919928164365 0.023216818451937977 0 -0.016708584379642295 0.019848596514810257 0 -0.016057048320803916 0.020230374675805556 0 -0.016170296253230826 0.020366210972183628 0 -0.019733529771659715 0.020700477624117343 0 -0.018641083392309108 0.020343597551939849 0 -0.016708584379642295 0.019848596514810257 0 -0.016927999051558958 0.020122389399043351 0 -0.016170296253230826 0.020366210972183628 0 -0.023061153679204621 0.019655336118278414 0 -0.020707757847994265 0.020980141304704485 0 -0.020988139055675394 0.018983893296812351 0 -0.016708584379642295 0.019848596514810257 0 -0.016927999051558958 0.020122389399043351 0 -0.017356840400949827 0.019480800445665254 0 -0.012537018750293175 0.026176031154997243 0 -0.012845482015097774 0.026562296059429048 0 -0.013135962103267342 0.025990649685674477 0 -0.013135962103267342 0.025990649685674477 0 -0.013650104372565044 0.025517619206552922 0 -0.013658091385364276 0.026052668058487584 0 -0.012845482015097774 0.026562296059429048 0 -0.013135962103267342 0.025990649685674477 0 -0.013658091385364276 0.026052668058487584 0 -0.013135962103267342 0.025990649685674477 0 -0.01299157040495943 0.025737825641366542 0 -0.013650104372565044 0.025517619206552922 0 -0.012537018750293175 0.026176031154997243 0 -0.013135962103267342 0.025990649685674477 0 -0.01299157040495943 0.025737825641366542 0 -0.013142116968126465 0.025374700904247965 0 -0.012447764295041507 0.025583351412187805 0 -0.01299157040495943 0.025737825641366542 0 -0.01299157040495943 0.025737825641366542 0 -0.013650104372565044 0.025517619206552922 0 -0.013716362919680022 0.025323857192610801 0 -0.013142116968126465 0.025374700904247965 0 -0.01299157040495943 0.025737825641366542 0 -0.013716362919680022 0.025323857192610801 0 -0.014087310597448471 0.025120859006655775 0 -0.013650104372565044 0.025517619206552922 0 -0.013716362919680022 0.025323857192610801 0 -0.014087310597448471 0.025120859006655775 0 -0.013960780684202062 0.025246921452665785 0 -0.013716362919680022 0.025323857192610801 0 -0.014087310597448471 0.025120859006655775 0 -0.014116069474645604 0.025098263796255346 0 -0.013960780684202062 0.025246921452665785 0 -0.014087310597448471 0.025120859006655775 0 -0.014207123974526045 0.025136531493156464 0 -0.014480960949993614 0.02466541915148688 0 -0.014207123974526045 0.025136531493156464 0 -0.014531291971840722 0.02463126674333933 0 -0.014480960949993614 0.02466541915148688 0 -0.014087310597448471 0.025120859006655775 0 -0.013650104372565044 0.025517619206552922 0 -0.014207123974526045 0.025136531493156464 0 -0.015863174608308078 0.022632262341966809 0 -0.014648919928164365 0.023216818451937977 0 -0.013650104372565044 0.025517619206552922 0 -0.014207123974526045 0.025136531493156464 0 -0.013658091385364276 0.026052668058487584 0 -0.014207123974526045 0.025136531493156464 0 -0.014379030605464142 0.02522112659509779 0 -0.013658091385364276 0.026052668058487584 0 -0.014207123974526045 0.025136531493156464 0 -0.014379030605464142 0.02522112659509779 0 -0.014531291971840722 0.02463126674333933 0 -0.018116761323980411 0.022538876033436503 0 -0.018617957197821285 0.019816394606408074 0 -0.016433863191367987 0.021277649836717181 0 -0.018116761323980411 0.022538876033436503 0 -0.018617957197821285 0.019816394606408074 0 -0.020707757847994265 0.020980141304704485 0 -0.015863174608308078 0.022632262341966809 0 -0.018641083392309108 0.020343597551939849 0 -0.015399664181680843 0.020630256848241244 0 -0.016057048320803916 0.020230374675805556 0 -0.016170296253230826 0.020366210972183628 0 -0.018617957197821285 0.019816394606408074 0 -0.020707757847994265 0.020980141304704485 0 -0.020988139055675394 0.018983893296812351 0 -0.014164710493210341 0.021171606766939622 0 -0.016433863191367987 0.021277649836717181 0 -0.016255254549895071 0.019150659823558801 0 -0.014164710493210341 0.021171606766939622 0 -0.016433863191367987 0.021277649836717181 0 -0.01496358199849151 0.023596519825009338 0 -0.018617957197821285 0.019816394606408074 0 -0.016433863191367987 0.021277649836717181 0 -0.016255254549895071 0.019150659823558801 0 -0.014379030605464142 0.02522112659509779 0 -0.014531291971840722 0.02463126674333933 0 -0.01496358199849151 0.023596519825009338 0 -0.018116761323980411 0.022538876033436503 0 -0.016433863191367987 0.021277649836717181 0 -0.01496358199849151 0.023596519825009338 0 -0.015863174608308078 0.022632262341966809 0 -0.015007774148129861 0.023874527615041954 0 -0.014531291971840722 0.02463126674333933 0 -0.01496358199849151 0.023596519825009338 0 -0.014480960949993614 0.02466541915148688 0 -0.014164710493210341 0.021171606766939622 0 -0.01496358199849151 0.023596519825009338 0 -0.013382308507327511 0.023345453744729142 0 -0.01496358199849151 0.023596519825009338 0 -0.014015519022013583 0.02450176258670039 0 -0.013382308507327511 0.023345453744729142 0 -0.01496358199849151 0.023596519825009338 0 -0.014015519022013583 0.02450176258670039 0 -0.014480960949993614 0.02466541915148688 0 -0.014015519022013583 0.02450176258670039 0 -0.014480960949993614 0.02466541915148688 0 -0.014116069474645604 0.025098263796255346 0 -0.014087310597448471 0.025120859006655775 0 -0.014480960949993614 0.02466541915148688 0 -0.014116069474645604 0.025098263796255346 0 -0.014015519022013583 0.02450176258670039 0 -0.014116069474645604 0.025098263796255346 0 -0.013601522863579471 0.024955547720840136 0 -0.014084116665773423 0.025092718486447091 0 -0.013656076910415075 0.025227007479851557 0 -0.014116069474645604 0.025098263796255346 0 -0.01364936268760137 0.025301959359688288 0 -0.013814437040851186 0.025400885951909074 0 -0.014116069474645604 0.025098263796255346 0 -0.013614677630381714 0.025171049476312796 0 -0.013601522863579471 0.024955547720840136 0 -0.01364936268760137 0.025301959359688288 0 -0.013814437040851186 0.025400885951909074 0 -0.013648063375941984 0.025582724876649404 0 -0.013814437040851186 0.025400885951909074 0 -0.013836447754812683 0.025507578621294085 0 -0.013938339244693343 0.025336586339522609 0 -0.014116069474645604 0.025098263796255346 0 -0.013814437040851186 0.025400885951909074 0 -0.013938339244693343 0.025336586339522609 0 -0.014116069474645604 0.025098263796255346 0 -0.013938339244693343 0.025336586339522609 0 -0.013960780684202062 0.025246921452665785 0 -0.013938339244693343 0.025336586339522609 0 -0.013960780684202062 0.025246921452665785 0 -0.013813199083668648 0.02547936317896864 0 -0.013960780684202062 0.025246921452665785 0 -0.013716362919680022 0.025323857192610801 0 -0.013813199083668648 0.02547936317896864 0 -0.013836447754812683 0.025507578621294085 0 -0.013938339244693343 0.025336586339522609 0 -0.013813199083668648 0.02547936317896864 0 -0.013836447754812683 0.025507578621294085 0 -0.013813199083668648 0.02547936317896864 0 -0.013829018814806898 0.02565063237689811 0 -0.013813199083668648 0.02547936317896864 0 -0.013829018814806898 0.02565063237689811 0 -0.013547201630458618 0.025735871167284253 0 -0.013547201630458618 0.025735871167284253 0 -0.01341351180050997 0.025681544985231071 0 -0.01392455034354708 0.025806263215478915 0 -0.013829018814806898 0.02565063237689811 0 -0.013547201630458618 0.025735871167284253 0 -0.01392455034354708 0.025806263215478915 0 -0.013829018814806898 0.02565063237689811 0 -0.01392455034354708 0.025806263215478915 0 -0.013709795599277279 0.025649406860811904 0 -0.013800369280482082 0.026213362427558735 0 -0.01392455034354708 0.025806263215478915 0 -0.013709795599277279 0.025649406860811904 0 -0.013974136869915662 0.02620174353665293 0 -0.013833836676220896 0.025723576090847678 0 -0.013771316398714515 0.026062483387236362 0 -0.013952323587596417 0.025781272603803085 0 -0.013672604173687314 0.0258125127138954 0 -0.013952323587596417 0.025781272603803085 0 -0.013648063375941984 0.025582724876649404 0 -0.013672604173687314 0.0258125127138954 0 -0.013814437040851186 0.025400885951909074 0 -0.013952323587596417 0.025781272603803085 0 -0.013648063375941984 0.025582724876649404 0 -0.013811953553092518 0.025424864726191373 0 -0.013833836676220896 0.025723576090847678 0 -0.013836447754812683 0.025507578621294085 0 -0.013829018814806898 0.02565063237689811 0 -0.013709795599277279 0.025649406860811904 0 -0.013814437040851186 0.025400885951909074 0 -0.013836447754812683 0.025507578621294085 0 -0.013709795599277279 0.025649406860811904 0 -0.013284515024739412 0.025766739047217675 0 -0.01348267224689139 0.025722862633525474 0 -0.013347895686179917 0.025491786234136157 0 -0.013648063375941984 0.025582724876649404 0 -0.01348267224689139 0.025722862633525474 0 -0.013672604173687314 0.0258125127138954 0 -0.013648063375941984 0.025582724876649404 0 -0.01348267224689139 0.025722862633525474 0 -0.013347895686179917 0.025491786234136157 0 -0.013771316398714515 0.026062483387236362 0 -0.013672604173687314 0.0258125127138954 0 -0.013514668793036153 0.025924148247976422 0 -0.01348267224689139 0.025722862633525474 0 -0.013672604173687314 0.0258125127138954 0 -0.013514668793036153 0.025924148247976422 0 -0.013284515024739412 0.025766739047217675 0 -0.01348267224689139 0.025722862633525474 0 -0.013514668793036153 0.025924148247976422 0 -0.013284515024739412 0.025766739047217675 0 -0.013514668793036153 0.025924148247976422 0 -0.013379611169735803 0.026012542050875824 0 -0.013284515024739412 0.025766739047217675 0 -0.013379611169735803 0.026012542050875824 0 -0.013182240980310702 0.025970183246953802 0 -0.013912060258082941 0.025479517199860229 0 -0.013370392998153626 0.025440405812849926 0 -0.01347512259144475 0.025073538823196365 0 -0.013571458166124773 0.025759225422192531 0 -0.013252730804154523 0.02534896654593875 0 -0.013284515024739412 0.025766739047217675 0 -0.013182240980310702 0.025970183246953802 0 -0.013007273629768237 0.025686338691879095 0 -0.013370392998153626 0.025440405812849926 0 -0.013368929126317592 0.02513870588628217 0 -0.01347512259144475 0.025073538823196365 0 -0.021217552186856694 0.021911855105978269 0 -0.02139091138481803 0.021657186673583479 0 -0.0211119431083482 0.021626917431715714 0 -0.013370392998153626 0.025440405812849926 0 -0.013254962880774237 0.025093714245523147 0 -0.01311573094840543 0.025052012859352876 0 -0.013280156282898319 0.025067489953162884 0 -0.013286422404983815 0.025056505620411514 0 -0.013261671348422337 0.025017432896895536 0 -0.013370392998153626 0.025440405812849926 0 -0.013368929126317592 0.02513870588628217 0 -0.013254962880774237 0.025093714245523147 0 -0.017350904313439053 0.023590788779509257 0 -0.017515155563294901 0.022833011628690895 0 -0.013368929126317592 0.02513870588628217 0 -0.013374782364855559 0.025112540050564482 0 -0.013326280537660532 0.02509845731398742 0 -0.013368929126317592 0.02513870588628217 0 -0.013326280537660532 0.02509845731398742 0 -0.013254962880774237 0.025093714245523147 0 -0.013355769017079017 0.02525747892470688 0 -0.013252730804154523 0.02534896654593875 0 -0.013374782364855559 0.025112540050564482 0 -0.013286422404983815 0.025056505620411514 0 -0.013326280537660532 0.02509845731398742 0 -0.013252730804154523 0.02534896654593875 0 -0.013219712157943608 0.025178193827903539 0 -0.013286422404983815 0.025056505620411514 0 -0.013326280537660532 0.02509845731398742 0 -0.013254962880774237 0.025093714245523147 0 -0.013286422404983815 0.025056505620411514 0 -0.013254962880774237 0.025093714245523147 0 -0.013217203941410917 0.025023115812910314 0 -0.013254962880774237 0.025093714245523147 0 -0.013217203941410917 0.025023115812910314 0 -0.01311573094840543 0.025052012859352876 0 -0.013252730804154523 0.02534896654593875 0 -0.013316297320574565 0.025301121557646016 0 -0.013284515024739412 0.025766739047217675 0 -0.013007273629768237 0.025686338691879095 0 -0.013347895686179917 0.025491786234136157 0 -0.013280156282898319 0.025067489953162884 0 -0.013261671348422337 0.025017432896895536 0 -0.013314488738749328 0.02508761470650726 0 -0.013261671348422337 0.025017432896895536 0 -0.013294104803297435 0.024967733228206133 0 -0.013314488738749328 0.02508761470650726 0 -0.013286422404983815 0.025056505620411514 0 -0.013261671348422337 0.025017432896895536 0 -0.013217203941410917 0.025023115812910314 0 -0.013261671348422337 0.025017432896895536 0 -0.013217203941410917 0.025023115812910314 0 -0.013153931536933703 0.024942066212889483 0 -0.013153931536933703 0.024942066212889483 0 -0.013220812594189342 0.024870273800982657 0 -0.013061466982723044 0.024769004508342685 0 -0.013261671348422337 0.025017432896895536 0 -0.013153931536933703 0.024942066212889483 0 -0.013220812594189342 0.024870273800982657 0 -0.013220812594189342 0.024870273800982657 0 -0.013294104803297435 0.024967733228206133 0 -0.013334347264893178 0.024798850232422263 0 -0.013261671348422337 0.025017432896895536 0 -0.013220812594189342 0.024870273800982657 0 -0.013294104803297435 0.024967733228206133 0 -0.013294104803297435 0.024967733228206133 0 -0.013287654740618719 0.024996882184720796 0 -0.013334347264893178 0.024798850232422263 0 -0.013294104803297435 0.024967733228206133 0 -0.013287654740618719 0.024996882184720796 0 -0.013314488738749328 0.02508761470650726 0 -0.013656076910415075 0.025227007479851557 0 -0.013316297320574565 0.025301121557646016 0 -0.01364936268760137 0.025301959359688288 0 -0.013648063375941984 0.025582724876649404 0 -0.013347895686179917 0.025491786234136157 0 -0.013614677630381714 0.025171049476312796 0 -0.013287654740618719 0.024996882184720796 0 -0.013314488738749328 0.02508761470650726 0 -0.013614677630381714 0.025171049476312796 0 -0.013287654740618719 0.024996882184720796 0 -0.013601522863579471 0.024955547720840136 0 -0.013287654740618719 0.024996882184720796 0 -0.013601522863579471 0.024955547720840136 0 -0.01238790381684011 0.02433342736805278 0 -0.013287654740618719 0.024996882184720796 0 -0.013549825716213654 0.024571575012814578 0 -0.013334347264893178 0.024798850232422263 0 -0.013233313904461351 0.024984658310865611 0 -0.012954329812095124 0.024219674657025323 0 -0.014015519022013583 0.02450176258670039 0 -0.01238790381684011 0.02433342736805278 0 -0.013382308507327511 0.023345453744729142 0 -0.014015519022013583 0.02450176258670039 0 -0.013601522863579471 0.024955547720840136 0 -0.01238790381684011 0.02433342736805278 0 -0.014164710493210341 0.021171606766939622 0 -0.013382308507327511 0.023345453744729142 0 -0.011302220735028309 0.02206083320422883 0 -0.012954329812095124 0.024219674657025323 0 -0.012348772924488167 0.023770379848839018 0 -0.01238790381684011 0.02433342736805278 0 -0.013382308507327511 0.023345453744729142 0 -0.011302220735028309 0.02206083320422883 0 -0.013602746674431241 0.024091956571517689 0 -0.013449255549437608 0.023539858633347066 0 -0.013594308141451924 0.023469922189098654 0 -0.011302220735028309 0.02206083320422883 0 -0.01268255064469921 0.019623784639664472 0 -0.010463555838666927 0.018570208408476313 0 -0.012348772924488167 0.023770379848839018 0 -0.013662953665663283 0.017403281517552934 0 -0.014164710493210341 0.021171606766939622 0 -0.01268255064469921 0.019623784639664472 0 -0.014313575883885033 0.018731419174596527 0 -0.014164710493210341 0.021171606766939622 0 -0.011302220735028309 0.02206083320422883 0 -0.01268255064469921 0.019623784639664472 0 -0.017714083928465133 0.01804520928382854 0 -0.01792405768494363 0.018231107888529503 0 -0.01730914847909092 0.018446622639042166 0 -0.017714083928465133 0.01804520928382854 0 -0.01792405768494363 0.018231107888529503 0 -0.017954642342650897 0.017991717049091121 0 -0.013602746674431241 0.024091956571517689 0 -0.01312892270599253 0.024081165604724074 0 -0.013449255549437608 0.023539858633347066 0 -0.015333141430509562 0.021657222354427397 0 -0.015241986710966505 0.01758816315966482 0 -0.013602746674431241 0.024091956571517689 0 -0.01312892270599253 0.024081165604724074 0 -0.013217956592884206 0.024595205780607473 0 -0.015333141430509562 0.021657222354427397 0 -0.015297054426713747 0.021059131401858808 0 -0.01312892270599253 0.024081165604724074 0 -0.013217956592884206 0.024595205780607473 0 -0.012986051483238958 0.024475857053258401 0 -0.017714083928465133 0.01804520928382854 0 -0.018069620129750011 0.017742400111281399 0 -0.017954642342650897 0.017991717049091121 0 -0.013217956592884206 0.024595205780607473 0 -0.013061466982723044 0.024769004508342685 0 -0.012986051483238958 0.024475857053258401 0 -0.013549825716213654 0.024571575012814578 0 -0.013602746674431241 0.024091956571517689 0 -0.013217956592884206 0.024595205780607473 0 -0.013549825716213654 0.024571575012814578 0 -0.013217956592884206 0.024595205780607473 0 -0.013334347264893178 0.024798850232422263 0 -0.013220812594189342 0.024870273800982657 0 -0.013217956592884206 0.024595205780607473 0 -0.013334347264893178 0.024798850232422263 0 -0.013220812594189342 0.024870273800982657 0 -0.013217956592884206 0.024595205780607473 0 -0.013061466982723044 0.024769004508342685 0 -0.013061466982723044 0.024769004508342685 0 -0.012903110139035501 0.024704335971806553 0 -0.012986051483238958 0.024475857053258401 0 -0.017297833059256494 0.021192433868973987 0 -0.01976825670118907 0.016997524872473406 0 -0.021107730235725295 0.019041033947867967 0 -0.02047061510859105 0.017549596929034416 0 -0.020521135326660125 0.019216392644914877 0 -0.021859040152837402 0.018366680713536435 0 -0.021122961666344281 0.019469967113321177 0 -0.021107730235725295 0.019041033947867967 0 -0.020521135326660125 0.019216392644914877 0 -0.020661999670616382 0.019583289868487588 0 -0.023516580271931271 0.017812466179835708 0 -0.023519357776684912 0.018798103110427681 0 -0.023776182959907723 0.01848852155301179 0 -0.017297833059256494 0.021192433868973987 0 -0.021122961666344281 0.019469967113321177 0 -0.018293149354602873 0.017552964827184041 0 -0.018207762104588167 0.017682098798507618 0 -0.018069620129750011 0.017742400111281399 0 -0.017297833059256494 0.021192433868973987 0 -0.015297054426713747 0.021059131401858808 0 -0.018293149354602873 0.017552964827184041 0 -0.018207762104588167 0.017682098798507618 0 -0.018370113999370673 0.017716805871110918 0 -0.017921476691586228 0.017525359104915331 0 -0.01976825670118907 0.016997524872473406 0 -0.018207762104588167 0.017682098798507618 0 -0.018282926568607513 0.017843540382872083 0 -0.018453434561994823 0.017680232222532535 0 -0.018207762104588167 0.017682098798507618 0 -0.018069620129750011 0.017742400111281399 0 -0.018282926568607513 0.017843540382872083 0 -0.018069620129750011 0.017742400111281399 0 -0.018116227466780179 0.017975354960343453 0 -0.018282926568607513 0.017843540382872083 0 -0.018069620129750011 0.017742400111281399 0 -0.017954642342650897 0.017991717049091121 0 -0.018116227466780179 0.017975354960343453 0 -0.018116227466780179 0.017975354960343453 0 -0.018282926568607513 0.017843540382872083 0 -0.018403702920735107 0.018024009682080021 0 -0.018282926568607513 0.017843540382872083 0 -0.018403702920735107 0.018024009682080021 0 -0.018598804806358827 0.017913616030629676 0 -0.018282926568607513 0.017843540382872083 0 -0.018598804806358827 0.017913616030629676 0 -0.018453434561994823 0.017680232222532535 0 -0.022941043922248546 0.0079725272211246083 0 -0.023761213072176178 0.0088832357165463238 0 -0.022146878528565263 0.0093794355540349917 0 -0.02004873874835101 0.008222229652724412 0 -0.022941043922248546 0.0079725272211246083 0 -0.023664093016998147 0.0077858757418496974 0 -0.022941043922248546 0.0079725272211246083 0 -0.023448227750563818 0.0078536308697760814 0 -0.023761213072176178 0.0088832357165463238 0 -0.023398840472747814 0.010130606884702704 0 -0.02141702150806165 0.012272402956374835 0 -0.02004873874835101 0.008222229652724412 0 -0.022941043922248546 0.0079725272211246083 0 -0.022146878528565263 0.0093794355540349917 0 -0.019111867740369558 0.012809110704925887 0 -0.02141702150806165 0.012272402956374835 0 -0.01792405768494363 0.018231107888529503 0 -0.018116227466780179 0.017975354960343453 0 -0.018403702920735107 0.018024009682080021 0 -0.01792405768494363 0.018231107888529503 0 -0.017954642342650897 0.017991717049091121 0 -0.018116227466780179 0.017975354960343453 0 -0.025374154822170779 0.012613059959018413 0 -0.025704936199352837 0.013030701702121924 0 -0.025379020981472201 0.012131264798720304 0 -0.025561676783975938 0.012924986763213577 0 -0.024999985023550549 0.013046060348871655 0 -0.024999999312807851 0.012135810083109657 0 -0.025385868574028005 0.012816316217310504 0 -0.024139530765874675 0.013786037865439429 0 -0.025561676783975938 0.012924986763213577 0 -0.024999985023550549 0.013046060348871655 0 -0.025483176868845474 0.013324124620616303 0 -0.023448227750563818 0.0078536308697760814 0 -0.023761213072176178 0.0088832357165463238 0 -0.02458094195885396 0.0075644175974420675 0 -0.023761213072176178 0.0088832357165463238 0 -0.02458094195885396 0.0075644175974420675 0 -0.025259408866076839 0.0098425600017142938 0 -0.022981941799818682 0.012708677235960376 0 -0.025495781818903523 0.010534298548367762 0 -0.021944938265632052 0.01500631305278155 0 -0.01976825670118907 0.016997524872473406 0 -0.025374154822170779 0.012613059959018413 0 -0.025704936199352837 0.013030701702121924 0 -0.025529967293202106 0.013097532650370251 0 -0.021578829618768555 0.015465491127068316 0 -0.021400019469898033 0.015564333092547178 0 -0.021578505567888071 0.016060362913969034 0 -0.022535656138827822 0.014869070437497345 0 -0.022341654774448463 0.01443025000901705 0 -0.023052856976526176 0.014376178823976302 0 -0.021944938265632052 0.01500631305278155 0 -0.023453589165105027 0.014684868145705174 0 -0.022341654774448463 0.01443025000901705 0 -0.023052856976526176 0.014376178823976302 0 -0.023531992284570258 0.013778139078967843 0 -0.022981941799818682 0.012708677235960376 0 -0.021944938265632052 0.01500631305278155 0 -0.022981941799818682 0.012708677235960376 0 -0.024139530765874675 0.013786037865439429 0 -0.023052856976526176 0.014376178823976302 0 -0.023771028045163588 0.014397741426480934 0 -0.023531992284570258 0.013778139078967843 0 -0.022535656138827822 0.014869070437497345 0 -0.023052856976526176 0.014376178823976302 0 -0.023771028045163588 0.014397741426480934 0 -0.024139530765874675 0.013786037865439429 0 -0.023453589165105027 0.014684868145705174 0 -0.02141702150806165 0.012272402956374835 0 -0.021944938265632052 0.01500631305278155 0 -0.021570678203445902 0.013026151175344107 0 -0.022396328402591228 0.012731526544312784 0 -0.022347802140811585 0.012622650325703663 0 -0.02141702150806165 0.012272402956374835 0 -0.022981941799818682 0.012708677235960376 0 -0.023453589165105027 0.014684868145705174 0 -0.022121806085492808 0.016346616862297429 0 -0.024999999387124851 0.013046079582701086 0 -0.025448532630779407 0.013748219132612654 0 -0.024999995801277 0.013920221578831826 0 -0.023474875473915236 0.015132394084168523 0 -0.023321680768053701 0.015217231677767271 0 -0.023446493668881366 0.01542138684349764 0 -0.024548303404166322 0.014477616426953749 0 -0.024977340252256577 0.01400734401446622 0 -0.024139530765874675 0.013786037865439429 0 -0.024977340252256577 0.01400734401446622 0 -0.024048655570450789 0.014544506993059031 0 -0.023972547683555365 0.014347893967694605 0 -0.024481695981120561 0.014069259363190961 0 -0.024048655570450789 0.014544506993059031 0 -0.024481695981120561 0.014069259363190961 0 -0.024642702593886567 0.014317887801458866 0 -0.023453589165105027 0.014684868145705174 0 -0.024548303404166322 0.014477616426953749 0 -0.025801466488105006 0.013584951531096545 0 -0.025434443381672698 0.013726249077932781 0 -0.025483176868845474 0.013324124620616303 0 -0.025561676783975938 0.012924986763213577 0 -0.025801466488105006 0.013584951531096545 0 -0.025483176868845474 0.013324124620616303 0 -0.025000122330044238 0.013046310675634172 0 -0.024977340252256577 0.01400734401446622 0 -0.024999985023550549 0.013046060348871655 0 -0.025434443381672698 0.013726249077932781 0 -0.025483176868845474 0.013324124620616303 0 -0.024977340252256577 0.01400734401446622 0 -0.025000283723685263 0.013920172451780536 0 -0.025449177680428391 0.013921282534656005 0 -0.024999367083740905 0.013920390554579934 0 -0.024945483445487946 0.014183861359832232 0 -0.025449177680428391 0.013921282534656005 0 -0.025364468834795959 0.013789162886738197 0 -0.024999367083740905 0.013920390554579934 0 -0.024548303404166322 0.014477616426953749 0 -0.025066743142516293 0.014565884497705236 0 -0.0249450050168704 0.014184041457809504 0 -0.025257972515766159 0.014622218369060818 0 -0.024999893126605506 0.015384753004732092 0 -0.024589719203011999 0.014952307857901911 0 -0.024822345215866713 0.014824335584683278 0 -0.024463271469361916 0.014759443008317403 0 -0.025066743142516293 0.014565884497705236 0 -0.02428065195568398 0.015323098307070213 0 -0.0249450050168704 0.014184041457809504 0 -0.025257972515766159 0.014622218369060818 0 -0.025769494840814738 0.014339658870441203 0 -0.024548303404166322 0.014477616426953749 0 -0.02428065195568398 0.015323098307070213 0 -0.025257972515766159 0.014622218369060818 0 -0.025769494840814738 0.014339658870441203 0 -0.025592973968428911 0.015064440470040841 0 -0.019852362185616184 0.017425714303392421 0 -0.02047061510859105 0.017549596929034416 0 -0.020521135326660125 0.019216392644914877 0 -0.021578829618768555 0.015465491127068316 0 -0.021578505567888071 0.016060362913969034 0 -0.021846155036264244 0.016115486019609947 0 -0.022121806085492808 0.016346616862297429 0 -0.01976825670118907 0.016997524872473406 0 -0.023474875473915236 0.015132394084168523 0 -0.023590097802286578 0.015451874599391423 0 -0.023446493668881366 0.01542138684349764 0 -0.022121806085492808 0.016346616862297429 0 -0.02428065195568398 0.015323098307070213 0 -0.025769494840814738 0.014339658870441203 0 -0.026258847513895886 0.01511511821693577 0 -0.025592973968428911 0.015064440470040841 0 -0.023519809009469903 0.015732404711247983 0 -0.023234691385032289 0.015675687849361023 0 -0.023681458302911657 0.01638357666328218 0 -0.02428065195568398 0.015323098307070213 0 -0.023578571410131158 0.016568871146824593 0 -0.022121806085492808 0.016346616862297429 0 -0.023578571410131158 0.016568871146824593 0 -0.026258847513895886 0.01511511821693577 0 -0.02565500581342273 0.015882950224166741 0 -0.026490134993543028 0.015787852028117017 0 -0.026258847513895886 0.01511511821693577 0 -0.025592973968428911 0.015064440470040841 0 -0.02565500581342273 0.015882950224166741 0 -0.022083758309843136 0.016347819163403592 0 -0.022327476399641714 0.017335056318848841 0 -0.022643533071774254 0.017835057226328239 0 -0.022121806085492808 0.016346616862297429 0 -0.021859040152837402 0.018366680713536435 0 -0.023578571410131158 0.016568871146824593 0 -0.023981043346060448 0.017444444691476511 0 -0.022809375009817466 0.016709783755749195 0 -0.023516580271931271 0.017812466179835708 0 -0.023519357776684912 0.018798103110427681 0 -0.023578571410131158 0.016568871146824593 0 -0.021859040152837402 0.018366680713536435 0 -0.025592973968428911 0.015064440470040841 0 -0.024999893126605506 0.015384753004732092 0 -0.02565500581342273 0.015882950224166741 0 -0.025257972515766159 0.014622218369060818 0 -0.025592973968428911 0.015064440470040841 0 -0.024999893126605506 0.015384753004732092 0 -0.02565500581342273 0.015882950224166741 0 -0.025696139859941011 0.016759026647089007 0 -0.024999947357582028 0.016555292408939087 0 -0.024999893126605506 0.015384753004732092 0 -0.02565500581342273 0.015882950224166741 0 -0.024999947357582028 0.016555292408939087 0 -0.025696139859941011 0.016759026647089007 0 -0.024999947357582028 0.016555292408939087 0 -0.025000015848284454 0.017725341862927083 0 -0.025696139859941011 0.016759026647089007 0 -0.026646938109230221 0.017031241413451859 0 -0.026025959817438337 0.017464806251098076 0 -0.025696139859941011 0.016759026647089007 0 -0.026296245354309192 0.016061577228149878 0 -0.026646938109230221 0.017031241413451859 0 -0.02565500581342273 0.015882950224166741 0 -0.025696139859941011 0.016759026647089007 0 -0.026490134993543028 0.015787852028117017 0 -0.026590205758880062 0.015966337723753905 0 -0.023981043346060448 0.017444444691476511 0 -0.020432825809568306 0.019715319050383807 0 -0.020498454909579997 0.019638322293310976 0 -0.020719726738484528 0.020438585199103729 0 -0.020448018620882816 0.020078983861504036 0 -0.020764829241443992 0.020548152114503081 0 -0.02065417685061036 0.020637668373524039 0 -0.023981043346060448 0.017444444691476511 0 -0.021122961666344281 0.019469967113321177 0 -0.017297833059256494 0.021192433868973987 0 -0.015229391858656832 0.02370208540710439 0 -0.017689365140608291 0.02118164481536803 0 -0.017517576546754822 0.021392360590713394 0 -0.017968055213346358 0.021872622303963647 0 -0.021122961666344281 0.019469967113321177 0 -0.019322674411409585 0.021284667448671749 0 -0.017517576546754822 0.021392360590713394 0 -0.017968055213346358 0.021872622303963647 0 -0.017891663211003984 0.02196477354346001 0 -0.021122961666344281 0.019469967113321177 0 -0.020646802518176625 0.020583738047274772 0 -0.023981043346060448 0.017444444691476511 0 -0.023601111280566387 0.018925301667257196 0 -0.013061466982723044 0.024769004508342685 0 -0.012903110139035501 0.024704335971806553 0 -0.013009305481934729 0.024910326149411528 0 -0.013153931536933703 0.024942066212889483 0 -0.013061466982723044 0.024769004508342685 0 -0.013009305481934729 0.024910326149411528 0 -0.013153931536933703 0.024942066212889483 0 -0.013009305481934729 0.024910326149411528 0 -0.01311573094840543 0.025052012859352876 0 -0.015229391858656832 0.02370208540710439 0 -0.017515155563294901 0.022833011628690895 0 -0.020764829241443992 0.020548152114503081 0 -0.02065417685061036 0.020637668373524039 0 -0.021070545838687955 0.02101143883258124 0 -0.013217203941410917 0.025023115812910314 0 -0.013153931536933703 0.024942066212889483 0 -0.01311573094840543 0.025052012859352876 0 -0.019322674411409585 0.021284667448671749 0 -0.017515155563294901 0.022833011628690895 0 -0.017968055213346358 0.021872622303963647 0 -0.017891663211003984 0.02196477354346001 0 -0.018220857680302741 0.022550231569294782 0 -0.020432825809568306 0.019715319050383807 0 -0.020719726738484528 0.020438585199103729 0 -0.020655936667560833 0.020655865433077077 0 -0.020719726738484528 0.020438585199103729 0 -0.020655936667560833 0.020655865433077077 0 -0.020876184698757946 0.021157875703120482 0 -0.020655936667560833 0.020655865433077077 0 -0.020876184698757946 0.021157875703120482 0 -0.020846240534814594 0.02145042531374166 0 -0.026646938109230221 0.017031241413451859 0 -0.026401284571104043 0.017867849124590111 0 -0.026968977925545964 0.018073504388380339 0 -0.026646938109230221 0.017031241413451859 0 -0.026401284571104043 0.017867849124590111 0 -0.026025959817438337 0.017464806251098076 0 -0.020646802518176625 0.020583738047274772 0 -0.020868823923913135 0.02108700393371072 0 -0.023601111280566387 0.018925301667257196 0 -0.023826146817476787 0.019736260132675466 0 -0.020876184698757946 0.021157875703120482 0 -0.021070545838687955 0.02101143883258124 0 -0.020846240534814594 0.02145042531374166 0 -0.02065417685061036 0.020637668373524039 0 -0.020876184698757946 0.021157875703120482 0 -0.021070545838687955 0.02101143883258124 0 -0.021071105725719793 0.022039913190560756 0 -0.020846240534814594 0.02145042531374166 0 -0.0211119431083482 0.021626917431715714 0 -0.021070545838687955 0.02101143883258124 0 -0.020846240534814594 0.02145042531374166 0 -0.0211119431083482 0.021626917431715714 0 -0.02139091138481803 0.021657186673583479 0 -0.021070545838687955 0.02101143883258124 0 -0.0211119431083482 0.021626917431715714 0 -0.026553144666942006 0.018602309445929142 0 -0.026401284571104043 0.017867849124590111 0 -0.026968977925545964 0.018073504388380339 0 -0.026553144666942006 0.018602309445929142 0 -0.026401284571104043 0.017867849124590111 0 -0.025801814935398973 0.018150655503801027 0 -0.02710263325392856 0.018779864030110387 0 -0.025803917216372339 0.018196340357632942 0 -0.025803917216372339 0.018196340357632942 0 -0.025000264394282781 0.017725706123557058 0 -0.025000062363558825 0.018992213096726791 0 -0.025936223371608721 0.018286253956859625 0 -0.024999972569191953 0.017725555100249132 0 -0.025696139859941011 0.016759026647089007 0 -0.025000015848284454 0.017725341862927083 0 -0.026025959817438337 0.017464806251098076 0 -0.025801814935398973 0.018150655503801027 0 -0.025000015848284454 0.017725341862927083 0 -0.026025959817438337 0.017464806251098076 0 -0.026401284571104043 0.017867849124590111 0 -0.025801814935398973 0.018150655503801027 0 -0.026025959817438337 0.017464806251098076 0 -0.025604348117930168 0.0056079888360044336 0 -0.02559079965729778 0.0061055929704401362 0 -0.025338800307974634 0.004505931428987326 0 -0.025242827419611466 0.0044541157468702798 0 -0.025276292244113773 0.0043806500488339419 0 -0.025000006136603907 0.0069879312203729631 0 -0.026404371715735762 0.0078886069355758558 0 -0.024999963071685283 0.0080498476251547931 0 -0.025000006136603907 0.0069879312203729631 0 -0.025845632485707926 0.0066479272681729071 0 -0.026404371715735762 0.0078886069355758558 0 -0.025000171481134561 0.0069879286104962942 0 -0.025604348117930168 0.0056079888360044336 0 -0.025000073525201606 0.0069883252219615577 0 -0.025916569224292939 0.0066828623496871502 0 -0.024999922054083107 0.0056895812478454299 0 -0.025338800307974634 0.004505931428987326 0 -0.025244885630314663 0.0045356716537838177 0 -0.025242827419611466 0.0044541157468702798 0 -0.025604348117930168 0.0056079888360044336 0 -0.025270412535843494 0.0044040552953352428 0 -0.025190702793004404 0.0044823159956340454 0 -0.025244885630314663 0.0045356716537838177 0 -0.025242827419611466 0.0044541157468702798 0 -0.025190702793004404 0.0044823159956340454 0 -0.025146305137673155 0.0044760243951912394 0 -0.025137512784939222 0.0044876047757559726 0 -0.023646420993901861 0.0032071370116492867 0 -0.023685427052308725 0.0030579175482043624 0 -0.023603209130810002 0.0031277333694750722 0 -0.025190702793004404 0.0044823159956340454 0 -0.025146305137673155 0.0044760243951912394 0 -0.025167767285917568 0.0043796723936214092 0 -0.023685427052308725 0.0030579175482043624 0 -0.023603209130810002 0.0031277333694750722 0 -0.023543409240933889 0.003062207206675209 0 -0.024417461340224132 0.0039087837975808745 0 -0.024134230067350843 0.0033637255366676254 0 -0.025190702793004404 0.0044823159956340454 0 -0.025242827419611466 0.0044541157468702798 0 -0.025167767285917568 0.0043796723936214092 0 -0.025242827419611466 0.0044541157468702798 0 -0.025167767285917568 0.0043796723936214092 0 -0.025276292244113773 0.0043806500488339419 0 -0.024134230067350843 0.0033637255366676254 0 -0.02559079965729778 0.0061055929704401362 0 -0.024515640306434681 0.0031116913402363926 0 -0.024060338957579242 0.003148428986039801 0 -0.024587067162000507 0.0032688530415040324 0 -0.024029730232017769 0.0032781893744744401 0 -0.024060338957579242 0.003148428986039801 0 -0.024587067162000507 0.0032688530415040324 0 -0.024515640306434681 0.0031116913402363926 0 -0.024060338957579242 0.003148428986039801 0 -0.023927405643162147 0.0029102501657946658 0 -0.025084699738220896 0.0055870608162843062 0 -0.024161239889246424 0.0033297960108853173 0 -0.024134230067350843 0.0033637255366676254 0 -0.023531783601290494 0.0031163394914609783 0 -0.023839857002723192 0.0030932363091344651 0 -0.024027034737648532 0.0032366661733923023 0 -0.023619968244126866 0.0031871498891621218 0 -0.023839857002723192 0.0030932363091344651 0 -0.024027034737648532 0.0032366661733923023 0 -0.024060338957579242 0.003148428986039801 0 -0.024134230067350843 0.0033637255366676254 0 -0.024130422797772687 0.0032647413378077846 0 -0.023839857002723192 0.0030932363091344651 0 -0.024060338957579242 0.003148428986039801 0 -0.023927405643162147 0.0029102501657946658 0 -0.023839857002723192 0.0030932363091344651 0 -0.023927405643162147 0.0029102501657946658 0 -0.023653446260629905 0.0029989405100002407 0 -0.024539935246552503 0.0041515912093586585 0 -0.025121487527820854 0.0037863660465525207 0 -0.024078158839633837 0.0033776446419466607 0 -0.024213498274809328 0.013213059750888448 0 -0.02149966442546904 0.010755899935884694 0 -0.023528805989703572 0.018143602421222232 0 -0.025211041791391661 0.01851489314034778 0 -0.024183587317062483 0.016807994069962383 0 -0.025456081520682843 0.0045296999835294548 0 -0.024539935246552503 0.0041515912093586585 0 -0.025121487527820854 0.0037863660465525207 0 -0.025686081171101934 0.0091715085867191334 0 -0.026246272710851493 0.010470399956255439 0 -0.025197399544197599 0.010125429445616677 0 -0.025084699738220896 0.0055870608162843062 0 -0.024213498274809328 0.013213059750888448 0 -0.024213498274809328 0.013213059750888448 0 -0.025525988816696019 0.014355844762003219 0 -0.025211041791391661 0.01851489314034778 0 -0.026679246049054056 0.018898989044039534 0 -0.025520866979892295 0.017250229633134575 0 -0.025197399544197599 0.010125429445616677 0 -0.024789158162950957 0.0095789710758890593 0 -0.024158713219747763 0.0097867649238163115 0 -0.025525988816696019 0.014355844762003219 0 -0.02504451997501532 0.011666689907400675 0 -0.025078374226487322 0.0089572068782096982 0 -0.02550153721975424 0.0087655932597616032 0 -0.023573317061892002 0.0089657365833121939 0 -0.025686081171101934 0.0091715085867191334 0 -0.025197399544197599 0.010125429445616677 0 -0.024789158162950957 0.0095789710758890593 0 -0.025686081171101934 0.0091715085867191334 0 -0.024789158162950957 0.0095789710758890593 0 -0.025078374226487322 0.0089572068782096982 0 -0.025669355134067453 0.0091331838518173159 0 -0.025078374226487322 0.0089572068782096982 0 -0.02550153721975424 0.0087655932597616032 0 -0.025084699738220896 0.0055870608162843062 0 -0.025800020371532163 0.0077349751903363732 0 -0.025084699738220896 0.0055870608162843062 0 -0.02559079965729778 0.0061055929704401362 0 -0.024789158162950957 0.0095789710758890593 0 -0.025078374226487322 0.0089572068782096982 0 -0.023573317061892002 0.0089657365833121939 0 -0.024789158162950957 0.0095789710758890593 0 -0.023573317061892002 0.0089657365833121939 0 -0.024158713219747763 0.0097867649238163115 0 -0.02559079965729778 0.0061055929704401362 0 -0.024274529378353497 0.008794297533533682 0 -0.024999444803640549 0.0085264776043021198 0 -0.02504451997501532 0.011666689907400675 0 -0.024999995757722632 0.0080499294052695444 0 -0.025000001279670659 0.0085242238896199585 0 -0.0254391598017943 0.00867412987314479 0 -0.024274529378353497 0.008794297533533682 0 -0.02504451997501532 0.011666689907400675 0 -0.02504451997501532 0.011666689907400675 0 -0.025628804518856307 0.014005020919333066 0 -0.025000002296535637 0.0085244530633402076 0 -0.025300783741147179 0.008806285352792792 0 -0.025166958106983436 0.0095021295713856625 0 -0.025300783741147179 0.008806285352792792 0 -0.025166958106983436 0.0095021295713856625 0 -0.025359297253144564 0.010038126179792379 0 -0.025000002296535637 0.0085244530633402076 0 -0.025166958106983436 0.0095021295713856625 0 -0.024999206140136853 0.0097785284251563215 0 -0.025166958106983436 0.0095021295713856625 0 -0.025122951721226802 0.010019587527869323 0 -0.024999206140136853 0.0097785284251563215 0 -0.025122951721226802 0.010019587527869323 0 -0.024999206140136853 0.0097785284251563215 0 -0.025003158399562228 0.010724354604763521 0 -0.025166958106983436 0.0095021295713856625 0 -0.025122951721226802 0.010019587527869323 0 -0.025359297253144564 0.010038126179792379 0 -0.025628804518856307 0.014005020919333066 0 -0.024258851956319459 0.012979744360729064 0 -0.025520866979892295 0.017250229633134575 0 -0.024314303951826398 0.015189460578807643 0 -0.024183587317062483 0.016807994069962383 0 -0.025122951721226802 0.010019587527869323 0 -0.025359297253144564 0.010038126179792379 0 -0.025003158399562228 0.010724354604763521 0 -0.025211041791391661 0.01851489314034778 0 -0.025520866979892295 0.017250229633134575 0 -0.024183587317062483 0.016807994069962383 0 -0.025359297253144564 0.010038126179792379 0 -0.025003158399562228 0.010724354604763521 0 -0.024604602647868699 0.011215159999276903 0 -0.025003158399562228 0.010724354604763521 0 -0.024676252051032726 0.011025249892884894 0 -0.024604602647868699 0.011215159999276903 0 -0.024676252051032726 0.011025249892884894 0 -0.024018758884725898 0.01130830212317745 0 -0.024604602647868699 0.011215159999276903 0 -0.024999206140136853 0.0097785284251563215 0 -0.025003158399562228 0.010724354604763521 0 -0.025000510993676638 0.011029510484046571 0 -0.025003158399562228 0.010724354604763521 0 -0.025000510993676638 0.011029510484046571 0 -0.024676252051032726 0.011025249892884894 0 -0.025000464111709392 0.011031520821571862 0 -0.024999504997796154 0.011224534416357981 0 -0.025379020981472201 0.012131264798720304 0 -0.025000510993676638 0.011029510484046571 0 -0.024676252051032726 0.011025249892884894 0 -0.025259408866076839 0.0098425600017142938 0 -0.025000086520908942 0.011030922417537305 0 -0.025495781818903523 0.010534298548367762 0 -0.025000062091893354 0.011225766475780417 0 -0.025238691121853406 0.012018387326354954 0 -0.024676252051032726 0.011025249892884894 0 -0.023980717968796247 0.010442578870008098 0 -0.024018758884725898 0.01130830212317745 0 -0.024676252051032726 0.011025249892884894 0 -0.025259408866076839 0.0098425600017142938 0 -0.023980717968796247 0.010442578870008098 0 -0.023761213072176178 0.0088832357165463238 0 -0.025259408866076839 0.0098425600017142938 0 -0.023980717968796247 0.010442578870008098 0 -0.024999504997796154 0.011224534416357981 0 -0.025379020981472201 0.012131264798720304 0 -0.025186326451915209 0.011968203918421112 0 -0.025374154822170779 0.012613059959018413 0 -0.025379020981472201 0.012131264798720304 0 -0.025186326451915209 0.011968203918421112 0 -0.024999998679446064 0.011225524509065764 0 -0.024999999312807851 0.012135810083109657 0 -0.025286848695288126 0.012074562705865731 0 -0.025561676783975938 0.012924986763213577 0 -0.024999999312807851 0.012135810083109657 0 -0.025286848695288126 0.012074562705865731 0 -0.025385868574028005 0.012816316217310504 0 -0.025238691121853406 0.012018387326354954 0 -0.02004873874835101 0.008222229652724412 0 -0.022146878528565263 0.0093794355540349917 0 -0.019957182722501566 0.010935516366171273 0 -0.022146878528565263 0.0093794355540349917 0 -0.02265003579986995 0.011948643915895583 0 -0.019957182722501566 0.010935516366171273 0 -0.022146878528565263 0.0093794355540349917 0 -0.023980717968796247 0.010442578870008098 0 -0.02265003579986995 0.011948643915895583 0 -0.023761213072176178 0.0088832357165463238 0 -0.022146878528565263 0.0093794355540349917 0 -0.023980717968796247 0.010442578870008098 0 -0.024018758884725898 0.01130830212317745 0 -0.02265003579986995 0.011948643915895583 0 -0.024604602647868699 0.011215159999276903 0 -0.023980717968796247 0.010442578870008098 0 -0.024018758884725898 0.01130830212317745 0 -0.02265003579986995 0.011948643915895583 0 -0.02265003579986995 0.011948643915895583 0 -0.019416531805904153 0.013396633953262189 0 -0.019957182722501566 0.010935516366171273 0 -0.02265003579986995 0.011948643915895583 0 -0.021741867241834193 0.015315811798502357 0 -0.019416531805904153 0.013396633953262189 0 -0.02265003579986995 0.011948643915895583 0 -0.021741867241834193 0.015315811798502357 0 -0.024314303951826398 0.015189460578807643 0 -0.022836269779247863 0.011893626545723443 0 -0.024258851956319459 0.012979744360729064 0 -0.021741867241834193 0.015315811798502357 0 -0.024314303951826398 0.015189460578807643 0 -0.024183587317062483 0.016807994069962383 0 -0.023528805989703572 0.018143602421222232 0 -0.021741867241834193 0.015315811798502357 0 -0.024183587317062483 0.016807994069962383 0 -0.024213498274809328 0.013213059750888448 0 -0.022068505223002785 0.017757611631391688 0 -0.023838921282422258 0.019937961187906493 0 -0.021741867241834193 0.015315811798502357 0 -0.018894947629650164 0.018525796546661377 0 -0.021741867241834193 0.015315811798502357 0 -0.018894947629650164 0.018525796546661377 0 -0.017226456055972589 0.01577451592251727 0 -0.02149966442546904 0.010755899935884694 0 -0.018886190016332505 0.0099293930186622296 0 -0.024078158839633837 0.0033776446419466607 0 -0.023243542534898565 0.0029681874850043745 0 -0.023705809771199508 0.0036947111704868358 0 -0.023243542534898565 0.0029681874850043745 0 -0.023084914534347727 0.0032069887065782768 0 -0.023705809771199508 0.0036947111704868358 0 -0.018894947629650164 0.018525796546661377 0 -0.014366060546466528 0.016878104900736695 0 -0.017226456055972589 0.01577451592251727 0 -0.014366060546466528 0.016878104900736695 0 -0.014213903258487091 0.015240547544613431 0 -0.017226456055972589 0.01577451592251727 0 -0.014213903258487091 0.015240547544613431 0 -0.017226456055972589 0.01577451592251727 0 -0.016802622468008392 0.013989091786257521 0 -0.021741867241834193 0.015315811798502357 0 -0.017226456055972589 0.01577451592251727 0 -0.019416531805904153 0.013396633953262189 0 -0.017226456055972589 0.01577451592251727 0 -0.019416531805904153 0.013396633953262189 0 -0.016802622468008392 0.013989091786257521 0 -0.019416531805904153 0.013396633953262189 0 -0.017875402839705613 0.012449977388382398 0 -0.019957182722501566 0.010935516366171273 0 -0.017875402839705613 0.012449977388382398 0 -0.019957182722501566 0.010935516366171273 0 -0.017380948890250759 0.010706267565739591 0 -0.019416531805904153 0.013396633953262189 0 -0.017875402839705613 0.012449977388382398 0 -0.016802622468008392 0.013989091786257521 0 -0.014213903258487091 0.015240547544613431 0 -0.015529918431050239 0.012450365216834661 0 -0.01362220102320656 0.0099831997426758912 0 -0.017875402839705613 0.012449977388382398 0 -0.016802622468008392 0.013989091786257521 0 -0.015529918431050239 0.012450365216834661 0 -0.014213903258487091 0.015240547544613431 0 -0.016802622468008392 0.013989091786257521 0 -0.015529918431050239 0.012450365216834661 0 -0.017875402839705613 0.012449977388382398 0 -0.015529918431050239 0.012450365216834661 0 -0.017380948890250759 0.010706267565739591 0 -0.015529918431050239 0.012450365216834661 0 -0.015251276377168171 0.01051228236764323 0 -0.017380948890250759 0.010706267565739591 0 -0.015251276377168171 0.01051228236764323 0 -0.014924120548178444 0.0096015500498387533 0 -0.017380948890250759 0.010706267565739591 0 -0.015529918431050239 0.012450365216834661 0 -0.015251276377168171 0.01051228236764323 0 -0.01362220102320656 0.0099831997426758912 0 -0.015251276377168171 0.01051228236764323 0 -0.014924120548178444 0.0096015500498387533 0 -0.01362220102320656 0.0099831997426758912 0 -0.015241986710966505 0.01758816315966482 0 -0.013662953665663283 0.017403281517552934 0 -0.019111867740369558 0.012809110704925887 0 -0.015241986710966505 0.01758816315966482 0 -0.02004873874835101 0.008222229652724412 0 -0.019957182722501566 0.010935516366171273 0 -0.017380948890250759 0.010706267565739591 0 -0.02004873874835101 0.008222229652724412 0 -0.014924120548178444 0.0096015500498387533 0 -0.017380948890250759 0.010706267565739591 0 -0.013577189515193435 0.017167871252307124 0 -0.014656574469074184 0.01692278877802126 0 -0.014313575883885033 0.018731419174596527 0 -0.01268255064469921 0.019623784639664472 0 -0.013577189515193435 0.017167871252307124 0 -0.014313575883885033 0.018731419174596527 0 -0.013662953665663283 0.017403281517552934 0 -0.012878724827329255 0.017343914362491553 0 -0.01268255064469921 0.019623784639664472 0 -0.010463555838666927 0.018570208408476313 0 -0.013577189515193435 0.017167871252307124 0 -0.013419633629945841 0.016677961517433889 0 -0.013732031917929469 0.016136819023605149 0 -0.013577189515193435 0.017167871252307124 0 -0.013980791533300384 0.013548663638969657 0 -0.013662953665663283 0.017403281517552934 0 -0.014213903258487091 0.015240547544613431 0 -0.013419633629945841 0.016677961517433889 0 -0.013732031917929469 0.016136819023605149 0 -0.014213903258487091 0.015240547544613431 0 -0.013732031917929469 0.016136819023605149 0 -0.013843822486336152 0.015804150213541021 0 -0.013732031917929469 0.016136819023605149 0 -0.013833563120367038 0.016177472404639182 0 -0.013843822486336152 0.015804150213541021 0 -0.013732031917929469 0.016136819023605149 0 -0.013833563120367038 0.016177472404639182 0 -0.013577189515193435 0.017167871252307124 0 -0.013833563120367038 0.016177472404639182 0 -0.013577189515193435 0.017167871252307124 0 -0.014656574469074184 0.01692278877802126 0 -0.013833563120367038 0.016177472404639182 0 -0.013878176469257458 0.015534841580148444 0 -0.014656574469074184 0.01692278877802126 0 -0.013833563120367038 0.016177472404639182 0 -0.013878176469257458 0.015534841580148444 0 -0.013843822486336152 0.015804150213541021 0 -0.014366060546466528 0.016878104900736695 0 -0.014213903258487091 0.015240547544613431 0 -0.013843822486336152 0.015804150213541021 0 -0.014366060546466528 0.016878104900736695 0 -0.013878176469257458 0.015534841580148444 0 -0.013843822486336152 0.015804150213541021 0 -0.018886190016332505 0.0099293930186622296 0 -0.018401436974769626 0.0091092478529954321 0 -0.023243542534898565 0.0029681874850043745 0 -0.022828848184075157 0.0026035438501692712 0 -0.022978014294037206 0.0028795633885930132 0 -0.023243542534898565 0.0029681874850043745 0 -0.023084914534347727 0.0032069887065782768 0 -0.022978014294037206 0.0028795633885930132 0 -0.023148248830995585 0.0029740475813839302 0 -0.022841133098397946 0.0027710382092722193 0 -0.023084914534347727 0.0032069887065782768 0 -0.022799558840359665 0.002729385405348052 0 -0.022978014294037206 0.0028795633885930132 0 -0.023186214493834199 0.0027436730897513291 0 -0.022799558840359665 0.002729385405348052 0 -0.022961991035220775 0.0028646079337245277 0 -0.022828848184075157 0.0026035438501692712 0 -0.022799558840359665 0.002729385405348052 0 -0.022978014294037206 0.0028795633885930132 0 -0.022961991035220775 0.0028646079337245277 0 -0.022931355202563748 0.0030533070203621979 0 -0.02271786473799909 0.0029197358285272695 0 -0.022799558840359665 0.002729385405348052 0 -0.022961991035220775 0.0028646079337245277 0 -0.022802612401679891 0.0028151219401115497 0 -0.022931355202563748 0.0030533070203621979 0 -0.023196575053866669 0.002971490698326514 0 -0.023136013835260722 0.0031678272584860236 0 -0.022961991035220775 0.0028646079337245277 0 -0.022931355202563748 0.0030533070203621979 0 -0.023196575053866669 0.002971490698326514 0 -0.023196575053866669 0.002971490698326514 0 -0.023342116242666432 0.0031121646553322947 0 -0.023136013835260722 0.0031678272584860236 0 -0.023186214493834199 0.0027436730897513291 0 -0.022961991035220775 0.0028646079337245277 0 -0.023196575053866669 0.002971490698326514 0 -0.023186214493834199 0.0027436730897513291 0 -0.023196575053866669 0.002971490698326514 0 -0.023325629299886668 0.0028789932542841049 0 -0.023186214493834199 0.0027436730897513291 0 -0.023325629299886668 0.0028789932542841049 0 -0.023516893461729683 0.0028111711981568133 0 -0.023148248830995585 0.0029740475813839302 0 -0.023652232731547058 0.0032799859651954991 0 -0.023325629299886668 0.0028789932542841049 0 -0.023516893461729683 0.0028111711981568133 0 -0.023411272364094921 0.0029855572052750064 0 -0.024161239889246424 0.0033297960108853173 0 -0.023652232731547058 0.0032799859651954991 0 -0.024539935246552503 0.0041515912093586585 0 -0.024078158839633837 0.0033776446419466607 0 -0.023705809771199508 0.0036947111704868358 0 -0.023927405643162147 0.0029102501657946658 0 -0.023516893461729683 0.0028111711981568133 0 -0.023653446260629905 0.0029989405100002407 0 -0.023516893461729683 0.0028111711981568133 0 -0.023653446260629905 0.0029989405100002407 0 -0.023411272364094921 0.0029855572052750064 0 -0.023653446260629905 0.0029989405100002407 0 -0.023411272364094921 0.0029855572052750064 0 -0.023619968244126866 0.0031871498891621218 0 -0.023839857002723192 0.0030932363091344651 0 -0.023653446260629905 0.0029989405100002407 0 -0.023619968244126866 0.0031871498891621218 0 -0.023196575053866669 0.002971490698326514 0 -0.023325629299886668 0.0028789932542841049 0 -0.023411272364094921 0.0029855572052750064 0 -0.023411272364094921 0.0029855572052750064 0 -0.023342116242666432 0.0031121646553322947 0 -0.023619968244126866 0.0031871498891621218 0 -0.023196575053866669 0.002971490698326514 0 -0.023411272364094921 0.0029855572052750064 0 -0.023342116242666432 0.0031121646553322947 0 -0.023342116242666432 0.0031121646553322947 0 -0.023409976140413659 0.0031828863886151008 0 -0.023277545790149446 0.003231171248287661 0 -0.023342116242666432 0.0031121646553322947 0 -0.023543409240933889 0.003062207206675209 0 -0.023409976140413659 0.0031828863886151008 0 -0.0233913612212878 0.0031175649549496113 0 -0.023531783601290494 0.0031163394914609783 0 -0.023603209130810002 0.0031277333694750722 0 -0.023543409240933889 0.003062207206675209 0 -0.023548352230854795 0.0031839281253732165 0 -0.023543409240933889 0.003062207206675209 0 -0.023548352230854795 0.0031839281253732165 0 -0.023409976140413659 0.0031828863886151008 0 -0.023646420993901861 0.0032071370116492867 0 -0.023548352230854795 0.0031839281253732165 0 -0.023598479177244221 0.0032369445411610264 0 -0.023646420993901861 0.0032071370116492867 0 -0.023603209130810002 0.0031277333694750722 0 -0.023548352230854795 0.0031839281253732165 0 -0.023548352230854795 0.0031839281253732165 0 -0.023463063151161284 0.0032343991241394437 0 -0.023598479177244221 0.0032369445411610264 0 -0.023409976140413659 0.0031828863886151008 0 -0.023463063151161284 0.0032343991241394437 0 -0.023277545790149446 0.003231171248287661 0 -0.023548352230854795 0.0031839281253732165 0 -0.023409976140413659 0.0031828863886151008 0 -0.023463063151161284 0.0032343991241394437 0 -0.023277545790149446 0.003231171248287661 0 -0.02314705973343039 0.003295970821258059 0 -0.023136013835260722 0.0031678272584860236 0 -0.02314705973343039 0.003295970821258059 0 -0.023136013835260722 0.0031678272584860236 0 -0.022910063801473653 0.0032400549185567494 0 -0.022931355202563748 0.0030533070203621979 0 -0.023136013835260722 0.0031678272584860236 0 -0.022910063801473653 0.0032400549185567494 0 -0.023342116242666432 0.0031121646553322947 0 -0.023277545790149446 0.003231171248287661 0 -0.023136013835260722 0.0031678272584860236 0 -0.022574375780709539 0.0033457185204725471 0 -0.022189651580263633 0.0032480402537225762 0 -0.022637073959380843 0.0031393957490688123 0 -0.022574375780709539 0.0033457185204725471 0 -0.022910063801473653 0.0032400549185567494 0 -0.022637073959380843 0.0031393957490688123 0 -0.02314705973343039 0.003295970821258059 0 -0.022910063801473653 0.0032400549185567494 0 -0.022886410995553486 0.0033589475164584981 0 -0.022574375780709539 0.0033457185204725471 0 -0.022910063801473653 0.0032400549185567494 0 -0.022886410995553486 0.0033589475164584981 0 -0.022574375780709539 0.0033457185204725471 0 -0.022886410995553486 0.0033589475164584981 0 -0.022649382135085307 0.0034678471550103501 0 -0.022574375780709539 0.0033457185204725471 0 -0.02228623252914632 0.0034943871235065174 0 -0.022649382135085307 0.0034678471550103501 0 -0.022574375780709539 0.0033457185204725471 0 -0.02228623252914632 0.0034943871235065174 0 -0.022242531984355791 0.0033996769376571047 0 -0.02228623252914632 0.0034943871235065174 0 -0.021816422155713906 0.0035110413901827853 0 -0.021787626622068026 0.0036860308801994197 0 -0.02228623252914632 0.0034943871235065174 0 -0.021816422155713906 0.0035110413901827853 0 -0.022242531984355791 0.0033996769376571047 0 -0.021816422155713906 0.0035110413901827853 0 -0.022189651580263633 0.0032480402537225762 0 -0.021721216245749197 0.0032848791800721903 0 -0.021816422155713906 0.0035110413901827853 0 -0.022242531984355791 0.0033996769376571047 0 -0.022189651580263633 0.0032480402537225762 0 -0.022574375780709539 0.0033457185204725471 0 -0.022242531984355791 0.0033996769376571047 0 -0.022189651580263633 0.0032480402537225762 0 -0.022189651580263633 0.0032480402537225762 0 -0.021972179575502987 0.0029878237272866993 0 -0.022360486906900384 0.0029472578878765483 0 -0.022189651580263633 0.0032480402537225762 0 -0.021721216245749197 0.0032848791800721903 0 -0.021972179575502987 0.0029878237272866993 0 -0.021972179575502987 0.0029878237272866993 0 -0.021815157954047058 0.0025954452598308331 0 -0.021441542940941749 0.0030439865140398873 0 -0.021721216245749197 0.0032848791800721903 0 -0.021972179575502987 0.0029878237272866993 0 -0.021441542940941749 0.0030439865140398873 0 -0.021972179575502987 0.0029878237272866993 0 -0.022360486906900384 0.0029472578878765483 0 -0.022247303120994738 0.0027024469420364422 0 -0.022360486906900384 0.0029472578878765483 0 -0.02271786473799909 0.0029197358285272695 0 -0.022597530599607202 0.002690832736399312 0 -0.022360486906900384 0.0029472578878765483 0 -0.022637073959380843 0.0031393957490688123 0 -0.02271786473799909 0.0029197358285272695 0 -0.022189651580263633 0.0032480402537225762 0 -0.022360486906900384 0.0029472578878765483 0 -0.022637073959380843 0.0031393957490688123 0 -0.022931355202563748 0.0030533070203621979 0 -0.022637073959380843 0.0031393957490688123 0 -0.02271786473799909 0.0029197358285272695 0 -0.022931355202563748 0.0030533070203621979 0 -0.022910063801473653 0.0032400549185567494 0 -0.022637073959380843 0.0031393957490688123 0 -0.022961991035220775 0.0028646079337245277 0 -0.02271786473799909 0.0029197358285272695 0 -0.022802612401679891 0.0028151219401115497 0 -0.02271786473799909 0.0029197358285272695 0 -0.022802612401679891 0.0028151219401115497 0 -0.022597530599607202 0.002690832736399312 0 -0.022799558840359665 0.002729385405348052 0 -0.022802612401679891 0.0028151219401115497 0 -0.022597530599607202 0.002690832736399312 0 -0.022828848184075157 0.0026035438501692712 0 -0.022799558840359665 0.002729385405348052 0 -0.022597530599607202 0.002690832736399312 0 -0.022597530599607202 0.002690832736399312 0 -0.022449233296400823 0.0022635358844986741 0 -0.022247303120994738 0.0027024469420364422 0 -0.022360486906900384 0.0029472578878765483 0 -0.022597530599607202 0.002690832736399312 0 -0.022247303120994738 0.0027024469420364422 0 -0.018401436974769626 0.0091092478529954321 0 -0.01950581382371026 0.0090379665777130386 0 -0.013878176469257458 0.015534841580148444 0 -0.016521992447153137 0.015765658284094694 0 -0.014656574469074184 0.01692278877802126 0 -0.022828848184075157 0.0026035438501692712 0 -0.022597530599607202 0.002690832736399312 0 -0.022449233296400823 0.0022635358844986741 0 -0.016521992447153137 0.015765658284094694 0 -0.014656574469074184 0.01692278877802126 0 -0.016255254549895071 0.019150659823558801 0 -0.016521992447153137 0.015765658284094694 0 -0.016255254549895071 0.019150659823558801 0 -0.01782400349327691 0.017766030180793296 0 -0.018617957197821285 0.019816394606408074 0 -0.016255254549895071 0.019150659823558801 0 -0.01782400349327691 0.017766030180793296 0 -0.014656574469074184 0.01692278877802126 0 -0.016255254549895071 0.019150659823558801 0 -0.014313575883885033 0.018731419174596527 0 -0.014164710493210341 0.021171606766939622 0 -0.016255254549895071 0.019150659823558801 0 -0.014313575883885033 0.018731419174596527 0 -0.018617957197821285 0.019816394606408074 0 -0.020988139055675394 0.018983893296812351 0 -0.019706149417232421 0.016717212258979455 0 -0.018617957197821285 0.019816394606408074 0 -0.01782400349327691 0.017766030180793296 0 -0.019706149417232421 0.016717212258979455 0 -0.01950581382371026 0.0090379665777130386 0 -0.020615938972110698 0.009309141360681358 0 -0.016521992447153137 0.015765658284094694 0 -0.01782400349327691 0.017766030180793296 0 -0.019706149417232421 0.016717212258979455 0 -0.020988139055675394 0.018983893296812351 0 -0.019706149417232421 0.016717212258979455 0 -0.022637310268954478 0.017728367374587623 0 -0.020615938972110698 0.009309141360681358 0 -0.022247364102194318 0.0095479869073387836 0 -0.021778147609615973 0.0019046843673065702 0 -0.021815157954047058 0.0025954452598308331 0 -0.021275732565071183 0.0025581698154746283 0 -0.022449233296400823 0.0022635358844986741 0 -0.021778147609615973 0.0019046843673065702 0 -0.021815157954047058 0.0025954452598308331 0 -0.022449233296400823 0.0022635358844986741 0 -0.022247303120994738 0.0027024469420364422 0 -0.021815157954047058 0.0025954452598308331 0 -0.021972179575502987 0.0029878237272866993 0 -0.022247303120994738 0.0027024469420364422 0 -0.021815157954047058 0.0025954452598308331 0 -0.021815157954047058 0.0025954452598308331 0 -0.021275732565071183 0.0025581698154746283 0 -0.021441542940941749 0.0030439865140398873 0 -0.021275732565071183 0.0025581698154746283 0 -0.020732383914497384 0.0026054739117445363 0 -0.02090484005768958 0.0030393086254474977 0 -0.020211549419682014 0.002918773682846305 0 -0.020732383914497384 0.0026054739117445363 0 -0.02090484005768958 0.0030393086254474977 0 -0.020211549419682014 0.002918773682846305 0 -0.020732383914497384 0.0026054739117445363 0 -0.020322634946801425 0.0023464165336762495 0 -0.020322634946801425 0.0023464165336762495 0 -0.020897803836875253 0.0021347277730580103 0 -0.020203320932946165 0.001893629301714521 0 -0.020732383914497384 0.0026054739117445363 0 -0.020322634946801425 0.0023464165336762495 0 -0.020897803836875253 0.0021347277730580103 0 -0.020322634946801425 0.0023464165336762495 0 -0.020203320932946165 0.001893629301714521 0 -0.019877929724445322 0.0021221872964511195 0 -0.021778147609615973 0.0019046843673065702 0 -0.021275732565071183 0.0025581698154746283 0 -0.020897803836875253 0.0021347277730580103 0 -0.021275732565071183 0.0025581698154746283 0 -0.020732383914497384 0.0026054739117445363 0 -0.020897803836875253 0.0021347277730580103 0 -0.021778147609615973 0.0019046843673065702 0 -0.020897803836875253 0.0021347277730580103 0 -0.020832173334705339 0.0015311582256071249 0 -0.020897803836875253 0.0021347277730580103 0 -0.020832173334705339 0.0015311582256071249 0 -0.020203320932946165 0.001893629301714521 0 -0.020832173334705339 0.0015311582256071249 0 -0.020203320932946165 0.001893629301714521 0 -0.019934551298483372 0.0013478238660950522 0 -0.022247364102194318 0.0095479869073387836 0 -0.020105723562767026 0.011006652759617638 0 -0.023061153679204621 0.019655336118278414 0 -0.022637310268954478 0.017728367374587623 0 -0.025257915176093066 0.01852421581512503 0 -0.019733529771659715 0.020700477624117343 0 -0.020105723562767026 0.011006652759617638 0 -0.023061153679204621 0.019655336118278414 0 -0.020988139055675394 0.018983893296812351 0 -0.022637310268954478 0.017728367374587623 0 -0.016254650620526247 0.012471851251159531 0 -0.01686179546263018 0.012374552583524916 0 -0.017111327368621528 0.012735929931189877 0 -0.016000918957746503 0.010013676944269039 0 -0.019049280902510637 0.0097208370503257327 0 -0.01944031408113996 0.0019388737589930373 0 -0.019451981432843671 0.0018839775249598818 0 -0.019310816090330564 0.0019922398476475279 0 -0.019280409783188922 0.0020105029059527425 0 -0.01944031408113996 0.0019388737589930373 0 -0.019310816090330564 0.0019922398476475279 0 -0.01944031408113996 0.0019388737589930373 0 -0.019438619760734483 0.00193791410524346 0 -0.019451981432843671 0.0018839775249598818 0 -0.019718536894974669 0.0063685721423353027 0 -0.0200705601891186 0.0018835074049607368 0 -0.014434441456288988 0.020428673599186528 0 -0.019049280902510637 0.0097208370503257327 0 -0.016927999051558958 0.020122389399043351 0 -0.017461903648643303 0.019511934779977615 0 -0.017356840400949827 0.019480800445665254 0 -0.019049280902510637 0.0097208370503257327 0 -0.020105723562767026 0.011006652759617638 0 -0.019049280902510637 0.0097208370503257327 0 -0.019718536894974669 0.0063685721423353027 0 -0.017607897298061014 0.01015372863588879 0 -0.020366345737909679 0.011004963393522423 0 -0.018626119299385527 0.011769724415589794 0 -0.020105723562767026 0.011006652759617638 0 -0.019718536894974669 0.0063685721423353027 0 -0.020203320932946165 0.001893629301714521 0 -0.019934551298483372 0.0013478238660950522 0 -0.019872531453604066 0.0013780921583824571 0 -0.020203320932946165 0.001893629301714521 0 -0.01968875512574424 0.0015685811062562869 0 -0.019781328758410099 0.0017878344001834305 0 -0.019701797196013712 0.00020994083590273826 0 -0.019718536894974669 0.0063685721423353027 0 -0.01968875512574424 0.0015685811062562869 0 -0.019781328758410099 0.0017878344001834305 0 -0.019451981432843671 0.0018839775249598818 0 -0.019781328758410099 0.0017878344001834305 0 -0.019451981432843671 0.0018839775249598818 0 -0.019316783070696477 0.0019525830653730164 0 -0.01961047425816646 0.0018889179650274524 0 -0.018982591042960462 0.00076200775442839138 0 -0.019781328758410099 0.0017878344001834305 0 -0.018700772952777778 0.0016245040710437285 0 -0.018039051240342132 0.00060707767012947961 0 -0.019781328758410099 0.0017878344001834305 0 -0.018700772952777778 0.0016245040710437285 0 -0.019265736113179607 0.0021664804877128325 0 -0.018700772952777778 0.0016245040710437285 0 -0.017957975328812336 0.0015873021509289591 0 -0.018039051240342132 0.00060707767012947961 0 -0.018700772952777778 0.0016245040710437285 0 -0.018374663870685669 0.0021392711599341387 0 -0.017957975328812336 0.0015873021509289591 0 -0.018700772952777778 0.0016245040710437285 0 -0.018374663870685669 0.0021392711599341387 0 -0.019265736113179607 0.0021664804877128325 0 -0.018374663870685669 0.0021392711599341387 0 -0.019265736113179607 0.0021664804877128325 0 -0.018849449457151741 0.002729761885193588 0 -0.019265736113179607 0.0021664804877128325 0 -0.019695878165736924 0.0025321115110241502 0 -0.018849449457151741 0.002729761885193588 0 -0.018374663870685669 0.0021392711599341387 0 -0.018849449457151741 0.002729761885193588 0 -0.017745020468811018 0.0030059723819901526 0 -0.020203320932946165 0.001893629301714521 0 -0.019781328758410099 0.0017878344001834305 0 -0.019877929724445322 0.0021221872964511195 0 -0.019781328758410099 0.0017878344001834305 0 -0.019265736113179607 0.0021664804877128325 0 -0.019877929724445322 0.0021221872964511195 0 -0.019265736113179607 0.0021664804877128325 0 -0.019877929724445322 0.0021221872964511195 0 -0.019695878165736924 0.0025321115110241502 0 -0.020322634946801425 0.0023464165336762495 0 -0.019877929724445322 0.0021221872964511195 0 -0.019695878165736924 0.0025321115110241502 0 -0.020211549419682014 0.002918773682846305 0 -0.020322634946801425 0.0023464165336762495 0 -0.019695878165736924 0.0025321115110241502 0 -0.019695878165736924 0.0025321115110241502 0 -0.01947543982635884 0.0030581321815405754 0 -0.018849449457151741 0.002729761885193588 0 -0.020211549419682014 0.002918773682846305 0 -0.019695878165736924 0.0025321115110241502 0 -0.01947543982635884 0.0030581321815405754 0 -0.01947543982635884 0.0030581321815405754 0 -0.018849449457151741 0.002729761885193588 0 -0.01832236983330476 0.0033835741126186964 0 -0.018849449457151741 0.002729761885193588 0 -0.01832236983330476 0.0033835741126186964 0 -0.017745020468811018 0.0030059723819901526 0 -0.01832236983330476 0.0033835741126186964 0 -0.018977214085093556 0.0035919456969403223 0 -0.017861512743887024 0.0039440471710326264 0 -0.01947543982635884 0.0030581321815405754 0 -0.01832236983330476 0.0033835741126186964 0 -0.018977214085093556 0.0035919456969403223 0 -0.019441700439769879 0.0039263508290291425 0 -0.018161099544486806 0.0032946213906379657 0 -0.018874807949647885 0.004105087467529335 0 -0.018977214085093556 0.0035919456969403223 0 -0.019441700439769879 0.0039263508290291425 0 -0.017861512743887024 0.0039440471710326264 0 -0.019240456949503215 0.0039617182645646943 0 -0.017830559794896412 0.0040007115488843005 0 -0.018977214085093556 0.0035919456969403223 0 -0.019441700439769879 0.0039263508290291425 0 -0.019798027296589655 0.0034427839206597208 0 -0.019441700439769879 0.0039263508290291425 0 -0.020235919073938114 0.0036594246857405322 0 -0.019798027296589655 0.0034427839206597208 0 -0.020235919073938114 0.0036594246857405322 0 -0.019798027296589655 0.0034427839206597208 0 -0.020427158153642086 0.0033022347006837426 0 -0.01947543982635884 0.0030581321815405754 0 -0.018977214085093556 0.0035919456969403223 0 -0.019798027296589655 0.0034427839206597208 0 -0.020211549419682014 0.002918773682846305 0 -0.01947543982635884 0.0030581321815405754 0 -0.019798027296589655 0.0034427839206597208 0 -0.020211549419682014 0.002918773682846305 0 -0.019798027296589655 0.0034427839206597208 0 -0.020427158153642086 0.0033022347006837426 0 -0.020211549419682014 0.002918773682846305 0 -0.020427158153642086 0.0033022347006837426 0 -0.02090484005768958 0.0030393086254474977 0 -0.020427158153642086 0.0033022347006837426 0 -0.02090484005768958 0.0030393086254474977 0 -0.021084394000018884 0.0034735886728142879 0 -0.021441542940941749 0.0030439865140398873 0 -0.02090484005768958 0.0030393086254474977 0 -0.021084394000018884 0.0034735886728142879 0 -0.021275732565071183 0.0025581698154746283 0 -0.021441542940941749 0.0030439865140398873 0 -0.02090484005768958 0.0030393086254474977 0 -0.021816422155713906 0.0035110413901827853 0 -0.021721216245749197 0.0032848791800721903 0 -0.021084394000018884 0.0034735886728142879 0 -0.021721216245749197 0.0032848791800721903 0 -0.021441542940941749 0.0030439865140398873 0 -0.021084394000018884 0.0034735886728142879 0 -0.020235919073938114 0.0036594246857405322 0 -0.021084394000018884 0.0034735886728142879 0 -0.02050020119676137 0.0039393312516653014 0 -0.020235919073938114 0.0036594246857405322 0 -0.020427158153642086 0.0033022347006837426 0 -0.021084394000018884 0.0034735886728142879 0 -0.021084394000018884 0.0034735886728142879 0 -0.021311627279760596 0.0036944317614880031 0 -0.02050020119676137 0.0039393312516653014 0 -0.021816422155713906 0.0035110413901827853 0 -0.021084394000018884 0.0034735886728142879 0 -0.021311627279760596 0.0036944317614880031 0 -0.021311627279760596 0.0036944317614880031 0 -0.021787626622068026 0.0036860308801994197 0 -0.021204909124517675 0.0037507730215667946 0 -0.021816422155713906 0.0035110413901827853 0 -0.021311627279760596 0.0036944317614880031 0 -0.021787626622068026 0.0036860308801994197 0 -0.021311627279760596 0.0036944317614880031 0 -0.021204909124517675 0.0037507730215667946 0 -0.02050020119676137 0.0039393312516653014 0 -0.021030713027949569 0.0037801350989137522 0 -0.019455895847880537 0.0037759857003798712 0 -0.021204909124517675 0.0037507730215667946 0 -0.019668697411452767 0.0045573672056350989 0 -0.02050020119676137 0.0039393312516653014 0 -0.021204909124517675 0.0037507730215667946 0 -0.019274872643485718 0.0030074747891660181 0 -0.019508333716319472 0.0041475367777920082 0 -0.019441700439769879 0.0039263508290291425 0 -0.019668697411452767 0.0045573672056350989 0 -0.018874807949647885 0.004105087467529335 0 -0.019441700439769879 0.0039263508290291425 0 -0.019668697411452767 0.0045573672056350989 0 -0.02050020119676137 0.0039393312516653014 0 -0.019441700439769879 0.0039263508290291425 0 -0.020235919073938114 0.0036594246857405322 0 -0.02050020119676137 0.0039393312516653014 0 -0.021172407988529627 0.0041992819516918625 0 -0.020646443414842466 0.0047930578233824992 0 -0.02115684475078386 0.0041782711218565395 0 -0.021588132168894335 0.0038817725431778013 0 -0.021825362478068364 0.0039395589998360223 0 -0.019508333716319472 0.0041475367777920082 0 -0.02115684475078386 0.0041782711218565395 0 -0.019541383272326858 0.0056761187856475756 0 -0.019508333716319472 0.0041475367777920082 0 -0.019541383272326858 0.0056761187856475756 0 -0.017969066688432535 0.0053435471726771813 0 -0.019508333716319472 0.0041475367777920082 0 -0.017969066688432535 0.0053435471726771813 0 -0.017764632792501626 0.0040517181307199853 0 -0.019274872643485718 0.0030074747891660181 0 -0.019508333716319472 0.0041475367777920082 0 -0.017764632792501626 0.0040517181307199853 0 -0.021204909124517675 0.0037507730215667946 0 -0.019508333716319472 0.0041475367777920082 0 -0.02115684475078386 0.0041782711218565395 0 -0.021204909124517675 0.0037507730215667946 0 -0.02115684475078386 0.0041782711218565395 0 -0.021558667786879246 0.0038587046977861055 0 -0.02115684475078386 0.0041782711218565395 0 -0.021558667786879246 0.0038587046977861055 0 -0.021873415574985081 0.0037833280244036621 0 -0.021787626622068026 0.0036860308801994197 0 -0.021873415574985081 0.0037833280244036621 0 -0.022320056763078088 0.0035875188182649437 0 -0.021787626622068026 0.0036860308801994197 0 -0.021558667786879246 0.0038587046977861055 0 -0.021873415574985081 0.0037833280244036621 0 -0.021787626622068026 0.0036860308801994197 0 -0.021204909124517675 0.0037507730215667946 0 -0.021558667786879246 0.0038587046977861055 0 -0.02115684475078386 0.0041782711218565395 0 -0.021873415574985081 0.0037833280244036621 0 -0.021588132168894335 0.0038817725431778013 0 -0.021878152478276902 0.0037611400324358054 0 -0.021588132168894335 0.0038817725431778013 0 -0.021773073526988283 0.0037548920303138223 0 -0.021873415574985081 0.0037833280244036621 0 -0.021878152478276902 0.0037611400324358054 0 -0.021588132168894335 0.0038817725431778013 0 -0.021873415574985081 0.0037833280244036621 0 -0.021878152478276902 0.0037611400324358054 0 -0.022392639411483711 0.0035877487451804169 0 -0.021878152478276902 0.0037611400324358054 0 -0.022272286890724101 0.0037294264398435844 0 -0.022392639411483711 0.0035877487451804169 0 -0.021878152478276902 0.0037611400324358054 0 -0.022272286890724101 0.0037294264398435844 0 -0.021964925558588096 0.003906230196596644 0 -0.022272286890724101 0.0037294264398435844 0 -0.021964925558588096 0.003906230196596644 0 -0.022298564612205869 0.0040517046752799532 0 -0.021878152478276902 0.0037611400324358054 0 -0.021773073526988283 0.0037548920303138223 0 -0.021964925558588096 0.003906230196596644 0 -0.021773073526988283 0.0037548920303138223 0 -0.021867774671341517 0.0037702326136860695 0 -0.021850031128777515 0.0035094796201740482 0 -0.021588132168894335 0.0038817725431778013 0 -0.021825362478068364 0.0039395589998360223 0 -0.021867774671341517 0.0037702326136860695 0 -0.021588132168894335 0.0038817725431778013 0 -0.021773073526988283 0.0037548920303138223 0 -0.021867774671341517 0.0037702326136860695 0 -0.019541383272326858 0.0056761187856475756 0 -0.017969066688432535 0.0053435471726771813 0 -0.01811469596710295 0.0069480460284220983 0 -0.021825362478068364 0.0039395589998360223 0 -0.021867774671341517 0.0037702326136860695 0 -0.022165789535704937 0.0037793658135045053 0 -0.020646443414842466 0.0047930578233824992 0 -0.020425771649678872 0.0053750945053418651 0 -0.021850031128777515 0.0035094796201740482 0 -0.022165789535704937 0.0037793658135045053 0 -0.022303725158922868 0.0032984818010465414 0 -0.021867774671341517 0.0037702326136860695 0 -0.021850031128777515 0.0035094796201740482 0 -0.022165789535704937 0.0037793658135045053 0 -0.021850031128777515 0.0035094796201740482 0 -0.021815309550749867 0.0024981079071279793 0 -0.022227490288418021 0.0028867654025484068 0 -0.021850031128777515 0.0035094796201740482 0 -0.022227490288418021 0.0028867654025484068 0 -0.022303725158922868 0.0032984818010465414 0 -0.021773073526988283 0.0037548920303138223 0 -0.021850031128777515 0.0035094796201740482 0 -0.021811105638771765 0.0039068609343925909 0 -0.021850031128777515 0.0035094796201740482 0 -0.021308202434199244 0.0029042785876898748 0 -0.021815309550749867 0.0024981079071279793 0 -0.021874777258983024 0.0035279115101289993 0 -0.021487883037047188 0.0034745839316454386 0 -0.021308202434199244 0.0029042785876898748 0 -0.021381707880046476 0.0022473940353899746 0 -0.021815309550749867 0.0024981079071279793 0 -0.021815309550749867 0.0024981079071279793 0 -0.022275492346619498 0.0023587885721223344 0 -0.022227490288418021 0.0028867654025484068 0 -0.021815309550749867 0.0024981079071279793 0 -0.022001208309165764 0.0019550091072793488 0 -0.022275492346619498 0.0023587885721223344 0 -0.021815309550749867 0.0024981079071279793 0 -0.022001208309165764 0.0019550091072793488 0 -0.021695075629406316 0.0019280585896067366 0 -0.022001208309165764 0.0019550091072793488 0 -0.021695075629406316 0.0019280585896067366 0 -0.021757232116467011 0.0015789281177032606 0 -0.021381707880046476 0.0022473940353899746 0 -0.021815309550749867 0.0024981079071279793 0 -0.021695075629406316 0.0019280585896067366 0 -0.021381707880046476 0.0022473940353899746 0 -0.021695075629406316 0.0019280585896067366 0 -0.021513237358150562 0.0014351483346062581 0 -0.021695075629406316 0.0019280585896067366 0 -0.021757232116467011 0.0015789281177032606 0 -0.021513237358150562 0.0014351483346062581 0 -0.021757232116467011 0.0015789281177032606 0 -0.021513237358150562 0.0014351483346062581 0 -0.02168723484092477 0.001453872326594224 0 -0.021757232116467011 0.0015789281177032606 0 -0.022057580342571496 0.0015870414292796513 0 -0.02180911246844661 0.0014269976305481046 0 -0.022001208309165764 0.0019550091072793488 0 -0.021757232116467011 0.0015789281177032606 0 -0.022057580342571496 0.0015870414292796513 0 -0.022351473575198913 0.001306836873668101 0 -0.021832651602134368 0.0014296288601153573 0 -0.022092388225360603 0.0010906476281412998 0 -0.022351473575198913 0.001306836873668101 0 -0.022092388225360603 0.0010906476281412998 0 -0.022628386278917438 0.00087068434824925651 0 -0.021832651602134368 0.0014296288601153573 0 -0.021513237358150562 0.0014351483346062581 0 -0.02168723484092477 0.001453872326594224 0 -0.021832651602134368 0.0014296288601153573 0 -0.021513237358150562 0.0014351483346062581 0 -0.022092388225360603 0.0010906476281412998 0 -0.021274919095656517 0.0011673859901456893 0 -0.022219224848688469 0.0023478402441685581 0 -0.021513237358150562 0.0014351483346062581 0 -0.022092388225360603 0.0010906476281412998 0 -0.022000782333979414 0.00049957983127236311 0 -0.021381707880046476 0.0022473940353899746 0 -0.021513237358150562 0.0014351483346062581 0 -0.020625299070978528 0.0024138532585656724 0 -0.022092388225360603 0.0010906476281412998 0 -0.022000782333979414 0.00049957983127236311 0 -0.022628386278917438 0.00087068434824925651 0 -0.022219224848688469 0.0023478402441685581 0 -0.023419678522965615 0.0013389618944950107 0 -0.022219224848688469 0.0023478402441685581 0 -0.023216804681836959 0.0034687214399620036 0 -0.02427615128558773 0.0022716428499763514 0 -0.023963998520720523 0.0023246993883807082 0 -0.02394576643704123 0.0020160314720176001 0 -0.02427615128558773 0.0022716428499763514 0 -0.023951947048751861 0.0027086744907435355 0 -0.023963998520720523 0.0023246993883807082 0 -0.021308202434199244 0.0029042785876898748 0 -0.021381707880046476 0.0022473940353899746 0 -0.020625299070978528 0.0024138532585656724 0 -0.021487883037047188 0.0034745839316454386 0 -0.022219224848688469 0.0023478402441685581 0 -0.021773073526988283 0.0037548920303138223 0 -0.021811105638771765 0.0039068609343925909 0 -0.021964925558588096 0.003906230196596644 0 -0.021811105638771765 0.0039068609343925909 0 -0.02202948558092677 0.0041711490560175134 0 -0.021964925558588096 0.003906230196596644 0 -0.02202948558092677 0.0041711490560175134 0 -0.021964925558588096 0.003906230196596644 0 -0.022298564612205869 0.0040517046752799532 0 -0.023951947048751861 0.0027086744907435355 0 -0.023369952240067479 0.0028494653418706618 0 -0.023725256278760702 0.0023295171078149103 0 -0.023725256278760702 0.0023295171078149103 0 -0.023963998520720523 0.0023246993883807082 0 -0.02394576643704123 0.0020160314720176001 0 -0.023951947048751861 0.0027086744907435355 0 -0.023725256278760702 0.0023295171078149103 0 -0.023963998520720523 0.0023246993883807082 0 -0.02394576643704123 0.0020160314720176001 0 -0.023918247163076112 0.001775471144308571 0 -0.023810427576552225 0.0020122014083470575 0 -0.023725256278760702 0.0023295171078149103 0 -0.02394576643704123 0.0020160314720176001 0 -0.023810427576552225 0.0020122014083470575 0 -0.023419678522965615 0.0013389618944950107 0 -0.02355583643866218 0.0014258756468855894 0 -0.022628386278917438 0.00087068434824925651 0 -0.023224011364338909 0.0010748124458389238 0 -0.022799155418146564 0.001299665600807653 0 -0.022351473575198913 0.001306836873668101 0 -0.022628386278917438 0.00087068434824925651 0 -0.022799155418146564 0.001299665600807653 0 -0.023907142748754964 0.0017586197921646294 0 -0.024168219201394701 0.0014393773975381577 0 -0.023924854475946146 0.0013945965995414912 0 -0.023907142748754964 0.0017586197921646294 0 -0.024066313916524393 0.0016473489380499323 0 -0.024168219201394701 0.0014393773975381577 0 -0.02355583643866218 0.0014258756468855894 0 -0.023884019903444641 0.0014140014340673509 0 -0.023918247163076112 0.001775471144308571 0 -0.023907142748754964 0.0017586197921646294 0 -0.023924854475946146 0.0013945965995414912 0 -0.023918247163076112 0.001775471144308571 0 -0.023810427576552225 0.0020122014083470575 0 -0.023907142748754964 0.0017586197921646294 0 -0.023810427576552225 0.0020122014083470575 0 -0.023907142748754964 0.0017586197921646294 0 -0.02364443771240092 0.002296563588287458 0 -0.023907142748754964 0.0017586197921646294 0 -0.02364443771240092 0.002296563588287458 0 -0.023934441946242873 0.0019148864880273251 0 -0.02364443771240092 0.002296563588287458 0 -0.023683989367250136 0.0023508800897411469 0 -0.023934441946242873 0.0019148864880273251 0 -0.023725256278760702 0.0023295171078149103 0 -0.023810427576552225 0.0020122014083470575 0 -0.02364443771240092 0.002296563588287458 0 -0.023369952240067479 0.0028494653418706618 0 -0.02364443771240092 0.002296563588287458 0 -0.023477343627501295 0.0027091469604735895 0 -0.023369952240067479 0.0028494653418706618 0 -0.023725256278760702 0.0023295171078149103 0 -0.02364443771240092 0.002296563588287458 0 -0.02364443771240092 0.002296563588287458 0 -0.023477343627501295 0.0027091469604735895 0 -0.023683989367250136 0.0023508800897411469 0 -0.023477343627501295 0.0027091469604735895 0 -0.023219846294485737 0.0031802020425774733 0 -0.02342682934093171 0.0028970807005605208 0 -0.023219846294485737 0.0031802020425774733 0 -0.023224224877572992 0.0032342615916889986 0 -0.02342682934093171 0.0028970807005605208 0 -0.023369952240067479 0.0028494653418706618 0 -0.023477343627501295 0.0027091469604735895 0 -0.023219846294485737 0.0031802020425774733 0 -0.023369952240067479 0.0028494653418706618 0 -0.023219846294485737 0.0031802020425774733 0 -0.023078362526045934 0.0034610298527608537 0 -0.023216804681836959 0.0034687214399620036 0 -0.023087632689860541 0.0034005533016445021 0 -0.023951947048751861 0.0027086744907435355 0 -0.023369952240067479 0.0028494653418706618 0 -0.023078362526045934 0.0034610298527608537 0 -0.022272286890724101 0.0037294264398435844 0 -0.022298564612205869 0.0040517046752799532 0 -0.023078362526045934 0.0034610298527608537 0 -0.023078362526045934 0.0034610298527608537 0 -0.022392639411483711 0.0035877487451804169 0 -0.022853727010698481 0.0034500597331742593 0 -0.022272286890724101 0.0037294264398435844 0 -0.023078362526045934 0.0034610298527608537 0 -0.022392639411483711 0.0035877487451804169 0 -0.023219846294485737 0.0031802020425774733 0 -0.023078362526045934 0.0034610298527608537 0 -0.022853727010698481 0.0034500597331742593 0 -0.022392639411483711 0.0035877487451804169 0 -0.022853727010698481 0.0034500597331742593 0 -0.022320056763078088 0.0035875188182649437 0 -0.021873415574985081 0.0037833280244036621 0 -0.022392639411483711 0.0035877487451804169 0 -0.022320056763078088 0.0035875188182649437 0 -0.02228623252914632 0.0034943871235065174 0 -0.021787626622068026 0.0036860308801994197 0 -0.022320056763078088 0.0035875188182649437 0 -0.02228623252914632 0.0034943871235065174 0 -0.022320056763078088 0.0035875188182649437 0 -0.022649382135085307 0.0034678471550103501 0 -0.022853727010698481 0.0034500597331742593 0 -0.022320056763078088 0.0035875188182649437 0 -0.022649382135085307 0.0034678471550103501 0 -0.022886410995553486 0.0033589475164584981 0 -0.022649382135085307 0.0034678471550103501 0 -0.022959411263438499 0.0033899386574672849 0 -0.022886410995553486 0.0033589475164584981 0 -0.023096080178972227 0.0033375242166932273 0 -0.022959411263438499 0.0033899386574672849 0 -0.02314705973343039 0.003295970821258059 0 -0.022886410995553486 0.0033589475164584981 0 -0.023096080178972227 0.0033375242166932273 0 -0.023096080178972227 0.0033375242166932273 0 -0.023224224877572992 0.0032342615916889986 0 -0.022959411263438499 0.0033899386574672849 0 -0.023219846294485737 0.0031802020425774733 0 -0.023224224877572992 0.0032342615916889986 0 -0.022959411263438499 0.0033899386574672849 0 -0.022853727010698481 0.0034500597331742593 0 -0.022649382135085307 0.0034678471550103501 0 -0.022959411263438499 0.0033899386574672849 0 -0.023219846294485737 0.0031802020425774733 0 -0.022853727010698481 0.0034500597331742593 0 -0.022959411263438499 0.0033899386574672849 0 -0.023259975051802165 0.0033046619435871645 0 -0.023369063296086432 0.0032902324080547472 0 -0.023375736601112935 0.0033184448022737503 0 -0.023096080178972227 0.0033375242166932273 0 -0.023224224877572992 0.0032342615916889986 0 -0.023259975051802165 0.0033046619435871645 0 -0.02314705973343039 0.003295970821258059 0 -0.023096080178972227 0.0033375242166932273 0 -0.023259975051802165 0.0033046619435871645 0 -0.02314705973343039 0.003295970821258059 0 -0.023259975051802165 0.0033046619435871645 0 -0.023369063296086432 0.0032902324080547472 0 -0.023277545790149446 0.003231171248287661 0 -0.02314705973343039 0.003295970821258059 0 -0.023369063296086432 0.0032902324080547472 0 -0.023463063151161284 0.0032343991241394437 0 -0.023369063296086432 0.0032902324080547472 0 -0.023573338170668937 0.0032838966038375014 0 -0.023463063151161284 0.0032343991241394437 0 -0.023277545790149446 0.003231171248287661 0 -0.023369063296086432 0.0032902324080547472 0 -0.023646420993901861 0.0032071370116492867 0 -0.023598479177244221 0.0032369445411610264 0 -0.023729147545077257 0.003284492482247122 0 -0.023463063151161284 0.0032343991241394437 0 -0.023573338170668937 0.0032838966038375014 0 -0.023598479177244221 0.0032369445411610264 0 -0.023573338170668937 0.0032838966038375014 0 -0.023598479177244221 0.0032369445411610264 0 -0.023729147545077257 0.003284492482247122 0 -0.024280669954634463 0.0038072085330628073 0 -0.024088108658338145 0.0038019672387534049 0 -0.023729147545077257 0.003284492482247122 0 -0.023689043234633365 0.0033798051215174511 0 -0.024053973588685308 0.0037101149691477725 0 -0.023573338170668937 0.0032838966038375014 0 -0.023729147545077257 0.003284492482247122 0 -0.023689043234633365 0.0033798051215174511 0 -0.023369063296086432 0.0032902324080547472 0 -0.023533322778002432 0.0033399558882607691 0 -0.023375736601112935 0.0033184448022737503 0 -0.023369063296086432 0.0032902324080547472 0 -0.023573338170668937 0.0032838966038375014 0 -0.023533322778002432 0.0033399558882607691 0 -0.023573338170668937 0.0032838966038375014 0 -0.023689043234633365 0.0033798051215174511 0 -0.023533322778002432 0.0033399558882607691 0 -0.023689043234633365 0.0033798051215174511 0 -0.023533322778002432 0.0033399558882607691 0 -0.023626362823333542 0.0034623900320126114 0 -0.023626362823333542 0.0034623900320126114 0 -0.023481582455774308 0.0035695360604504857 0 -0.023375736601112935 0.0033184448022737503 0 -0.023626362823333542 0.0034623900320126114 0 -0.024053973588685308 0.0037101149691477725 0 -0.023481582455774308 0.0035695360604504857 0 -0.023533322778002432 0.0033399558882607691 0 -0.023626362823333542 0.0034623900320126114 0 -0.023375736601112935 0.0033184448022737503 0 -0.024053973588685308 0.0037101149691477725 0 -0.024147659434093114 0.0038579330309699354 0 -0.024498532506540396 0.0039647038185379024 0 -0.023689043234633365 0.0033798051215174511 0 -0.023626362823333542 0.0034623900320126114 0 -0.024053973588685308 0.0037101149691477725 0 -0.024897952214436529 0.0042822588644037011 0 -0.024053973588685308 0.0037101149691477725 0 -0.024498532506540396 0.0039647038185379024 0 -0.024088602266601214 0.0020535602066218198 0 -0.024135385941913289 0.002019260636694551 0 -0.024144551237274183 0.0019891073755867964 0 -0.024088602266601214 0.0020535602066218198 0 -0.024135385941913289 0.002019260636694551 0 -0.023973439936494638 0.002137564023492937 0 -0.024053973588685308 0.0037101149691477725 0 -0.024147659434093114 0.0038579330309699354 0 -0.023481582455774308 0.0035695360604504857 0 -0.024719486591851518 0.0030106587736577839 0 -0.024563433904244602 0.0016008157150004889 0 -0.024719486591851518 0.0030106587736577839 0 -0.023633832046127786 0.0028530441021966534 0 -0.024088602266601214 0.0020535602066218198 0 -0.023973439936494638 0.002137564023492937 0 -0.024129837517266623 0.0020255998089804186 0 -0.023973439936494638 0.002137564023492937 0 -0.023795452009143306 0.002295561631581902 0 -0.024129837517266623 0.0020255998089804186 0 -0.023973439936494638 0.002137564023492937 0 -0.023795452009143306 0.002295561631581902 0 -0.02342682934093171 0.0028970807005605208 0 -0.023633832046127786 0.0028530441021966534 0 -0.023580999573314877 0.0029019468371344328 0 -0.023259975051802165 0.0033046619435871645 0 -0.023375736601112935 0.0033184448022737503 0 -0.02342682934093171 0.0028970807005605208 0 -0.023481582455774308 0.0035695360604504857 0 -0.023375736601112935 0.0033184448022737503 0 -0.02342682934093171 0.0028970807005605208 0 -0.023224224877572992 0.0032342615916889986 0 -0.023259975051802165 0.0033046619435871645 0 -0.02342682934093171 0.0028970807005605208 0 -0.023477343627501295 0.0027091469604735895 0 -0.02342682934093171 0.0028970807005605208 0 -0.023683989367250136 0.0023508800897411469 0 -0.023795452009143306 0.002295561631581902 0 -0.02342682934093171 0.0028970807005605208 0 -0.023683989367250136 0.0023508800897411469 0 -0.023795452009143306 0.002295561631581902 0 -0.023683989367250136 0.0023508800897411469 0 -0.023970892556194438 0.0020465572502478334 0 -0.023795452009143306 0.002295561631581902 0 -0.023970892556194438 0.0020465572502478334 0 -0.024129837517266623 0.0020255998089804186 0 -0.023970892556194438 0.0020465572502478334 0 -0.024165240810535345 0.0017655650669650058 0 -0.024305299509649131 0.0017372409455396417 0 -0.023970892556194438 0.0020465572502478334 0 -0.024165240810535345 0.0017655650669650058 0 -0.023934441946242873 0.0019148864880273251 0 -0.023683989367250136 0.0023508800897411469 0 -0.023970892556194438 0.0020465572502478334 0 -0.023934441946242873 0.0019148864880273251 0 -0.023907142748754964 0.0017586197921646294 0 -0.023934441946242873 0.0019148864880273251 0 -0.024066313916524393 0.0016473489380499323 0 -0.023934441946242873 0.0019148864880273251 0 -0.024066313916524393 0.0016473489380499323 0 -0.024229007557638921 0.0015742549357737788 0 -0.024229007557638921 0.0015742549357737788 0 -0.024558053208182721 0.0013080334494515141 0 -0.024427653560173505 0.0015414868778617869 0 -0.024165240810535345 0.0017655650669650058 0 -0.024229007557638921 0.0015742549357737788 0 -0.024427653560173505 0.0015414868778617869 0 -0.024165240810535345 0.0017655650669650058 0 -0.023934441946242873 0.0019148864880273251 0 -0.024229007557638921 0.0015742549357737788 0 -0.024229007557638921 0.0015742549357737788 0 -0.024558053208182721 0.0013080334494515141 0 -0.024555549587997216 0.0011874324488176991 0 -0.024229007557638921 0.0015742549357737788 0 -0.024168219201394701 0.0014393773975381577 0 -0.024555549587997216 0.0011874324488176991 0 -0.024066313916524393 0.0016473489380499323 0 -0.024229007557638921 0.0015742549357737788 0 -0.024168219201394701 0.0014393773975381577 0 -0.024944446784861921 0.0010471210003652812 0 -0.024722301386323531 0.0012455896504969099 0 -0.024666282129655517 0.001460545454592532 0 -0.024944446784861921 0.0010471210003652812 0 -0.024722301386323531 0.0012455896504969099 0 -0.024828456879707805 0.00099946182985920532 0 -0.024558053208182721 0.0013080334494515141 0 -0.024722301386323531 0.0012455896504969099 0 -0.024427653560173505 0.0015414868778617869 0 -0.024558053208182721 0.0013080334494515141 0 -0.024722301386323531 0.0012455896504969099 0 -0.024828456879707805 0.00099946182985920532 0 -0.024427653560173505 0.0015414868778617869 0 -0.024666282129655517 0.001460545454592532 0 -0.024305299509649131 0.0017372409455396417 0 -0.024722301386323531 0.0012455896504969099 0 -0.024427653560173505 0.0015414868778617869 0 -0.024666282129655517 0.001460545454592532 0 -0.024944446784861921 0.0010471210003652812 0 -0.024666282129655517 0.001460545454592532 0 -0.024967038273613476 0.0013980492007682377 0 -0.024666282129655517 0.001460545454592532 0 -0.024519532586531542 0.0016388192461565185 0 -0.024967038273613476 0.0013980492007682377 0 -0.024519532586531542 0.0016388192461565185 0 -0.024305299509649131 0.0017372409455396417 0 -0.024129837517266623 0.0020255998089804186 0 -0.024165240810535345 0.0017655650669650058 0 -0.024427653560173505 0.0015414868778617869 0 -0.024305299509649131 0.0017372409455396417 0 -0.024666282129655517 0.001460545454592532 0 -0.024519532586531542 0.0016388192461565185 0 -0.024305299509649131 0.0017372409455396417 0 -0.023970892556194438 0.0020465572502478334 0 -0.024305299509649131 0.0017372409455396417 0 -0.024129837517266623 0.0020255998089804186 0 -0.024486299975632488 0.0017582968658391223 0 -0.024563433904244602 0.0016008157150004889 0 -0.024088602266601214 0.0020535602066218198 0 -0.024129837517266623 0.0020255998089804186 0 -0.024144551237274183 0.0019891073755867964 0 -0.024519532586531542 0.0016388192461565185 0 -0.024844288688140165 0.0015391681716943756 0 -0.025012125837175894 0.001569411032897359 0 -0.024519532586531542 0.0016388192461565185 0 -0.024129837517266623 0.0020255998089804186 0 -0.024144551237274183 0.0019891073755867964 0 -0.025033230374525171 0.001617286967451239 0 -0.025185115586325312 0.0017347240986404513 0 -0.025012125837175894 0.001569411032897359 0 -0.024953922139803755 0.0015213485381006362 0 -0.024844288688140165 0.0015391681716943756 0 -0.025033230374525171 0.001617286967451239 0 -0.024844288688140165 0.0015391681716943756 0 -0.025033230374525171 0.001617286967451239 0 -0.025012125837175894 0.001569411032897359 0 -0.025185115586325312 0.0017347240986404513 0 -0.025234859925233086 0.0022084388720073939 0 -0.025141852536042918 0.001709172365749499 0 -0.025033230374525171 0.001617286967451239 0 -0.025185115586325312 0.0017347240986404513 0 -0.025141852536042918 0.001709172365749499 0 -0.025185115586325312 0.0017347240986404513 0 -0.025189528625444216 0.0014482559140962914 0 -0.025258099882109943 0.0018800918897501392 0 -0.025185115586325312 0.0017347240986404513 0 -0.025189528625444216 0.0014482559140962914 0 -0.025012125837175894 0.001569411032897359 0 -0.024519532586531542 0.0016388192461565185 0 -0.025012125837175894 0.001569411032897359 0 -0.024967038273613476 0.0013980492007682377 0 -0.025189528625444216 0.0014482559140962914 0 -0.025012125837175894 0.001569411032897359 0 -0.024967038273613476 0.0013980492007682377 0 -0.024944446784861921 0.0010471210003652812 0 -0.024967038273613476 0.0013980492007682377 0 -0.025141279122500575 0.0010184127675708116 0 -0.025189528625444216 0.0014482559140962914 0 -0.024967038273613476 0.0013980492007682377 0 -0.025141279122500575 0.0010184127675708116 0 -0.025189528625444216 0.0014482559140962914 0 -0.025141279122500575 0.0010184127675708116 0 -0.025206709923857831 0.0011225321679955533 0 -0.025141279122500575 0.0010184127675708116 0 -0.025179126619767237 0.0004866631723121901 0 -0.025079552994997211 0.00062838662511107779 0 -0.024944446784861921 0.0010471210003652812 0 -0.025141279122500575 0.0010184127675708116 0 -0.025079552994997211 0.00062838662511107779 0 -0.024999533385964653 0.00034475538076093122 0 -0.025179126619767237 0.0004866631723121901 0 -0.025206709923857831 0.0011225321679955533 0 -0.025141279122500575 0.0010184127675708116 0 -0.025179126619767237 0.0004866631723121901 0 -0.025206709923857831 0.0011225321679955533 0 -0.024999533385964653 0.00034475538076093122 0 -0.025206709923857831 0.0011225321679955533 0 -0.024999509050562817 0.0017200863478874365 0 -0.025206709923857831 0.0011225321679955533 0 -0.024999509050562817 0.0017200863478874365 0 -0.025258099882109943 0.0018800918897501392 0 -0.025189528625444216 0.0014482559140962914 0 -0.025206709923857831 0.0011225321679955533 0 -0.025258099882109943 0.0018800918897501392 0 -0.025185115586325312 0.0017347240986404513 0 -0.025258099882109943 0.0018800918897501392 0 -0.025234859925233086 0.0022084388720073939 0 -0.025258099882109943 0.0018800918897501392 0 -0.024999854162693475 0.0030928576289654111 0 -0.025234859925233086 0.0022084388720073939 0 -0.024999509050562817 0.0017200863478874365 0 -0.025258099882109943 0.0018800918897501392 0 -0.024999854162693475 0.0030928576289654111 0 -0.024999859922648266 0.003095051973928353 0 -0.025231570009683586 0.0029853193544320525 0 -0.02499979580769373 0.0030962621044039319 0 -0.02533762196558426 0.0040304282512612505 0 -0.024999849960053357 0.0043924802660875268 0 -0.02499979580769373 0.0030962621044039319 0 -0.02533762196558426 0.0040304282512612505 0 -0.025478352708050052 0.0037844562147443537 0 -0.02533762196558426 0.0040304282512612505 0 -0.024999849960053357 0.0043924802660875268 0 -0.02538504212649513 0.0045618055278596513 0 -0.02533762196558426 0.0040304282512612505 0 -0.02538504212649513 0.0045618055278596513 0 -0.025492276019979821 0.0041972059469286699 0 -0.02538504212649513 0.0045618055278596513 0 -0.025492276019979821 0.0041972059469286699 0 -0.025444036219571375 0.0045167464706436563 0 -0.025492276019979821 0.0041972059469286699 0 -0.025478352708050052 0.0037844562147443537 0 -0.025574330340738857 0.0040968286956377924 0 -0.02533762196558426 0.0040304282512612505 0 -0.025492276019979821 0.0041972059469286699 0 -0.025478352708050052 0.0037844562147443537 0 -0.025231570009683586 0.0029853193544320525 0 -0.025457883053761812 0.0029052591053308615 0 -0.025574330340738857 0.0040968286956377924 0 -0.025607011816001325 0.0042570720036424507 0 -0.025526939820469996 0.0043175482781404092 0 -0.025492276019979821 0.0041972059469286699 0 -0.025574330340738857 0.0040968286956377924 0 -0.025526939820469996 0.0043175482781404092 0 -0.024953922139803755 0.0015213485381006362 0 -0.025033230374525171 0.001617286967451239 0 -0.025141852536042918 0.001709172365749499 0 -0.024719486591851518 0.0030106587736577839 0 -0.025457883053761812 0.0029052591053308615 0 -0.025737236642469262 0.0041652054619739321 0 -0.025574330340738857 0.0040968286956377924 0 -0.025607011816001325 0.0042570720036424507 0 -0.025737236642469262 0.0041652054619739321 0 -0.025607011816001325 0.0042570720036424507 0 -0.025588493043575682 0.0044380028938091004 0 -0.024719486591851518 0.0030106587736577839 0 -0.025043007979161081 0.0043590410631257218 0 -0.025607011816001325 0.0042570720036424507 0 -0.025588493043575682 0.0044380028938091004 0 -0.025526939820469996 0.0043175482781404092 0 -0.025588493043575682 0.0044380028938091004 0 -0.025526939820469996 0.0043175482781404092 0 -0.0254177544913885 0.0045201762611847274 0 -0.025526939820469996 0.0043175482781404092 0 -0.0254177544913885 0.0045201762611847274 0 -0.025444036219571375 0.0045167464706436563 0 -0.025492276019979821 0.0041972059469286699 0 -0.025526939820469996 0.0043175482781404092 0 -0.025444036219571375 0.0045167464706436563 0 -0.0254177544913885 0.0045201762611847274 0 -0.025349351735295542 0.0046239005764015665 0 -0.025444036219571375 0.0045167464706436563 0 -0.0254177544913885 0.0045201762611847274 0 -0.025349351735295542 0.0046239005764015665 0 -0.025137512784939222 0.0044876047757559726 0 -0.025588493043575682 0.0044380028938091004 0 -0.0254177544913885 0.0045201762611847274 0 -0.025137512784939222 0.0044876047757559726 0 -0.024897952214436529 0.0042822588644037011 0 -0.024498532506540396 0.0039647038185379024 0 -0.025137512784939222 0.0044876047757559726 0 -0.025043007979161081 0.0043590410631257218 0 -0.025144070015870414 0.0043135660917827503 0 -0.024417461340224132 0.0039087837975808745 0 -0.024280669954634463 0.0038072085330628073 0 -0.025146305137673155 0.0044760243951912394 0 -0.024897952214436529 0.0042822588644037011 0 -0.025137512784939222 0.0044876047757559726 0 -0.025190702793004404 0.0044823159956340454 0 -0.025244885630314663 0.0045356716537838177 0 -0.025137512784939222 0.0044876047757559726 0 -0.025244885630314663 0.0045356716537838177 0 -0.025349351735295542 0.0046239005764015665 0 -0.025346189260969303 0.0047615550975452529 0 -0.025244885630314663 0.0045356716537838177 0 -0.025349351735295542 0.0046239005764015665 0 -0.025137512784939222 0.0044876047757559726 0 -0.025414223213671528 0.0045554046169230073 0 -0.025244885630314663 0.0045356716537838177 0 -0.025346189260969303 0.0047615550975452529 0 -0.025604348117930168 0.0056079888360044336 0 -0.025304947233106122 0.0051370449054857249 0 -0.025916569224292939 0.0066828623496871502 0 -0.024999922054083107 0.0056895812478454299 0 -0.025263458862061296 0.0051396654387706646 0 -0.025414223213671528 0.0045554046169230073 0 -0.025346189260969303 0.0047615550975452529 0 -0.025263458862061296 0.0051396654387706646 0 -0.024999849960053357 0.0043924802660875268 0 -0.024999922054083107 0.0056895812478454299 0 -0.025263458862061296 0.0051396654387706646 0 -0.024999849960053357 0.0043924802660875268 0 -0.02538504212649513 0.0045618055278596513 0 -0.025263458862061296 0.0051396654387706646 0 -0.025346189260969303 0.0047615550975452529 0 -0.025263458862061296 0.0051396654387706646 0 -0.025346184894941125 0.0048368876451974022 0 -0.02538504212649513 0.0045618055278596513 0 -0.025263458862061296 0.0051396654387706646 0 -0.025346184894941125 0.0048368876451974022 0 -0.02538504212649513 0.0045618055278596513 0 -0.025384224067272546 0.0046970123666891742 0 -0.025346184894941125 0.0048368876451974022 0 -0.02538504212649513 0.0045618055278596513 0 -0.025444036219571375 0.0045167464706436563 0 -0.025384224067272546 0.0046970123666891742 0 -0.025349351735295542 0.0046239005764015665 0 -0.025346189260969303 0.0047615550975452529 0 -0.025384224067272546 0.0046970123666891742 0 -0.025349351735295542 0.0046239005764015665 0 -0.025444036219571375 0.0045167464706436563 0 -0.025384224067272546 0.0046970123666891742 0 -0.025346189260969303 0.0047615550975452529 0 -0.025384224067272546 0.0046970123666891742 0 -0.025346184894941125 0.0048368876451974022 0 -0.0044554041681099249 0.010076575666962179 0 -0.0045920873924596706 0.010556648459667464 0 -0.0038406041235181493 0.010446856744977197 0 -0.0044554041681099249 0.010076575666962179 0 -0.003838559775502101 0.0097942416120066749 0 -0.0050577043740494274 0.0094647814564547596 0 -0.0044554041681099249 0.010076575666962179 0 -0.0050577043740494274 0.0094647814564547596 0 -0.0050731294566507138 0.010074085242634024 0 -0.0044554041681099249 0.010076575666962179 0 -0.0050731294566507138 0.010074085242634024 0 -0.0045920873924596706 0.010556648459667464 0 -0.0044554041681099249 0.010076575666962179 0 -0.003838559775502101 0.0097942416120066749 0 -0.0038406041235181493 0.010446856744977197 0 -0.003838559775502101 0.0097942416120066749 0 -0.0038406041235181493 0.010446856744977197 0 -0.0032984237974234038 0.010363865088974899 0 -0.0043177578664892486 0.011309184108540794 0 -0.0034844342593319823 0.010258275284989614 0 -0.0041681774527395259 0.010135959594835464 0 -0.0043177578664892486 0.011309184108540794 0 -0.005808257035103747 0.011048722745755283 0 -0.0041681774527395259 0.010135959594835464 0 -0.0042899937355820256 0.010522257332474496 0 -0.0049445416436047886 0.010946168044136267 0 -0.0043177578664892486 0.011309184108540794 0 -0.006027205229520308 0.011933482916551722 0 -0.005808257035103747 0.011048722745755283 0 -0.0067016096712354204 0.012463539289523927 0 -0.0063649638876848245 0.01228205743390785 0 -0.006027205229520308 0.011933482916551722 0 -0.0067066125999110642 0.012494035390154597 0 -0.005808257035103747 0.011048722745755283 0 -0.0049445416436047886 0.010946168044136267 0 -0.0093248495165761513 0.0086698632147597134 0 -0.0067066125999110642 0.012494035390154597 0 -0.0066602064767887848 0.012278495511199054 0 -0.006606243163902549 0.013482399649064955 0 -0.015415558531280054 0.0043846477422702411 0 -0.015394336923931001 0.0045714575372033037 0 -0.015393604232712212 0.0044423049793916808 0 -0.006027205229520308 0.011933482916551722 0 -0.0067066125999110642 0.012494035390154597 0 -0.0066602064767887848 0.012278495511199054 0 -0.0093248495165761513 0.0086698632147597134 0 -0.011251748495836534 0.0088296403877850919 0 -0.0050577043740494274 0.0094647814564547596 0 -0.0063848066499744838 0.0093663495318137991 0 -0.0057132678147445541 0.0098417010099082578 0 -0.0093248495165761513 0.0086698632147597134 0 -0.012043071477166557 0.0068754265933779106 0 -0.0063848066499744838 0.0093663495318137991 0 -0.0061097302965885045 0.0098829712032058314 0 -0.0064748373168435867 0.010048995022739629 0 -0.0063848066499744838 0.0093663495318137991 0 -0.0057132678147445541 0.0098417010099082578 0 -0.0061097302965885045 0.0098829712032058314 0 -0.0057132678147445541 0.0098417010099082578 0 -0.0061097302965885045 0.0098829712032058314 0 -0.0058733412434077998 0.010260100936014992 0 -0.0061097302965885045 0.0098829712032058314 0 -0.0058733412434077998 0.010260100936014992 0 -0.0064748373168435867 0.010048995022739629 0 -0.0050577043740494274 0.0094647814564547596 0 -0.0057132678147445541 0.0098417010099082578 0 -0.0050731294566507138 0.010074085242634024 0 -0.0057132678147445541 0.0098417010099082578 0 -0.0053376541723595709 0.010489326934973023 0 -0.0058733412434077998 0.010260100936014992 0 -0.0057132678147445541 0.0098417010099082578 0 -0.0050731294566507138 0.010074085242634024 0 -0.0053376541723595709 0.010489326934973023 0 -0.0053376541723595709 0.010489326934973023 0 -0.0056751738504324011 0.011147004786910521 0 -0.0048703303748479443 0.010997227339676003 0 -0.0050731294566507138 0.010074085242634024 0 -0.0053376541723595709 0.010489326934973023 0 -0.0045920873924596706 0.010556648459667464 0 -0.0053376541723595709 0.010489326934973023 0 -0.0058733412434077998 0.010260100936014992 0 -0.0056751738504324011 0.011147004786910521 0 -0.0053376541723595709 0.010489326934973023 0 -0.0048703303748479443 0.010997227339676003 0 -0.0045920873924596706 0.010556648459667464 0 -0.0058733412434077998 0.010260100936014992 0 -0.0056751738504324011 0.011147004786910521 0 -0.0064748373168435867 0.010048995022739629 0 -0.010256366918672625 0.0066993219630075941 0 -0.012043071477166557 0.0068754265933779106 0 -0.014863822472908406 0.0043584898276093744 0 -0.014847383455609504 0.0043572756559016965 0 -0.014987579048357801 0.0043148682357586846 0 -0.014863822472908406 0.0043584898276093744 0 -0.014803887896927588 0.0044042800124211561 0 -0.014847383455609504 0.0043572756559016965 0 -0.014889626798304977 0.0043665128265480482 0 -0.014781349303022048 0.0043427133880553984 0 -0.014668244736184485 0.0044320236385591225 0 -0.014863822472908406 0.0043584898276093744 0 -0.014889626798304977 0.0043665128265480482 0 -0.014987579048357801 0.0043148682357586846 0 -0.015583935536915641 0.0035979757886608547 0 -0.010256366918672625 0.0066993219630075941 0 -0.014863822472908406 0.0043584898276093744 0 -0.014889626798304977 0.0043665128265480482 0 -0.014781349303022048 0.0043427133880553984 0 -0.0056751738504324011 0.011147004786910521 0 -0.0049990955019886254 0.011596368294054001 0 -0.0048703303748479443 0.010997227339676003 0 -0.010256366918672625 0.0066993219630075941 0 -0.0039297067254898815 0.0067499653679306106 0 -0.0088130807743156663 0.004994621099811236 0 -0.0072619164828805396 0.0060739263134867386 0 -0.0079228484206740855 0.0063009880568068071 0 -0.010256366918672625 0.0066993219630075941 0 -0.0083275694478016447 0.0021270525965749864 0 -0.0049990955019886254 0.011596368294054001 0 -0.0048703303748479443 0.010997227339676003 0 -0.0038644323890973807 0.011164909137427029 0 -0.002227107839344301 0.010312915252212743 0 -0.0025845812690005795 0.010508266669517562 0 -0.0024102451199225121 0.01019574724384862 0 -0.0039297067254898815 0.0067499653679306106 0 -0.0033060476593236385 0.011401556971998177 0 -0.0048703303748479443 0.010997227339676003 0 -0.0045920873924596706 0.010556648459667464 0 -0.0038644323890973807 0.011164909137427029 0 -0.0045920873924596706 0.010556648459667464 0 -0.0038406041235181493 0.010446856744977197 0 -0.0038644323890973807 0.011164909137427029 0 -0.0025845812690005795 0.010508266669517562 0 -0.0028474105089630955 0.010428958001414385 0 -0.0026991698989819934 0.010241072055486806 0 -0.0033060476593236385 0.011401556971998177 0 -0.0029417304975030748 0.010516097161962177 0 -0.0025845812690005795 0.010508266669517562 0 -0.0028474105089630955 0.010428958001414385 0 -0.0029869474781502674 0.010646262694104082 0 -0.0028474105089630955 0.010428958001414385 0 -0.0029190775681905441 0.010470482342240069 0 -0.0029869474781502674 0.010646262694104082 0 -0.0029190775681905441 0.010470482342240069 0 -0.0029869474781502674 0.010646262694104082 0 -0.0028962862981917596 0.010509451984139972 0 -0.0029869474781502674 0.010646262694104082 0 -0.0032984237974234038 0.010363865088974899 0 -0.0029748683901989698 0.010461202227641662 0 -0.0029869474781502674 0.010646262694104082 0 -0.0028962862981917596 0.010509451984139972 0 -0.0029748683901989698 0.010461202227641662 0 -0.0038406041235181493 0.010446856744977197 0 -0.0038644323890973807 0.011164909137427029 0 -0.0029869474781502674 0.010646262694104082 0 -0.0038406041235181493 0.010446856744977197 0 -0.0029869474781502674 0.010646262694104082 0 -0.0032984237974234038 0.010363865088974899 0 -0.0027371408243689879 0.010426774034780555 0 -0.0028524476488599685 0.010462875232035257 0 -0.0028518935888260342 0.010432333631846888 0 -0.0027371408243689879 0.010426774034780555 0 -0.0028524476488599685 0.010462875232035257 0 -0.0027894006375750497 0.010437155412545146 0 0.0037241150453927352 0.0073149283258953828 0 0.0029879760794348023 0.0077830698929356214 0 -0.0029190775681905441 0.010470482342240069 0 -0.0028524476488599685 0.010462875232035257 0 -0.0028962862981917596 0.010509451984139972 0 -0.0028524476488599685 0.010462875232035257 0 -0.0028962862981917596 0.010509451984139972 0 -0.0028158774412649404 0.0104584941175054 0 -0.0028962862981917596 0.010509451984139972 0 -0.0028158774412649404 0.0104584941175054 0 -0.0029748683901989698 0.010461202227641662 0 -0.0028524476488599685 0.010462875232035257 0 -0.0028158774412649404 0.0104584941175054 0 -0.0027894006375750497 0.010437155412545146 0 0.0029152398609776429 0.0079582012039027521 0 0.0029879760794348023 0.0077830698929356214 0 0.0086404912686539326 0.0053266290097420867 0 0.0088490660720517648 0.0053387046536057343 0 0.0086456427850757321 0.0051645566975316547 0 0.0088490660720517648 0.0053387046536057343 0 0.0091529767585501482 0.0059546783784515623 0 0.0087706615656694773 0.0056963230190786619 0 0.0086404912686539326 0.0053266290097420867 0 0.0088490660720517648 0.0053387046536057343 0 0.0087706615656694773 0.0056963230190786619 0 -0.0028158774412649404 0.0104584941175054 0 -0.0028957043790092574 0.01035928946198939 0 -0.0029748683901989698 0.010461202227641662 0 0.0029152398609776429 0.0079582012039027521 0 0.0037597942015585323 0.0077776004574709656 0 0.0085586828052391581 0.0059806984908390834 0 0.0087706615656694773 0.0056963230190786619 0 0.0089039787604527475 0.0062492663056647798 0 0.0091529767585501482 0.0059546783784515623 0 0.0087706615656694773 0.0056963230190786619 0 0.0089039787604527475 0.0062492663056647798 0 -0.003838559775502101 0.0097942416120066749 0 -0.0032984237974234038 0.010363865088974899 0 -0.0032031385707891602 0.010414243606668299 0 -0.0032984237974234038 0.010363865088974899 0 -0.0029748683901989698 0.010461202227641662 0 -0.0032031385707891602 0.010414243606668299 0 -0.0028957043790092574 0.01035928946198939 0 -0.0032031385707891602 0.010414243606668299 0 -0.0034844342593319823 0.010258275284989614 0 -0.0028957043790092574 0.01035928946198939 0 -0.0029748683901989698 0.010461202227641662 0 -0.0032031385707891602 0.010414243606668299 0 -0.0042899937355820256 0.010522257332474496 0 -0.0032605102535200317 0.010444687639407639 0 -0.0043177578664892486 0.011309184108540794 0 -0.0032031385707891602 0.010414243606668299 0 -0.0034844342593319823 0.010258275284989614 0 -0.0015804674782093076 0.010984453105268974 0 -0.0064926083530597251 0.012366259124443883 0 -0.0034844342593319823 0.010258275284989614 0 -0.0031733306372277049 0.009869982892079774 0 -0.0041681774527395259 0.010135959594835464 0 0.0037597942015585323 0.0077776004574709656 0 -0.0015804674782093076 0.010984453105268974 0 -0.0028957043790092574 0.01035928946198939 0 -0.0034844342593319823 0.010258275284989614 0 -0.0031733306372277049 0.009869982892079774 0 -0.0053547240909779126 0.016227805178233298 0 -0.0058397409672112819 0.015729452455887666 0 -0.0050536285583165511 0.015761936886875657 0 -0.007158115740344295 0.014180673886482113 0 -0.0071304376970403663 0.014207876183520844 0 -0.0072136959463460588 0.014143690018680172 0 -0.0015804674782093076 0.010984453105268974 0 -0.0065389605024662586 0.015241932406954119 0 -0.007158115740344295 0.014180673886482113 0 -0.0071507643755573894 0.014288290566120894 0 -0.0071304376970403663 0.014207876183520844 0 0.0086222579382097229 0.006482958016194979 0 0.0089039787604527475 0.0062492663056647798 0 0.0089213046090095595 0.0066879252518493321 0 0.0085586828052391581 0.0059806984908390834 0 0.0086222579382097229 0.006482958016194979 0 0.0089039787604527475 0.0062492663056647798 0 0.0091529767585501482 0.0059546783784515623 0 0.0093269123638009162 0.0065206423738928222 0 0.0089039787604527475 0.0062492663056647798 0 0.0093269123638009162 0.0065206423738928222 0 0.0089039787604527475 0.0062492663056647798 0 0.0089213046090095595 0.0066879252518493321 0 -0.0053547240909779126 0.016227805178233298 0 -0.0046943009996688271 0.015939035868495436 0 -0.0050536285583165511 0.015761936886875657 0 -0.0015804674782093076 0.010984453105268974 0 0.0027319368909063044 0.011370582260908412 0 0.0022525656367925902 0.010992150050256349 0 0.0027319368909063044 0.011370582260908412 0 0.0086222579382097229 0.006482958016194979 0 0.0083729485403885532 0.0070711265713467621 0 0.0089213046090095595 0.0066879252518493321 0 -0.0046584118523783644 0.015894216378965723 0 -0.0046943009996688271 0.015939035868495436 0 -0.0046372447935056496 0.015804966303881129 0 -0.0046372447935056496 0.015804966303881129 0 -0.0050536285583165511 0.015761936886875657 0 -0.0049994293642816106 0.01523838442621441 0 -0.0046943009996688271 0.015939035868495436 0 -0.0046372447935056496 0.015804966303881129 0 -0.0050536285583165511 0.015761936886875657 0 -0.0044738235798303504 0.016304018839493131 0 -0.0046372447935056496 0.015804966303881129 0 -0.0049994293642816106 0.01523838442621441 0 -0.0065389605024662586 0.015241932406954119 0 -0.0067124539718051547 0.014584617982037067 0 -0.0071507643755573894 0.014288290566120894 0 -0.0066803813765446618 0.01462605497980032 0 -0.0071304376970403663 0.014207876183520844 0 -0.0058397409672112819 0.015729452455887666 0 -0.0057996324729727355 0.014650336250436486 0 -0.0066803813765446618 0.01462605497980032 0 -0.0058397409672112819 0.015729452455887666 0 -0.0050536285583165511 0.015761936886875657 0 -0.0049994293642816106 0.01523838442621441 0 -0.0058397409672112819 0.015729452455887666 0 -0.0049994293642816106 0.01523838442621441 0 -0.0057996324729727355 0.014650336250436486 0 -0.0063362743022111158 0.01387343476207197 0 -0.0057996324729727355 0.014650336250436486 0 -0.0066803813765446618 0.01462605497980032 0 -0.0063362743022111158 0.01387343476207197 0 -0.0066803813765446618 0.01462605497980032 0 -0.0071891285192987441 0.013868741678380318 0 -0.0066803813765446618 0.01462605497980032 0 -0.0071891285192987441 0.013868741678380318 0 -0.0071388000056928635 0.014297062036282128 0 -0.0071891285192987441 0.013868741678380318 0 -0.0071388000056928635 0.014297062036282128 0 -0.0075640994537540043 0.013930953206741715 0 -0.0078943132835936573 0.013156065108729055 0 -0.0071891285192987441 0.013868741678380318 0 -0.0075640994537540043 0.013930953206741715 0 -0.0071388000056928635 0.014297062036282128 0 -0.0073038285780036641 0.014185943479543797 0 -0.0074697803794174121 0.014232384178523591 0 -0.0071388000056928635 0.014297062036282128 0 -0.0074697803794174121 0.014232384178523591 0 -0.0075640994537540043 0.013930953206741715 0 -0.0066803813765446618 0.01462605497980032 0 -0.0071388000056928635 0.014297062036282128 0 -0.0071304376970403663 0.014207876183520844 0 -0.0071388000056928635 0.014297062036282128 0 -0.0071304376970403663 0.014207876183520844 0 -0.0073038285780036641 0.014185943479543797 0 -0.0071304376970403663 0.014207876183520844 0 -0.0073038285780036641 0.014185943479543797 0 -0.0073493666786987773 0.014047264018033478 0 -0.0071304376970403663 0.014207876183520844 0 -0.0073493666786987773 0.014047264018033478 0 -0.0072136959463460588 0.014143690018680172 0 -0.0073038285780036641 0.014185943479543797 0 -0.0073493666786987773 0.014047264018033478 0 -0.0074277584131842277 0.013958784049089111 0 -0.0073038285780036641 0.014185943479543797 0 -0.0074277584131842277 0.013958784049089111 0 -0.0074697803794174121 0.014232384178523591 0 -0.0073493666786987773 0.014047264018033478 0 -0.007504093821134857 0.013638886922108065 0 -0.0072136959463460588 0.014143690018680172 0 -0.0073493666786987773 0.014047264018033478 0 -0.007504093821134857 0.013638886922108065 0 -0.0074277584131842277 0.013958784049089111 0 -0.0063649638876848245 0.01228205743390785 0 -0.0064926083530597251 0.012366259124443883 0 -0.0067066125999110642 0.012494035390154597 0 -0.006606243163902549 0.013482399649064955 0 -0.0071312063227553773 0.01348482309433454 0 -0.006606243163902549 0.013482399649064955 0 -0.0071312063227553773 0.01348482309433454 0 -0.0071752370024633022 0.013899440500838165 0 -0.0067066125999110642 0.012494035390154597 0 -0.007504093821134857 0.013638886922108065 0 -0.0071312063227553773 0.01348482309433454 0 -0.007504093821134857 0.013638886922108065 0 -0.0071312063227553773 0.01348482309433454 0 -0.0074277584131842277 0.013958784049089111 0 -0.0071312063227553773 0.01348482309433454 0 -0.0074277584131842277 0.013958784049089111 0 -0.0071752370024633022 0.013899440500838165 0 -0.0074277584131842277 0.013958784049089111 0 -0.0074907535196028861 0.014282017197201796 0 -0.0071752370024633022 0.013899440500838165 0 -0.0074277584131842277 0.013958784049089111 0 -0.0074907535196028861 0.014282017197201796 0 -0.0074697803794174121 0.014232384178523591 0 -0.006606243163902549 0.013482399649064955 0 -0.0071752370024633022 0.013899440500838165 0 -0.0069105206083790839 0.014678635017441209 0 -0.015394336923931001 0.0045714575372033037 0 -0.015157194292364132 0.0047824539556387564 0 -0.015286403093996004 0.0046649064067559561 0 -0.011251748495836534 0.0088296403877850919 0 -0.010187319559489757 0.010461190295682012 0 -0.0074907535196028861 0.014282017197201796 0 -0.0071752370024633022 0.013899440500838165 0 -0.0069105206083790839 0.014678635017441209 0 -0.010187319559489757 0.010461190295682012 0 -0.010072475734377374 0.011923816759265028 0 -0.0084014351649160431 0.014277611779285488 0 -0.0084553455724854197 0.014103227466964678 0 -0.0078440534815441259 0.014173336188961537 0 -0.0065427447833856945 0.014737228011304422 0 -0.010187319559489757 0.010461190295682012 0 -0.0074907535196028861 0.014282017197201796 0 -0.0084014351649160431 0.014277611779285488 0 -0.0078440534815441259 0.014173336188961537 0 -0.0084553455724854197 0.014103227466964678 0 -0.0078440534815441259 0.014173336188961537 0 -0.0081118885285935 0.013686239844741533 0 -0.0074907535196028861 0.014282017197201796 0 -0.0074697803794174121 0.014232384178523591 0 -0.0078440534815441259 0.014173336188961537 0 -0.0078440534815441259 0.014173336188961537 0 -0.0075640994537540043 0.013930953206741715 0 -0.0081118885285935 0.013686239844741533 0 -0.0074697803794174121 0.014232384178523591 0 -0.0078440534815441259 0.014173336188961537 0 -0.0075640994537540043 0.013930953206741715 0 -0.0078943132835936573 0.013156065108729055 0 -0.0075640994537540043 0.013930953206741715 0 -0.0081118885285935 0.013686239844741533 0 -0.0078943132835936573 0.013156065108729055 0 -0.0081118885285935 0.013686239844741533 0 -0.0087456321690854849 0.013045264654956236 0 -0.0088553617230537045 0.013522674846300986 0 -0.0081118885285935 0.013686239844741533 0 -0.0087456321690854849 0.013045264654956236 0 -0.0084553455724854197 0.014103227466964678 0 -0.0088553617230537045 0.013522674846300986 0 -0.0081118885285935 0.013686239844741533 0 -0.0084553455724854197 0.014103227466964678 0 -0.0088553617230537045 0.013522674846300986 0 -0.010275771689886493 0.013273446516314125 0 -0.0088553617230537045 0.013522674846300986 0 -0.0087456321690854849 0.013045264654956236 0 -0.010275771689886493 0.013273446516314125 0 -0.013257703973527341 0.012273450419343289 0 -0.011111309668490799 0.013286302664760347 0 -0.013283642436758064 0.013904532559401191 0 -0.0096004500181350733 0.013414302019242149 0 -0.014693757034873332 0.0096119711043838544 0 -0.015157194292364132 0.0047824539556387564 0 -0.015237491555038932 0.0047000222666267258 0 -0.015207130342374506 0.0046464390050840708 0 -0.0085167424681562368 0.014327841843851084 0 -0.0084553455724854197 0.014103227466964678 0 -0.010275771689886493 0.013273446516314125 0 -0.010187319559489757 0.010461190295682012 0 -0.014693757034873332 0.0096119711043838544 0 -0.015237491555038932 0.0047000222666267258 0 -0.015276089493189659 0.0046538164707536356 0 -0.015207130342374506 0.0046464390050840708 0 -0.015309466173620315 0.0046518871513780528 0 -0.015237491555038932 0.0047000222666267258 0 -0.015276089493189659 0.0046538164707536356 0 -0.015309466173620315 0.0046518871513780528 0 -0.015237491555038932 0.0047000222666267258 0 -0.015289477665801781 0.0046600085002109102 0 -0.015157194292364132 0.0047824539556387564 0 -0.015237491555038932 0.0047000222666267258 0 -0.015286403093996004 0.0046649064067559561 0 -0.015276089493189659 0.0046538164707536356 0 -0.015207130342374506 0.0046464390050840708 0 -0.015495472895701353 0.0045386691873917206 0 -0.015397440143328891 0.0046280627814092217 0 -0.015276089493189659 0.0046538164707536356 0 -0.015495472895701353 0.0045386691873917206 0 -0.015397440143328891 0.0046280627814092217 0 -0.015495472895701353 0.0045386691873917206 0 -0.015558271359899836 0.0046244301297421603 0 -0.015309466173620315 0.0046518871513780528 0 -0.015397440143328891 0.0046280627814092217 0 -0.015276089493189659 0.0046538164707536356 0 -0.018792915512980062 0.008328267804694818 0 -0.020867953484144317 0.0067749508364011862 0 -0.018401519659459936 0.0056963216412546074 0 -0.014693757034873332 0.0096119711043838544 0 -0.017209951826033767 0.0052211786945019533 0 -0.014857213975051693 0.012518905412215424 0 -0.013257703973527341 0.012273450419343289 0 -0.013283642436758064 0.013904532559401191 0 -0.016947285545917855 0.010245501434758336 0 -0.014693757034873332 0.0096119711043838544 0 -0.017191631868535787 0.007119118731693754 0 -0.015886753697811059 0.004737585234109499 0 -0.018401519659459936 0.0056963216412546074 0 -0.018792915512980062 0.008328267804694818 0 -0.017191631868535787 0.007119118731693754 0 -0.018401519659459936 0.0056963216412546074 0 -0.015698666705857726 0.0073415032262928353 0 -0.015886753697811059 0.004737585234109499 0 -0.014746319973742735 0.005304167529475841 0 -0.017191631868535787 0.007119118731693754 0 -0.015698666705857726 0.0073415032262928353 0 -0.015886753697811059 0.004737585234109499 0 -0.015886753697811059 0.004737585234109499 0 -0.014746319973742735 0.005304167529475841 0 -0.015389168698013128 0.0044011355880798275 0 -0.015886753697811059 0.004737585234109499 0 -0.015558271359899836 0.0046244301297421603 0 -0.015598354956746056 0.0044428588120743124 0 -0.015920400262473249 0.0047321642517020807 0 -0.017209951826033767 0.0052211786945019533 0 -0.015886753697811059 0.004737585234109499 0 -0.015495472895701353 0.0045386691873917206 0 -0.015558271359899836 0.0046244301297421603 0 -0.015558271359899836 0.0046244301297421603 0 -0.015515986151568932 0.0045087852537716742 0 -0.015412018623095146 0.0045793271918487316 0 -0.015558271359899836 0.0046244301297421603 0 -0.015515986151568932 0.0045087852537716742 0 -0.015598354956746056 0.0044428588120743124 0 -0.015515986151568932 0.0045087852537716742 0 -0.015598354956746056 0.0044428588120743124 0 -0.015482531669207917 0.004357820012030192 0 -0.015886753697811059 0.004737585234109499 0 -0.015598354956746056 0.0044428588120743124 0 -0.015389168698013128 0.0044011355880798275 0 -0.015598354956746056 0.0044428588120743124 0 -0.015389168698013128 0.0044011355880798275 0 -0.01549837124821025 0.0041758905714111639 0 -0.015598354956746056 0.0044428588120743124 0 -0.015482531669207917 0.004357820012030192 0 -0.01549837124821025 0.0041758905714111639 0 -0.015482531669207917 0.004357820012030192 0 -0.01549837124821025 0.0041758905714111639 0 -0.015431721080145011 0.0042627622748139041 0 -0.015515986151568932 0.0045087852537716742 0 -0.015452811798279393 0.0044715945931244443 0 -0.015482531669207917 0.004357820012030192 0 -0.015452811798279393 0.0044715945931244443 0 -0.015482531669207917 0.004357820012030192 0 -0.015410429644498874 0.004380417569098397 0 -0.015482531669207917 0.004357820012030192 0 -0.015410429644498874 0.004380417569098397 0 -0.015420649120498659 0.0042966978344063404 0 -0.015410429644498874 0.004380417569098397 0 -0.01538655661496699 0.0044103198482581931 0 -0.015380404294383294 0.0043391570132373207 0 -0.015410429644498874 0.004380417569098397 0 -0.015403360853941927 0.0044820416639768405 0 -0.01538655661496699 0.0044103198482581931 0 -0.015452811798279393 0.0044715945931244443 0 -0.015410429644498874 0.004380417569098397 0 -0.015403360853941927 0.0044820416639768405 0 -0.015403360853941927 0.0044820416639768405 0 -0.015372166150698261 0.0045454263864217956 0 -0.015380055543124653 0.0044779532511643504 0 -0.015403360853941927 0.0044820416639768405 0 -0.015380055543124653 0.0044779532511643504 0 -0.01538655661496699 0.0044103198482581931 0 -0.015380055543124653 0.0044779532511643504 0 -0.01538655661496699 0.0044103198482581931 0 -0.01538128578818055 0.0044268863443926009 0 -0.015380055543124653 0.0044779532511643504 0 -0.01538128578818055 0.0044268863443926009 0 -0.015377653951988306 0.0044698664764253803 0 -0.01538128578818055 0.0044268863443926009 0 -0.015377653951988306 0.0044698664764253803 0 -0.015385758526733437 0.0044043820238922017 0 -0.015394336923931001 0.0045714575372033037 0 -0.015377653951988306 0.0044698664764253803 0 -0.015393604232712212 0.0044423049793916808 0 -0.015394336923931001 0.0045714575372033037 0 -0.015377653951988306 0.0044698664764253803 0 -0.015351291411399027 0.0045619634964662262 0 -0.015372166150698261 0.0045454263864217956 0 -0.015380055543124653 0.0044779532511643504 0 -0.015351291411399027 0.0045619634964662262 0 -0.015380055543124653 0.0044779532511643504 0 -0.015377653951988306 0.0044698664764253803 0 -0.015351291411399027 0.0045619634964662262 0 -0.015372166150698261 0.0045454263864217956 0 -0.015351291411399027 0.0045619634964662262 0 -0.015326332416014629 0.0046150219407955478 0 -0.015351291411399027 0.0045619634964662262 0 -0.015326332416014629 0.0046150219407955478 0 -0.015286403093996004 0.0046649064067559561 0 -0.015394336923931001 0.0045714575372033037 0 -0.015351291411399027 0.0045619634964662262 0 -0.015286403093996004 0.0046649064067559561 0 -0.015237491555038932 0.0047000222666267258 0 -0.015286403093996004 0.0046649064067559561 0 -0.015289477665801781 0.0046600085002109102 0 -0.015326332416014629 0.0046150219407955478 0 -0.015286403093996004 0.0046649064067559561 0 -0.015289477665801781 0.0046600085002109102 0 -0.015309466173620315 0.0046518871513780528 0 -0.015326332416014629 0.0046150219407955478 0 -0.015289477665801781 0.0046600085002109102 0 -0.015309466173620315 0.0046518871513780528 0 -0.015397440143328891 0.0046280627814092217 0 -0.015412018623095146 0.0045793271918487316 0 -0.015309466173620315 0.0046518871513780528 0 -0.015326332416014629 0.0046150219407955478 0 -0.015412018623095146 0.0045793271918487316 0 -0.015397440143328891 0.0046280627814092217 0 -0.015558271359899836 0.0046244301297421603 0 -0.015412018623095146 0.0045793271918487316 0 -0.015452811798279393 0.0044715945931244443 0 -0.015403360853941927 0.0044820416639768405 0 -0.015412018623095146 0.0045793271918487316 0 -0.015515986151568932 0.0045087852537716742 0 -0.015452811798279393 0.0044715945931244443 0 -0.015412018623095146 0.0045793271918487316 0 -0.015403360853941927 0.0044820416639768405 0 -0.015372166150698261 0.0045454263864217956 0 -0.015412018623095146 0.0045793271918487316 0 -0.015372166150698261 0.0045454263864217956 0 -0.015326332416014629 0.0046150219407955478 0 -0.015412018623095146 0.0045793271918487316 0 -0.017251487345037005 0.0013405260982019024 0 -0.018039051240342132 0.00060707767012947961 0 -0.01638784000966088 0.00080634492924682236 0 -0.017251487345037005 0.0013405260982019024 0 -0.016384748999915044 0.0017825126236651161 0 -0.017410344949482921 0.002157889792359867 0 -0.017957975328812336 0.0015873021509289591 0 -0.017251487345037005 0.0013405260982019024 0 -0.017410344949482921 0.002157889792359867 0 -0.017957975328812336 0.0015873021509289591 0 -0.017251487345037005 0.0013405260982019024 0 -0.018039051240342132 0.00060707767012947961 0 -0.019266944328618918 0.0020503141292913373 0 -0.019316783070696477 0.0019525830653730164 0 -0.019310816090330564 0.0019922398476475279 0 -0.018982591042960462 0.00076200775442839138 0 -0.015532719365792 0.0047129910563227058 0 -0.019266944328618918 0.0020503141292913373 0 -0.019316783070696477 0.0019525830653730164 0 -0.019233027035091992 0.0020927408130942036 0 -0.019451981432843671 0.0018839775249598818 0 -0.019316783070696477 0.0019525830653730164 0 -0.019310816090330564 0.0019922398476475279 0 -0.017087042634583029 0.0093494999516647876 0 -0.017898178753969193 0.0039928966075485498 0 -0.019280409783188922 0.0020105029059527425 0 -0.019247061490165994 0.00204097709686183 0 -0.019310816090330564 0.0019922398476475279 0 -0.013100493622524113 0.0098274151126531359 0 -0.015136022539052623 0.0025188305795633046 0 -0.018039051240342132 0.00060707767012947961 0 -0.016265800240062338 0.00060142124099283917 0 -0.01638784000966088 0.00080634492924682236 0 -0.018039051240342132 0.00060707767012947961 0 -0.016114337754369101 -0.00032842400736415357 0 -0.016265800240062338 0.00060142124099283917 0 -0.015509059882238179 0.0073049330254764382 0 -0.013882727328492054 0.0064369568668843913 0 -0.013465941836537825 0.0036701425606925219 0 -0.015532719365792 0.0047129910563227058 0 -0.015136022539052623 0.0025188305795633046 0 -0.015136022539052623 0.0025188305795633046 0 -0.015148193154915508 0.0021392235021624648 0 -0.015392047916930498 0.0046567654664956531 0 -0.015522769435199538 0.0041914411466846269 0 -0.015475969732617747 0.0044856049810679515 0 -0.016284245654802361 0.00060006170724177343 0 -0.01638784000966088 0.00080634492924682236 0 -0.016384748999915044 0.0017825126236651161 0 -0.015136022539052623 0.0025188305795633046 0 -0.016021212027241331 0.0030829659845341083 0 -0.017251487345037005 0.0013405260982019024 0 -0.01638784000966088 0.00080634492924682236 0 -0.016384748999915044 0.0017825126236651161 0 -0.015522769435199538 0.0041914411466846269 0 -0.015475969732617747 0.0044856049810679515 0 -0.015695632139750271 0.0040646189299390709 0 -0.015475969732617747 0.0044856049810679515 0 -0.015494354793459689 0.0042725302405583129 0 -0.015695632139750271 0.0040646189299390709 0 -0.015475969732617747 0.0044856049810679515 0 -0.015225169823888796 0.0047723629546018425 0 -0.015494354793459689 0.0042725302405583129 0 -0.015475969732617747 0.0044856049810679515 0 -0.015225169823888796 0.0047723629546018425 0 -0.015360880786133768 0.0046957310283130766 0 -0.015392047916930498 0.0046567654664956531 0 -0.015475969732617747 0.0044856049810679515 0 -0.015360880786133768 0.0046957310283130766 0 -0.015397892072461165 0.0044533593842940606 0 -0.015360880786133768 0.0046957310283130766 0 -0.015226862699783232 0.0047605851891496147 0 -0.015397892072461165 0.0044533593842940606 0 -0.015392047916930498 0.0046567654664956531 0 -0.015360880786133768 0.0046957310283130766 0 -0.01529792136614865 0.0043441165193359955 0 -0.015226862699783232 0.0047605851891496147 0 -0.014746319973742735 0.005304167529475841 0 -0.015397892072461165 0.0044533593842940606 0 -0.01529792136614865 0.0043441165193359955 0 -0.015226862699783232 0.0047605851891496147 0 -0.015225169823888796 0.0047723629546018425 0 -0.015360880786133768 0.0046957310283130766 0 -0.015226862699783232 0.0047605851891496147 0 -0.014111951438171335 0.0081899384401382877 0 -0.015698666705857726 0.0073415032262928353 0 -0.014746319973742735 0.005304167529475841 0 -0.012589336794325371 0.011609461462301246 0 -0.015354751852188608 0.0035496574427994246 0 -0.014111951438171335 0.0081899384401382877 0 -0.011235481036374678 0.0086780846589662782 0 -0.014746319973742735 0.005304167529475841 0 -0.015225169823888796 0.0047723629546018425 0 -0.015226862699783232 0.0047605851891496147 0 -0.014746319973742735 0.005304167529475841 0 -0.015225169823888796 0.0047723629546018425 0 -0.015389168698013128 0.0044011355880798275 0 -0.015494354793459689 0.0042725302405583129 0 -0.015225169823888796 0.0047723629546018425 0 -0.014746319973742735 0.005304167529475841 0 -0.015389168698013128 0.0044011355880798275 0 -0.015389168698013128 0.0044011355880798275 0 -0.015568190908113615 0.0041146318116929929 0 -0.015494354793459689 0.0042725302405583129 0 -0.015389168698013128 0.0044011355880798275 0 -0.015568190908113615 0.0041146318116929929 0 -0.01549837124821025 0.0041758905714111639 0 -0.015568190908113615 0.0041146318116929929 0 -0.01549837124821025 0.0041758905714111639 0 -0.015908127603818507 0.0040097520933918438 0 -0.015568190908113615 0.0041146318116929929 0 -0.01581385602594821 0.0038757634289463636 0 -0.015908127603818507 0.0040097520933918438 0 -0.01581385602594821 0.0038757634289463636 0 -0.01642889811776076 0.003322910869114687 0 -0.015908127603818507 0.0040097520933918438 0 -0.015568190908113615 0.0041146318116929929 0 -0.01581385602594821 0.0038757634289463636 0 -0.015494354793459689 0.0042725302405583129 0 -0.01581385602594821 0.0038757634289463636 0 -0.015494354793459689 0.0042725302405583129 0 -0.015695632139750271 0.0040646189299390709 0 -0.016384748999915044 0.0017825126236651161 0 -0.01642889811776076 0.003322910869114687 0 -0.017410344949482921 0.002157889792359867 0 -0.016021212027241331 0.0030829659845341083 0 -0.016291314474439829 0.003384158011361773 0 -0.015522769435199538 0.0041914411466846269 0 -0.015695632139750271 0.0040646189299390709 0 -0.01642889811776076 0.003322910869114687 0 -0.01581385602594821 0.0038757634289463636 0 -0.015695632139750271 0.0040646189299390709 0 -0.01642889811776076 0.003322910869114687 0 -0.01642889811776076 0.003322910869114687 0 -0.016945963978485176 0.00378744923534414 0 -0.015908127603818507 0.0040097520933918438 0 -0.01832236983330476 0.0033835741126186964 0 -0.017745020468811018 0.0030059723819901526 0 -0.016945963978485176 0.00378744923534414 0 -0.01642889811776076 0.003322910869114687 0 -0.017745020468811018 0.0030059723819901526 0 -0.016945963978485176 0.00378744923534414 0 -0.018374663870685669 0.0021392711599341387 0 -0.017745020468811018 0.0030059723819901526 0 -0.017410344949482921 0.002157889792359867 0 -0.01642889811776076 0.003322910869114687 0 -0.017745020468811018 0.0030059723819901526 0 -0.017410344949482921 0.002157889792359867 0 -0.018374663870685669 0.0021392711599341387 0 -0.017957975328812336 0.0015873021509289591 0 -0.017410344949482921 0.002157889792359867 0 -0.01754307293985528 0.0047577257897176758 0 -0.017861512743887024 0.0039440471710326264 0 -0.016795794224441194 0.0043032422302745395 0 -0.019441700439769879 0.0039263508290291425 0 -0.01754307293985528 0.0047577257897176758 0 -0.017861512743887024 0.0039440471710326264 0 -0.01832236983330476 0.0033835741126186964 0 -0.017861512743887024 0.0039440471710326264 0 -0.016945963978485176 0.00378744923534414 0 -0.016795794224441194 0.0043032422302745395 0 -0.016945963978485176 0.00378744923534414 0 -0.015908127603818507 0.0040097520933918438 0 -0.017861512743887024 0.0039440471710326264 0 -0.016795794224441194 0.0043032422302745395 0 -0.016945963978485176 0.00378744923534414 0 -0.01754307293985528 0.0047577257897176758 0 -0.016795794224441194 0.0043032422302745395 0 -0.016125326258572339 0.0046985475832126535 0 -0.018161099544486806 0.0032946213906379657 0 -0.016477790991753505 0.0032119477702341687 0 -0.017152339737809892 0.0037262040178056843 0 -0.017830559794896412 0.0040007115488843005 0 -0.016345604978092745 0.0039680167663624852 0 -0.016125326258572339 0.0046985475832126535 0 -0.015908127603818507 0.0040097520933918438 0 -0.015686061617386324 0.0042846223461668696 0 -0.016795794224441194 0.0043032422302745395 0 -0.016125326258572339 0.0046985475832126535 0 -0.015908127603818507 0.0040097520933918438 0 -0.01549837124821025 0.0041758905714111639 0 -0.015686061617386324 0.0042846223461668696 0 -0.015431721080145011 0.0042627622748139041 0 -0.01549837124821025 0.0041758905714111639 0 -0.015908127603818507 0.0040097520933918438 0 -0.015686061617386324 0.0042846223461668696 0 -0.015686061617386324 0.0042846223461668696 0 -0.01550229598132077 0.00443414131947217 0 -0.015431721080145011 0.0042627622748139041 0 -0.016345604978092745 0.0039680167663624852 0 -0.015641670409865353 0.0040254975290657498 0 -0.016125326258572339 0.0046985475832126535 0 -0.015686061617386324 0.0042846223461668696 0 -0.01550229598132077 0.00443414131947217 0 -0.016477790991753505 0.0032119477702341687 0 -0.015679635861825775 0.003606152343092783 0 -0.015839608978279584 0.0037756350343335267 0 -0.015839608978279584 0.0037756350343335267 0 -0.015767564868889861 0.0040253438346395326 0 -0.0154844830132999 0.0039838788890287479 0 -0.015839608978279584 0.0037756350343335267 0 -0.015767564868889861 0.0040253438346395326 0 -0.016143671419645081 0.0037959919694464041 0 -0.015679635861825775 0.003606152343092783 0 -0.015839608978279584 0.0037756350343335267 0 -0.0154844830132999 0.0039838788890287479 0 -0.015767564868889861 0.0040253438346395326 0 -0.016266470062193502 0.0039438302234089768 0 -0.015830678201709761 0.004171937590745519 0 -0.015767564868889861 0.0040253438346395326 0 -0.016266470062193502 0.0039438302234089768 0 -0.016143671419645081 0.0037959919694464041 0 -0.016477790991753505 0.0032119477702341687 0 -0.016143671419645081 0.0037959919694464041 0 -0.017152339737809892 0.0037262040178056843 0 -0.016477790991753505 0.0032119477702341687 0 -0.015839608978279584 0.0037756350343335267 0 -0.016143671419645081 0.0037959919694464041 0 -0.016288517238131468 0.0037849210109584487 0 -0.017624210426016123 0.0038320421160173055 0 -0.016143671419645081 0.0037959919694464041 0 -0.017152339737809892 0.0037262040178056843 0 -0.0179705018030696 0.0045903389488349726 0 -0.018161099544486806 0.0032946213906379657 0 -0.017152339737809892 0.0037262040178056843 0 -0.0179705018030696 0.0045903389488349726 0 -0.016266470062193502 0.0039438302234089768 0 -0.016143671419645081 0.0037959919694464041 0 -0.017216790411703532 0.0030791658080172629 0 -0.016266470062193502 0.0039438302234089768 0 -0.017216790411703532 0.0030791658080172629 0 -0.017764632792501626 0.0040517181307199853 0 -0.019455895847880537 0.0037759857003798712 0 -0.017624210426016123 0.0038320421160173055 0 -0.019274872643485718 0.0030074747891660181 0 -0.017216790411703532 0.0030791658080172629 0 -0.017764632792501626 0.0040517181307199853 0 -0.019668697411452767 0.0045573672056350989 0 -0.0179705018030696 0.0045903389488349726 0 -0.018874807949647885 0.004105087467529335 0 -0.018161099544486806 0.0032946213906379657 0 -0.0179705018030696 0.0045903389488349726 0 -0.018874807949647885 0.004105087467529335 0 -0.015340980898180005 0.0041751449531370549 0 -0.015283081632247335 0.0041901271414660924 0 -0.015340903027880675 0.0042409131644326522 0 -0.015340980898180005 0.0041751449531370549 0 -0.015364990839629552 0.0041066302877427168 0 -0.015283845438951536 0.00416167498123472 0 -0.015340980898180005 0.0041751449531370549 0 -0.015253892133608104 0.00417765510930369 0 -0.015283845438951536 0.00416167498123472 0 -0.015340980898180005 0.0041751449531370549 0 -0.015253892133608104 0.00417765510930369 0 -0.015283081632247335 0.0041901271414660924 0 -0.015253892133608104 0.00417765510930369 0 -0.015158211854842453 0.0041727939799130268 0 -0.015283081632247335 0.0041901271414660924 0 -0.015253892133608104 0.00417765510930369 0 -0.015158211854842453 0.0041727939799130268 0 -0.015178945768221099 0.0042046848667328576 0 -0.015158211854842453 0.0041727939799130268 0 -0.015283081632247335 0.0041901271414660924 0 -0.015285721044322133 0.0041908116742790337 0 -0.011783103952001165 0.006556476600724552 0 -0.011907348028219845 0.0076053992920133481 0 -0.012600385431903024 0.0065659141970269494 0 -0.012043071477166557 0.0068754265933779106 0 -0.015010784860634093 0.0051076160100872008 0 -0.015283081632247335 0.0041901271414660924 0 -0.015285721044322133 0.0041908116742790337 0 -0.015340903027880675 0.0042409131644326522 0 -0.015010784860634093 0.0051076160100872008 0 -0.015281944908026561 0.0047750165440908054 0 -0.015436319137610056 0.0042902131347706063 0 -0.01539836711010594 0.0043478375170202073 0 -0.015340903027880675 0.0042409131644326522 0 -0.015010784860634093 0.0051076160100872008 0 -0.01521116352917618 0.0047777641473163426 0 -0.015385345841687248 0.0043660973373953766 0 -0.01539836711010594 0.0043478375170202073 0 -0.015391511534224224 0.0043897572864027195 0 -0.01539836711010594 0.0043478375170202073 0 -0.015367786772741686 0.0043299096025143395 0 -0.015340903027880675 0.0042409131644326522 0 -0.015415558531280054 0.0043846477422702411 0 -0.015385345841687248 0.0043660973373953766 0 -0.015391511534224224 0.0043897572864027195 0 -0.0093248495165761513 0.0086698632147597134 0 -0.015010784860634093 0.0051076160100872008 0 -0.015415558531280054 0.0043846477422702411 0 -0.015393604232712212 0.0044423049793916808 0 -0.015391511534224224 0.0043897572864027195 0 -0.015377653951988306 0.0044698664764253803 0 -0.015393604232712212 0.0044423049793916808 0 -0.015385758526733437 0.0044043820238922017 0 -0.015393604232712212 0.0044423049793916808 0 -0.015391511534224224 0.0043897572864027195 0 -0.015385758526733437 0.0044043820238922017 0 -0.01539836711010594 0.0043478375170202073 0 -0.015385758526733437 0.0044043820238922017 0 -0.015367786772741686 0.0043299096025143395 0 -0.01539836711010594 0.0043478375170202073 0 -0.015391511534224224 0.0043897572864027195 0 -0.015385758526733437 0.0044043820238922017 0 -0.01538655661496699 0.0044103198482581931 0 -0.01538128578818055 0.0044268863443926009 0 -0.015374715967538262 0.0043633530235173482 0 -0.01538128578818055 0.0044268863443926009 0 -0.015385758526733437 0.0044043820238922017 0 -0.015374715967538262 0.0043633530235173482 0 -0.01538655661496699 0.0044103198482581931 0 -0.015374715967538262 0.0043633530235173482 0 -0.015380404294383294 0.0043391570132373207 0 -0.015374715967538262 0.0043633530235173482 0 -0.015358727418201644 0.00427302764950301 0 -0.015380404294383294 0.0043391570132373207 0 -0.015374715967538262 0.0043633530235173482 0 -0.015367786772741686 0.0043299096025143395 0 -0.015358727418201644 0.00427302764950301 0 -0.015385758526733437 0.0044043820238922017 0 -0.015374715967538262 0.0043633530235173482 0 -0.015367786772741686 0.0043299096025143395 0 -0.015340980898180005 0.0041751449531370549 0 -0.015358727418201644 0.00427302764950301 0 -0.015340903027880675 0.0042409131644326522 0 -0.015367786772741686 0.0043299096025143395 0 -0.015358727418201644 0.00427302764950301 0 -0.015340903027880675 0.0042409131644326522 0 -0.015340980898180005 0.0041751449531370549 0 -0.015358727418201644 0.00427302764950301 0 -0.015385120266611322 0.0042635502718838276 0 -0.015358727418201644 0.00427302764950301 0 -0.015380404294383294 0.0043391570132373207 0 -0.015385120266611322 0.0042635502718838276 0 -0.015410429644498874 0.004380417569098397 0 -0.015380404294383294 0.0043391570132373207 0 -0.015385120266611322 0.0042635502718838276 0 -0.015420649120498659 0.0042966978344063404 0 -0.015431721080145011 0.0042627622748139041 0 -0.015384399615106801 0.0041234299353238258 0 -0.015420649120498659 0.0042966978344063404 0 -0.015385120266611322 0.0042635502718838276 0 -0.015384399615106801 0.0041234299353238258 0 -0.015410429644498874 0.004380417569098397 0 -0.015420649120498659 0.0042966978344063404 0 -0.015385120266611322 0.0042635502718838276 0 -0.015482531669207917 0.004357820012030192 0 -0.015420649120498659 0.0042966978344063404 0 -0.015431721080145011 0.0042627622748139041 0 -0.015641670409865353 0.0040254975290657498 0 -0.015439194317478923 0.0041027470075306136 0 -0.01550229598132077 0.00443414131947217 0 -0.015431721080145011 0.0042627622748139041 0 -0.015384399615106801 0.0041234299353238258 0 -0.015679635861825775 0.003606152343092783 0 -0.015384399615106801 0.0041234299353238258 0 -0.0154844830132999 0.0039838788890287479 0 -0.015340980898180005 0.0041751449531370549 0 -0.015384399615106801 0.0041234299353238258 0 -0.015364990839629552 0.0041066302877427168 0 -0.015340980898180005 0.0041751449531370549 0 -0.015385120266611322 0.0042635502718838276 0 -0.015384399615106801 0.0041234299353238258 0 -0.015384399615106801 0.0041234299353238258 0 -0.015364990839629552 0.0041066302877427168 0 -0.0154844830132999 0.0039838788890287479 0 -0.0154844830132999 0.0039838788890287479 0 -0.015492108175912832 0.0041490359378387525 0 -0.015348896218128828 0.0041618789361832194 0 -0.015364990839629552 0.0041066302877427168 0 -0.0154844830132999 0.0039838788890287479 0 -0.015348896218128828 0.0041618789361832194 0 -0.015767564868889861 0.0040253438346395326 0 -0.015492108175912832 0.0041490359378387525 0 -0.015608269063039779 0.004301640025748078 0 -0.015767564868889861 0.0040253438346395326 0 -0.0154844830132999 0.0039838788890287479 0 -0.015492108175912832 0.0041490359378387525 0 -0.015348896218128828 0.0041618789361832194 0 -0.015252581034105886 0.0042966604218305166 0 -0.01539099904678186 0.0043031426723797875 0 -0.015492108175912832 0.0041490359378387525 0 -0.015348896218128828 0.0041618789361832194 0 -0.01539099904678186 0.0043031426723797875 0 -0.015348896218128828 0.0041618789361832194 0 -0.015252581034105886 0.0042966604218305166 0 -0.015203913004894843 0.0042442832574648764 0 -0.015252581034105886 0.0042966604218305166 0 -0.015203913004894843 0.0042442832574648764 0 -0.015091046553373061 0.0043572911764524005 0 -0.015348896218128828 0.0041618789361832194 0 -0.015203913004894843 0.0042442832574648764 0 -0.015283845438951536 0.00416167498123472 0 -0.015203913004894843 0.0042442832574648764 0 -0.015283845438951536 0.00416167498123472 0 -0.015178945768221099 0.0042046848667328576 0 -0.015253892133608104 0.00417765510930369 0 -0.015283845438951536 0.00416167498123472 0 -0.015178945768221099 0.0042046848667328576 0 -0.015364990839629552 0.0041066302877427168 0 -0.015348896218128828 0.0041618789361832194 0 -0.015283845438951536 0.00416167498123472 0 -0.015158211854842453 0.0041727939799130268 0 -0.015178945768221099 0.0042046848667328576 0 -0.014987579048357801 0.0043148682357586846 0 -0.012043071477166557 0.0068754265933779106 0 -0.015260144300705557 0.00344606760289643 0 -0.015203913004894843 0.0042442832574648764 0 -0.015178945768221099 0.0042046848667328576 0 -0.014987579048357801 0.0043148682357586846 0 -0.014889626798304977 0.0043665128265480482 0 -0.014987579048357801 0.0043148682357586846 0 -0.015091046553373061 0.0043572911764524005 0 -0.015203913004894843 0.0042442832574648764 0 -0.014987579048357801 0.0043148682357586846 0 -0.015091046553373061 0.0043572911764524005 0 -0.015091046553373061 0.0043572911764524005 0 -0.014959790070469227 0.0044768751675863657 0 -0.015241480961085211 0.0044443082343586437 0 -0.014889626798304977 0.0043665128265480482 0 -0.015091046553373061 0.0043572911764524005 0 -0.014959790070469227 0.0044768751675863657 0 -0.013562219495052135 0.0030428693573014273 0 -0.013540769560123424 0.0031159368976697993 0 -0.010662562855743874 0.0012482888571576705 0 -0.011421450599232589 0.0024496692745644005 0 -0.010485191339668531 0.0024774400755796389 0 -0.010662562855743874 0.0012482888571576705 0 -0.011421450599232589 0.0024496692745644005 0 -0.012190676386972542 0.0018842145433989946 0 -0.011421450599232589 0.0024496692745644005 0 -0.012190676386972542 0.0018842145433989946 0 -0.012529172438819656 0.0028006032781791837 0 -0.015252581034105886 0.0042966604218305166 0 -0.015091046553373061 0.0043572911764524005 0 -0.015241480961085211 0.0044443082343586437 0 -0.015252581034105886 0.0042966604218305166 0 -0.015241480961085211 0.0044443082343586437 0 -0.01539099904678186 0.0043031426723797875 0 -0.01539099904678186 0.0043031426723797875 0 -0.015608269063039779 0.004301640025748078 0 -0.01549527894863828 0.0043892786494551337 0 -0.015492108175912832 0.0041490359378387525 0 -0.01539099904678186 0.0043031426723797875 0 -0.015608269063039779 0.004301640025748078 0 -0.015608269063039779 0.004301640025748078 0 -0.01549527894863828 0.0043892786494551337 0 -0.015523990442218624 0.0042629912471116383 0 -0.014702224785319131 0.0036190282827824054 0 -0.01542456283376816 0.0041437006561405032 0 -0.015241480961085211 0.0044443082343586437 0 -0.01539099904678186 0.0043031426723797875 0 -0.01549527894863828 0.0043892786494551337 0 -0.012190676386972542 0.0018842145433989946 0 -0.012529172438819656 0.0028006032781791837 0 -0.013907646708126805 0.0027705834790034776 0 -0.013540769560123424 0.0031159368976697993 0 -0.014702224785319131 0.0036190282827824054 0 -0.012529172438819656 0.0028006032781791837 0 -0.013907646708126805 0.0027705834790034776 0 -0.013123116789540748 0.0034115343915089194 0 -0.013123116789540748 0.0034115343915089194 0 -0.012688212420583331 0.0036685828635755514 0 -0.012870957323671474 0.0039343563895343527 0 -0.013907646708126805 0.0027705834790034776 0 -0.013123116789540748 0.0034115343915089194 0 -0.014677952558278978 0.004183238694364393 0 -0.013123116789540748 0.0034115343915089194 0 -0.014677952558278978 0.004183238694364393 0 -0.014686609233663111 0.0051673745021841222 0 -0.013907646708126805 0.0027705834790034776 0 -0.014677952558278978 0.004183238694364393 0 -0.015523990442218624 0.0042629912471116383 0 -0.014677952558278978 0.004183238694364393 0 -0.014686609233663111 0.0051673745021841222 0 -0.015401546992433082 0.0048049554240791265 0 -0.013123116789540748 0.0034115343915089194 0 -0.013171792572972931 0.0041135172766354235 0 -0.012870957323671474 0.0039343563895343527 0 -0.013143060764127329 0.0034580406494086426 0 -0.013913700126331604 0.0045645069711894304 0 -0.013171792572972931 0.0041135172766354235 0 -0.012870957323671474 0.0039343563895343527 0 -0.012779812854780618 0.0042166657227093165 0 -0.012688212420583331 0.0036685828635755514 0 -0.012870957323671474 0.0039343563895343527 0 -0.012464538914233115 0.0039381110642735234 0 -0.012870957323671474 0.0039343563895343527 0 -0.012464538914233115 0.0039381110642735234 0 -0.012779812854780618 0.0042166657227093165 0 -0.012464538914233115 0.0039381110642735234 0 -0.012297586724172228 0.0043115648850928908 0 -0.012779812854780618 0.0042166657227093165 0 -0.012688212420583331 0.0036685828635755514 0 -0.012464538914233115 0.0039381110642735234 0 -0.012217925456485378 0.0033505935941620817 0 -0.012464538914233115 0.0039381110642735234 0 -0.011780335467751285 0.0037686459271621879 0 -0.012217925456485378 0.0033505935941620817 0 -0.011780335467751285 0.0037686459271621879 0 -0.011464567715456571 0.0045022251258276403 0 -0.012297586724172228 0.0043115648850928908 0 -0.012464538914233115 0.0039381110642735234 0 -0.011780335467751285 0.0037686459271621879 0 -0.012297586724172228 0.0043115648850928908 0 -0.011780335467751285 0.0037686459271621879 0 -0.01082216872371527 0.0033581801148884088 0 -0.011464567715456571 0.0045022251258276403 0 -0.010564033006326402 0.0036514921792543675 0 -0.0095950837156749576 0.003567048711754638 0 -0.011780335467751285 0.0037686459271621879 0 -0.01130729012581083 0.0031017857788635051 0 -0.01082216872371527 0.0033581801148884088 0 -0.011421450599232589 0.0024496692745644005 0 -0.01130729012581083 0.0031017857788635051 0 -0.010485191339668531 0.0024774400755796389 0 -0.01130729012581083 0.0031017857788635051 0 -0.01082216872371527 0.0033581801148884088 0 -0.010485191339668531 0.0024774400755796389 0 -0.011421450599232589 0.0024496692745644005 0 -0.01130729012581083 0.0031017857788635051 0 -0.012217925456485378 0.0033505935941620817 0 -0.011421450599232589 0.0024496692745644005 0 -0.012529172438819656 0.0028006032781791837 0 -0.012217925456485378 0.0033505935941620817 0 -0.012529172438819656 0.0028006032781791837 0 -0.013123116789540748 0.0034115343915089194 0 -0.012217925456485378 0.0033505935941620817 0 -0.013123116789540748 0.0034115343915089194 0 -0.012688212420583331 0.0036685828635755514 0 -0.012217925456485378 0.0033505935941620817 0 -0.011780335467751285 0.0037686459271621879 0 -0.01130729012581083 0.0031017857788635051 0 -0.012217925456485378 0.0033505935941620817 0 -0.017969066688432535 0.0053435471726771813 0 -0.017764632792501626 0.0040517181307199853 0 -0.016361114908985893 0.0047534385446159786 0 -0.016266470062193502 0.0039438302234089768 0 -0.017764632792501626 0.0040517181307199853 0 -0.016361114908985893 0.0047534385446159786 0 -0.016361114908985893 0.0047534385446159786 0 -0.015807254336797288 0.0044121421251106284 0 -0.01579103829006823 0.0046363506012767819 0 -0.015807254336797288 0.0044121421251106284 0 -0.015523990442218624 0.0042629912471116383 0 -0.01579103829006823 0.0046363506012767819 0 -0.016266470062193502 0.0039438302234089768 0 -0.015807254336797288 0.0044121421251106284 0 -0.015830678201709761 0.004171937590745519 0 -0.016266470062193502 0.0039438302234089768 0 -0.016361114908985893 0.0047534385446159786 0 -0.015807254336797288 0.0044121421251106284 0 -0.015608269063039779 0.004301640025748078 0 -0.015807254336797288 0.0044121421251106284 0 -0.015830678201709761 0.004171937590745519 0 -0.015767564868889861 0.0040253438346395326 0 -0.015608269063039779 0.004301640025748078 0 -0.015830678201709761 0.004171937590745519 0 -0.015608269063039779 0.004301640025748078 0 -0.015807254336797288 0.0044121421251106284 0 -0.015523990442218624 0.0042629912471116383 0 -0.014677952558278978 0.004183238694364393 0 -0.015523990442218624 0.0042629912471116383 0 -0.015401546992433082 0.0048049554240791265 0 -0.015523990442218624 0.0042629912471116383 0 -0.015401546992433082 0.0048049554240791265 0 -0.01579103829006823 0.0046363506012767819 0 -0.014686609233663111 0.0051673745021841222 0 -0.015401546992433082 0.0048049554240791265 0 -0.015183381566256073 0.0051121520357288392 0 -0.015556574924689847 0.004927223227463905 0 -0.01579103829006823 0.0046363506012767819 0 -0.015840404631638775 0.0047485213822454787 0 -0.015401546992433082 0.0048049554240791265 0 -0.015556574924689847 0.004927223227463905 0 -0.01579103829006823 0.0046363506012767819 0 -0.015401546992433082 0.0048049554240791265 0 -0.015556574924689847 0.004927223227463905 0 -0.01535680432651622 0.0050701499448924511 0 -0.017969066688432535 0.0053435471726771813 0 -0.016361114908985893 0.0047534385446159786 0 -0.016612457804024532 0.0066329932119755007 0 -0.016329963154601092 0.0046663566734256477 0 -0.016095402503552868 0.0059682733092127427 0 -0.016361114908985893 0.0047534385446159786 0 -0.01579103829006823 0.0046363506012767819 0 -0.015840404631638775 0.0047485213822454787 0 -0.016095402503552868 0.0059682733092127427 0 -0.017974938071317569 0.0050497379717849497 0 -0.016612457804024532 0.0066329932119755007 0 -0.01811469596710295 0.0069480460284220983 0 -0.016810124229768509 0.0082224538130277885 0 -0.015556574924689847 0.004927223227463905 0 -0.015840404631638775 0.0047485213822454787 0 -0.015529729352148062 0.0050459195313658318 0 -0.020425771649678872 0.0053750945053418651 0 -0.017974938071317569 0.0050497379717849497 0 -0.022165789535704937 0.0037793658135045053 0 -0.022303725158922868 0.0032984818010465414 0 -0.022800569373440809 0.0032288970577277519 0 -0.017969066688432535 0.0053435471726771813 0 -0.016612457804024532 0.0066329932119755007 0 -0.01811469596710295 0.0069480460284220983 0 -0.022275492346619498 0.0023587885721223344 0 -0.022504281637475861 0.0027053246916796765 0 -0.022689803320755989 0.0023277031283532022 0 -0.022504281637475861 0.0027053246916796765 0 -0.022227490288418021 0.0028867654025484068 0 -0.022460033879002455 0.003011697471798342 0 -0.022275492346619498 0.0023587885721223344 0 -0.022504281637475861 0.0027053246916796765 0 -0.022227490288418021 0.0028867654025484068 0 -0.022227490288418021 0.0028867654025484068 0 -0.022303725158922868 0.0032984818010465414 0 -0.022460033879002455 0.003011697471798342 0 -0.022303725158922868 0.0032984818010465414 0 -0.022460033879002455 0.003011697471798342 0 -0.022800569373440809 0.0032288970577277519 0 -0.022504281637475861 0.0027053246916796765 0 -0.022460033879002455 0.003011697471798342 0 -0.022800569373440809 0.0032288970577277519 0 -0.017974938071317569 0.0050497379717849497 0 -0.017010947209195132 0.0055258916245523237 0 -0.015556574924689847 0.004927223227463905 0 -0.015529729352148062 0.0050459195313658318 0 -0.015411932233377204 0.0050619671354211488 0 -0.015446581421958571 0.0050705719699355809 0 -0.015416620076254443 0.0050808527969442886 0 -0.015260552678931685 0.0050997459740084131 0 -0.015411932233377204 0.0050619671354211488 0 -0.015416620076254443 0.0050808527969442886 0 -0.015344453470947874 0.0050911960701988286 0 -0.015416620076254443 0.0050808527969442886 0 -0.015344453470947874 0.0050911960701988286 0 -0.015260552678931685 0.0050997459740084131 0 -0.015529729352148062 0.0050459195313658318 0 -0.015411932233377204 0.0050619671354211488 0 -0.015416620076254443 0.0050808527969442886 0 -0.015446581421958571 0.0050705719699355809 0 -0.015260552678931685 0.0050997459740084131 0 -0.01514456965144638 0.005117635777950681 0 -0.017974938071317569 0.0050497379717849497 0 -0.019003677166024403 0.0033504228333529522 0 -0.015344453470947874 0.0050911960701988286 0 -0.015260552678931685 0.0050997459740084131 0 -0.015279874753788704 0.0051109885483151853 0 -0.022504281637475861 0.0027053246916796765 0 -0.022800569373440809 0.0032288970577277519 0 -0.022689803320755989 0.0023277031283532022 0 -0.015260552678931685 0.0050997459740084131 0 -0.015108177935947143 0.0050991321938240715 0 -0.015035697113837048 0.0050377687767660878 0 -0.015260552678931685 0.0050997459740084131 0 -0.015035697113837048 0.0050377687767660878 0 -0.01514456965144638 0.005117635777950681 0 -0.015108177935947143 0.0050991321938240715 0 -0.015252957678437318 0.0051472554216835404 0 -0.015245270776288462 0.005176366861482787 0 -0.015108177935947143 0.0050991321938240715 0 -0.015279874753788704 0.0051109885483151853 0 -0.015252957678437318 0.0051472554216835404 0 -0.015260552678931685 0.0050997459740084131 0 -0.015108177935947143 0.0050991321938240715 0 -0.015279874753788704 0.0051109885483151853 0 -0.015411932233377204 0.0050619671354211488 0 -0.015344453470947874 0.0050911960701988286 0 -0.015279874753788704 0.0051109885483151853 0 -0.015411932233377204 0.0050619671354211488 0 -0.015279874753788704 0.0051109885483151853 0 -0.01535680432651622 0.0050701499448924511 0 -0.015556574924689847 0.004927223227463905 0 -0.015411932233377204 0.0050619671354211488 0 -0.01535680432651622 0.0050701499448924511 0 -0.015279874753788704 0.0051109885483151853 0 -0.01535680432651622 0.0050701499448924511 0 -0.015252957678437318 0.0051472554216835404 0 -0.015252957678437318 0.0051472554216835404 0 -0.015183381566256073 0.0051121520357288392 0 -0.015245270776288462 0.005176366861482787 0 -0.013913700126331604 0.0045645069711894304 0 -0.014342830880654439 0.0047137051476968976 0 -0.015401546992433082 0.0048049554240791265 0 -0.01535680432651622 0.0050701499448924511 0 -0.015183381566256073 0.0051121520357288392 0 -0.01535680432651622 0.0050701499448924511 0 -0.015252957678437318 0.0051472554216835404 0 -0.015183381566256073 0.0051121520357288392 0 -0.014686609233663111 0.0051673745021841222 0 -0.015183381566256073 0.0051121520357288392 0 -0.015245270776288462 0.005176366861482787 0 -0.013442281131706134 0.0041631875095663167 0 -0.013583063510391026 0.0044824410034582738 0 -0.013094423929524392 0.0043662440507619329 0 -0.013442281131706134 0.0041631875095663167 0 -0.013583063510391026 0.0044824410034582738 0 -0.014642371227502478 0.0050461555444282803 0 -0.013583063510391026 0.0044824410034582738 0 -0.013694035835329466 0.0052767051590446026 0 -0.014642371227502478 0.0050461555444282803 0 -0.013583063510391026 0.0044824410034582738 0 -0.013694035835329466 0.0052767051590446026 0 -0.012692395180487252 0.004775321939748097 0 -0.013583063510391026 0.0044824410034582738 0 -0.01256620863059014 0.0042725236357134344 0 -0.012692395180487252 0.004775321939748097 0 -0.013694035835329466 0.0052767051590446026 0 -0.012699996326786348 0.0055576122575871486 0 -0.013646853759627398 0.0061239348214445462 0 -0.013694035835329466 0.0052767051590446026 0 -0.012692395180487252 0.004775321939748097 0 -0.012699996326786348 0.0055576122575871486 0 -0.013694035835329466 0.0052767051590446026 0 -0.014441167187191692 0.0057218799742291652 0 -0.014642371227502478 0.0050461555444282803 0 -0.013694035835329466 0.0052767051590446026 0 -0.014441167187191692 0.0057218799742291652 0 -0.013646853759627398 0.0061239348214445462 0 -0.014441167187191692 0.0057218799742291652 0 -0.014894049168889653 0.0052000259781732191 0 -0.01506638895451407 0.0058858184732884259 0 -0.014441167187191692 0.0057218799742291652 0 -0.014642371227502478 0.0050461555444282803 0 -0.014894049168889653 0.0052000259781732191 0 -0.014342830880654439 0.0047137051476968976 0 -0.014655318953574444 0.0050636711986245591 0 -0.015108177935947143 0.0050991321938240715 0 -0.015245270776288462 0.005176366861482787 0 -0.014642371227502478 0.0050461555444282803 0 -0.014642371227502478 0.0050461555444282803 0 -0.015035697113837048 0.0050377687767660878 0 -0.014894049168889653 0.0052000259781732191 0 -0.015108177935947143 0.0050991321938240715 0 -0.014642371227502478 0.0050461555444282803 0 -0.015035697113837048 0.0050377687767660878 0 -0.019003677166024403 0.0033504228333529522 0 -0.019039835601397638 0.0041183562573676247 0 -0.01514456965144638 0.005117635777950681 0 -0.015112502697319299 0.0047934262958982468 0 -0.015158404240926319 0.0049702195481521475 0 -0.015035697113837048 0.0050377687767660878 0 -0.01514456965144638 0.005117635777950681 0 -0.015158404240926319 0.0049702195481521475 0 -0.015035697113837048 0.0050377687767660878 0 -0.014894049168889653 0.0052000259781732191 0 -0.015158404240926319 0.0049702195481521475 0 -0.014894049168889653 0.0052000259781732191 0 -0.015158404240926319 0.0049702195481521475 0 -0.01506638895451407 0.0058858184732884259 0 -0.015366061715547467 0.0046129743803479976 0 -0.015016785392314597 0.0063327481770485512 0 -0.015112502697319299 0.0047934262958982468 0 -0.015158404240926319 0.0049702195481521475 0 -0.0155643812132475 0.0044179653290243818 0 -0.022057580342571496 0.0015870414292796513 0 -0.022460172723389675 0.0016377783932592031 0 -0.022190579299950438 0.0013953917084647356 0 -0.022057580342571496 0.0015870414292796513 0 -0.022460172723389675 0.0016377783932592031 0 -0.022295580421846529 0.0019572516908471691 0 -0.022001208309165764 0.0019550091072793488 0 -0.022057580342571496 0.0015870414292796513 0 -0.022295580421846529 0.0019572516908471691 0 -0.022689803320755989 0.0023277031283532022 0 -0.022460172723389675 0.0016377783932592031 0 -0.022295580421846529 0.0019572516908471691 0 -0.022275492346619498 0.0023587885721223344 0 -0.022689803320755989 0.0023277031283532022 0 -0.022295580421846529 0.0019572516908471691 0 -0.022001208309165764 0.0019550091072793488 0 -0.022275492346619498 0.0023587885721223344 0 -0.022295580421846529 0.0019572516908471691 0 -0.0099470137677785241 0.0034908595583030854 0 -0.010479848100540151 0.0033268375316051579 0 -0.010527089190099167 0.003697842301639471 0 -0.010479848100540151 0.0033268375316051579 0 -0.010527089190099167 0.003697842301639471 0 -0.011129504849701639 0.004043797515321408 0 -0.0099470137677785241 0.0034908595583030854 0 -0.01036186945578838 0.0038502298018851361 0 -0.010527089190099167 0.003697842301639471 0 -0.01036186945578838 0.0038502298018851361 0 -0.010527089190099167 0.003697842301639471 0 -0.010689631791525621 0.0039475249492581512 0 -0.01036186945578838 0.0038502298018851361 0 -0.010689631791525621 0.0039475249492581512 0 -0.010692641441484588 0.0042630422384686874 0 -0.01036186945578838 0.0038502298018851361 0 -0.0099519274344658289 0.0039097170606999425 0 -0.010266416810534588 0.004196250148584749 0 -0.0099470137677785241 0.0034908595583030854 0 -0.01036186945578838 0.0038502298018851361 0 -0.0099519274344658289 0.0039097170606999425 0 -0.0099470137677785241 0.0034908595583030854 0 -0.0099519274344658289 0.0039097170606999425 0 -0.009656427372119138 0.0037129994088504277 0 -0.0099519274344658289 0.0039097170606999425 0 -0.0096392640423839712 0.0039940392012022159 0 -0.009656427372119138 0.0037129994088504277 0 -0.0099519274344658289 0.0039097170606999425 0 -0.0096392640423839712 0.0039940392012022159 0 -0.0098995202710881851 0.0042607715965714476 0 -0.0096392640423839712 0.0039940392012022159 0 -0.0092679320659185271 0.0038469939351206618 0 -0.0095088344331510262 0.0042887050704060381 0 -0.0096392640423839712 0.0039940392012022159 0 -0.009656427372119138 0.0037129994088504277 0 -0.0092679320659185271 0.0038469939351206618 0 -0.0092679320659185271 0.0038469939351206618 0 -0.0093241012104833647 0.0033754301428571437 0 -0.0087943218689661932 0.0035414999389565462 0 -0.009656427372119138 0.0037129994088504277 0 -0.0092679320659185271 0.0038469939351206618 0 -0.0093241012104833647 0.0033754301428571437 0 -0.0099470137677785241 0.0034908595583030854 0 -0.009656427372119138 0.0037129994088504277 0 -0.0093241012104833647 0.0033754301428571437 0 -0.0099470137677785241 0.0034908595583030854 0 -0.0093241012104833647 0.0033754301428571437 0 -0.0093465109917187997 0.0028554784641659442 0 -0.0093241012104833647 0.0033754301428571437 0 -0.0093465109917187997 0.0028554784641659442 0 -0.0089605668809030915 0.0030305429635525856 0 -0.0093465109917187997 0.0028554784641659442 0 -0.0089605668809030915 0.0030305429635525856 0 -0.0088350505302610197 0.0030266632141347778 0 -0.010922393892839187 0.0033438571208003346 0 -0.010140772887165098 0.0026813404855630624 0 -0.01102859148898048 0.0031126456378606287 0 -0.010564033006326402 0.0036514921792543675 0 -0.011834788771379669 0.0038244716395447404 0 -0.011464567715456571 0.0045022251258276403 0 -0.012630762602911546 0.0045621581054424145 0 -0.012297586724172228 0.0043115648850928908 0 -0.0099470137677785241 0.0034908595583030854 0 -0.010479848100540151 0.0033268375316051579 0 -0.0093465109917187997 0.0028554784641659442 0 -0.010538200274784875 0.0031889561443227596 0 -0.010564033006326402 0.0036514921792543675 0 -0.012297586724172228 0.0043115648850928908 0 -0.012642120098031947 0.0043784528848244148 0 -0.012779812854780618 0.0042166657227093165 0 -0.012630762602911546 0.0045621581054424145 0 -0.012297586724172228 0.0043115648850928908 0 -0.012642120098031947 0.0043784528848244148 0 -0.013171792572972931 0.0041135172766354235 0 -0.012779812854780618 0.0042166657227093165 0 -0.012974797055350425 0.0042893982547320955 0 -0.012642120098031947 0.0043784528848244148 0 -0.012779812854780618 0.0042166657227093165 0 -0.01283610380211 0.0043938946670714048 0 -0.012779812854780618 0.0042166657227093165 0 -0.012974797055350425 0.0042893982547320955 0 -0.01283610380211 0.0043938946670714048 0 -0.012974797055350425 0.0042893982547320955 0 -0.01283610380211 0.0043938946670714048 0 -0.013094423929524392 0.0043662440507619329 0 -0.012630762602911546 0.0045621581054424145 0 -0.012642120098031947 0.0043784528848244148 0 -0.01283610380211 0.0043938946670714048 0 -0.013171792572972931 0.0041135172766354235 0 -0.013442281131706134 0.0041631875095663167 0 -0.013094423929524392 0.0043662440507619329 0 -0.013171792572972931 0.0041135172766354235 0 -0.012974797055350425 0.0042893982547320955 0 -0.013094423929524392 0.0043662440507619329 0 -0.013506025993097671 0.0044400795999017788 0 -0.012609283102074502 0.0040165520969141317 0 -0.013583063510391026 0.0044824410034582738 0 -0.012132449259963965 0.00361712706467742 0 -0.01256620863059014 0.0042725236357134344 0 -0.012132449259963965 0.00361712706467742 0 -0.011861693994422143 0.0042061116487642266 0 -0.01256620863059014 0.0042725236357134344 0 -0.010538200274784875 0.0031889561443227596 0 -0.011869572391554152 0.0042365874547359746 0 -0.012630762602911546 0.0045621581054424145 0 -0.01283610380211 0.0043938946670714048 0 -0.013094423929524392 0.0043662440507619329 0 -0.010479848100540151 0.0033268375316051579 0 -0.011129504849701639 0.004043797515321408 0 -0.011861693994422143 0.0042061116487642266 0 -0.011834788771379669 0.0038244716395447404 0 -0.012609283102074502 0.0040165520969141317 0 -0.010922393892839187 0.0033438571208003346 0 -0.01102859148898048 0.0031126456378606287 0 -0.012132449259963965 0.00361712706467742 0 -0.010922393892839187 0.0033438571208003346 0 -0.012132449259963965 0.00361712706467742 0 -0.011861693994422143 0.0042061116487642266 0 -0.010527089190099167 0.003697842301639471 0 -0.010689631791525621 0.0039475249492581512 0 -0.011129504849701639 0.004043797515321408 0 -0.011129504849701639 0.004043797515321408 0 -0.011226220195203442 0.0045686778553479714 0 -0.010692641441484588 0.0042630422384686874 0 -0.010689631791525621 0.0039475249492581512 0 -0.011129504849701639 0.004043797515321408 0 -0.010692641441484588 0.0042630422384686874 0 -0.011129504849701639 0.004043797515321408 0 -0.011861693994422143 0.0042061116487642266 0 -0.011226220195203442 0.0045686778553479714 0 -0.011861693994422143 0.0042061116487642266 0 -0.011226220195203442 0.0045686778553479714 0 -0.011878050731833073 0.0050293082477665283 0 -0.011226220195203442 0.0045686778553479714 0 -0.011878050731833073 0.0050293082477665283 0 -0.011049053481153561 0.0051690109444089936 0 -0.011226220195203442 0.0045686778553479714 0 -0.011049053481153561 0.0051690109444089936 0 -0.010735215645534261 0.0047165595397530308 0 -0.011226220195203442 0.0045686778553479714 0 -0.010735215645534261 0.0047165595397530308 0 -0.010692641441484588 0.0042630422384686874 0 -0.011861693994422143 0.0042061116487642266 0 -0.01256620863059014 0.0042725236357134344 0 -0.012692395180487252 0.004775321939748097 0 -0.011861693994422143 0.0042061116487642266 0 -0.012692395180487252 0.004775321939748097 0 -0.011878050731833073 0.0050293082477665283 0 -0.012692395180487252 0.004775321939748097 0 -0.011878050731833073 0.0050293082477665283 0 -0.012699996326786348 0.0055576122575871486 0 -0.011878050731833073 0.0050293082477665283 0 -0.012699996326786348 0.0055576122575871486 0 -0.011657520756714185 0.0058706904944778784 0 -0.011878050731833073 0.0050293082477665283 0 -0.011049053481153561 0.0051690109444089936 0 -0.011657520756714185 0.0058706904944778784 0 -0.011049053481153561 0.0051690109444089936 0 -0.010971611266905584 0.0057727543406789353 0 -0.010546460864312966 0.0054531399257986054 0 -0.011049053481153561 0.0051690109444089936 0 -0.010971611266905584 0.0057727543406789353 0 -0.011657520756714185 0.0058706904944778784 0 -0.010546460864312966 0.0054531399257986054 0 -0.010189938689378609 0.0057151320439168046 0 -0.010527431659435389 0.0059573803516195512 0 -0.010971611266905584 0.0057727543406789353 0 -0.010546460864312966 0.0054531399257986054 0 -0.010527431659435389 0.0059573803516195512 0 -0.010189938689378609 0.0057151320439168046 0 -0.0099039477933691427 0.0055362177494236563 0 -0.0098392070790630556 0.0058281864224950953 0 -0.010546460864312966 0.0054531399257986054 0 -0.010189938689378609 0.0057151320439168046 0 -0.010156611662987695 0.0053107798211726827 0 -0.010189938689378609 0.0057151320439168046 0 -0.0099039477933691427 0.0055362177494236563 0 -0.010156611662987695 0.0053107798211726827 0 -0.0099039477933691427 0.0055362177494236563 0 -0.010156611662987695 0.0053107798211726827 0 -0.0097816128934056345 0.0052007387771566532 0 -0.010156611662987695 0.0053107798211726827 0 -0.010045413210678018 0.0049257456691898689 0 -0.0097816128934056345 0.0052007387771566532 0 -0.010156611662987695 0.0053107798211726827 0 -0.010045413210678018 0.0049257456691898689 0 -0.010442093461325843 0.0050081787330386778 0 -0.011049053481153561 0.0051690109444089936 0 -0.010442093461325843 0.0050081787330386778 0 -0.010735215645534261 0.0047165595397530308 0 -0.011049053481153561 0.0051690109444089936 0 -0.010546460864312966 0.0054531399257986054 0 -0.010442093461325843 0.0050081787330386778 0 -0.010546460864312966 0.0054531399257986054 0 -0.010156611662987695 0.0053107798211726827 0 -0.010442093461325843 0.0050081787330386778 0 -0.010735215645534261 0.0047165595397530308 0 -0.010282142693421845 0.0045757694223345999 0 -0.010692641441484588 0.0042630422384686874 0 -0.010442093461325843 0.0050081787330386778 0 -0.010735215645534261 0.0047165595397530308 0 -0.010282142693421845 0.0045757694223345999 0 -0.010045413210678018 0.0049257456691898689 0 -0.010442093461325843 0.0050081787330386778 0 -0.010282142693421845 0.0045757694223345999 0 -0.010045413210678018 0.0049257456691898689 0 -0.0098495373516254668 0.0046187051784593999 0 -0.0097476614589262732 0.0048994941969048465 0 -0.010045413210678018 0.0049257456691898689 0 -0.010282142693421845 0.0045757694223345999 0 -0.0098495373516254668 0.0046187051784593999 0 -0.010282142693421845 0.0045757694223345999 0 -0.0098995202710881851 0.0042607715965714476 0 -0.0098495373516254668 0.0046187051784593999 0 -0.010282142693421845 0.0045757694223345999 0 -0.0098995202710881851 0.0042607715965714476 0 -0.010266416810534588 0.004196250148584749 0 -0.0099519274344658289 0.0039097170606999425 0 -0.0098995202710881851 0.0042607715965714476 0 -0.010266416810534588 0.004196250148584749 0 -0.01036186945578838 0.0038502298018851361 0 -0.010266416810534588 0.004196250148584749 0 -0.010692641441484588 0.0042630422384686874 0 -0.010282142693421845 0.0045757694223345999 0 -0.010266416810534588 0.004196250148584749 0 -0.010692641441484588 0.0042630422384686874 0 -0.0092679320659185271 0.0038469939351206618 0 -0.0089458795251966209 0.0043469673218292527 0 -0.0088476994648013316 0.0039505328192841237 0 -0.0095088344331510262 0.0042887050704060381 0 -0.0094838577004599436 0.0047012866164416692 0 -0.0089458795251966209 0.0043469673218292527 0 -0.0092679320659185271 0.0038469939351206618 0 -0.0095088344331510262 0.0042887050704060381 0 -0.0089458795251966209 0.0043469673218292527 0 -0.0096392640423839712 0.0039940392012022159 0 -0.0098995202710881851 0.0042607715965714476 0 -0.0095088344331510262 0.0042887050704060381 0 -0.0098995202710881851 0.0042607715965714476 0 -0.0095088344331510262 0.0042887050704060381 0 -0.0098495373516254668 0.0046187051784593999 0 -0.0095088344331510262 0.0042887050704060381 0 -0.0098495373516254668 0.0046187051784593999 0 -0.0094838577004599436 0.0047012866164416692 0 -0.0098495373516254668 0.0046187051784593999 0 -0.0097476614589262732 0.0048994941969048465 0 -0.0094838577004599436 0.0047012866164416692 0 -0.0094838577004599436 0.0047012866164416692 0 -0.0090199662474804154 0.0049987168273084026 0 -0.0089458795251966209 0.0043469673218292527 0 -0.0094838577004599436 0.0047012866164416692 0 -0.0090199662474804154 0.0049987168273084026 0 -0.0094802914188015751 0.0051374591866363666 0 -0.0090199662474804154 0.0049987168273084026 0 -0.0094802914188015751 0.0051374591866363666 0 -0.0092124332394302628 0.0055220484308493214 0 -0.010045413210678018 0.0049257456691898689 0 -0.0097476614589262732 0.0048994941969048465 0 -0.0097816128934056345 0.0052007387771566532 0 -0.0097476614589262732 0.0048994941969048465 0 -0.0094802914188015751 0.0051374591866363666 0 -0.0097816128934056345 0.0052007387771566532 0 -0.0097476614589262732 0.0048994941969048465 0 -0.0094838577004599436 0.0047012866164416692 0 -0.0094802914188015751 0.0051374591866363666 0 -0.0094802914188015751 0.0051374591866363666 0 -0.0097816128934056345 0.0052007387771566532 0 -0.0096186164035632852 0.0055146721787407895 0 -0.0099039477933691427 0.0055362177494236563 0 -0.0097816128934056345 0.0052007387771566532 0 -0.0096186164035632852 0.0055146721787407895 0 -0.0094802914188015751 0.0051374591866363666 0 -0.0096186164035632852 0.0055146721787407895 0 -0.0092124332394302628 0.0055220484308493214 0 -0.0096186164035632852 0.0055146721787407895 0 -0.0092124332394302628 0.0055220484308493214 0 -0.0094931034841344263 0.005871434758474901 0 -0.0099039477933691427 0.0055362177494236563 0 -0.0096186164035632852 0.0055146721787407895 0 -0.0098392070790630556 0.0058281864224950953 0 -0.0096186164035632852 0.0055146721787407895 0 -0.0098392070790630556 0.0058281864224950953 0 -0.0094931034841344263 0.005871434758474901 0 -0.0092124332394302628 0.0055220484308493214 0 -0.0086221186337472177 0.0056511927242805723 0 -0.0090848005054916907 0.0059534840917557673 0 -0.0092124332394302628 0.0055220484308493214 0 -0.0090848005054916907 0.0059534840917557673 0 -0.0094931034841344263 0.005871434758474901 0 -0.0090199662474804154 0.0049987168273084026 0 -0.0086221186337472177 0.0056511927242805723 0 -0.0082128709272068137 0.0046472423277751527 0 -0.0086221186337472177 0.0056511927242805723 0 -0.00756603120734656 0.0050158393998005089 0 -0.0082128709272068137 0.0046472423277751527 0 -0.0086221186337472177 0.0056511927242805723 0 -0.00756603120734656 0.0050158393998005089 0 -0.0081158901896049053 0.0063599326169573615 0 -0.0090199662474804154 0.0049987168273084026 0 -0.0092124332394302628 0.0055220484308493214 0 -0.0086221186337472177 0.0056511927242805723 0 -0.0074568964615131178 0.0046890061468059536 0 -0.0074910947913157657 0.0041461450715230639 0 -0.0074937608213471989 0.0041923279984530121 0 -0.0083657264289221395 0.0040799574187157144 0 -0.0082128709272068137 0.0046472423277751527 0 -0.00756603120734656 0.0050158393998005089 0 -0.0074937608213471989 0.0041923279984530121 0 -0.0082128709272068137 0.0046472423277751527 0 -0.0083657264289221395 0.0040799574187157144 0 -0.0089458795251966209 0.0043469673218292527 0 -0.0082128709272068137 0.0046472423277751527 0 -0.0083657264289221395 0.0040799574187157144 0 -0.0089458795251966209 0.0043469673218292527 0 -0.0088476994648013316 0.0039505328192841237 0 -0.0090199662474804154 0.0049987168273084026 0 -0.0089458795251966209 0.0043469673218292527 0 -0.0082128709272068137 0.0046472423277751527 0 0.0076324128607548761 -0.0034604645192325813 0 0.0077880992053296818 -0.0034793973997023922 0 0.0077532080102127015 -0.0034463417211452125 0 0.0014976090073425894 0.00020299063833153434 0 0.003683217036027859 -0.00014891957899876217 0 -0.0059579946974391649 0.0055165731206868107 0 -0.0051191172518207191 0.0038539203851524597 0 -0.0043558557412898486 0.0063916284045092264 0 -0.00756603120734656 0.0050158393998005089 0 -0.0059579946974391649 0.0055165731206868107 0 -0.0051191172518207191 0.0038539203851524597 0 -0.00756603120734656 0.0050158393998005089 0 -0.0067764685587530498 0.0030124361933511483 0 -0.0051191172518207191 0.0038539203851524597 0 0.0076324128607548761 -0.0034604645192325813 0 0.0077672563058761197 -0.0035393377210208542 0 0.0077880992053296818 -0.0034793973997023922 0 0.0076324128607548761 -0.0034604645192325813 0 0.0077672563058761197 -0.0035393377210208542 0 0.0076212807216185533 -0.0036176968887875528 0 0.0076212807216185533 -0.0036176968887875528 0 0.007363708723920984 -0.0037068549896862525 0 0.0076265797924054239 -0.003752737828399068 0 0.0077180023224479701 -0.0036718817023653795 0 0.0076212807216185533 -0.0036176968887875528 0 0.0076265797924054239 -0.003752737828399068 0 0.0077180023224479701 -0.0036718817023653795 0 0.0076265797924054239 -0.003752737828399068 0 0.0078251336021532107 -0.0037654986213570283 0 0.0077672563058761197 -0.0035393377210208542 0 0.0077180023224479701 -0.0036718817023653795 0 0.0076212807216185533 -0.0036176968887875528 0 -0.0074937608213471989 0.0041923279984530121 0 -0.0074732180761541223 0.0032152023378601131 0 -0.0071166117897338678 0.0032604218217846146 0 0.0076324128607548761 -0.0034604645192325813 0 0.0076212807216185533 -0.0036176968887875528 0 0.007363708723920984 -0.0037068549896862525 0 0.0014976090073425894 0.00020299063833153434 0 -0.0030105956620592451 0.00039792398997178093 0 -0.0074910947913157657 0.0041461450715230639 0 -0.0030105956620592451 0.00039792398997178093 0 -0.0067764685587530498 0.0030124361933511483 0 -0.0051191172518207191 0.0038539203851524597 0 -0.0059335618047737133 0.0010829301922584468 0 0.007363708723920984 -0.0037068549896862525 0 0.0073932053197503945 -0.0038450370802314607 0 0.0076265797924054239 -0.003752737828399068 0 -0.0030105956620592451 0.00039792398997178093 0 -0.0066716291612528324 0.0022902179699677626 0 -0.0074732180761541223 0.0032152023378601131 0 -0.0071166117897338678 0.0032604218217846146 0 -0.0072272176254730147 0.0027868555116248644 0 -0.0066716291612528324 0.0022902179699677626 0 -0.00052921934521878676 0.00043624276493130286 0 -0.0084925807433736625 0.0042489363246578666 0 -0.0081816740342825871 0.0042061308421075319 0 -0.0083114778261751173 0.0036289350538535356 0 -0.0033337047059516806 0.0011671373441311229 0 -0.0031850411265619116 0.0016518582651789311 0 -0.0035454909276175549 0.0016901717892219086 0 -0.0030105956620592451 0.00039792398997178093 0 -0.00052921934521878676 0.00043624276493130286 0 0.0073932053197503945 -0.0038450370802314607 0 0.0076265797924054239 -0.003752737828399068 0 0.0078961128946700813 -0.0039697320466489088 0 0.00021298161283812007 -0.00040417978247081764 0 0.0017165453788480132 -0.0011145228938015204 0 0.0025072112740735656 -0.00065661350488193564 0 -0.00052921934521878676 0.00043624276493130286 0 0.0062277132853499288 -0.0027225941412802814 0 -0.0087943218689661932 0.0035414999389565462 0 -0.0082593310870321436 0.0036322136011417041 0 -0.0086817555088463914 0.0030726128622880484 0 -0.0083657264289221395 0.0040799574187157144 0 -0.0087943218689661932 0.0035414999389565462 0 -0.0088476994648013316 0.0039505328192841237 0 -0.0092679320659185271 0.0038469939351206618 0 -0.0087943218689661932 0.0035414999389565462 0 -0.0088476994648013316 0.0039505328192841237 0 -0.0083657264289221395 0.0040799574187157144 0 -0.0087943218689661932 0.0035414999389565462 0 -0.0082593310870321436 0.0036322136011417041 0 -0.0074937608213471989 0.0041923279984530121 0 -0.0082593310870321436 0.0036322136011417041 0 -0.0078835541314116048 0.0032843608883577659 0 -0.0074937608213471989 0.0041923279984530121 0 -0.0074732180761541223 0.0032152023378601131 0 -0.0078835541314116048 0.0032843608883577659 0 -0.0074937608213471989 0.0041923279984530121 0 -0.0083657264289221395 0.0040799574187157144 0 -0.0082593310870321436 0.0036322136011417041 0 -0.0072272176254730147 0.0027868555116248644 0 -0.0078835541314116048 0.0032843608883577659 0 -0.0086817555088463914 0.0030726128622880484 0 -0.0066716291612528324 0.0022902179699677626 0 -0.0092649995088742859 0.0032213083765903674 0 -0.0082593310870321436 0.0036322136011417041 0 -0.0078835541314116048 0.0032843608883577659 0 -0.0086817555088463914 0.0030726128622880484 0 -0.0091048066169219736 0.0031281879795959145 0 -0.0088990061691235321 0.0031873763389571102 0 -0.0086817555088463914 0.0030726128622880484 0 -0.0074732180761541223 0.0032152023378601131 0 -0.0072272176254730147 0.0027868555116248644 0 -0.0078835541314116048 0.0032843608883577659 0 -0.0091048066169219736 0.0031281879795959145 0 -0.0088990061691235321 0.0031873763389571102 0 -0.0089619384547436533 0.0032998941065088953 0 -0.0088990061691235321 0.0031873763389571102 0 -0.0086817555088463914 0.0030726128622880484 0 -0.0089193924507236042 0.0031740888545947867 0 -0.0093241012104833647 0.0033754301428571437 0 -0.0087943218689661932 0.0035414999389565462 0 -0.0089605668809030915 0.0030305429635525856 0 -0.0087943218689661932 0.0035414999389565462 0 -0.0086817555088463914 0.0030726128622880484 0 -0.0089605668809030915 0.0030305429635525856 0 -0.0086817555088463914 0.0030726128622880484 0 -0.0089605668809030915 0.0030305429635525856 0 -0.0088350505302610197 0.0030266632141347778 0 -0.011354344191686341 0.0047010855039448501 0 -0.010289049875633369 0.0041408344725672487 0 -0.0098487242456589096 0.0034024959049599882 0 -0.010564033006326402 0.0036514921792543675 0 -0.01030252884302804 0.003823958663640146 0 -0.01082216872371527 0.0033581801148884088 0 -0.011464567715456571 0.0045022251258276403 0 -0.0098487242456589096 0.0034024959049599882 0 -0.0086817555088463914 0.0030726128622880484 0 -0.0088350505302610197 0.0030266632141347778 0 -0.0089193924507236042 0.0031740888545947867 0 -0.0088350505302610197 0.0030266632141347778 0 -0.0091346088329719455 0.0034077349361616399 0 -0.0089193924507236042 0.0031740888545947867 0 -0.010289049875633369 0.0041408344725672487 0 -0.0098487242456589096 0.0034024959049599882 0 -0.0091346088329719455 0.0034077349361616399 0 -0.0095950837156749576 0.003567048711754638 0 -0.0092131025953535207 0.003431230396767061 0 -0.01082216872371527 0.0033581801148884088 0 -0.0098487242456589096 0.0034024959049599882 0 -0.01002950056273118 0.0029145634668798015 0 -0.0098487242456589096 0.0034024959049599882 0 -0.01002950056273118 0.0029145634668798015 0 -0.009450731504865393 0.0030097869490593328 0 -0.01002950056273118 0.0029145634668798015 0 -0.010485191339668531 0.0024774400755796389 0 -0.0095004559849868799 0.0024902707883842877 0 -0.01002950056273118 0.0029145634668798015 0 -0.009450731504865393 0.0030097869490593328 0 -0.0095004559849868799 0.0024902707883842877 0 -0.01082216872371527 0.0033581801148884088 0 -0.01002950056273118 0.0029145634668798015 0 -0.010485191339668531 0.0024774400755796389 0 -0.0089811376461577039 0.0029402765143610571 0 -0.0084716994987991175 0.0028387906581708814 0 -0.008886352501983415 0.0024542456860595641 0 -0.0089811376461577039 0.0029402765143610571 0 -0.0095004559849868799 0.0024902707883842877 0 -0.008886352501983415 0.0024542456860595641 0 -0.009450731504865393 0.0030097869490593328 0 -0.0089811376461577039 0.0029402765143610571 0 -0.0095004559849868799 0.0024902707883842877 0 -0.009450731504865393 0.0030097869490593328 0 -0.0089811376461577039 0.0029402765143610571 0 -0.0091346088329719455 0.0034077349361616399 0 -0.0098487242456589096 0.0034024959049599882 0 -0.009450731504865393 0.0030097869490593328 0 -0.0091346088329719455 0.0034077349361616399 0 -0.0089811376461577039 0.0029402765143610571 0 -0.0088838607856143951 0.0033561078843280796 0 -0.0091346088329719455 0.0034077349361616399 0 -0.0088838607856143951 0.0033561078843280796 0 -0.0091346088329719455 0.0034077349361616399 0 -0.0089619384547436533 0.0032998941065088953 0 -0.0091048066169219736 0.0031281879795959145 0 -0.0088838607856143951 0.0033561078843280796 0 -0.0089619384547436533 0.0032998941065088953 0 -0.0091346088329719455 0.0034077349361616399 0 -0.0089193924507236042 0.0031740888545947867 0 -0.0089619384547436533 0.0032998941065088953 0 -0.0088990061691235321 0.0031873763389571102 0 -0.0089193924507236042 0.0031740888545947867 0 -0.0089619384547436533 0.0032998941065088953 0 -0.0066716291612528324 0.0022902179699677626 0 -0.0089788399989360872 0.0036610547865658181 0 -0.0084925807433736625 0.0042489363246578666 0 -0.0088838607856143951 0.0033561078843280796 0 -0.0083114778261751173 0.0036289350538535356 0 -0.0081816740342825871 0.0042061308421075319 0 -0.0083114778261751173 0.0036289350538535356 0 -0.0077070003344852835 0.0030780504487047133 0 -0.0083114778261751173 0.0036289350538535356 0 -0.0083343130437537379 0.0032223902305284985 0 -0.0077070003344852835 0.0030780504487047133 0 -0.0088838607856143951 0.0033561078843280796 0 -0.0083114778261751173 0.0036289350538535356 0 -0.0083343130437537379 0.0032223902305284985 0 -0.00052921934521878676 0.00043624276493130286 0 -0.0012893278606542575 -9.6749594144802766e-05 0 0.00021298161283812007 -0.00040417978247081764 0 0.0017165453788480132 -0.0011145228938015204 0 0.00096790697443079347 -0.0022089615017484698 0 0.0015562651770339492 -0.0013698205978749133 0 -0.0012893278606542575 -9.6749594144802766e-05 0 0.0017165453788480132 -0.0011145228938015204 0 0.0010616880584532295 -0.00219129826618712 0 0.001928260741488804 -0.0019501815704281553 0 0.001117597859699908 -0.0022813751178674098 0 0.0014774974404512093 -0.0030640387274833607 0 0.00095977597727232074 -0.0033057494208875039 0 0.0010616880584532295 -0.00219129826618712 0 0.0020048815186941931 -0.0027496442487351443 0 0.001928260741488804 -0.0019501815704281553 0 -0.0012893278606542575 -9.6749594144802766e-05 0 0.001576892694974452 -0.0037470799777456964 0 0.0010616880584532295 -0.00219129826618712 0 0.0014774974404512093 -0.0030640387274833607 0 0.0020048815186941931 -0.0027496442487351443 0 -0.0077070003344852835 0.0030780504487047133 0 -0.0084716994987991175 0.0028387906581708814 0 -0.0083932093162250396 0.0020299650998722007 0 -0.0012893278606542575 -9.6749594144802766e-05 0 -0.0039616235049925374 -0.0012775606560461465 0 0.001117597859699908 -0.0022813751178674098 0 0.00034066410417412496 -0.0034641342162584333 0 0.00095977597727232074 -0.0033057494208875039 0 -0.0089811376461577039 0.0029402765143610571 0 -0.0088838607856143951 0.0033561078843280796 0 -0.0084716994987991175 0.0028387906581708814 0 -0.0088838607856143951 0.0033561078843280796 0 -0.0083343130437537379 0.0032223902305284985 0 -0.0084716994987991175 0.0028387906581708814 0 -0.0083343130437537379 0.0032223902305284985 0 -0.0077070003344852835 0.0030780504487047133 0 -0.0084716994987991175 0.0028387906581708814 0 -0.0084716994987991175 0.0028387906581708814 0 -0.0083932093162250396 0.0020299650998722007 0 -0.008886352501983415 0.0024542456860595641 0 0.00034066410417412496 -0.0034641342162584333 0 0.00095977597727232074 -0.0033057494208875039 0 0.00053721093810503028 -0.003861811926949925 0 0.0014774974404512093 -0.0030640387274833607 0 0.001338040291571312 -0.0037532601029545568 0 0.0018536967077894 -0.003212548356570929 0 0.0014774974404512093 -0.0030640387274833607 0 0.00095977597727232074 -0.0033057494208875039 0 0.001338040291571312 -0.0037532601029545568 0 0.00095977597727232074 -0.0033057494208875039 0 0.001338040291571312 -0.0037532601029545568 0 0.00053721093810503028 -0.003861811926949925 0 0.0033094619746268806 -0.0024503684725513757 0 0.002725995959033771 -0.0018310251982260179 0 0.0026598945435712716 -0.0026823651956872684 0 -0.0025845812690005795 0.010508266669517562 0 -0.0024102451199225121 0.01019574724384862 0 -0.0026991698989819934 0.010241072055486806 0 0.0008186267654827651 0.00081982234209417959 0 0.00013353868352711021 0.0044078343216048107 0 0.0033094619746268806 -0.0024503684725513757 0 0.0042514556811568734 -0.0017104037081634256 0 0.002725995959033771 -0.0018310251982260179 0 0.001338040291571312 -0.0037532601029545568 0 0.00053721093810503028 -0.003861811926949925 0 0.00058643514842553137 -0.004096050886677742 0 0.002158314064043312 -0.0031057110414315975 0 0.0008186267654827651 0.00081982234209417959 0 0.00053721093810503028 -0.003861811926949925 0 0.00058643514842553137 -0.004096050886677742 0 -0.00038607906797330965 -0.004365311235805659 0 -0.00010842503361000957 -0.0044637391989140211 0 0.00058643514842553137 -0.004096050886677742 0 -0.00038607906797330965 -0.004365311235805659 0 0.00034066410417412496 -0.0034641342162584333 0 0.00053721093810503028 -0.003861811926949925 0 -0.00038607906797330965 -0.004365311235805659 0 -0.0039297067254898815 0.0067499653679306106 0 0.0008186267654827651 0.00081982234209417959 0 -0.0083932093162250396 0.0020299650998722007 0 -0.0091920326035475775 0.00076131779370997152 0 -0.0091460702988799408 0.0019298021311693323 0 -0.0091920326035475775 0.00076131779370997152 0 -0.0099394639176189469 0.001871770490245731 0 -0.0091460702988799408 0.0019298021311693323 0 -0.0039616235049925374 -0.0012775606560461465 0 -0.0083275694478016447 0.0021270525965749864 0 -0.0039297067254898815 0.0067499653679306106 0 -0.0083275694478016447 0.0021270525965749864 0 -0.014889626798304977 0.0043665128265480482 0 -0.014959790070469227 0.0044768751675863657 0 -0.014668244736184485 0.0044320236385591225 0 -0.010662562855743874 0.0012482888571576705 0 -0.0091920326035475775 0.00076131779370997152 0 -0.0099394639176189469 0.001871770490245731 0 -0.013562219495052135 0.0030428693573014273 0 -0.0083275694478016447 0.0021270525965749864 0 -0.010662562855743874 0.0012482888571576705 0 -0.0099394639176189469 0.001871770490245731 0 -0.010485191339668531 0.0024774400755796389 0 -0.0099394639176189469 0.001871770490245731 0 -0.010485191339668531 0.0024774400755796389 0 -0.0095004559849868799 0.0024902707883842877 0 -0.0099394639176189469 0.001871770490245731 0 -0.0095004559849868799 0.0024902707883842877 0 -0.0091460702988799408 0.0019298021311693323 0 -0.0095004559849868799 0.0024902707883842877 0 -0.008886352501983415 0.0024542456860595641 0 -0.0091460702988799408 0.0019298021311693323 0 -0.0083932093162250396 0.0020299650998722007 0 -0.008886352501983415 0.0024542456860595641 0 -0.0091460702988799408 0.0019298021311693323 0 0.0044092274748515946 -0.0037518791689492097 0 0.0051769840192033281 -0.0048095296974428048 0 0.0050982958038358825 -0.0033933978210859556 0 0.0060081277113197126 -0.0039244383855148307 0 0.0051769840192033281 -0.0048095296974428048 0 0.0050982958038358825 -0.0033933978210859556 0 0.0044092274748515946 -0.0037518791689492097 0 0.0051769840192033281 -0.0048095296974428048 0 0.0037758420335264357 -0.0042087089450652164 0 -9.9102802537723848e-06 0.0020710539628741305 0 0.0029267698749596092 -0.0038489292983958992 0 0.0060081277113197126 -0.0039244383855148307 0 0.0066398479222151965 -0.0046976728895330435 0 0.0051769840192033281 -0.0048095296974428048 0 0.0072200801663539751 -0.0037223543551391067 0 0.0060081277113197126 -0.0039244383855148307 0 0.0062676252692317773 -0.0030274667866114352 0 0.0072200801663539751 -0.0037223543551391067 0 0.0060081277113197126 -0.0039244383855148307 0 0.0066398479222151965 -0.0046976728895330435 0 -0.0026945830215527357 0.0104308319420852 0 -0.0027371408243689879 0.010426774034780555 0 -0.0028518935888260342 0.010432333631846888 0 0.0059049005527525037 -0.00092421919350769543 0 -9.9102802537723848e-06 0.0020710539628741305 0 0.0066092111656950924 0.00049404280854931266 0 0.0048671479085668976 0.0029696783471117819 0 0.0015178314491942223 0.0027197962176880013 0 0.0059064299269957245 0.0058083668270708412 0 -9.9102802537723848e-06 0.0020710539628741305 0 -0.0029190775681905441 0.010470482342240069 0 -0.0028524476488599685 0.010462875232035257 0 -0.0028518935888260342 0.010432333631846888 0 -9.9102802537723848e-06 0.0020710539628741305 0 -0.0012830788262428758 0.0043252889890629219 0 -0.0029190775681905441 0.010470482342240069 0 -0.0028518935888260342 0.010432333631846888 0 -0.0028844272862608559 0.010357887621217671 0 -0.0028474105089630955 0.010428958001414385 0 -0.0029190775681905441 0.010470482342240069 0 -0.0028844272862608559 0.010357887621217671 0 -0.0028474105089630955 0.010428958001414385 0 -0.0028844272862608559 0.010357887621217671 0 -0.0026991698989819934 0.010241072055486806 0 0.0010080231478837298 -0.0018856329273828727 0 0.002725995959033771 -0.0018310251982260179 0 0.0018598333893408067 -0.0023185182087149298 0 -0.0012830788262428758 0.0043252889890629219 0 0.00013353868352711021 0.0044078343216048107 0 0.002725995959033771 -0.0018310251982260179 0 0.0022931803494739642 -0.0025112837052402495 0 0.0018598333893408067 -0.0023185182087149298 0 0.0019172449320596105 -0.0028129975127101866 0 0.0022529022129646088 -0.0033622040196066723 0 0.00068551118651091845 -0.002693294272500194 0 0.0033094619746268806 -0.0024503684725513757 0 0.0026598945435712716 -0.0026823651956872684 0 0.0022564659708086817 -0.0033093743506786124 0 0.002158314064043312 -0.0031057110414315975 0 0.0022864976794484859 -0.0032238933739765856 0 0.002725995959033771 -0.0018310251982260179 0 0.0026598945435712716 -0.0026823651956872684 0 0.0022931803494739642 -0.0025112837052402495 0 0.0026598945435712716 -0.0026823651956872684 0 0.0022931803494739642 -0.0025112837052402495 0 0.0023117348236306946 -0.0029149211847610034 0 0.0022931803494739642 -0.0025112837052402495 0 0.0019172449320596105 -0.0028129975127101866 0 0.0023117348236306946 -0.0029149211847610034 0 0.0022931803494739642 -0.0025112837052402495 0 0.0018598333893408067 -0.0023185182087149298 0 0.0019172449320596105 -0.0028129975127101866 0 0.0018598333893408067 -0.0023185182087149298 0 0.0019172449320596105 -0.0028129975127101866 0 0.0013302243039213376 -0.0024312525523466706 0 0.0028744895867234234 -0.0034693839640398756 0 0.0030549342114004497 -0.00329486916796728 0 0.002453769052910944 -0.0030596702454585749 0 0.0022529022129646088 -0.0033622040196066723 0 0.0021686745778961118 -0.003153574739077999 0 0.002453769052910944 -0.0030596702454585749 0 0.0028744895867234234 -0.0034693839640398756 0 0.0022529022129646088 -0.0033622040196066723 0 0.002453769052910944 -0.0030596702454585749 0 0.0022529022129646088 -0.0033622040196066723 0 0.0022158334419822806 -0.0031233190872708271 0 0.0022564659708086817 -0.0033093743506786124 0 0.0019172449320596105 -0.0028129975127101866 0 0.0022529022129646088 -0.0033622040196066723 0 0.0022158334419822806 -0.0031233190872708271 0 0.0019172449320596105 -0.0028129975127101866 0 0.0022158334419822806 -0.0031233190872708271 0 0.0023117348236306946 -0.0029149211847610034 0 0.001338040291571312 -0.0037532601029545568 0 0.0022564659708086817 -0.0033093743506786124 0 0.0018536967077894 -0.003212548356570929 0 0.0026598945435712716 -0.0026823651956872684 0 0.0023117348236306946 -0.0029149211847610034 0 0.0022564659708086817 -0.0033093743506786124 0 0.0022158334419822806 -0.0031233190872708271 0 0.0023117348236306946 -0.0029149211847610034 0 0.0022564659708086817 -0.0033093743506786124 0 0.0022564659708086817 -0.0033093743506786124 0 0.0018536967077894 -0.003212548356570929 0 0.0021686745778961118 -0.003153574739077999 0 0.0022529022129646088 -0.0033622040196066723 0 0.0022564659708086817 -0.0033093743506786124 0 0.0021686745778961118 -0.003153574739077999 0 0.0028744895867234234 -0.0034693839640398756 0 0.0022529022129646088 -0.0033622040196066723 0 0.0037758420335264357 -0.0042087089450652164 0 -0.00082714352253937713 -0.0019499238481517263 0 0.0010080231478837298 -0.0018856329273828727 0 0.00068551118651091845 -0.002693294272500194 0 0.0019970530463364437 -0.0032736122051991285 0 0.0029267698749596092 -0.0038489292983958992 0 0.0010080231478837298 -0.0018856329273828727 0 0.00068551118651091845 -0.002693294272500194 0 0.0013302243039213376 -0.0024312525523466706 0 0.0010080231478837298 -0.0018856329273828727 0 0.0018598333893408067 -0.0023185182087149298 0 0.0013302243039213376 -0.0024312525523466706 0 0.0019172449320596105 -0.0028129975127101866 0 0.00068551118651091845 -0.002693294272500194 0 0.0013302243039213376 -0.0024312525523466706 0 0.0028744895867234234 -0.0034693839640398756 0 0.0037758420335264357 -0.0042087089450652164 0 0.0030549342114004497 -0.00329486916796728 0 0.0037758420335264357 -0.0042087089450652164 0 0.0030549342114004497 -0.00329486916796728 0 0.0037474375054820791 -0.0034085148193131278 0 0.0044092274748515946 -0.0037518791689492097 0 0.0037758420335264357 -0.0042087089450652164 0 0.0037474375054820791 -0.0034085148193131278 0 0.0044092274748515946 -0.0037518791689492097 0 0.0037474375054820791 -0.0034085148193131278 0 0.0041930239024726389 -0.0028957136650154184 0 0.0041930239024726389 -0.0028957136650154184 0 0.0034200465163211633 -0.0030085507794959539 0 0.0033943875907611509 -0.0023768851368029197 0 0.0037474375054820791 -0.0034085148193131278 0 0.0041930239024726389 -0.0028957136650154184 0 0.0034200465163211633 -0.0030085507794959539 0 0.0034200465163211633 -0.0030085507794959539 0 0.0033943875907611509 -0.0023768851368029197 0 0.0026768599414917684 -0.0027123482844752011 0 0.0030549342114004497 -0.00329486916796728 0 0.0034200465163211633 -0.0030085507794959539 0 0.0026768599414917684 -0.0027123482844752011 0 0.0030549342114004497 -0.00329486916796728 0 0.0037474375054820791 -0.0034085148193131278 0 0.0034200465163211633 -0.0030085507794959539 0 0.0041930239024726389 -0.0028957136650154184 0 0.0033943875907611509 -0.0023768851368029197 0 0.004182422965699273 -0.0020013650433325018 0 0.0018536967077894 -0.003212548356570929 0 0.0020048815186941931 -0.0027496442487351443 0 0.0021686745778961118 -0.003153574739077999 0 0.0014774974404512093 -0.0030640387274833607 0 0.0018536967077894 -0.003212548356570929 0 0.0020048815186941931 -0.0027496442487351443 0 0.0020048815186941931 -0.0027496442487351443 0 0.0021686745778961118 -0.003153574739077999 0 0.002453769052910944 -0.0030596702454585749 0 0.0020048815186941931 -0.0027496442487351443 0 0.002453769052910944 -0.0030596702454585749 0 0.0026768599414917684 -0.0027123482844752011 0 0.0030549342114004497 -0.00329486916796728 0 0.002453769052910944 -0.0030596702454585749 0 0.0026768599414917684 -0.0027123482844752011 0 0.0026768599414917684 -0.0027123482844752011 0 0.0022997952405895252 -0.0023398648823947871 0 0.0026367237165424886 -0.0020660541618714306 0 0.0033943875907611509 -0.0023768851368029197 0 0.0026768599414917684 -0.0027123482844752011 0 0.0026367237165424886 -0.0020660541618714306 0 0.0020048815186941931 -0.0027496442487351443 0 0.0026768599414917684 -0.0027123482844752011 0 0.0022997952405895252 -0.0023398648823947871 0 0.0022997952405895252 -0.0023398648823947871 0 0.001928260741488804 -0.0019501815704281553 0 0.0026367237165424886 -0.0020660541618714306 0 0.0020048815186941931 -0.0027496442487351443 0 0.0022997952405895252 -0.0023398648823947871 0 0.001928260741488804 -0.0019501815704281553 0 0.001928260741488804 -0.0019501815704281553 0 0.0026367237165424886 -0.0020660541618714306 0 0.0024393250414424159 -0.0014172139939934278 0 0.0017165453788480132 -0.0011145228938015204 0 0.001928260741488804 -0.0019501815704281553 0 0.0024393250414424159 -0.0014172139939934278 0 0.0026367237165424886 -0.0020660541618714306 0 0.0024393250414424159 -0.0014172139939934278 0 0.0033002894211949054 -0.0016037271531530357 0 0.0024393250414424159 -0.0014172139939934278 0 0.0033002894211949054 -0.0016037271531530357 0 0.0025072112740735656 -0.00065661350488193564 0 0.0017165453788480132 -0.0011145228938015204 0 0.0024393250414424159 -0.0014172139939934278 0 0.0025072112740735656 -0.00065661350488193564 0 0.004182422965699273 -0.0020013650433325018 0 0.0033002894211949054 -0.0016037271531530357 0 0.0048948210701788928 -0.00095656409753595612 0 0.0033002894211949054 -0.0016037271531530357 0 0.0048948210701788928 -0.00095656409753595612 0 0.0025072112740735656 -0.00065661350488193564 0 0.0033943875907611509 -0.0023768851368029197 0 0.004182422965699273 -0.0020013650433325018 0 0.0033002894211949054 -0.0016037271531530357 0 0.0033943875907611509 -0.0023768851368029197 0 0.0026367237165424886 -0.0020660541618714306 0 0.0033002894211949054 -0.0016037271531530357 0 0.004182422965699273 -0.0020013650433325018 0 0.0048948210701788928 -0.00095656409753595612 0 0.0053192921702616041 -0.0022500182788625987 0 0.0041930239024726389 -0.0028957136650154184 0 0.004182422965699273 -0.0020013650433325018 0 0.0053192921702616041 -0.0022500182788625987 0 0.0044092274748515946 -0.0037518791689492097 0 0.0041930239024726389 -0.0028957136650154184 0 0.0050982958038358825 -0.0033933978210859556 0 0.0041930239024726389 -0.0028957136650154184 0 0.0053192921702616041 -0.0022500182788625987 0 0.0050982958038358825 -0.0033933978210859556 0 0.0060081277113197126 -0.0039244383855148307 0 0.0050982958038358825 -0.0033933978210859556 0 0.0062676252692317773 -0.0030274667866114352 0 0.0053192921702616041 -0.0022500182788625987 0 0.0050982958038358825 -0.0033933978210859556 0 0.0062676252692317773 -0.0030274667866114352 0 0.0073874850281780832 -0.0014941831895430681 0 0.0048948210701788928 -0.00095656409753595612 0 0.0053192921702616041 -0.0022500182788625987 0 0.0073874850281780832 -0.0014941831895430681 0 0.0053192921702616041 -0.0022500182788625987 0 0.0062676252692317773 -0.0030274667866114352 0 0.0084736749583029462 -0.002556124370906803 0 0.0065271017161869531 -0.0023955443536848448 0 0.0095612100031594229 -0.0036106017225776481 0 0.0086591446814219698 -0.0039871576985060055 0 0.0093354683471796752 -0.0034686302073218219 0 0.0086591446814219698 -0.0039871576985060055 0 0.0083371594962462908 -0.0035011871980850685 0 0.0093354683471796752 -0.0034686302073218219 0 0.0083371594962462908 -0.0035011871980850685 0 0.0093354683471796752 -0.0034686302073218219 0 0.0091644109482882131 -0.0031711368402849273 0 0.0076265797924054239 -0.003752737828399068 0 0.0078251336021532107 -0.0037654986213570283 0 0.0078961128946700813 -0.0039697320466489088 0 0.0078251336021532107 -0.0037654986213570283 0 0.0078961128946700813 -0.0039697320466489088 0 0.0079898832875697767 -0.0036378455776371675 0 0.0065271017161869531 -0.0023955443536848448 0 0.0062277132853499288 -0.0027225941412802814 0 0.0086591446814219698 -0.0039871576985060055 0 0.0083371594962462908 -0.0035011871980850685 0 0.0079898832875697767 -0.0036378455776371675 0 0.0086591446814219698 -0.0039871576985060055 0 0.0078961128946700813 -0.0039697320466489088 0 0.0079898832875697767 -0.0036378455776371675 0 0.0083371594962462908 -0.0035011871980850685 0 0.0079898832875697767 -0.0036378455776371675 0 0.0079191722767257729 -0.0035019824635054183 0 0.0077180023224479701 -0.0036718817023653795 0 0.0078251336021532107 -0.0037654986213570283 0 0.0079898832875697767 -0.0036378455776371675 0 0.0077672563058761197 -0.0035393377210208542 0 0.0077180023224479701 -0.0036718817023653795 0 0.0079898832875697767 -0.0036378455776371675 0 0.0077672563058761197 -0.0035393377210208542 0 0.0079191722767257729 -0.0035019824635054183 0 0.0077880992053296818 -0.0034793973997023922 0 0.0077672563058761197 -0.0035393377210208542 0 0.0079898832875697767 -0.0036378455776371675 0 0.0079191722767257729 -0.0035019824635054183 0 0.0083371594962462908 -0.0035011871980850685 0 0.0079191722767257729 -0.0035019824635054183 0 0.0080424325012445359 -0.003566184429635418 0 0.0080424325012445359 -0.003566184429635418 0 0.0080297915553837803 -0.0035688451280064836 0 0.0077779578180012122 -0.0036171852244399855 0 0.0079191722767257729 -0.0035019824635054183 0 0.0080424325012445359 -0.003566184429635418 0 0.0077779578180012122 -0.0036171852244399855 0 0.0079191722767257729 -0.0035019824635054183 0 0.0077880992053296818 -0.0034793973997023922 0 0.0077779578180012122 -0.0036171852244399855 0 0.0077880992053296818 -0.0034793973997023922 0 0.0077779578180012122 -0.0036171852244399855 0 0.0077532080102127015 -0.0034463417211452125 0 0.0095462671478689573 -0.0033302956006995999 0 0.0093354683471796752 -0.0034686302073218219 0 0.0091644109482882131 -0.0031711368402849273 0 0.0083079489626813816 -0.0036000232036487215 0 0.0086525307562165012 -0.0031799909116542197 0 0.0083371594962462908 -0.0035011871980850685 0 0.0080424325012445359 -0.003566184429635418 0 0.0080685756405347846 -0.003594399080137701 0 0.0080424325012445359 -0.003566184429635418 0 0.0080685756405347846 -0.003594399080137701 0 0.0080297915553837803 -0.0035688451280064836 0 0.0086525307562165012 -0.0031799909116542197 0 0.0089945171996920602 -0.0045519325072748548 0 0.0080685756405347846 -0.003594399080137701 0 0.0080297915553837803 -0.0035688451280064836 0 0.0082017803440573456 -0.0035588339042417387 0 0.0080297915553837803 -0.0035688451280064836 0 0.0081415925331373828 -0.0034357973000515574 0 0.0082017803440573456 -0.0035588339042417387 0 0.0082150094831296237 -0.008946053434476773 0 0.0078147934344548649 -0.0088673323014956604 0 0.0076798071768584058 -0.0083194644643400095 0 0.0080957078110626985 -0.0063801407897725931 0 0.0089945171996920602 -0.0045519325072748548 0 0.0080297915553837803 -0.0035688451280064836 0 0.0081415925331373828 -0.0034357973000515574 0 0.0078531155099593047 -0.0034353974986513621 0 0.0080957078110626985 -0.0063801407897725931 0 0.0082881240503000549 -0.00601440157069787 0 0.0081415925331373828 -0.0034357973000515574 0 0.0078531155099593047 -0.0034353974986513621 0 0.0079744704161497076 -0.0030786448065956338 0 0.0082150094831296237 -0.008946053434476773 0 0.0080906009181624088 -0.0094541819843478696 0 0.0078147934344548649 -0.0088673323014956604 0 0.0082150094831296237 -0.008946053434476773 0 0.0080906009181624088 -0.0094541819843478696 0 0.0086353732987740524 -0.009514571215608305 0 0.0077779578180012122 -0.0036171852244399855 0 0.0074067863645672022 -0.0035025758043794012 0 0.0068454083273860513 -0.0038794809906279016 0 0.0093351591990058005 -0.0045865956084402805 0 0.003683217036027859 -0.00014891957899876217 0 0.0077779578180012122 -0.0036171852244399855 0 0.0078531155099593047 -0.0034353974986513621 0 0.0074067863645672022 -0.0035025758043794012 0 0.0080297915553837803 -0.0035688451280064836 0 0.0077779578180012122 -0.0036171852244399855 0 0.0078531155099593047 -0.0034353974986513621 0 0.0078531155099593047 -0.0034353974986513621 0 0.0074067863645672022 -0.0035025758043794012 0 0.0074621491911077515 -0.0030719088228497947 0 0.0078531155099593047 -0.0034353974986513621 0 0.0074621491911077515 -0.0030719088228497947 0 0.0079744704161497076 -0.0030786448065956338 0 0.0074067863645672022 -0.0035025758043794012 0 0.0074621491911077515 -0.0030719088228497947 0 0.007005427811879926 -0.0031887194098304734 0 0.0074067863645672022 -0.0035025758043794012 0 0.0068766836044278591 -0.0036512109603645797 0 0.0068454083273860513 -0.0038794809906279016 0 0.0074067863645672022 -0.0035025758043794012 0 0.007005427811879926 -0.0031887194098304734 0 0.0068766836044278591 -0.0036512109603645797 0 0.0074621491911077515 -0.0030719088228497947 0 0.007005427811879926 -0.0031887194098304734 0 0.0067205772790001114 -0.0025048560279112364 0 0.0074621491911077515 -0.0030719088228497947 0 0.007526151509048876 -0.0024515535168959479 0 0.0067205772790001114 -0.0025048560279112364 0 0.007749410953093454 -0.0079798717479649412 0 0.0082881240503000549 -0.00601440157069787 0 0.0074621491911077515 -0.0030719088228497947 0 0.007526151509048876 -0.0024515535168959479 0 0.0079744704161497076 -0.0030786448065956338 0 0.0090735417412067341 -0.010012970488688461 0 0.0086353732987740524 -0.009514571215608305 0 0.0085680112252500881 -0.010168779595894031 0 0.007749410953093454 -0.0079798717479649412 0 0.0088422001062083387 -0.010173809343307375 0 0.007749410953093454 -0.0079798717479649412 0 0.0064220392570448776 -0.0053804377574948603 0 0.0063802234690823684 -0.0085008825667302751 0 0.0060899217720437665 -0.0082348229523520871 0 0.0059036256519089218 -0.0086131433088428647 0 0.007749410953093454 -0.0079798717479649412 0 0.0076722802786502557 -0.0093544034258819918 0 0.0080906009181624088 -0.0094541819843478696 0 0.0083452763680503042 -0.0098536218511248285 0 0.0080672987891657107 -0.0098588126288415966 0 0.0080906009181624088 -0.0094541819843478696 0 0.0080672987891657107 -0.0098588126288415966 0 0.0078273269830749972 -0.0097471648149927825 0 0.0080906009181624088 -0.0094541819843478696 0 0.0086353732987740524 -0.009514571215608305 0 0.0083452763680503042 -0.0098536218511248285 0 0.0086353732987740524 -0.009514571215608305 0 0.0083452763680503042 -0.0098536218511248285 0 0.0085680112252500881 -0.010168779595894031 0 0.0083452763680503042 -0.0098536218511248285 0 0.0085680112252500881 -0.010168779595894031 0 0.0082295426099787961 -0.010164016672765092 0 0.0083452763680503042 -0.0098536218511248285 0 0.0082295426099787961 -0.010164016672765092 0 0.0080672987891657107 -0.0098588126288415966 0 0.0080672987891657107 -0.0098588126288415966 0 0.0079271101319838295 -0.010132937954802928 0 0.0078273269830749972 -0.0097471648149927825 0 0.0082295426099787961 -0.010164016672765092 0 0.0080672987891657107 -0.0098588126288415966 0 0.0079271101319838295 -0.010132937954802928 0 0.0082295426099787961 -0.010164016672765092 0 0.0080831336117630111 -0.010448794040010936 0 0.0079271101319838295 -0.010132937954802928 0 0.0082295426099787961 -0.010164016672765092 0 0.0080831336117630111 -0.010448794040010936 0 0.0083652862415910974 -0.010445029135231931 0 0.0080831336117630111 -0.010448794040010936 0 0.0081675847373368325 -0.01072339946721569 0 0.0083652862415910974 -0.010445029135231931 0 0.0081675847373368325 -0.01072339946721569 0 0.008044809010864894 -0.010971167177117233 0 0.0082514850552918208 -0.011037808184460922 0 0.0080831336117630111 -0.010448794040010936 0 0.0081675847373368325 -0.01072339946721569 0 0.0079639834210254896 -0.010716185060237434 0 0.0081675847373368325 -0.01072339946721569 0 0.008044809010864894 -0.010971167177117233 0 0.0079639834210254896 -0.010716185060237434 0 0.0081675847373368325 -0.01072339946721569 0 0.0084243453323861617 -0.01071752669327092 0 0.0082514850552918208 -0.011037808184460922 0 0.0084243453323861617 -0.01071752669327092 0 0.0086740314222990313 -0.010826649665841501 0 0.0082514850552918208 -0.011037808184460922 0 0.0081675847373368325 -0.01072339946721569 0 0.0084243453323861617 -0.01071752669327092 0 0.0083652862415910974 -0.010445029135231931 0 0.0084243453323861617 -0.01071752669327092 0 0.0083652862415910974 -0.010445029135231931 0 0.0087601662021247664 -0.0104727558671524 0 0.0085680112252500881 -0.010168779595894031 0 0.0083652862415910974 -0.010445029135231931 0 0.0087601662021247664 -0.0104727558671524 0 0.0085680112252500881 -0.010168779595894031 0 0.0082295426099787961 -0.010164016672765092 0 0.0083652862415910974 -0.010445029135231931 0 0.0088544885624475093 -0.010108448715190493 0 0.0085680112252500881 -0.010168779595894031 0 0.0087601662021247664 -0.0104727558671524 0 0.0087601662021247664 -0.0104727558671524 0 0.0090906528716490787 -0.010371580928539202 0 0.0090051275550667633 -0.010892829282580877 0 0.0088544885624475093 -0.010108448715190493 0 0.0087601662021247664 -0.0104727558671524 0 0.0090906528716490787 -0.010371580928539202 0 0.0077244919635505163 -0.011983653547067902 0 0.0061052043899248957 -0.011194240001247054 0 0.0090906528716490787 -0.010371580928539202 0 0.0090051275550667633 -0.010892829282580877 0 0.0093225263977586657 -0.010638993939495651 0 0.0084243453323861617 -0.01071752669327092 0 0.0087601662021247664 -0.0104727558671524 0 0.0086740314222990313 -0.010826649665841501 0 0.0087601662021247664 -0.0104727558671524 0 0.0090051275550667633 -0.010892829282580877 0 0.0086740314222990313 -0.010826649665841501 0 0.0077244919635505163 -0.011983653547067902 0 0.0077889621881482973 -0.011818091169749839 0 0.0090051275550667633 -0.010892829282580877 0 0.0086740314222990313 -0.010826649665841501 0 0.0086344921639789438 -0.011204893424057298 0 0.0061747083790829388 -0.013020928341214192 0 0.0061594519285187738 -0.012126423808832191 0 0.0053981873688556548 -0.012527659138363454 0 0.0061747083790829388 -0.013020928341214192 0 0.0070104967494442737 -0.012457818543645426 0 0.0061594519285187738 -0.012126423808832191 0 0.0061594519285187738 -0.012126423808832191 0 0.0053821252013177947 -0.011773502236984373 0 0.006090066749937127 -0.011462525523042036 0 0.0061594519285187738 -0.012126423808832191 0 0.0070034279234639464 -0.011579112367912921 0 0.006090066749937127 -0.011462525523042036 0 0.0070104967494442737 -0.012457818543645426 0 0.0061594519285187738 -0.012126423808832191 0 0.0070034279234639464 -0.011579112367912921 0 0.0070104967494442737 -0.012457818543645426 0 0.0079579695361455295 -0.011565403273714626 0 0.0070034279234639464 -0.011579112367912921 0 0.0077889621881482973 -0.011818091169749839 0 0.0079631719700759291 -0.011608840877748957 0 0.0080334469430015532 -0.011256153089089949 0 0.0080821325030118792 -0.011327601915534981 0 0.0080752295810472049 -0.011143702372189234 0 0.0079579695361455295 -0.011565403273714626 0 0.0080334469430015532 -0.011256153089089949 0 0.0080821325030118792 -0.011327601915534981 0 0.0080334469430015532 -0.011256153089089949 0 0.008044809010864894 -0.010971167177117233 0 0.0082514850552918208 -0.011037808184460922 0 0.0080334469430015532 -0.011256153089089949 0 0.008044809010864894 -0.010971167177117233 0 0.0080752295810472049 -0.011143702372189234 0 0.0086344921639789438 -0.011204893424057298 0 0.0079579695361455295 -0.011565403273714626 0 0.0082514850552918208 -0.011037808184460922 0 0.0086740314222990313 -0.010826649665841501 0 0.0086344921639789438 -0.011204893424057298 0 0.0082514850552918208 -0.011037808184460922 0 0.0079579695361455295 -0.011565403273714626 0 0.0080334469430015532 -0.011256153089089949 0 0.0082514850552918208 -0.011037808184460922 0 0.0038174890274491041 -0.011993257825337012 0 0.0031770627070758519 -0.011925727403119849 0 0.003459871749167961 -0.011807005810185532 0 0.0038174890274491041 -0.011993257825337012 0 0.0031770627070758519 -0.011925727403119849 0 0.0036826223693142909 -0.012143602545164583 0 0.0031770627070758519 -0.011925727403119849 0 0.0033180737578617243 -0.011770898539039034 0 0.0034296892584094133 -0.011710191920159485 0 0.0031770627070758519 -0.011925727403119849 0 0.0033180737578617243 -0.011770898539039034 0 0.003459871749167961 -0.011807005810185532 0 0.0033180737578617243 -0.011770898539039034 0 0.003459871749167961 -0.011807005810185532 0 0.0033963359703846341 -0.011550845781543263 0 0.0033963359703846341 -0.011550845781543263 0 0.0031871712608772802 -0.011561312558754909 0 0.0032085538891418759 -0.011256743881849716 0 0.003459871749167961 -0.011807005810185532 0 0.0033963359703846341 -0.011550845781543263 0 0.0037940269140704134 -0.0116236815580612 0 0.0033180737578617243 -0.011770898539039034 0 0.0033963359703846341 -0.011550845781543263 0 0.0031871712608772802 -0.011561312558754909 0 0.0033963359703846341 -0.011550845781543263 0 0.0037940269140704134 -0.0116236815580612 0 0.0036140448008911059 -0.011263653054242895 0 0.0038174890274491041 -0.011993257825337012 0 0.0037940269140704134 -0.0116236815580612 0 0.0045853459874967374 -0.011813459537702548 0 0.0037940269140704134 -0.0116236815580612 0 0.0045853459874967374 -0.011813459537702548 0 0.0041975907264339227 -0.01131329508674005 0 0.0038174890274491041 -0.011993257825337012 0 0.003459871749167961 -0.011807005810185532 0 0.0037940269140704134 -0.0116236815580612 0 0.0045853459874967374 -0.011813459537702548 0 0.0053821252013177947 -0.011773502236984373 0 0.0053981873688556548 -0.012527659138363454 0 0.0061594519285187738 -0.012126423808832191 0 0.0053821252013177947 -0.011773502236984373 0 0.0053981873688556548 -0.012527659138363454 0 0.0045853459874967374 -0.011813459537702548 0 0.0053981873688556548 -0.012527659138363454 0 0.004652099739290645 -0.012909556443260053 0 0.0038174890274491041 -0.011993257825337012 0 0.0045853459874967374 -0.011813459537702548 0 0.004652099739290645 -0.012909556443260053 0 0.0038408219801363015 -0.012029325768464612 0 0.0042360831198930832 -0.012614321218011955 0 0.0038174890274491041 -0.011993257825337012 0 0.003871597465808359 -0.012134439390105015 0 0.0036826223693142909 -0.012143602545164583 0 0.003871597465808359 -0.012134439390105015 0 0.0037844507525506272 -0.012345512144390872 0 0.0036826223693142909 -0.012143602545164583 0 0.003871597465808359 -0.012134439390105015 0 0.0037844507525506272 -0.012345512144390872 0 0.0041420935609980817 -0.012379998782754083 0 0.0061747083790829388 -0.013020928341214192 0 0.0053981873688556548 -0.012527659138363454 0 0.0053452154893967076 -0.013578771025950963 0 0.0053981873688556548 -0.012527659138363454 0 0.004652099739290645 -0.012909556443260053 0 0.0053452154893967076 -0.013578771025950963 0 0.0042360831198930832 -0.012614321218011955 0 0.0061052043899248957 -0.011194240001247054 0 0.0060899217720437665 -0.0082348229523520871 0 0.0058076791705960534 -0.0079808368158697553 0 0.0056996136888587574 -0.0083736117192431681 0 0.0076722802786502557 -0.0093544034258819918 0 0.0061052043899248957 -0.011194240001247054 0 0.0061052043899248957 -0.011194240001247054 0 0.0027819861695132231 -0.0093338198662549863 0 0.0037844507525506272 -0.012345512144390872 0 0.0041420935609980817 -0.012379998782754083 0 0.0036817007748461161 -0.012680083588429368 0 0.0058076791705960534 -0.0079808368158697553 0 0.005267131566830412 -0.0083230821301847491 0 0.0056996136888587574 -0.0083736117192431681 0 0.0037844507525506272 -0.012345512144390872 0 0.0036817007748461161 -0.012680083588429368 0 0.003542112083739642 -0.012412808975596774 0 0.0027819861695132231 -0.0093338198662549863 0 0.0027368313062431544 -0.011639194238415406 0 0.00082485860291267794 -0.0086388171674236895 0 0.0018156358626121312 -0.010577849944287428 0 0.002738963768803736 -0.0091184122340150393 0 0.0031770627070758519 -0.011925727403119849 0 0.003542112083739642 -0.012412808975596774 0 0.0036826223693142909 -0.012143602545164583 0 0.003024855993425655 -0.011779809342832865 0 0.0027368313062431544 -0.011639194238415406 0 0.0037844507525506272 -0.012345512144390872 0 0.003542112083739642 -0.012412808975596774 0 0.0036826223693142909 -0.012143602545164583 0 0.0031770627070758519 -0.011925727403119849 0 0.0018156358626121312 -0.010577849944287428 0 0.0031261230797894023 -0.010740570858303464 0 0.0031770627070758519 -0.011925727403119849 0 0.0031261230797894023 -0.010740570858303464 0 0.0034296892584094133 -0.011710191920159485 0 0.002738963768803736 -0.0091184122340150393 0 0.003839698502635359 -0.0077671782953535502 0 0.0047831699901142721 -0.009404483386972683 0 0.0031261230797894023 -0.010740570858303464 0 0.002738963768803736 -0.0091184122340150393 0 0.0047831699901142721 -0.009404483386972683 0 0.0018156358626121312 -0.010577849944287428 0 0.0031261230797894023 -0.010740570858303464 0 0.002738963768803736 -0.0091184122340150393 0 0.002738963768803736 -0.0091184122340150393 0 0.003839698502635359 -0.0077671782953535502 0 0.0026048006975563798 -0.0071230410922556399 0 0.003839698502635359 -0.0077671782953535502 0 0.0026048006975563798 -0.0071230410922556399 0 0.0036830179135494846 -0.0063181778126181875 0 0.00082485860291267794 -0.0086388171674236895 0 0.002738963768803736 -0.0091184122340150393 0 0.0026048006975563798 -0.0071230410922556399 0 0.0006634623867320049 -0.0084243809610183538 0 0.0011347312671702041 -0.0067966495741703676 0 -0.00020277894699586907 -0.0062146559227006896 0 0.0006634623867320049 -0.0084243809610183538 0 0.0026048006975563798 -0.0071230410922556399 0 0.0011347312671702041 -0.0067966495741703676 0 0.0027819861695132231 -0.0093338198662549863 0 0.0019768109871853836 -0.0073160216236986524 0 0.0045003188547571129 -0.003703580612865695 0 0.0052839609839527065 -0.0032773955987089811 0 0.0049699999692440888 -0.0038377091135457357 0 0.0026048006975563798 -0.0071230410922556399 0 0.0011347312671702041 -0.0067966495741703676 0 0.0020187171720230102 -0.0055538536697297951 0 0.0011347312671702041 -0.0067966495741703676 0 0.0020187171720230102 -0.0055538536697297951 0 -0.00020277894699586907 -0.0062146559227006896 0 0.0030033175637091043 -0.0046806303315584281 0 0.0044003204644249682 -0.0053122650954644012 0 0.0045003188547571129 -0.003703580612865695 0 0.0043699395724349369 -0.00416915695117368 0 0.0044482614100703737 -0.0047141650554310974 0 0.0030033175637091043 -0.0046806303315584281 0 0.0045274832330120156 -0.004594543583952674 0 0.0020187171720230102 -0.0055538536697297951 0 0.0036830179135494846 -0.0063181778126181875 0 0.0044482614100703737 -0.0047141650554310974 0 0.0026048006975563798 -0.0071230410922556399 0 0.0020187171720230102 -0.0055538536697297951 0 0.0036830179135494846 -0.0063181778126181875 0 0.0056996136888587574 -0.0083736117192431681 0 0.0059036256519089218 -0.0086131433088428647 0 0.0054360769273862561 -0.0087150228901412569 0 0.0060899217720437665 -0.0082348229523520871 0 0.0056996136888587574 -0.0083736117192431681 0 0.0059036256519089218 -0.0086131433088428647 0 0.005267131566830412 -0.0083230821301847491 0 0.0056996136888587574 -0.0083736117192431681 0 0.0054360769273862561 -0.0087150228901412569 0 0.0027819861695132231 -0.0093338198662549863 0 0.0044003204644249682 -0.0053122650954644012 0 0.0056039803697470764 -0.002656870159962963 0 0.0064181642412889754 -0.003093957354056375 0 0.0059046449615808043 -0.00390394381659976 0 0.0044003204644249682 -0.0053122650954644012 0 0.0059544050954129357 -0.0030625047702330871 0 0.007005427811879926 -0.0031887194098304734 0 0.0067205772790001114 -0.0025048560279112364 0 0.0064181642412889754 -0.003093957354056375 0 0.0064220392570448776 -0.0053804377574948603 0 0.0044003204644249682 -0.0053122650954644012 0 0.0067205772790001114 -0.0025048560279112364 0 0.0056039803697470764 -0.002656870159962963 0 0.0064181642412889754 -0.003093957354056375 0 0.007005427811879926 -0.0031887194098304734 0 0.0064181642412889754 -0.003093957354056375 0 0.0068766836044278591 -0.0036512109603645797 0 0.0064181642412889754 -0.003093957354056375 0 0.0068766836044278591 -0.0036512109603645797 0 0.0059046449615808043 -0.00390394381659976 0 0.0068766836044278591 -0.0036512109603645797 0 0.0059046449615808043 -0.00390394381659976 0 0.0064880341900287819 -0.0046088066311471389 0 0.0052839609839527065 -0.0032773955987089811 0 0.0059046449615808043 -0.00390394381659976 0 0.0049699999692440888 -0.0038377091135457357 0 0.0059046449615808043 -0.00390394381659976 0 0.0049699999692440888 -0.0038377091135457357 0 0.0047998463430825285 -0.0043668506385680407 0 -0.0059579946974391649 0.0055165731206868107 0 -0.0043558557412898486 0.0063916284045092264 0 -0.0070916330607703132 0.0067456009343901746 0 0.0059046449615808043 -0.00390394381659976 0 0.0064880341900287819 -0.0046088066311471389 0 0.0047998463430825285 -0.0043668506385680407 0 0.003683217036027859 -0.00014891957899876217 0 -0.0019945164304973101 0.0016040038774182575 0 0.0060183705860174649 -0.0042883709457886563 0 0.003683217036027859 -0.00014891957899876217 0 -0.0019945164304973101 0.0016040038774182575 0 -0.0011156002183121897 0.00011848273385343631 0 0.0042653909742411721 -0.0040561092638924526 0 0.004542033086067751 -0.0040431527192263889 0 0.0047998463430825285 -0.0043668506385680407 0 0.0042653909742411721 -0.0040561092638924526 0 0.0047998463430825285 -0.0043668506385680407 0 0.0041347178524189536 -0.0040144866369600006 0 0.002616612561535336 -0.00097468183572309308 0 -0.0011156002183121897 0.00011848273385343631 0 0.0043699395724349369 -0.00416915695117368 0 0.0044227916120341418 -0.0042100166866258599 0 0.0044482614100703737 -0.0047141650554310974 0 0.0042653909742411721 -0.0040561092638924526 0 0.0043699395724349369 -0.00416915695117368 0 0.0044227916120341418 -0.0042100166866258599 0 0.0045003188547571129 -0.003703580612865695 0 0.0043699395724349369 -0.00416915695117368 0 0.004542033086067751 -0.0040431527192263889 0 0.0042653909742411721 -0.0040561092638924526 0 0.0043699395724349369 -0.00416915695117368 0 0.004542033086067751 -0.0040431527192263889 0 0.0045003188547571129 -0.003703580612865695 0 0.004542033086067751 -0.0040431527192263889 0 0.0049699999692440888 -0.0038377091135457357 0 0.004542033086067751 -0.0040431527192263889 0 0.0049699999692440888 -0.0038377091135457357 0 0.0047998463430825285 -0.0043668506385680407 0 -0.00756603120734656 0.0050158393998005089 0 -0.0059579946974391649 0.0055165731206868107 0 -0.0070916330607703132 0.0067456009343901746 0 -0.00756603120734656 0.0050158393998005089 0 -0.0070916330607703132 0.0067456009343901746 0 -0.0081158901896049053 0.0063599326169573615 0 -0.0086221186337472177 0.0056511927242805723 0 -0.0081158901896049053 0.0063599326169573615 0 -0.0085809824700120302 0.0062082752828571276 0 -0.0070916330607703132 0.0067456009343901746 0 -0.0081158901896049053 0.0063599326169573615 0 -0.0090965825918564187 0.0069277005604985297 0 -0.0088500905935748053 0.0064954147419767575 0 -0.0085809824700120302 0.0062082752828571276 0 -0.0092119693057088944 0.0063594922113852015 0 -0.0081158901896049053 0.0063599326169573615 0 -0.0088500905935748053 0.0064954147419767575 0 -0.0085809824700120302 0.0062082752828571276 0 -0.0081158901896049053 0.0063599326169573615 0 -0.0088500905935748053 0.0064954147419767575 0 -0.0090965825918564187 0.0069277005604985297 0 -0.0086221186337472177 0.0056511927242805723 0 -0.0085809824700120302 0.0062082752828571276 0 -0.0090848005054916907 0.0059534840917557673 0 -0.0085809824700120302 0.0062082752828571276 0 -0.0090848005054916907 0.0059534840917557673 0 -0.0092119693057088944 0.0063594922113852015 0 -0.0090848005054916907 0.0059534840917557673 0 -0.0094931034841344263 0.005871434758474901 0 -0.0094812064652660434 0.0061824022085834544 0 -0.0090848005054916907 0.0059534840917557673 0 -0.0094812064652660434 0.0061824022085834544 0 -0.0092119693057088944 0.0063594922113852015 0 -0.0098392070790630556 0.0058281864224950953 0 -0.0094931034841344263 0.005871434758474901 0 -0.0097352016840634159 0.0060866544028134739 0 -0.0094931034841344263 0.005871434758474901 0 -0.0094812064652660434 0.0061824022085834544 0 -0.0097352016840634159 0.0060866544028134739 0 -0.0094812064652660434 0.0061824022085834544 0 -0.0097352016840634159 0.0060866544028134739 0 -0.0098131488315165959 0.0063276132150387422 0 -0.0094812064652660434 0.0061824022085834544 0 -0.0098131488315165959 0.0063276132150387422 0 -0.0095992573608271146 0.0065088886185667291 0 -0.0098131488315165959 0.0063276132150387422 0 -0.0095992573608271146 0.0065088886185667291 0 -0.0098618120855192577 0.0065389637907018227 0 -0.0094812064652660434 0.0061824022085834544 0 -0.0095992573608271146 0.0065088886185667291 0 -0.0092119693057088944 0.0063594922113852015 0 -0.0094957944140492551 0.0067109156979681299 0 -0.0095992573608271146 0.0065088886185667291 0 -0.0092676421045577335 0.0066130296336501257 0 -0.0094957944140492551 0.0067109156979681299 0 -0.0095992573608271146 0.0065088886185667291 0 -0.0097095544727728508 0.0066539349921388201 0 -0.0095992573608271146 0.0065088886185667291 0 -0.0097095544727728508 0.0066539349921388201 0 -0.0098618120855192577 0.0065389637907018227 0 -0.0097095544727728508 0.0066539349921388201 0 -0.0098618120855192577 0.0065389637907018227 0 -0.009876161787438149 0.0067065090911666986 0 -0.0088500905935748053 0.0064954147419767575 0 -0.0092119693057088944 0.0063594922113852015 0 -0.0092676421045577335 0.0066130296336501257 0 -0.0095992573608271146 0.0065088886185667291 0 -0.0092119693057088944 0.0063594922113852015 0 -0.0092676421045577335 0.0066130296336501257 0 -0.0088500905935748053 0.0064954147419767575 0 -0.0092676421045577335 0.0066130296336501257 0 -0.0090965825918564187 0.0069277005604985297 0 0.0042653909742411721 -0.0040561092638924526 0 0.0045198768470420198 -0.003873021345106799 0 0.0047021409337915151 -0.0039995403753444467 0 0.0048026381147653141 -0.0041800176019402514 0 0.0056364836679855491 -0.0035792443983833542 0 0.0055220033856293108 -0.0060781816468433638 0 0.0042653909742411721 -0.0040561092638924526 0 0.0047021409337915151 -0.0039995403753444467 0 0.0044227916120341418 -0.0042100166866258599 0 -0.0094957944140492551 0.0067109156979681299 0 -0.0092676421045577335 0.0066130296336501257 0 -0.0090965825918564187 0.0069277005604985297 0 0.0047021409337915151 -0.0039995403753444467 0 0.0048026381147653141 -0.0041800176019402514 0 0.0056364836679855491 -0.0035792443983833542 0 -0.0094957944140492551 0.0067109156979681299 0 -0.0090965825918564187 0.0069277005604985297 0 -0.0097138600510349969 0.0068017734856384944 0 -0.0090965825918564187 0.0069277005604985297 0 -0.0097138600510349969 0.0068017734856384944 0 -0.009950863791551268 0.0068973194457612507 0 -0.0011156002183121897 0.00011848273385343631 0 -0.0023772386947249029 -0.0034312879906215534 0 0.0045198768470420198 -0.003873021345106799 0 0.0047021409337915151 -0.0039995403753444467 0 0.0056364836679855491 -0.0035792443983833542 0 -0.0094957944140492551 0.0067109156979681299 0 -0.0097095544727728508 0.0066539349921388201 0 -0.0097138600510349969 0.0068017734856384944 0 -0.0097095544727728508 0.0066539349921388201 0 -0.0097138600510349969 0.0068017734856384944 0 -0.009876161787438149 0.0067065090911666986 0 -0.0097138600510349969 0.0068017734856384944 0 -0.0098841168553499472 0.0068058179849053132 0 -0.009876161787438149 0.0067065090911666986 0 0.0044227916120341418 -0.0042100166866258599 0 0.0048026381147653141 -0.0041800176019402514 0 0.0044482614100703737 -0.0047141650554310974 0 0.0047021409337915151 -0.0039995403753444467 0 0.0044227916120341418 -0.0042100166866258599 0 0.0048026381147653141 -0.0041800176019402514 0 0.0022531182229609896 -0.013150763228661743 0 0.0016755768383040241 -0.013216266533292833 0 0.0020855834339569227 -0.012878643856622731 0 -0.0023772386947249029 -0.0034312879906215534 0 -0.0053707825386659618 -0.0030854483307720423 0 -0.0097138600510349969 0.0068017734856384944 0 -0.009950863791551268 0.0068973194457612507 0 -0.0098841168553499472 0.0068058179849053132 0 -0.009950863791551268 0.0068973194457612507 0 -0.0099769329076341683 0.0068110893471903826 0 -0.0098841168553499472 0.0068058179849053132 0 -0.0023772386947249029 -0.0034312879906215534 0 -0.0024841566735133353 -0.0022685156007509109 0 -0.0099769329076341683 0.0068110893471903826 0 -0.0098841168553499472 0.0068058179849053132 0 -0.009876161787438149 0.0067065090911666986 0 -0.0099484984427596779 0.0069171391058089424 0 -0.010301481833682348 0.0064434602310049164 0 -0.011084554828243547 0.0064233103831132041 0 -0.0099484984427596779 0.0069171391058089424 0 -0.0099769329076341683 0.0068110893471903826 0 -0.010301481833682348 0.0064434602310049164 0 -0.0099769329076341683 0.0068110893471903826 0 -0.009876161787438149 0.0067065090911666986 0 -0.010008263864652431 0.0065820475852796786 0 -0.0098618120855192577 0.0065389637907018227 0 -0.009876161787438149 0.0067065090911666986 0 -0.010008263864652431 0.0065820475852796786 0 -0.0098618120855192577 0.0065389637907018227 0 -0.010008263864652431 0.0065820475852796786 0 -0.010030403393592943 0.0064074033796461972 0 -0.0099769329076341683 0.0068110893471903826 0 -0.010008263864652431 0.0065820475852796786 0 -0.010301481833682348 0.0064434602310049164 0 -0.010301481833682348 0.0064434602310049164 0 -0.010030403393592943 0.0064074033796461972 0 -0.010082285089491803 0.0061314668732818075 0 -0.010008263864652431 0.0065820475852796786 0 -0.010301481833682348 0.0064434602310049164 0 -0.010030403393592943 0.0064074033796461972 0 -0.0098131488315165959 0.0063276132150387422 0 -0.010030403393592943 0.0064074033796461972 0 -0.010082285089491803 0.0061314668732818075 0 -0.0098131488315165959 0.0063276132150387422 0 -0.0098618120855192577 0.0065389637907018227 0 -0.010030403393592943 0.0064074033796461972 0 -0.010301481833682348 0.0064434602310049164 0 -0.010082285089491803 0.0061314668732818075 0 -0.010527431659435389 0.0059573803516195512 0 -0.0097352016840634159 0.0060866544028134739 0 -0.0098131488315165959 0.0063276132150387422 0 -0.010082285089491803 0.0061314668732818075 0 -0.010189938689378609 0.0057151320439168046 0 -0.010082285089491803 0.0061314668732818075 0 -0.010527431659435389 0.0059573803516195512 0 -0.010189938689378609 0.0057151320439168046 0 -0.0098392070790630556 0.0058281864224950953 0 -0.010082285089491803 0.0061314668732818075 0 -0.0098392070790630556 0.0058281864224950953 0 -0.0097352016840634159 0.0060866544028134739 0 -0.010082285089491803 0.0061314668732818075 0 -0.010301481833682348 0.0064434602310049164 0 -0.010527431659435389 0.0059573803516195512 0 -0.011084554828243547 0.0064233103831132041 0 -0.010971611266905584 0.0057727543406789353 0 -0.011657520756714185 0.0058706904944778784 0 -0.011084554828243547 0.0064233103831132041 0 -0.011657520756714185 0.0058706904944778784 0 -0.011084554828243547 0.0064233103831132041 0 -0.011492380454329267 0.0069941628590243863 0 -0.010971611266905584 0.0057727543406789353 0 -0.010527431659435389 0.0059573803516195512 0 -0.011084554828243547 0.0064233103831132041 0 -0.012519753218281955 0.006307088568667232 0 -0.011492380454329267 0.0069941628590243863 0 -0.013091268316457754 0.0069965410846288042 0 -0.011657520756714185 0.0058706904944778784 0 -0.012519753218281955 0.006307088568667232 0 -0.011492380454329267 0.0069941628590243863 0 -0.012699996326786348 0.0055576122575871486 0 -0.011657520756714185 0.0058706904944778784 0 -0.012519753218281955 0.006307088568667232 0 -0.0053707825386659618 -0.0030854483307720423 0 -0.0053192051520493345 -0.0030550153330309773 0 0.0016755768383040241 -0.013216266533292833 0 0.0012778761980586223 -0.012742708989303214 0 0.00097622285094553908 -0.013230577347746283 0 -0.0099484984427596779 0.0069171391058089424 0 -0.011084554828243547 0.0064233103831132041 0 -0.011492380454329267 0.0069941628590243863 0 0.0016755768383040241 -0.013216266533292833 0 0.0018110009238243036 -0.012677103847220662 0 0.0020855834339569227 -0.012878643856622731 0 0.0016755768383040241 -0.013216266533292833 0 0.0018110009238243036 -0.012677103847220662 0 0.0012778761980586223 -0.012742708989303214 0 0.0012778761980586223 -0.012742708989303214 0 0.0015469967133594749 -0.012432851699233737 0 0.00090503425414474679 -0.012226007039421458 0 0.0018110009238243036 -0.012677103847220662 0 0.0012778761980586223 -0.012742708989303214 0 0.0015469967133594749 -0.012432851699233737 0 0.0018110009238243036 -0.012677103847220662 0 0.0019886137154588664 -0.012428403706665613 0 0.0022346115033598422 -0.01253263008388956 0 0.0018110009238243036 -0.012677103847220662 0 0.0015469967133594749 -0.012432851699233737 0 0.0019886137154588664 -0.012428403706665613 0 0.0019886137154588664 -0.012428403706665613 0 0.0022346115033598422 -0.01253263008388956 0 0.002288388328107785 -0.012218397471979111 0 0.0022346115033598422 -0.01253263008388956 0 0.0024512505475567867 -0.012694437369277559 0 0.0027757627866985724 -0.012304863879744683 0 0.0046119667912146558 -0.010347280187386175 0 0.0037078189406184181 -0.010597114233885202 0 0.003839698502635359 -0.0077671782953535502 0 0.0036830179135494846 -0.0063181778126181875 0 0.0055220033856293108 -0.0060781816468433638 0 0.003839698502635359 -0.0077671782953535502 0 0.0055220033856293108 -0.0060781816468433638 0 0.0047831699901142721 -0.009404483386972683 0 0.0048026381147653141 -0.0041800176019402514 0 0.0055220033856293108 -0.0060781816468433638 0 0.0044482614100703737 -0.0047141650554310974 0 0.0036830179135494846 -0.0063181778126181875 0 0.0055220033856293108 -0.0060781816468433638 0 0.0044482614100703737 -0.0047141650554310974 0 -0.0023772386947249029 -0.0034312879906215534 0 0.0046119667912146558 -0.010347280187386175 0 0.0022346115033598422 -0.01253263008388956 0 0.0024512505475567867 -0.012694437369277559 0 0.0020855834339569227 -0.012878643856622731 0 0.0018110009238243036 -0.012677103847220662 0 0.0022346115033598422 -0.01253263008388956 0 0.0020855834339569227 -0.012878643856622731 0 0.0022531182229609896 -0.013150763228661743 0 0.0024512505475567867 -0.012694437369277559 0 0.0020855834339569227 -0.012878643856622731 0 -0.013478936700367426 -0.0076841654549633454 0 -0.013454353281840872 -0.0077241936669781288 0 -0.013475525128450102 -0.0076835584667789619 0 -0.016546576458750975 -0.0017295244635776776 0 -0.018502249582784291 -0.0021990735728301567 0 -0.013478936700367426 -0.0076841654549633454 0 -0.013442018055830427 -0.0077423328056043881 0 -0.013454353281840872 -0.0077241936669781288 0 -0.016546576458750975 -0.0017295244635776776 0 -0.013776150263280973 -0.0092511013176016683 0 -0.019039835601397638 0.0041183562573676247 0 -0.016546576458750975 -0.0017295244635776776 0 -0.022460172723389675 0.0016377783932592031 0 -0.022337552559591328 0.0010232636935751981 0 -0.022190579299950438 0.0013953917084647356 0 -0.022337552559591328 0.0010232636935751981 0 -0.022190579299950438 0.0013953917084647356 0 -0.021941019564592493 0.0012956179150143798 0 -0.022057580342571496 0.0015870414292796513 0 -0.022190579299950438 0.0013953917084647356 0 -0.021941019564592493 0.0012956179150143798 0 -0.015112502697319299 0.0047934262958982468 0 -0.014848949059812716 0.0033870510475874447 0 -0.0155643812132475 0.0044179653290243818 0 -0.015016785392314597 0.0063327481770485512 0 -0.010300098037719167 -0.0038158895143057879 0 -0.014848949059812716 0.0033870510475874447 0 -0.0155643812132475 0.0044179653290243818 0 -0.015960673895989257 0.0033635310518619873 0 -0.013430419614743562 -0.007764244055214242 0 -0.013348248569824398 -0.007779417055927885 0 -0.013370888093708283 -0.0077753673884681821 0 -0.016546576458750975 -0.0017295244635776776 0 -0.010300098037719167 -0.0038158895143057879 0 -0.013430419614743562 -0.007764244055214242 0 -0.013370888093708283 -0.0077753673884681821 0 -0.013442018055830427 -0.0077423328056043881 0 0.00023455740493635036 -0.013180063838626917 0 0.00097622285094553908 -0.013230577347746283 0 0.00059234026374597592 -0.01268534983201523 0 -0.010300098037719167 -0.0038158895143057879 0 -0.006184954449673004 -0.011412302696914975 0 -0.010300098037719167 -0.0038158895143057879 0 -0.0053192051520493345 -0.0030550153330309773 0 -0.014441167187191692 0.0057218799742291652 0 -0.01506638895451407 0.0058858184732884259 0 -0.014622737341684495 0.0069179131271414037 0 -0.014441167187191692 0.0057218799742291652 0 -0.014622737341684495 0.0069179131271414037 0 -0.013646853759627398 0.0061239348214445462 0 -0.012519753218281955 0.006307088568667232 0 -0.013646853759627398 0.0061239348214445462 0 -0.013091268316457754 0.0069965410846288042 0 -0.014622737341684495 0.0069179131271414037 0 -0.013646853759627398 0.0061239348214445462 0 -0.013091268316457754 0.0069965410846288042 0 -0.012699996326786348 0.0055576122575871486 0 -0.012519753218281955 0.006307088568667232 0 -0.013646853759627398 0.0061239348214445462 0 0.0012778761980586223 -0.012742708989303214 0 0.00097622285094553908 -0.013230577347746283 0 0.00059234026374597592 -0.01268534983201523 0 0.0012778761980586223 -0.012742708989303214 0 0.00059234026374597592 -0.01268534983201523 0 0.00090503425414474679 -0.012226007039421458 0 -0.006184954449673004 -0.011412302696914975 0 -0.0062951909491098159 -0.0096858108402800083 0 -0.013321973978681359 -0.0077710292291902558 0 -0.01329633187061484 -0.0078080103609660797 0 -0.01316567560108513 -0.0077730593774216579 0 -0.013321973978681359 -0.0077710292291902558 0 -0.01329633187061484 -0.0078080103609660797 0 -0.013390285353323489 -0.0077719217067814114 0 -0.013348248569824398 -0.007779417055927885 0 -0.01329633187061484 -0.0078080103609660797 0 -0.013370888093708283 -0.0077753673884681821 0 -0.01329633187061484 -0.0078080103609660797 0 -0.013370888093708283 -0.0077753673884681821 0 -0.013390285353323489 -0.0077719217067814114 0 -0.013370888093708283 -0.0077753673884681821 0 -0.013390285353323489 -0.0077719217067814114 0 -0.013442018055830427 -0.0077423328056043881 0 -0.013390285353323489 -0.0077719217067814114 0 -0.013432988551556391 -0.0077518532447419511 0 -0.013436640731754062 -0.0077715783477913551 0 -0.013321973978681359 -0.0077710292291902558 0 -0.013390285353323489 -0.0077719217067814114 0 -0.013436640731754062 -0.0077715783477913551 0 -0.013432988551556391 -0.0077518532447419511 0 -0.013442018055830427 -0.0077423328056043881 0 -0.013454353281840872 -0.0077241936669781288 0 -0.013390285353323489 -0.0077719217067814114 0 -0.013432988551556391 -0.0077518532447419511 0 -0.013442018055830427 -0.0077423328056043881 0 -0.013371938656256167 -0.007906194753817283 0 -0.013402685241258285 -0.0077858146876868626 0 -0.013194342966548433 -0.0080762484372473558 0 -0.013371938656256167 -0.007906194753817283 0 -0.013520407933492285 -0.0080736616173045141 0 -0.013194342966548433 -0.0080762484372473558 0 -0.013371938656256167 -0.007906194753817283 0 -0.013436640731754062 -0.0077715783477913551 0 -0.013402685241258285 -0.0077858146876868626 0 -0.013432988551556391 -0.0077518532447419511 0 -0.013436640731754062 -0.0077715783477913551 0 -0.013402685241258285 -0.0077858146876868626 0 -0.013286796057589001 -0.007716032808106516 0 -0.013925369186987301 -0.0078359427091540552 0 -0.013371938656256167 -0.007906194753817283 0 -0.013436640731754062 -0.0077715783477913551 0 -0.013520407933492285 -0.0080736616173045141 0 -0.013436640731754062 -0.0077715783477913551 0 -0.013520407933492285 -0.0080736616173045141 0 -0.013704934390759068 -0.0079192644817184538 0 -0.013520407933492285 -0.0080736616173045141 0 -0.013725593788531019 -0.0080599795628498762 0 -0.013704934390759068 -0.0079192644817184538 0 -0.013725593788531019 -0.0080599795628498762 0 -0.013704934390759068 -0.0079192644817184538 0 -0.013903416662808352 -0.0080472693238714463 0 -0.013321973978681359 -0.0077710292291902558 0 -0.013436640731754062 -0.0077715783477913551 0 -0.013282871264389845 -0.0076508764856681385 0 -0.013321973978681359 -0.0077710292291902558 0 -0.013282871264389845 -0.0076508764856681385 0 -0.01316567560108513 -0.0077730593774216579 0 -0.013282871264389845 -0.0076508764856681385 0 -0.01316567560108513 -0.0077730593774216579 0 -0.013015211111446778 -0.0076062036301634429 0 -0.0062951909491098159 -0.0096858108402800083 0 -0.0039314827646267604 -0.010511639603940694 0 -0.013925369186987301 -0.0078359427091540552 0 -0.010714348534756793 -0.0089586294094449459 0 -0.013282871264389845 -0.0076508764856681385 0 -0.013015211111446778 -0.0076062036301634429 0 -0.013052283403518024 -0.0075762643179968538 0 -0.010714348534756793 -0.0089586294094449459 0 -0.0040230090985989824 -0.010616263983668278 0 -0.0052521851128771923 -0.0096664195694183518 0 -0.0048455001271998262 -0.0099981158149773063 0 -0.0055285297522677549 -0.010340229241838706 0 -0.0039314827646267604 -0.010511639603940694 0 -0.010714348534756793 -0.0089586294094449459 0 -0.012393413941812812 -0.0091556417014199126 0 -0.012528105090734388 -0.0088270846925930374 0 -0.012629664939488576 -0.0091588408001696958 0 -0.013725593788531019 -0.0080599795628498762 0 -0.013903416662808352 -0.0080472693238714463 0 -0.013749139920965204 -0.0082024526957867622 0 -0.012330742142460709 -0.0093728713728803859 0 -0.012393413941812812 -0.0091556417014199126 0 -0.012629664939488576 -0.0091588408001696958 0 -0.010714348534756793 -0.0089586294094449459 0 -0.013540885188791027 -0.0084874307621312407 0 -0.012330742142460709 -0.0093728713728803859 0 -0.012393413941812812 -0.0091556417014199126 0 -0.012226425052309673 -0.0093231815696850472 0 -0.012393413941812812 -0.0091556417014199126 0 -0.012528105090734388 -0.0088270846925930374 0 -0.012113723301939498 -0.0089549752677001177 0 -0.012528105090734388 -0.0088270846925930374 0 -0.012629664939488576 -0.0091588408001696958 0 -0.01291109101832571 -0.0089420660768768923 0 -0.012528105090734388 -0.0088270846925930374 0 -0.01291109101832571 -0.0089420660768768923 0 -0.012929533445456047 -0.0086702743923269491 0 -0.013520407933492285 -0.0080736616173045141 0 -0.013725593788531019 -0.0080599795628498762 0 -0.013749139920965204 -0.0082024526957867622 0 -0.013540885188791027 -0.0084874307621312407 0 -0.013156432066411922 -0.0087163214217025661 0 -0.013520407933492285 -0.0080736616173045141 0 -0.013546100788524954 -0.0084090678945616081 0 -0.013339082295339226 -0.0083189434901284384 0 -0.013520407933492285 -0.0080736616173045141 0 -0.013749139920965204 -0.0082024526957867622 0 -0.013546100788524954 -0.0084090678945616081 0 -0.013156432066411922 -0.0087163214217025661 0 -0.013248435943606677 -0.0086155060885766289 0 -0.013546100788524954 -0.0084090678945616081 0 -0.013339082295339226 -0.0083189434901284384 0 -0.013218247813309878 -0.008621627212313689 0 -0.01291109101832571 -0.0089420660768768923 0 -0.013218247813309878 -0.008621627212313689 0 -0.012929533445456047 -0.0086702743923269491 0 -0.013339082295339226 -0.0083189434901284384 0 -0.013218247813309878 -0.008621627212313689 0 -0.013178186844505462 -0.0085563568251856119 0 -0.013339082295339226 -0.0083189434901284384 0 -0.013178186844505462 -0.0085563568251856119 0 -0.013194342966548433 -0.0080762484372473558 0 -0.013520407933492285 -0.0080736616173045141 0 -0.013339082295339226 -0.0083189434901284384 0 -0.013194342966548433 -0.0080762484372473558 0 0.002592335754124517 -0.011884940780280625 0 0.002288388328107785 -0.012218397471979111 0 0.0020631366218122659 -0.011870541348923446 0 0.0031261230797894023 -0.010740570858303464 0 0.0047831699901142721 -0.009404483386972683 0 0.0034296892584094133 -0.011710191920159485 0 0.0037078189406184181 -0.010597114233885202 0 0.00349726348307334 -0.011676636357343272 0 0.002592335754124517 -0.011884940780280625 0 0.0027757627866985724 -0.012304863879744683 0 0.0034296892584094133 -0.011710191920159485 0 0.0022346115033598422 -0.01253263008388956 0 0.0027757627866985724 -0.012304863879744683 0 0.002288388328107785 -0.012218397471979111 0 0.002592335754124517 -0.011884940780280625 0 0.0027757627866985724 -0.012304863879744683 0 0.002288388328107785 -0.012218397471979111 0 0.0019886137154588664 -0.012428403706665613 0 0.002288388328107785 -0.012218397471979111 0 0.0017066652348032316 -0.012065467243961714 0 0.002288388328107785 -0.012218397471979111 0 0.0017066652348032316 -0.012065467243961714 0 0.0020631366218122659 -0.011870541348923446 0 0.0015469967133594749 -0.012432851699233737 0 0.0019886137154588664 -0.012428403706665613 0 0.0017066652348032316 -0.012065467243961714 0 0.00090503425414474679 -0.012226007039421458 0 0.001175030540086295 -0.011616411489051693 0 0.0017066652348032316 -0.012065467243961714 0 0.0015469967133594749 -0.012432851699233737 0 0.00090503425414474679 -0.012226007039421458 0 0.0017066652348032316 -0.012065467243961714 0 -0.0039314827646267604 -0.010511639603940694 0 0.003215369219390995 -0.013001074607792032 0 0.0014498884142925142 -0.011866922170406993 0 0.0017066652348032316 -0.012065467243961714 0 0.0016938700062554468 -0.011846864111076721 0 0.0016938700062554468 -0.011846864111076721 0 0.0014868373320969883 -0.011763583415615741 0 0.0018185324966228161 -0.01163818287834861 0 0.0014498884142925142 -0.011866922170406993 0 0.0016938700062554468 -0.011846864111076721 0 0.0014868373320969883 -0.011763583415615741 0 -0.0039314827646267604 -0.010511639603940694 0 -0.0040230090985989824 -0.010616263983668278 0 0.0017066652348032316 -0.012065467243961714 0 0.0016938700062554468 -0.011846864111076721 0 0.0020631366218122659 -0.011870541348923446 0 0.0016938700062554468 -0.011846864111076721 0 0.0020631366218122659 -0.011870541348923446 0 0.0018185324966228161 -0.01163818287834861 0 0.0020631366218122659 -0.011870541348923446 0 0.0018185324966228161 -0.01163818287834861 0 0.0021735113906904968 -0.011567869384684274 0 0.0015119525888423605 -0.01190640041519464 0 0.0013164307403924656 -0.011251332800233965 0 0.00181868624514086 -0.011279933344724814 0 0.0015119525888423605 -0.01190640041519464 0 0.0021735113906904968 -0.011567869384684274 0 0.00181868624514086 -0.011279933344724814 0 0.0022265605940913211 -0.011401038670225178 0 0.0019073498859076741 -0.011676718844942631 0 -0.0040230090985989824 -0.010616263983668278 0 -0.0056089397493627891 -0.010219074065495442 0 -0.012393413941812812 -0.0091556417014199126 0 -0.012226425052309673 -0.0093231815696850472 0 -0.012113723301939498 -0.0089549752677001177 0 0.00081988377970470345 -0.012205887839232885 0 0.0015119525888423605 -0.01190640041519464 0 0.0013164307403924656 -0.011251332800233965 0 -0.0040230090985989824 -0.010616263983668278 0 0.0022265605940913211 -0.011401038670225178 0 -0.012528105090734388 -0.0088270846925930374 0 -0.012113723301939498 -0.0089549752677001177 0 -0.012253482999664247 -0.0087285621421870369 0 0.0021735113906904968 -0.011567869384684274 0 0.00181868624514086 -0.011279933344724814 0 0.0024001046675464995 -0.011221164934258874 0 0.0013164307403924656 -0.011251332800233965 0 0.00181868624514086 -0.011279933344724814 0 0.001815771176945008 -0.010848555147260993 0 0.00181868624514086 -0.011279933344724814 0 0.0024001046675464995 -0.011221164934258874 0 0.001815771176945008 -0.010848555147260993 0 0.0021735113906904968 -0.011567869384684274 0 0.0024001046675464995 -0.011221164934258874 0 0.0028172496282875925 -0.011554371908143384 0 0.0024001046675464995 -0.011221164934258874 0 0.0028172496282875925 -0.011554371908143384 0 0.0029332891719262978 -0.011229759611828344 0 0.002592335754124517 -0.011884940780280625 0 0.0021735113906904968 -0.011567869384684274 0 0.0028172496282875925 -0.011554371908143384 0 0.002592335754124517 -0.011884940780280625 0 0.0020631366218122659 -0.011870541348923446 0 0.0021735113906904968 -0.011567869384684274 0 0.0028172496282875925 -0.011554371908143384 0 0.0034296892584094133 -0.011710191920159485 0 0.0031871712608772802 -0.011561312558754909 0 0.0033180737578617243 -0.011770898539039034 0 0.0034296892584094133 -0.011710191920159485 0 0.0031871712608772802 -0.011561312558754909 0 0.002592335754124517 -0.011884940780280625 0 0.0028172496282875925 -0.011554371908143384 0 0.0034296892584094133 -0.011710191920159485 0 0.0031871712608772802 -0.011561312558754909 0 0.0029332891719262978 -0.011229759611828344 0 0.0032085538891418759 -0.011256743881849716 0 0.0028172496282875925 -0.011554371908143384 0 0.0031871712608772802 -0.011561312558754909 0 0.0029332891719262978 -0.011229759611828344 0 0.0032085538891418759 -0.011256743881849716 0 0.0029384457042411346 -0.011064884030462544 0 0.0033679970050844855 -0.010897423197291515 0 0.0028943350743020559 -0.011101852675948451 0 0.002482592495175824 -0.011051968515527897 0 0.0029332891719262978 -0.011229759611828344 0 0.0032085538891418759 -0.011256743881849716 0 0.0029384457042411346 -0.011064884030462544 0 0.0023276626822100487 -0.011924461766283511 0 0.0027228781766898947 -0.011077138231767073 0 0.0031568836645528863 -0.011557011445091138 0 0.002482592495175824 -0.011051968515527897 0 0.003266197080336453 -0.011257051179258399 0 0.0023276626822100487 -0.011924461766283511 0 0.0027228781766898947 -0.011077138231767073 0 0.0022043238854461862 -0.010724913749770604 0 0.002482592495175824 -0.011051968515527897 0 0.0023731787283259118 -0.010782060061046556 0 0.0018373132282872577 -0.010665248050097921 0 0.0017622112851722307 -0.01062018852355969 0 0.0017824886071491201 -0.010686680803343715 0 0.0018373132282872577 -0.010665248050097921 0 0.0017622112851722307 -0.01062018852355969 0 0.0017538896384807102 -0.010548686113931264 0 0.0017622112851722307 -0.01062018852355969 0 0.0017824886071491201 -0.010686680803343715 0 0.0016684207030757928 -0.010569447806434722 0 0.0024001046675464995 -0.011221164934258874 0 0.0028690559084097299 -0.010482186424880826 0 0.001815771176945008 -0.010848555147260993 0 0.002482592495175824 -0.011051968515527897 0 0.0018171114953378061 -0.010732211226529157 0 0.0018373132282872577 -0.010665248050097921 0 0.001815771176945008 -0.010848555147260993 0 0.0017824886071491201 -0.010686680803343715 0 0.0024001046675464995 -0.011221164934258874 0 0.0029332891719262978 -0.011229759611828344 0 0.0028690559084097299 -0.010482186424880826 0 0.0013164307403924656 -0.011251332800233965 0 0.001815771176945008 -0.010848555147260993 0 0.0016455850702584022 -0.010641784517742486 0 0.001815771176945008 -0.010848555147260993 0 0.0016455850702584022 -0.010641784517742486 0 0.0017824886071491201 -0.010686680803343715 0 -0.012113723301939498 -0.0089549752677001177 0 -0.012045946320266801 -0.0086327258804531661 0 -0.012253482999664247 -0.0087285621421870369 0 -0.0056089397493627891 -0.010219074065495442 0 -0.005192863121103973 -0.0095828411139054961 0 -0.012045946320266801 -0.0086327258804531661 0 -0.012253482999664247 -0.0087285621421870369 0 -0.012374113139143366 -0.0085431470468310018 0 -0.012045946320266801 -0.0086327258804531661 0 -0.012180282474727949 -0.0084206955882532766 0 -0.012374113139143366 -0.0085431470468310018 0 0.0028684566840098389 -0.011128912853759169 0 -0.0050489378586947627 -0.0095817461234245175 0 -0.005192863121103973 -0.0095828411139054961 0 -0.0050489378586947627 -0.0095817461234245175 0 -0.012045946320266801 -0.0086327258804531661 0 -0.012180282474727949 -0.0084206955882532766 0 -0.012019260372014 -0.0083847724960108803 0 0.0016455850702584022 -0.010641784517742486 0 0.0017824886071491201 -0.010686680803343715 0 0.001644773736334643 -0.010388570510078536 0 -0.012180282474727949 -0.0084206955882532766 0 -0.012019260372014 -0.0083847724960108803 0 -0.012158453095589683 -0.00830826365169887 0 -0.012019260372014 -0.0083847724960108803 0 -0.012158453095589683 -0.00830826365169887 0 -0.012142918983441227 -0.0082323735142813825 0 -0.0050489378586947627 -0.0095817461234245175 0 -0.012382455578605386 -0.0083574638347415093 0 -0.012180282474727949 -0.0084206955882532766 0 -0.012307956188746205 -0.0082872472325172669 0 -0.012374113139143366 -0.0085431470468310018 0 -0.012180282474727949 -0.0084206955882532766 0 -0.012158453095589683 -0.00830826365169887 0 -0.012307956188746205 -0.0082872472325172669 0 -0.012307956188746205 -0.0082872472325172669 0 -0.012194159783795898 -0.0082485791086086384 0 -0.012215512322652613 -0.0081969921919120212 0 -0.012307956188746205 -0.0082872472325172669 0 -0.012321948731077975 -0.0081288841812335744 0 -0.012215512322652613 -0.0081969921919120212 0 -0.012158453095589683 -0.00830826365169887 0 -0.012307956188746205 -0.0082872472325172669 0 -0.012194159783795898 -0.0082485791086086384 0 -0.012194159783795898 -0.0082485791086086384 0 -0.012142918983441227 -0.0082323735142813825 0 -0.012215512322652613 -0.0081969921919120212 0 -0.012158453095589683 -0.00830826365169887 0 -0.012194159783795898 -0.0082485791086086384 0 -0.012142918983441227 -0.0082323735142813825 0 -0.011916285394862175 -0.0089260498069356087 0 -0.011820881550525238 -0.0089633981444883146 0 -0.011813057042729624 -0.0088111945445205498 0 -0.0051739896191049344 -0.0099501406481442723 0 -0.0017084929710459193 -0.0096346546611934189 0 0.0016567527213186203 -0.010474973883868536 0 0.0017538896384807102 -0.010548686113931264 0 0.0016526645996525291 -0.010363294658934222 0 0.0023731787283259118 -0.010782060061046556 0 -0.0017084929710459193 -0.0096346546611934189 0 0.002526804164204774 -0.009906541839756795 0 0.0027299442930958911 -0.010462766427889849 0 0.0022043238854461862 -0.010724913749770604 0 0.002526804164204774 -0.009906541839756795 0 0.0022043238854461862 -0.010724913749770604 0 0.0020329766665973235 -0.0095225548014390635 0 0.002526804164204774 -0.009906541839756795 0 0.0027146341742488225 -0.0093979134560166818 0 0.0031240005629722613 -0.009893989875308833 0 0.002526804164204774 -0.009906541839756795 0 0.0027299442930958911 -0.010462766427889849 0 0.0031240005629722613 -0.009893989875308833 0 0.0027299442930958911 -0.010462766427889849 0 0.0027228781766898947 -0.011077138231767073 0 0.003205968962644946 -0.010710625514346915 0 0.0027299442930958911 -0.010462766427889849 0 0.0027228781766898947 -0.011077138231767073 0 0.0022043238854461862 -0.010724913749770604 0 0.0017622112851722307 -0.01062018852355969 0 0.0016684207030757928 -0.010569447806434722 0 0.0017538896384807102 -0.010548686113931264 0 -0.011786310656171027 -0.0090988718481982492 0 -0.011916285394862175 -0.0089260498069356087 0 -0.011820881550525238 -0.0089633981444883146 0 -0.0050489378586947627 -0.0095817461234245175 0 -0.0051739896191049344 -0.0099501406481442723 0 0.0016684207030757928 -0.010569447806434722 0 0.0016567527213186203 -0.010474973883868536 0 0.0017538896384807102 -0.010548686113931264 0 -0.013152063069063892 -0.0083917734679544147 0 -0.01331639569527261 -0.0084280918925472292 0 -0.013297374684766987 -0.0083707347774860091 0 -0.013152063069063892 -0.0083917734679544147 0 -0.01331639569527261 -0.0084280918925472292 0 -0.01311378947391975 -0.0085089663756061536 0 -0.01331639569527261 -0.0084280918925472292 0 -0.013218247813309878 -0.008621627212313689 0 -0.01311378947391975 -0.0085089663756061536 0 -0.013321304259090179 -0.0084024590823930084 0 -0.013338601967898 -0.008302491698706442 0 -0.01331639569527261 -0.0084280918925472292 0 -0.013218247813309878 -0.008621627212313689 0 -0.013178186844505462 -0.0085563568251856119 0 -0.01311378947391975 -0.0085089663756061536 0 -0.012929533445456047 -0.0086702743923269491 0 -0.01292208411449066 -0.0084632805463350676 0 -0.012929533445456047 -0.0086702743923269491 0 -0.01292208411449066 -0.0084632805463350676 0 -0.012677547457699478 -0.0085753928739612083 0 -0.013218247813309878 -0.008621627212313689 0 -0.01311378947391975 -0.0085089663756061536 0 -0.012929533445456047 -0.0086702743923269491 0 -0.013152063069063892 -0.0083917734679544147 0 -0.01292208411449066 -0.0084632805463350676 0 -0.012952556695167863 -0.0083022886868057578 0 -0.01292208411449066 -0.0084632805463350676 0 -0.012642172699968401 -0.0084070155008051355 0 -0.012952556695167863 -0.0083022886868057578 0 -0.013152063069063892 -0.0083917734679544147 0 -0.01311378947391975 -0.0085089663756061536 0 -0.01292208411449066 -0.0084632805463350676 0 -0.01292208411449066 -0.0084632805463350676 0 -0.012642172699968401 -0.0084070155008051355 0 -0.012677547457699478 -0.0085753928739612083 0 -0.012528105090734388 -0.0088270846925930374 0 -0.012929533445456047 -0.0086702743923269491 0 -0.012677547457699478 -0.0085753928739612083 0 -0.012528105090734388 -0.0088270846925930374 0 -0.012253482999664247 -0.0087285621421870369 0 -0.012374113139143366 -0.0085431470468310018 0 -0.012528105090734388 -0.0088270846925930374 0 -0.012677547457699478 -0.0085753928739612083 0 -0.012374113139143366 -0.0085431470468310018 0 -0.012642172699968401 -0.0084070155008051355 0 -0.012677547457699478 -0.0085753928739612083 0 -0.012374113139143366 -0.0085431470468310018 0 -0.012307956188746205 -0.0082872472325172669 0 -0.012642172699968401 -0.0084070155008051355 0 -0.012648282479460067 -0.0082311400336553125 0 -0.012307956188746205 -0.0082872472325172669 0 -0.012642172699968401 -0.0084070155008051355 0 -0.012374113139143366 -0.0085431470468310018 0 -0.012307956188746205 -0.0082872472325172669 0 -0.012648282479460067 -0.0082311400336553125 0 -0.012321948731077975 -0.0081288841812335744 0 -0.012642172699968401 -0.0084070155008051355 0 -0.012648282479460067 -0.0082311400336553125 0 -0.012952556695167863 -0.0083022886868057578 0 -0.012648282479460067 -0.0082311400336553125 0 -0.012931276190015412 -0.0081326153137941098 0 -0.012806063111795872 -0.0079776876285873512 0 -0.012648282479460067 -0.0082311400336553125 0 -0.012952556695167863 -0.0083022886868057578 0 -0.012931276190015412 -0.0081326153137941098 0 -0.012931276190015412 -0.0081326153137941098 0 -0.013136976028379812 -0.0081706565727285869 0 -0.013069616467502673 -0.0080002527294968512 0 -0.012952556695167863 -0.0083022886868057578 0 -0.012931276190015412 -0.0081326153137941098 0 -0.013136976028379812 -0.0081706565727285869 0 -0.013136976028379812 -0.0081706565727285869 0 -0.013069616467502673 -0.0080002527294968512 0 -0.013334476839264628 -0.0081037087307175865 0 -0.013136976028379812 -0.0081706565727285869 0 -0.013211208341198228 -0.0083006573370625249 0 -0.013315133925621477 -0.0082331827108262628 0 -0.013152063069063892 -0.0083917734679544147 0 -0.012952556695167863 -0.0083022886868057578 0 -0.013211208341198228 -0.0083006573370625249 0 -0.012952556695167863 -0.0083022886868057578 0 -0.013136976028379812 -0.0081706565727285869 0 -0.013211208341198228 -0.0083006573370625249 0 -0.013152063069063892 -0.0083917734679544147 0 -0.013211208341198228 -0.0083006573370625249 0 -0.013297374684766987 -0.0083707347774860091 0 -0.012910543288521261 -0.0078332896451336707 0 -0.013069616467502673 -0.0080002527294968512 0 -0.013211121108544053 -0.0077370918193971523 0 -0.012910543288521261 -0.0078332896451336707 0 -0.013069616467502673 -0.0080002527294968512 0 -0.012806063111795872 -0.0079776876285873512 0 -0.012931276190015412 -0.0081326153137941098 0 -0.013069616467502673 -0.0080002527294968512 0 -0.012806063111795872 -0.0079776876285873512 0 -0.012910543288521261 -0.0078332896451336707 0 -0.012806063111795872 -0.0079776876285873512 0 -0.012849617942295713 -0.0078768801706885511 0 -0.012806063111795872 -0.0079776876285873512 0 -0.012728077930383233 -0.0078398846155178295 0 -0.012321948731077975 -0.0081288841812335744 0 -0.012806063111795872 -0.0079776876285873512 0 -0.012728077930383233 -0.0078398846155178295 0 -0.012849617942295713 -0.0078768801706885511 0 -0.012648282479460067 -0.0082311400336553125 0 -0.012806063111795872 -0.0079776876285873512 0 -0.012321948731077975 -0.0081288841812335744 0 -0.01186713838483475 -0.0083251779243213361 0 -0.012321948731077975 -0.0081288841812335744 0 -0.012144390687945721 -0.008346666605495115 0 -0.012249458490857148 -0.0083435000671497148 0 -0.012331732859624822 -0.0080502808749391159 0 -0.01186713838483475 -0.0083251779243213361 0 -0.011960106815795105 -0.0086192480581787564 0 -0.012144390687945721 -0.008346666605495115 0 -0.011960106815795105 -0.0086192480581787564 0 -0.012144390687945721 -0.008346666605495115 0 -0.012095942220362315 -0.0086662691773341221 0 -0.011960106815795105 -0.0086192480581787564 0 -0.012011048069150732 -0.0088358780887584625 0 -0.012095942220362315 -0.0086662691773341221 0 -0.012011048069150732 -0.0088358780887584625 0 -0.011890882224689344 -0.0089424692333193983 0 -0.01199811559614768 -0.0089706737950802362 0 -0.011960106815795105 -0.0086192480581787564 0 -0.012011048069150732 -0.0088358780887584625 0 -0.011890882224689344 -0.0089424692333193983 0 -0.011890882224689344 -0.0089424692333193983 0 -0.011169080610182871 -0.0089582376482463567 0 -0.011708282191144658 -0.010239493365794636 0 -0.011960106815795105 -0.0086192480581787564 0 -0.011890882224689344 -0.0089424692333193983 0 -0.011169080610182871 -0.0089582376482463567 0 -0.012249458490857148 -0.0083435000671497148 0 -0.012070437878174781 -0.0075682167628821533 0 -0.012728077930383233 -0.0078398846155178295 0 -0.013019854873472514 -0.0080847585712903024 0 -0.012879043251621133 -0.0079684283668953037 0 -0.012728077930383233 -0.0078398846155178295 0 -0.012849617942295713 -0.0078768801706885511 0 -0.012879043251621133 -0.0079684283668953037 0 -0.01186713838483475 -0.0083251779243213361 0 -0.011960106815795105 -0.0086192480581787564 0 -0.011169080610182871 -0.0089582376482463567 0 -0.012849617942295713 -0.0078768801706885511 0 -0.012879043251621133 -0.0079684283668953037 0 -0.012803565397433938 -0.0080248271128822331 0 -0.012910543288521261 -0.0078332896451336707 0 -0.012849617942295713 -0.0078768801706885511 0 -0.012803565397433938 -0.0080248271128822331 0 -0.012879043251621133 -0.0079684283668953037 0 -0.01284091972889124 -0.0081066409713221686 0 -0.012803565397433938 -0.0080248271128822331 0 -0.013019854873472514 -0.0080847585712903024 0 -0.012879043251621133 -0.0079684283668953037 0 -0.01284091972889124 -0.0081066409713221686 0 -0.013019854873472514 -0.0080847585712903024 0 -0.01284091972889124 -0.0081066409713221686 0 -0.012854625822488443 -0.0083146437300508948 0 -0.01284091972889124 -0.0081066409713221686 0 -0.012854625822488443 -0.0083146437300508948 0 -0.01272449036214513 -0.0082229383970054658 0 -0.01284091972889124 -0.0081066409713221686 0 -0.012803565397433938 -0.0080248271128822331 0 -0.01272449036214513 -0.0082229383970054658 0 -0.01272449036214513 -0.0082229383970054658 0 -0.012633951783494662 -0.008221660845463925 0 -0.012649265795087145 -0.0080078199932982538 0 -0.012803565397433938 -0.0080248271128822331 0 -0.01272449036214513 -0.0082229383970054658 0 -0.012649265795087145 -0.0080078199932982538 0 -0.012838842313276165 -0.0079831327011886891 0 -0.012963313042475824 -0.0073528105642228277 0 -0.012910543288521261 -0.0078332896451336707 0 -0.013130723502617988 -0.0075083324824151776 0 -0.013211121108544053 -0.0077370918193971523 0 -0.012910543288521261 -0.0078332896451336707 0 -0.012803565397433938 -0.0080248271128822331 0 -0.012649265795087145 -0.0080078199932982538 0 0.0022626125203918561 -0.0087739618109274383 0 0.0020707680640287894 -0.0094097464869247419 0 0.0018011353360747825 -0.0081908195477285676 0 -0.011813057042729624 -0.0088111945445205498 0 -0.012041134686906509 -0.0087235234831168715 0 -0.012030340783589607 -0.0085422993769953617 0 -0.0017084929710459193 -0.0096346546611934189 0 -0.005826307041535311 -0.0082526427604845947 0 0.0026289022745854657 -0.0083397683634801167 0 0.0022626125203918561 -0.0087739618109274383 0 0.0018011353360747825 -0.0081908195477285676 0 0.0026289022745854657 -0.0083397683634801167 0 0.0028839218783429411 -0.0088414712923907852 0 0.0022626125203918561 -0.0087739618109274383 0 0.0028839218783429411 -0.0088414712923907852 0 0.0022626125203918561 -0.0087739618109274383 0 0.0024244293107742948 -0.009160914527566252 0 0.0022626125203918561 -0.0087739618109274383 0 0.0024244293107742948 -0.009160914527566252 0 0.0020707680640287894 -0.0094097464869247419 0 0.0028839218783429411 -0.0088414712923907852 0 0.0024244293107742948 -0.009160914527566252 0 0.0027146341742488225 -0.0093979134560166818 0 0.0028839218783429411 -0.0088414712923907852 0 0.0027146341742488225 -0.0093979134560166818 0 0.0032403107098460853 -0.0093008266175426298 0 0.002526804164204774 -0.009906541839756795 0 0.0027146341742488225 -0.0093979134560166818 0 0.0023526798170656945 -0.0094813477764806881 0 0.002526804164204774 -0.009906541839756795 0 0.0023526798170656945 -0.0094813477764806881 0 0.0020329766665973235 -0.0095225548014390635 0 0.0024244293107742948 -0.009160914527566252 0 0.0023526798170656945 -0.0094813477764806881 0 0.0020707680640287894 -0.0094097464869247419 0 0.0024244293107742948 -0.009160914527566252 0 0.0027146341742488225 -0.0093979134560166818 0 0.0023526798170656945 -0.0094813477764806881 0 -0.011916285394862175 -0.0089260498069356087 0 -0.011813057042729624 -0.0088111945445205498 0 -0.012041134686906509 -0.0087235234831168715 0 0.0020244785444723588 -0.0095329042350096767 0 0.0020707680640287894 -0.0094097464869247419 0 0.0018011353360747825 -0.0081908195477285676 0 0.0023526798170656945 -0.0094813477764806881 0 0.0020329766665973235 -0.0095225548014390635 0 0.0020707680640287894 -0.0094097464869247419 0 -0.0017084929710459193 -0.0096346546611934189 0 -0.0013103525787473167 -0.0093426214079637051 0 -0.012142918983441227 -0.0082323735142813825 0 -0.012242959014596693 -0.0082607448785195093 0 -0.012215512322652613 -0.0081969921919120212 0 -0.012242959014596693 -0.0082607448785195093 0 -0.012215512322652613 -0.0081969921919120212 0 -0.012185602673976781 -0.0083552866199416865 0 -0.012382455578605386 -0.0083574638347415093 0 -0.012113204084866758 -0.008539660977930439 0 -0.012321948731077975 -0.0081288841812335744 0 -0.012215512322652613 -0.0081969921919120212 0 -0.012144390687945721 -0.008346666605495115 0 -0.012215512322652613 -0.0081969921919120212 0 -0.012144390687945721 -0.008346666605495115 0 -0.012185602673976781 -0.0083552866199416865 0 -0.012144390687945721 -0.008346666605495115 0 -0.012185602673976781 -0.0083552866199416865 0 -0.012178136897991234 -0.0085279649883563367 0 -0.012041134686906509 -0.0087235234831168715 0 -0.012177439866955273 -0.0085169851585421719 0 -0.012030340783589607 -0.0085422993769953617 0 -0.012113204084866758 -0.008539660977930439 0 -0.012172353711730793 -0.0084816299996061818 0 -0.012185602673976781 -0.0083552866199416865 0 -0.012177439866955273 -0.0085169851585421719 0 -0.012178136897991234 -0.0085279649883563367 0 -0.012242959014596693 -0.0082607448785195093 0 -0.012185602673976781 -0.0083552866199416865 0 -0.012177439866955273 -0.0085169851585421719 0 -0.012177439866955273 -0.0085169851585421719 0 -0.01216296360289992 -0.0085714543478785064 0 -0.012030340783589607 -0.0085422993769953617 0 -0.01216296360289992 -0.0085714543478785064 0 -0.012178136897991234 -0.0085279649883563367 0 -0.012186821999944124 -0.00868359129821176 0 -0.012177439866955273 -0.0085169851585421719 0 -0.01216296360289992 -0.0085714543478785064 0 -0.012178136897991234 -0.0085279649883563367 0 -0.012144390687945721 -0.008346666605495115 0 -0.012178136897991234 -0.0085279649883563367 0 -0.012095942220362315 -0.0086662691773341221 0 -0.012178136897991234 -0.0085279649883563367 0 -0.012095942220362315 -0.0086662691773341221 0 -0.012186821999944124 -0.00868359129821176 0 -0.012095942220362315 -0.0086662691773341221 0 -0.012186821999944124 -0.00868359129821176 0 -0.012095578116184997 -0.0088428741646946717 0 -0.012011048069150732 -0.0088358780887584625 0 -0.012095942220362315 -0.0086662691773341221 0 -0.012095578116184997 -0.0088428741646946717 0 -0.01216296360289992 -0.0085714543478785064 0 -0.012186821999944124 -0.00868359129821176 0 -0.012116689433567649 -0.0086057588392562025 0 0.0015893303760589833 -0.0067255854062265056 0 0.0018011353360747825 -0.0081908195477285676 0 0.0023009704873097614 -0.0072759581778295904 0 -0.0030935098285945601 -0.0075655419035013383 0 0.0027253987649947958 -0.0077311454505419649 0 -0.01216296360289992 -0.0085714543478785064 0 -0.012116689433567649 -0.0086057588392562025 0 -0.012030340783589607 -0.0085422993769953617 0 -0.0030935098285945601 -0.0075655419035013383 0 -0.005826307041535311 -0.0082526427604845947 0 0.0026289022745854657 -0.0083397683634801167 0 0.0023009704873097614 -0.0072759581778295904 0 0.002977912715643594 -0.0078395236034038591 0 0.0026289022745854657 -0.0083397683634801167 0 0.0018011353360747825 -0.0081908195477285676 0 0.0023009704873097614 -0.0072759581778295904 0 0.0027253987649947958 -0.0077311454505419649 0 0.0027640629307742093 -0.0076684837117141722 0 0.0023994155777619939 -0.0073786017885517693 0 0.0030264841152835816 -0.007352200840092353 0 0.002977912715643594 -0.0078395236034038591 0 0.0017965116629706929 -0.0068979262649558276 0 0.0023994155777619939 -0.0073786017885517693 0 0.0030145128818000735 -0.006621285464362997 0 0.0023994155777619939 -0.0073786017885517693 0 0.0030264841152835816 -0.007352200840092353 0 0.0030145128818000735 -0.006621285464362997 0 0.0042901793041933744 -0.0070053691154034689 0 0.0037232084487725894 -0.0075619941981449595 0 0.0030145128818000735 -0.006621285464362997 0 0.0046351789428418924 -0.0073285087359521717 0 0.0050738283124014631 -0.0071459458587090369 0 0.0030264841152835816 -0.007352200840092353 0 0.0037232084487725894 -0.0075619941981449595 0 0.0030145128818000735 -0.006621285464362997 0 0.0042901793041933744 -0.0070053691154034689 0 0.0037232084487725894 -0.0075619941981449595 0 0.0048012905478007307 -0.0079788918059744765 0 0.0037232084487725894 -0.0075619941981449595 0 0.0040743866730351356 -0.0082746880150118551 0 0.0048012905478007307 -0.0079788918059744765 0 0.0037232084487725894 -0.0075619941981449595 0 0.0034060005823042055 -0.0082298806324743092 0 0.0040743866730351356 -0.0082746880150118551 0 0.0026289022745854657 -0.0083397683634801167 0 0.002977912715643594 -0.0078395236034038591 0 0.0034060005823042055 -0.0082298806324743092 0 0.0030264841152835816 -0.007352200840092353 0 0.0037232084487725894 -0.0075619941981449595 0 0.002977912715643594 -0.0078395236034038591 0 0.0037232084487725894 -0.0075619941981449595 0 0.002977912715643594 -0.0078395236034038591 0 0.0034060005823042055 -0.0082298806324743092 0 0.0028839218783429411 -0.0088414712923907852 0 0.0034060005823042055 -0.0082298806324743092 0 0.0036622934115135759 -0.0088318505268818476 0 0.0026289022745854657 -0.0083397683634801167 0 0.0028839218783429411 -0.0088414712923907852 0 0.0034060005823042055 -0.0082298806324743092 0 0.0036622934115135759 -0.0088318505268818476 0 0.004417220165586066 -0.0089037185598440198 0 0.0040743866730351356 -0.0082746880150118551 0 0.0034060005823042055 -0.0082298806324743092 0 0.0036622934115135759 -0.0088318505268818476 0 0.0040743866730351356 -0.0082746880150118551 0 0.004417220165586066 -0.0089037185598440198 0 0.0040743866730351356 -0.0082746880150118551 0 0.0048012905478007307 -0.0079788918059744765 0 0.004417220165586066 -0.0089037185598440198 0 0.0038514674315529855 -0.0094823990256476046 0 0.004888372447789298 -0.0097939184549314662 0 0.0036622934115135759 -0.0088318505268818476 0 0.004417220165586066 -0.0089037185598440198 0 0.0038514674315529855 -0.0094823990256476046 0 0.0038514674315529855 -0.0094823990256476046 0 0.0032403107098460853 -0.0093008266175426298 0 0.0031240005629722613 -0.009893989875308833 0 0.0028839218783429411 -0.0088414712923907852 0 0.0036622934115135759 -0.0088318505268818476 0 0.0032403107098460853 -0.0093008266175426298 0 0.0027146341742488225 -0.0093979134560166818 0 0.0032403107098460853 -0.0093008266175426298 0 0.0031240005629722613 -0.009893989875308833 0 0.0036622934115135759 -0.0088318505268818476 0 0.0038514674315529855 -0.0094823990256476046 0 0.0032403107098460853 -0.0093008266175426298 0 0.0056334519423322776 -0.0093885971658267432 0 0.005172718818212377 -0.008756247370408558 0 0.004888372447789298 -0.0097939184549314662 0 0.004417220165586066 -0.0089037185598440198 0 0.005172718818212377 -0.008756247370408558 0 0.004888372447789298 -0.0097939184549314662 0 0.004417220165586066 -0.0089037185598440198 0 0.005172718818212377 -0.008756247370408558 0 0.0048012905478007307 -0.0079788918059744765 0 0.005172718818212377 -0.008756247370408558 0 0.0057326395712934027 -0.0081054878241330029 0 0.006088953992851585 -0.0087253709886068037 0 0.005172718818212377 -0.008756247370408558 0 0.0057326395712934027 -0.0081054878241330029 0 0.0048012905478007307 -0.0079788918059744765 0 0.0056334519423322776 -0.0093885971658267432 0 0.005172718818212377 -0.008756247370408558 0 0.006088953992851585 -0.0087253709886068037 0 0.0057326395712934027 -0.0081054878241330029 0 0.0055896074451128042 -0.0074761995996574177 0 0.0062330875777766026 -0.0076806169415419862 0 0.0057326395712934027 -0.0081054878241330029 0 0.0048012905478007307 -0.0079788918059744765 0 0.0055896074451128042 -0.0074761995996574177 0 0.0042901793041933744 -0.0070053691154034689 0 0.0048012905478007307 -0.0079788918059744765 0 0.0055896074451128042 -0.0074761995996574177 0 0.0052606737021601672 -0.0076673271681445233 0 0.0055896074451128042 -0.0074761995996574177 0 0.0053322252205593949 -0.0074905676447644216 0 0.0046351789428418924 -0.0073285087359521717 0 0.0055871796800826875 -0.0074839829529571578 0 0.0055896074451128042 -0.0074761995996574177 0 0.006202890990244481 -0.0070760644893853369 0 0.0053322252205593949 -0.0074905676447644216 0 0.0055896074451128042 -0.0074761995996574177 0 0.006202890990244481 -0.0070760644893853369 0 0.0062330875777766026 -0.0076806169415419862 0 0.006202890990244481 -0.0070760644893853369 0 0.0068939299498291277 -0.007657344163287021 0 0.0062330875777766026 -0.0076806169415419862 0 0.0038723227924706239 -0.0098286159499202351 0 0.0038290648398438126 -0.0099436952469421341 0 0.0038323619838633613 -0.0099525127655572913 0 0.0051758516397047063 -0.0085266510637537121 0 0.0055859868240171343 -0.008564835438062815 0 0.0038290648398438126 -0.0099436952469421341 0 0.0038765045817395947 -0.0099944918971349196 0 0.0037261845856496703 -0.0099934879348445929 0 0.0038765045817395947 -0.0099944918971349196 0 0.0040613718145526712 -0.0098849732100667123 0 0.0037261845856496703 -0.0099934879348445929 0 0.0038723227924706239 -0.0098286159499202351 0 0.0038765045817395947 -0.0099944918971349196 0 0.0039358297895430898 -0.010169512283783969 0 0.0038723227924706239 -0.0098286159499202351 0 0.0038290648398438126 -0.0099436952469421341 0 0.0038765045817395947 -0.0099944918971349196 0 0.006202890990244481 -0.0070760644893853369 0 0.0068939299498291277 -0.007657344163287021 0 0.0079056149634022695 -0.0072617020845673237 0 0.0068939299498291277 -0.007657344163287021 0 0.0079056149634022695 -0.0072617020845673237 0 0.0076383288594597106 -0.0082361003390838527 0 0.0068939299498291277 -0.007657344163287021 0 0.0065934703143659757 -0.0081717077096260995 0 0.0076383288594597106 -0.0082361003390838527 0 0.0068939299498291277 -0.007657344163287021 0 0.0062330875777766026 -0.0076806169415419862 0 0.0065934703143659757 -0.0081717077096260995 0 0.0057326395712934027 -0.0081054878241330029 0 0.0062330875777766026 -0.0076806169415419862 0 0.0065934703143659757 -0.0081717077096260995 0 0.0052364845966088149 -0.010396138213043579 0 0.011268515083290333 -0.011834042647506647 0 0.0067530532559431349 -0.012125425038275376 0 0.0079263114843044387 -0.011197922681366381 0 0.0091319274920427258 -0.012919436538136139 0 0.0079569729625272347 -0.010749256040998053 0 0.0070974671931396489 -0.009587369041884064 0 0.0091771526213932121 -0.010278371783942045 0 0.0044150394263399078 -0.010155883404582643 0 0.0040374809512946303 -0.010039350968044553 0 0.0039358297895430898 -0.010169512283783969 0 0.0061235467365929296 -0.01041024653217526 0 0.0052364845966088149 -0.010396138213043579 0 0.0044150394263399078 -0.010155883404582643 0 0.0040613718145526712 -0.0098849732100667123 0 0.0040374809512946303 -0.010039350968044553 0 0.0038765045817395947 -0.0099944918971349196 0 0.0040613718145526712 -0.0098849732100667123 0 0.0040374809512946303 -0.010039350968044553 0 0.0038765045817395947 -0.0099944918971349196 0 0.0040374809512946303 -0.010039350968044553 0 0.0039358297895430898 -0.010169512283783969 0 0.0079056149634022695 -0.0072617020845673237 0 0.0086429680143177076 -0.0080907959508570004 0 0.0076383288594597106 -0.0082361003390838527 0 0.0044150394263399078 -0.010155883404582643 0 0.0039358297895430898 -0.010169512283783969 0 0.0047790140986657386 -0.010617766980871109 0 0.0079056149634022695 -0.0072617020845673237 0 0.0097532155351943411 -0.0078604865177284763 0 0.0086429680143177076 -0.0080907959508570004 0 0.0055859868240171343 -0.008564835438062815 0 0.0088650816311515029 -0.0099288704949067243 0 0.0079569729625272347 -0.010749256040998053 0 0.0088102982406175149 -0.011895410807816878 0 0.0091771526213932121 -0.010278371783942045 0 0.0061235467365929296 -0.01041024653217526 0 0.0088650816311515029 -0.0099288704949067243 0 0.0097532155351943411 -0.0078604865177284763 0 0.0093062554948733934 -0.0083193132826687843 0 0.0086429680143177076 -0.0080907959508570004 0 0.0099676631599103487 -0.0083974511152372158 0 0.010872107956113536 -0.0097041241559080692 0 0.0093062554948733934 -0.0083193132826687843 0 0.010097670301209677 -0.0095067143861379093 0 0.0098779840235504231 -0.0080334304993298997 0 0.0097532155351943411 -0.0078604865177284763 0 0.0093062554948733934 -0.0083193132826687843 0 0.0098779840235504231 -0.0080334304993298997 0 0.0093062554948733934 -0.0083193132826687843 0 0.0086041456037583303 -0.0087951506310399268 0 0.0086429680143177076 -0.0080907959508570004 0 0.0086041456037583303 -0.0087951506310399268 0 0.0076383288594597106 -0.0082361003390838527 0 0.0076049073506110117 -0.0093405310627793781 0 0.0086041456037583303 -0.0087951506310399268 0 0.0086429680143177076 -0.0080907959508570004 0 0.0076383288594597106 -0.0082361003390838527 0 0.0086041456037583303 -0.0087951506310399268 0 0.0088220785414169847 -0.0097460334991841726 0 0.0076049073506110117 -0.0093405310627793781 0 0.0088220785414169847 -0.0097460334991841726 0 0.0076049073506110117 -0.0093405310627793781 0 0.0081453457272697982 -0.010599591398706617 0 0.0086041456037583303 -0.0087951506310399268 0 0.0088220785414169847 -0.0097460334991841726 0 0.010097670301209677 -0.0095067143861379093 0 0.0093062554948733934 -0.0083193132826687843 0 0.0086041456037583303 -0.0087951506310399268 0 0.010097670301209677 -0.0095067143861379093 0 0.0057326395712934027 -0.0081054878241330029 0 0.006088953992851585 -0.0087253709886068037 0 0.0065934703143659757 -0.0081717077096260995 0 0.006088953992851585 -0.0087253709886068037 0 0.0069257491254216949 -0.008743708209166692 0 0.0064342432344039772 -0.0093902462045859971 0 0.006088953992851585 -0.0087253709886068037 0 0.0065934703143659757 -0.0081717077096260995 0 0.0069257491254216949 -0.008743708209166692 0 0.0076383288594597106 -0.0082361003390838527 0 0.0069257491254216949 -0.008743708209166692 0 0.0076049073506110117 -0.0093405310627793781 0 0.0065934703143659757 -0.0081717077096260995 0 0.0076383288594597106 -0.0082361003390838527 0 0.0069257491254216949 -0.008743708209166692 0 0.0076049073506110117 -0.0093405310627793781 0 0.0064342432344039772 -0.0093902462045859971 0 0.0069717842246898127 -0.010154950214169801 0 0.0069257491254216949 -0.008743708209166692 0 0.0076049073506110117 -0.0093405310627793781 0 0.0064342432344039772 -0.0093902462045859971 0 0.0056334519423322776 -0.0093885971658267432 0 0.006088953992851585 -0.0087253709886068037 0 0.0064342432344039772 -0.0093902462045859971 0 0.0056334519423322776 -0.0093885971658267432 0 0.0064342432344039772 -0.0093902462045859971 0 0.0058831676496221954 -0.010307214740470336 0 0.0064342432344039772 -0.0093902462045859971 0 0.0058831676496221954 -0.010307214740470336 0 0.0069717842246898127 -0.010154950214169801 0 0.0058831676496221954 -0.010307214740470336 0 0.0069717842246898127 -0.010154950214169801 0 0.0070312366051672459 -0.011122889291900697 0 0.0069717842246898127 -0.010154950214169801 0 0.0070312366051672459 -0.011122889291900697 0 0.0081453457272697982 -0.010599591398706617 0 0.0076049073506110117 -0.0093405310627793781 0 0.0069717842246898127 -0.010154950214169801 0 0.0081453457272697982 -0.010599591398706617 0 0.0070312366051672459 -0.011122889291900697 0 0.0082563509086973647 -0.011799331302587639 0 0.0076428380465121265 -0.012562986497522906 0 0.0058831676496221954 -0.010307214740470336 0 0.0070312366051672459 -0.011122889291900697 0 0.0059602301227617187 -0.011253593501451617 0 0.0098202799658969886 -0.010742317824022858 0 0.0081453457272697982 -0.010599591398706617 0 0.0094046998528548066 -0.011797263084715194 0 0.0088220785414169847 -0.0097460334991841726 0 0.010097670301209677 -0.0095067143861379093 0 0.0098202799658969886 -0.010742317824022858 0 0.0088220785414169847 -0.0097460334991841726 0 0.0098202799658969886 -0.010742317824022858 0 0.0081453457272697982 -0.010599591398706617 0 0.0070312366051672459 -0.011122889291900697 0 0.0081453457272697982 -0.010599591398706617 0 0.0082563509086973647 -0.011799331302587639 0 0.0081453457272697982 -0.010599591398706617 0 0.0082563509086973647 -0.011799331302587639 0 0.0094046998528548066 -0.011797263084715194 0 0.0082563509086973647 -0.011799331302587639 0 0.0094046998528548066 -0.011797263084715194 0 0.0092570267663554268 -0.012979230630561832 0 0.0094046998528548066 -0.011797263084715194 0 0.010169121314283684 -0.012729293882633606 0 0.0092570267663554268 -0.012979230630561832 0 0.0094046998528548066 -0.011797263084715194 0 0.010169121314283684 -0.012729293882633606 0 0.010990983794215007 -0.011936591441691772 0 0.0098202799658969886 -0.010742317824022858 0 0.0094046998528548066 -0.011797263084715194 0 0.010990983794215007 -0.011936591441691772 0 0.010169121314283684 -0.012729293882633606 0 0.010044587251846367 -0.013806788642656073 0 0.0092570267663554268 -0.012979230630561832 0 0.010169121314283684 -0.012729293882633606 0 0.010044587251846367 -0.013806788642656073 0 0.011287375061040956 -0.013120402598822399 0 0.0097061728228286931 -0.01279686153149449 0 0.0096294938330015387 -0.013020202605888624 0 0.0082563509086973647 -0.011799331302587639 0 0.0092570267663554268 -0.012979230630561832 0 0.0076428380465121265 -0.012562986497522906 0 0.0097061728228286931 -0.01279686153149449 0 0.0072604358429843394 -0.011639861635258575 0 0.0098441549586993603 -0.013546577565451211 0 0.0092570267663554268 -0.012979230630561832 0 0.0076428380465121265 -0.012562986497522906 0 0.0080621672970139311 -0.011005533214002041 0 0.0077043615493744364 -0.011237027709513962 0 0.0071388671646469308 -0.010844522536808161 0 0.0079579695361455295 -0.011565403273714626 0 0.0077043615493744364 -0.011237027709513962 0 0.0070034279234639464 -0.011579112367912921 0 0.0077043615493744364 -0.011237027709513962 0 0.0071388671646469308 -0.010844522536808161 0 0.0070034279234639464 -0.011579112367912921 0 0.0079579695361455295 -0.011565403273714626 0 0.0077043615493744364 -0.011237027709513962 0 0.0080821325030118792 -0.011327601915534981 0 0.0080621672970139311 -0.011005533214002041 0 0.0077043615493744364 -0.011237027709513962 0 0.0080821325030118792 -0.011327601915534981 0 0.0059602301227617187 -0.011253593501451617 0 0.0071388671646469308 -0.010844522536808161 0 0.006090066749937127 -0.011462525523042036 0 0.0070312366051672459 -0.011122889291900697 0 0.0059602301227617187 -0.011253593501451617 0 0.0076428380465121265 -0.012562986497522906 0 0.0061971045543665034 -0.011344332953269897 0 0.0072604358429843394 -0.011639861635258575 0 0.0071388671646469308 -0.010844522536808161 0 0.0070034279234639464 -0.011579112367912921 0 0.006090066749937127 -0.011462525523042036 0 0.0053821252013177947 -0.011773502236984373 0 0.006090066749937127 -0.011462525523042036 0 0.0050270073875137026 -0.011245423191874875 0 0.0059602301227617187 -0.011253593501451617 0 0.006090066749937127 -0.011462525523042036 0 0.0050270073875137026 -0.011245423191874875 0 0.0059602301227617187 -0.011253593501451617 0 0.0050270073875137026 -0.011245423191874875 0 0.0048631470763213953 -0.010694926585927935 0 0.0050270073875137026 -0.011245423191874875 0 0.0041975907264339227 -0.01131329508674005 0 0.004072172050011539 -0.010719379556615756 0 0.0050270073875137026 -0.011245423191874875 0 0.004072172050011539 -0.010719379556615756 0 0.0048631470763213953 -0.010694926585927935 0 0.0045853459874967374 -0.011813459537702548 0 0.0050270073875137026 -0.011245423191874875 0 0.0041975907264339227 -0.01131329508674005 0 0.0045853459874967374 -0.011813459537702548 0 0.0053821252013177947 -0.011773502236984373 0 0.0050270073875137026 -0.011245423191874875 0 0.0041975907264339227 -0.01131329508674005 0 0.0036140448008911059 -0.011263653054242895 0 0.004072172050011539 -0.010719379556615756 0 0.0037940269140704134 -0.0116236815580612 0 0.0041975907264339227 -0.01131329508674005 0 0.0036140448008911059 -0.011263653054242895 0 0.0032085538891418759 -0.011256743881849716 0 0.0036140448008911059 -0.011263653054242895 0 0.0033679970050844855 -0.010897423197291515 0 0.0033963359703846341 -0.011550845781543263 0 0.0032085538891418759 -0.011256743881849716 0 0.0036140448008911059 -0.011263653054242895 0 0.003266197080336453 -0.011257051179258399 0 0.0040471603993612751 -0.010946201361243715 0 0.0027228781766898947 -0.011077138231767073 0 0.0031568836645528863 -0.011557011445091138 0 0.003205968962644946 -0.010710625514346915 0 0.0036140448008911059 -0.011263653054242895 0 0.0033679970050844855 -0.010897423197291515 0 0.004072172050011539 -0.010719379556615756 0 0.0031568836645528863 -0.011557011445091138 0 0.0040162987149041157 -0.011159234357730983 0 0.003205968962644946 -0.010710625514346915 0 0.0040162987149041157 -0.011159234357730983 0 0.003205968962644946 -0.010710625514346915 0 0.0040059324671613099 -0.010287048954191243 0 0.0040162987149041157 -0.011159234357730983 0 0.0040059324671613099 -0.010287048954191243 0 0.0048631470763213953 -0.010694926585927935 0 0.003205968962644946 -0.010710625514346915 0 0.0031240005629722613 -0.009893989875308833 0 0.0040059324671613099 -0.010287048954191243 0 0.0027299442930958911 -0.010462766427889849 0 0.003205968962644946 -0.010710625514346915 0 0.0031240005629722613 -0.009893989875308833 0 0.0038514674315529855 -0.0094823990256476046 0 0.0031240005629722613 -0.009893989875308833 0 0.0040059324671613099 -0.010287048954191243 0 0.0038514674315529855 -0.0094823990256476046 0 0.0040059324671613099 -0.010287048954191243 0 0.004888372447789298 -0.0097939184549314662 0 0.0040059324671613099 -0.010287048954191243 0 0.004888372447789298 -0.0097939184549314662 0 0.0048631470763213953 -0.010694926585927935 0 0.0058831676496221954 -0.010307214740470336 0 0.004888372447789298 -0.0097939184549314662 0 0.0048631470763213953 -0.010694926585927935 0 0.0056334519423322776 -0.0093885971658267432 0 0.0058831676496221954 -0.010307214740470336 0 0.004888372447789298 -0.0097939184549314662 0 0.0058831676496221954 -0.010307214740470336 0 0.0059602301227617187 -0.011253593501451617 0 0.0048631470763213953 -0.010694926585927935 0 0.0040471603993612751 -0.010946201361243715 0 0.0047566739213187716 -0.010708441591356435 0 -0.025580399168345959 -0.0039736142254950101 0 -0.025494541321557606 -0.0040395980814630543 0 -0.025657768813290936 -0.00375193911852392 0 -0.026209644753137553 -0.0052772259635419051 0 -0.025380705106785528 -0.0051692627595526447 0 -0.025168525713450525 -0.0045334963149249912 0 -0.025754964850095173 -0.0050049381142230681 0 -0.025202615994412779 -0.0043984052954726396 0 -0.025580399168345959 -0.0039736142254950101 0 -0.025494541321557606 -0.0040395980814630543 0 -0.025168525713450525 -0.0045334963149249912 0 -0.025380705106785528 -0.0051692627595526447 0 -0.024999964994502081 -0.00515592689294927 0 -0.025168525713450525 -0.0045334963149249912 0 -0.025380705106785528 -0.0051692627595526447 0 -0.024999964994502081 -0.00515592689294927 0 -0.025534522760082952 -0.0057194585957455807 0 -0.026005238229980368 -0.0053207031570152753 0 -0.025380705106785528 -0.0051692627595526447 0 -0.025534522760082952 -0.0057194585957455807 0 -0.025754964850095173 -0.0050049381142230681 0 -0.025591810581219423 -0.0051756904169959561 0 -0.025534522760082952 -0.0057194585957455807 0 -0.02596587372974821 -0.0063253192499446512 0 -0.024999981310690818 -0.0065316667221214332 0 -0.024999964994502081 -0.00515592689294927 0 -0.025534522760082952 -0.0057194585957455807 0 -0.024999981310690818 -0.0065316667221214332 0 -0.026005238229980368 -0.0053207031570152753 0 -0.026769639141789838 -0.0059378822090603665 0 -0.02596587372974821 -0.0063253192499446512 0 -0.026005238229980368 -0.0053207031570152753 0 -0.025534522760082952 -0.0057194585957455807 0 -0.02596587372974821 -0.0063253192499446512 0 -0.025754964850095173 -0.0050049381142230681 0 -0.026036395243038163 -0.0055482057495605131 0 -0.02575877258484531 -0.005381180059053677 0 -0.025394226762737147 -0.0051497151808546984 0 -0.025326328260705678 -0.0053359198317585845 0 -0.025251851215641483 -0.0052403608624019948 0 -0.025394226762737147 -0.0051497151808546984 0 -0.025326328260705678 -0.0053359198317585845 0 -0.025251851215641483 -0.0052403608624019948 0 -0.025394226762737147 -0.0051497151808546984 0 -0.025036505114586334 -0.0049366291391537576 0 -0.025251851215641483 -0.0052403608624019948 0 -0.024904257365618122 -0.0052838052064247548 0 -0.025036505114586334 -0.0049366291391537576 0 -0.025251851215641483 -0.0052403608624019948 0 -0.025326328260705678 -0.0053359198317585845 0 -0.024883376252678811 -0.0052620586866047722 0 -0.026036395243038163 -0.0055482057495605131 0 -0.026765921118715317 -0.0057738749019210075 0 -0.025305383783550107 -0.005240234355219078 0 -0.024476563736059019 -0.0041507481435169311 0 -0.02577895552478103 -0.00362814693239887 0 -0.025707746645842872 -0.0037233056543004234 0 -0.025864476465321511 -0.0037013809203771258 0 -0.025658869584926313 -0.0045532734261534693 0 -0.024476563736059019 -0.0041507481435169311 0 -0.02577895552478103 -0.00362814693239887 0 -0.025827045193863894 -0.0036051436182657185 0 -0.025864476465321511 -0.0037013809203771258 0 -0.023331173207453031 -0.0028356422432811662 0 -0.023126609720663684 -0.0027163864311322734 0 -0.02319331291358015 -0.0025256658082396227 0 -0.025221500152260837 -0.0033187805618036447 0 -0.024476563736059019 -0.0041507481435169311 0 -0.025787143968049587 -0.0034534663474390425 0 -0.02577895552478103 -0.00362814693239887 0 -0.025740364495279958 -0.0034659142055849961 0 -0.02577895552478103 -0.00362814693239887 0 -0.025709848680839791 -0.0036230677493290795 0 -0.025740364495279958 -0.0034659142055849961 0 -0.025787143968049587 -0.0034534663474390425 0 -0.02577895552478103 -0.00362814693239887 0 -0.025969273471691527 -0.0035481269841144869 0 -0.025787143968049587 -0.0034534663474390425 0 -0.025969273471691527 -0.0035481269841144869 0 -0.025752214512306127 -0.0032115885458959647 0 -0.025642893996179663 -0.0033474256284336716 0 -0.025221500152260837 -0.0033187805618036447 0 -0.025580399168345959 -0.0039736142254950101 0 -0.025707746645842872 -0.0037233056543004234 0 -0.025657768813290936 -0.00375193911852392 0 -0.025754964850095173 -0.0050049381142230681 0 -0.025658869584926313 -0.0045532734261534693 0 -0.02577895552478103 -0.00362814693239887 0 -0.025707746645842872 -0.0037233056543004234 0 -0.025709848680839791 -0.0036230677493290795 0 -0.025707746645842872 -0.0037233056543004234 0 -0.025709848680839791 -0.0036230677493290795 0 -0.025657768813290936 -0.00375193911852392 0 -0.025717026135422445 -0.0035651806307313259 0 -0.025771655042599581 -0.0034594842473194068 0 -0.025657768813290936 -0.00375193911852392 0 -0.025709848680839791 -0.0036230677493290795 0 -0.025717026135422445 -0.0035651806307313259 0 -0.025657768813290936 -0.00375193911852392 0 -0.025717026135422445 -0.0035651806307313259 0 -0.025740364495279958 -0.0034659142055849961 0 -0.025776485422645455 -0.0032490571557007362 0 -0.025709848680839791 -0.0036230677493290795 0 -0.025717026135422445 -0.0035651806307313259 0 -0.025740364495279958 -0.0034659142055849961 0 -0.025717026135422445 -0.0035651806307313259 0 -0.025771655042599581 -0.0034594842473194068 0 -0.025776485422645455 -0.0032490571557007362 0 -0.025752214512306127 -0.0032115885458959647 0 -0.025704102484231973 -0.0028915848866370706 0 -0.02587677870654094 -0.003150953499875406 0 -0.025221500152260837 -0.0033187805618036447 0 -0.02557190424309114 -0.0033993960163676792 0 -0.025755717698421155 -0.0033265866595165536 0 -0.025752214512306127 -0.0032115885458959647 0 -0.02587677870654094 -0.003150953499875406 0 -0.025752214512306127 -0.0032115885458959647 0 -0.025740364495279958 -0.0034659142055849961 0 -0.025776485422645455 -0.0032490571557007362 0 -0.025787143968049587 -0.0034534663474390425 0 -0.025752214512306127 -0.0032115885458959647 0 -0.025740364495279958 -0.0034659142055849961 0 -0.025752214512306127 -0.0032115885458959647 0 -0.025776485422645455 -0.0032490571557007362 0 -0.025704102484231973 -0.0028915848866370706 0 -0.025328736502868817 -0.0022243985382623061 0 -0.025659292551579036 -0.0025846450401523832 0 -0.024673954306735871 -0.0011067467960306407 0 -0.025277175759710845 -0.0012695712612359232 0 -0.025626686995175528 -0.0025738093294461984 0 -0.025704102484231973 -0.0028915848866370706 0 -0.025853733088726422 -0.0033382837519440661 0 -0.025626686995175528 -0.0025738093294461984 0 -0.025776485422645455 -0.0032490571557007362 0 -0.025704102484231973 -0.0028915848866370706 0 -0.025853733088726422 -0.0033382837519440661 0 -0.025771655042599581 -0.0034594842473194068 0 -0.025853733088726422 -0.0033382837519440661 0 -0.025772314070196201 -0.0033295914317873756 0 -0.025853733088726422 -0.0033382837519440661 0 -0.025772314070196201 -0.0033295914317873756 0 -0.025864647098039269 -0.002902229470010659 0 -0.025771655042599581 -0.0034594842473194068 0 -0.025776485422645455 -0.0032490571557007362 0 -0.025853733088726422 -0.0033382837519440661 0 -0.025772314070196201 -0.0033295914317873756 0 -0.025599711977649483 -0.0036923139567347318 0 -0.025431087460688173 -0.0032560930175637086 0 -0.025771655042599581 -0.0034594842473194068 0 -0.025772314070196201 -0.0033295914317873756 0 -0.025599711977649483 -0.0036923139567347318 0 -0.025771655042599581 -0.0034594842473194068 0 -0.025599711977649483 -0.0036923139567347318 0 -0.025657768813290936 -0.00375193911852392 0 -0.025599711977649483 -0.0036923139567347318 0 -0.025494541321557606 -0.0040395980814630543 0 -0.025657768813290936 -0.00375193911852392 0 -0.025168525713450525 -0.0045334963149249912 0 -0.0253540011435331 -0.0040094642005179945 0 -0.024999952361128116 -0.003780660683726839 0 -0.024999964994502081 -0.00515592689294927 0 -0.025168525713450525 -0.0045334963149249912 0 -0.024999952361128116 -0.003780660683726839 0 -0.025494541321557606 -0.0040395980814630543 0 -0.025168525713450525 -0.0045334963149249912 0 -0.0253540011435331 -0.0040094642005179945 0 -0.025599711977649483 -0.0036923139567347318 0 -0.025494541321557606 -0.0040395980814630543 0 -0.0253540011435331 -0.0040094642005179945 0 -0.025599711977649483 -0.0036923139567347318 0 -0.0253540011435331 -0.0040094642005179945 0 -0.025431087460688173 -0.0032560930175637086 0 -0.025431087460688173 -0.0032560930175637086 0 -0.024999952361128116 -0.003780660683726839 0 -0.024999687030246812 -0.0024053704159287797 0 -0.0253540011435331 -0.0040094642005179945 0 -0.025431087460688173 -0.0032560930175637086 0 -0.024999952361128116 -0.003780660683726839 0 -0.025431087460688173 -0.0032560930175637086 0 -0.024999687030246812 -0.0024053704159287797 0 -0.025864647098039269 -0.002902229470010659 0 -0.025772314070196201 -0.0033295914317873756 0 -0.025431087460688173 -0.0032560930175637086 0 -0.025864647098039269 -0.002902229470010659 0 -0.024846529840064874 -0.0006756093305749656 0 -0.025015957813268517 -0.00089475391201573754 0 -0.024891208631280821 -0.00049265451262211059 0 -0.025015957813268517 -0.00089475391201573754 0 -0.025057698798133615 -0.00042272158539562388 0 -0.024891208631280821 -0.00049265451262211059 0 -0.024846529840064874 -0.0006756093305749656 0 -0.025015957813268517 -0.00089475391201573754 0 -0.025132120252519794 -0.0017423090531696881 0 -0.025291683204174506 -0.0018096676750706875 0 -0.0250975396155961 -0.0016862102643578529 0 -0.024999687030246812 -0.0024053704159287797 0 -0.025864647098039269 -0.002902229470010659 0 -0.025132120252519794 -0.0017423090531696881 0 -0.024999687030246812 -0.0024053704159287797 0 -0.025132120252519794 -0.0017423090531696881 0 -0.024999519238723546 -0.0010294702210476938 0 -0.025015957813268517 -0.00089475391201573754 0 -0.025132120252519794 -0.0017423090531696881 0 -0.025102704141104954 -0.00090738590457514214 0 -0.025132120252519794 -0.0017423090531696881 0 -0.024999519238723546 -0.0010294702210476938 0 -0.025102704141104954 -0.00090738590457514214 0 -0.024999519238723546 -0.0010294702210476938 0 -0.025102704141104954 -0.00090738590457514214 0 -0.025128741415194587 -0.00027306905482874151 0 -0.025015957813268517 -0.00089475391201573754 0 -0.025102704141104954 -0.00090738590457514214 0 -0.025057698798133615 -0.00042272158539562388 0 -0.025057698798133615 -0.00042272158539562388 0 -0.025128741415194587 -0.00027306905482874151 0 -0.025109398838694442 0.00012205349487855756 0 -0.025102704141104954 -0.00090738590457514214 0 -0.025057698798133615 -0.00042272158539562388 0 -0.025128741415194587 -0.00027306905482874151 0 -0.025179126619767237 0.0004866631723121901 0 -0.025128741415194587 -0.00027306905482874151 0 -0.025109398838694442 0.00012205349487855756 0 -0.024999533385964653 0.00034475538076093122 0 -0.025179126619767237 0.0004866631723121901 0 -0.025128741415194587 -0.00027306905482874151 0 -0.024999533385964653 0.00034475538076093122 0 -0.024999519238723546 -0.0010294702210476938 0 -0.025128741415194587 -0.00027306905482874151 0 -0.024944446784861921 0.0010471210003652812 0 -0.025079552994997211 0.00062838662511107779 0 -0.02504150949392436 0.00054386245744208399 0 -0.025079552994997211 0.00062838662511107779 0 -0.025028770504815636 0.00010572330930971452 0 -0.02504150949392436 0.00054386245744208399 0 -0.025079552994997211 0.00062838662511107779 0 -0.025109398838694442 0.00012205349487855756 0 -0.025028770504815636 0.00010572330930971452 0 -0.025179126619767237 0.0004866631723121901 0 -0.025079552994997211 0.00062838662511107779 0 -0.025109398838694442 0.00012205349487855756 0 -0.025057698798133615 -0.00042272158539562388 0 -0.025109398838694442 0.00012205349487855756 0 -0.025028770504815636 0.00010572330930971452 0 -0.025057698798133615 -0.00042272158539562388 0 -0.025028770504815636 0.00010572330930971452 0 -0.024891208631280821 -0.00049265451262211059 0 -0.025028770504815636 0.00010572330930971452 0 -0.025000202774616755 -0.00013316215478735048 0 -0.02504150949392436 0.00054386245744208399 0 -0.025000202774616755 -0.00013316215478735048 0 -0.024835606089372086 -0.00062372099297011046 0 -0.025237760480967143 -0.00043378065215911966 0 -0.025028770504815636 0.00010572330930971452 0 -0.025000202774616755 -0.00013316215478735048 0 -0.024891208631280821 -0.00049265451262211059 0 -0.025000202774616755 -0.00013316215478735048 0 -0.024891208631280821 -0.00049265451262211059 0 -0.024835606089372086 -0.00062372099297011046 0 -0.025328736502868817 -0.0022243985382623061 0 -0.025291683204174506 -0.0018096676750706875 0 -0.024846529840064874 -0.0006756093305749656 0 -0.024891208631280821 -0.00049265451262211059 0 -0.024835606089372086 -0.00062372099297011046 0 -0.024673954306735871 -0.0011067467960306407 0 -0.024846529840064874 -0.0006756093305749656 0 -0.024835606089372086 -0.00062372099297011046 0 -0.024835606089372086 -0.00062372099297011046 0 -0.025237760480967143 -0.00043378065215911966 0 -0.025277175759710845 -0.0012695712612359232 0 -0.024673954306735871 -0.0011067467960306407 0 -0.024835606089372086 -0.00062372099297011046 0 -0.025277175759710845 -0.0012695712612359232 0 -0.025237760480967143 -0.00043378065215911966 0 -0.026050426423360338 -0.0015052932412509777 0 -0.025277175759710845 -0.0012695712612359232 0 -0.025237760480967143 -0.00043378065215911966 0 -0.02577237068827842 -0.00027988325868531441 0 -0.026050426423360338 -0.0015052932412509777 0 -0.02475791897444566 0.0010504356578195358 0 -0.024622005102870267 0.0010547884800322011 0 -0.024677136002010398 0.0010619076800893672 0 -0.025216636189103601 0.00028286484378134245 0 -0.025422406289413262 -3.9346503588681632e-05 0 -0.02577237068827842 -0.00027988325868531441 0 -0.025193159474483869 0.00019297571336538834 0 -0.024995043870938063 0.00078361158842984655 0 -0.025216636189103601 0.00028286484378134245 0 -0.025064414904594622 0.00066803089039741402 0 -0.02475791897444566 0.0010504356578195358 0 -0.024995043870938063 0.00078361158842984655 0 -0.024602371377701899 0.0010461191353082775 0 -0.025237760480967143 -0.00043378065215911966 0 -0.02577237068827842 -0.00027988325868531441 0 -0.025193159474483869 0.00019297571336538834 0 -0.025000202774616755 -0.00013316215478735048 0 -0.025237760480967143 -0.00043378065215911966 0 -0.025193159474483869 0.00019297571336538834 0 -0.025000202774616755 -0.00013316215478735048 0 -0.025193159474483869 0.00019297571336538834 0 -0.02504150949392436 0.00054386245744208399 0 -0.025193159474483869 0.00019297571336538834 0 -0.02504150949392436 0.00054386245744208399 0 -0.024995043870938063 0.00078361158842984655 0 -0.02504150949392436 0.00054386245744208399 0 -0.024995043870938063 0.00078361158842984655 0 -0.024828456879707805 0.00099946182985920532 0 -0.024995043870938063 0.00078361158842984655 0 -0.024828456879707805 0.00099946182985920532 0 -0.024555549587997216 0.0011874324488176991 0 -0.024558053208182721 0.0013080334494515141 0 -0.024828456879707805 0.00099946182985920532 0 -0.024555549587997216 0.0011874324488176991 0 -0.024944446784861921 0.0010471210003652812 0 -0.02504150949392436 0.00054386245744208399 0 -0.024828456879707805 0.00099946182985920532 0 -0.024168219201394701 0.0014393773975381577 0 -0.024555549587997216 0.0011874324488176991 0 -0.024327833319052083 0.0013418842011975152 0 -0.024995043870938063 0.00078361158842984655 0 -0.024555549587997216 0.0011874324488176991 0 -0.024558021371103068 0.0010747767110960405 0 -0.024558021371103068 0.0010747767110960405 0 -0.024327833319052083 0.0013418842011975152 0 -0.024462681513739915 0.0011210001604801236 0 -0.024555549587997216 0.0011874324488176991 0 -0.024558021371103068 0.0010747767110960405 0 -0.024327833319052083 0.0013418842011975152 0 -0.024462681513739915 0.0011210001604801236 0 -0.024602371377701899 0.0010461191353082775 0 -0.024484154498348825 0.0010005241438266409 0 -0.024462681513739915 0.0011210001604801236 0 -0.024484154498348825 0.0010005241438266409 0 -0.02455760948920405 0.0011259975756469269 0 -0.024558021371103068 0.0010747767110960405 0 -0.024462681513739915 0.0011210001604801236 0 -0.024602371377701899 0.0010461191353082775 0 -0.024995043870938063 0.00078361158842984655 0 -0.024558021371103068 0.0010747767110960405 0 -0.024602371377701899 0.0010461191353082775 0 -0.02475791897444566 0.0010504356578195358 0 -0.024602371377701899 0.0010461191353082775 0 -0.024622005102870267 0.0010547884800322011 0 -0.024602371377701899 0.0010461191353082775 0 -0.024622005102870267 0.0010547884800322011 0 -0.024484154498348825 0.0010005241438266409 0 -0.024484154498348825 0.0010005241438266409 0 -0.024526754645278682 0.0010424056821517127 0 -0.024454734351102396 0.00081638291762089175 0 -0.024622005102870267 0.0010547884800322011 0 -0.024484154498348825 0.0010005241438266409 0 -0.024526754645278682 0.0010424056821517127 0 -0.023185955643667589 0.00022179533092005197 0 -0.023667224317635089 -0.00042049336062601969 0 -0.024078750889040757 2.9971303878813695e-05 0 -0.023667224317635089 -0.00042049336062601969 0 -0.023153191844280021 -0.00083077543942252415 0 -0.024010593975871297 -0.0011857926142603537 0 -0.023185955643667589 0.00022179533092005197 0 -0.023667224317635089 -0.00042049336062601969 0 -0.023153191844280021 -0.00083077543942252415 0 -0.023185955643667589 0.00022179533092005197 0 -0.023153191844280021 -0.00083077543942252415 0 -0.022173833510878673 -0.00031965685615007356 0 -0.023153191844280021 -0.00083077543942252415 0 -0.022173833510878673 -0.00031965685615007356 0 -0.022342770926500055 -0.0012844155742046776 0 -0.023877450745314954 0.00061495707719606038 0 -0.023393436275446725 0.00050365128040054158 0 -0.024622005102870267 0.0010547884800322011 0 -0.024526754645278682 0.0010424056821517127 0 -0.024632807085980975 0.0010791979090574888 0 -0.024622005102870267 0.0010547884800322011 0 -0.024632807085980975 0.0010791979090574888 0 -0.024677136002010398 0.0010619076800893672 0 -0.026050426423360338 -0.0015052932412509777 0 -0.025277175759710845 -0.0012695712612359232 0 -0.025626686995175528 -0.0025738093294461984 0 -0.024677136002010398 0.0010619076800893672 0 -0.024650467434051554 0.0010474758176848705 0 -0.024651274858137097 0.0010485672763464082 0 -0.026050426423360338 -0.0015052932412509777 0 -0.025626686995175528 -0.0025738093294461984 0 -0.025761804879470652 -0.0027486115548096598 0 -0.025422406289413262 -3.9346503588681632e-05 0 -0.024227013413134848 -0.0017046839584671264 0 -0.025755717698421155 -0.0033265866595165536 0 -0.026136325334017853 -0.0031763201990443169 0 -0.02587677870654094 -0.003150953499875406 0 -0.026340688727740279 -0.0031210532729492898 0 -0.024227013413134848 -0.0017046839584671264 0 -0.025704102484231973 -0.0028915848866370706 0 -0.025626686995175528 -0.0025738093294461984 0 -0.025761804879470652 -0.0027486115548096598 0 -0.026153898335908938 -0.0031368825772679549 0 -0.026136325334017853 -0.0031763201990443169 0 -0.02587677870654094 -0.003150953499875406 0 -0.02284337295561167 -0.0029354619983416731 0 -0.022885589616483987 -0.0029156593192598656 0 -0.022831584518587737 -0.0026845654689701031 0 -0.024110273889703233 -0.0013187416366959228 0 -0.024334413746900527 -0.0014106545112029228 0 -0.024050031627029449 -0.0015438488530658857 0 -0.024227013413134848 -0.0017046839584671264 0 -0.023757469438023541 -0.0020672413414678363 0 -0.023436870428180399 -0.0015022854378318653 0 -0.023757469438023541 -0.0020672413414678363 0 -0.024227013413134848 -0.0017046839584671264 0 -0.023436870428180399 -0.0015022854378318653 0 -0.025704102484231973 -0.0028915848866370706 0 -0.026153898335908938 -0.0031368825772679549 0 -0.02587677870654094 -0.003150953499875406 0 -0.023393436275446725 0.00050365128040054158 0 -0.023436870428180399 -0.0015022854378318653 0 -0.024632807085980975 0.0010791979090574888 0 -0.024677136002010398 0.0010619076800893672 0 -0.024651274858137097 0.0010485672763464082 0 -0.022173833510878673 -0.00031965685615007356 0 -0.02121355726224608 -0.0007946548365966059 0 -0.022342770926500055 -0.0012844155742046776 0 -0.02284337295561167 -0.0029354619983416731 0 -0.022615611321438234 -0.0026607649249733036 0 -0.02232232015858597 -0.0027219045253185281 0 -0.023436870428180399 -0.0015022854378318653 0 -0.022137284630666353 -0.0019708869388210173 0 -0.022615611321438234 -0.0026607649249733036 0 -0.02297016057364348 -0.0024679971208073845 0 -0.02238127606104573 -0.0024888540195354648 0 -0.02284337295561167 -0.0029354619983416731 0 -0.022615611321438234 -0.0026607649249733036 0 -0.022831584518587737 -0.0026845654689701031 0 -0.023331173207453031 -0.0028356422432811662 0 -0.02290022554550546 -0.0030442189257377495 0 -0.023126609720663684 -0.0027163864311322734 0 -0.02290022554550546 -0.0030442189257377495 0 -0.023126609720663684 -0.0027163864311322734 0 -0.023009298709053074 -0.0025015684073443427 0 -0.023757469438023541 -0.0020672413414678363 0 -0.022848237879707488 -0.0029206534748572014 0 -0.022885589616483987 -0.0029156593192598656 0 -0.022831584518587737 -0.0026845654689701031 0 -0.023009298709053074 -0.0025015684073443427 0 -0.025221500152260837 -0.0033187805618036447 0 -0.023757469438023541 -0.0020672413414678363 0 -0.022831584518587737 -0.0026845654689701031 0 -0.023009298709053074 -0.0025015684073443427 0 -0.02297016057364348 -0.0024679971208073845 0 -0.022615611321438234 -0.0026607649249733036 0 -0.022831584518587737 -0.0026845654689701031 0 -0.02297016057364348 -0.0024679971208073845 0 -0.023126609720663684 -0.0027163864311322734 0 -0.023009298709053074 -0.0025015684073443427 0 -0.023054447398093252 -0.0024738664034573915 0 -0.023126609720663684 -0.0027163864311322734 0 -0.02319331291358015 -0.0025256658082396227 0 -0.02308303460575007 -0.0025154103743764223 0 -0.022511142375525154 -0.0027856497765789117 0 -0.022067904290922761 -0.0034669451088557733 0 -0.019430206655152386 -0.0032807767508590802 0 -0.019931971925541313 -0.0038010376225718961 0 -0.019679851078597019 -0.0044930650927059758 0 -0.022734611905283236 -0.0037910722143281498 0 -0.022873273317746908 -0.0038082332211131159 0 -0.023023102731521725 -0.004594469591062425 0 -0.024904257365618122 -0.0052838052064247548 0 -0.024700957411944259 -0.0048275136405686626 0 -0.025036505114586334 -0.0049366291391537576 0 -0.022067904290922761 -0.0034669451088557733 0 -0.022456710179903496 -0.0047557726573742012 0 -0.024476563736059019 -0.0041507481435169311 0 -0.022456710179903496 -0.0047557726573742012 0 -0.024476563736059019 -0.0041507481435169311 0 -0.022067904290922761 -0.0034669451088557733 0 -0.023009298709053074 -0.0025015684073443427 0 -0.023054447398093252 -0.0024738664034573915 0 -0.02297016057364348 -0.0024679971208073845 0 -0.022067904290922761 -0.0034669451088557733 0 -0.021036118211700823 -0.0032119175312266867 0 -0.019430206655152386 -0.0032807767508590802 0 -0.019579146851154892 -0.0032998378315898225 0 -0.019931971925541313 -0.0038010376225718961 0 -0.021036118211700823 -0.0032119175312266867 0 -0.021598026187676474 -0.002843419574009908 0 -0.019644614070841108 -0.0033321555918036602 0 -0.020410687153045268 -0.0033867449410799129 0 -0.020823321747902503 -0.0032109616904973837 0 -0.019579146851154892 -0.0032998378315898225 0 -0.019931971925541313 -0.0038010376225718961 0 -0.020410687153045268 -0.0033867449410799129 0 -0.021036118211700823 -0.0032119175312266867 0 -0.019861384079823664 -0.0033254184767854411 0 -0.020410687153045268 -0.0033867449410799129 0 -0.020753510939656567 -0.0037297669247311292 0 -0.020823321747902503 -0.0032109616904973837 0 -0.019931971925541313 -0.0038010376225718961 0 -0.020410687153045268 -0.0033867449410799129 0 -0.020393730813577725 -0.0039535123881756238 0 -0.020410687153045268 -0.0033867449410799129 0 -0.020393730813577725 -0.0039535123881756238 0 -0.020753510939656567 -0.0037297669247311292 0 -0.020823321747902503 -0.0032109616904973837 0 -0.021267499194043939 -0.0038879980770263568 0 -0.022138825367645377 -0.0030330086501935264 0 -0.020753510939656567 -0.0037297669247311292 0 -0.021267499194043939 -0.0038879980770263568 0 -0.020737576010393735 -0.0043648117644863697 0 -0.020753510939656567 -0.0037297669247311292 0 -0.020823321747902503 -0.0032109616904973837 0 -0.021267499194043939 -0.0038879980770263568 0 -0.021267499194043939 -0.0038879980770263568 0 -0.022138825367645377 -0.0030330086501935264 0 -0.022003957842072076 -0.004209101213291282 0 -0.022138825367645377 -0.0030330086501935264 0 -0.022594398123489231 -0.0040517864862310181 0 -0.022003957842072076 -0.004209101213291282 0 -0.023153191844280021 -0.00083077543942252415 0 -0.023534369029678832 -0.0018227572048598157 0 -0.022342770926500055 -0.0012844155742046776 0 -0.023153191844280021 -0.00083077543942252415 0 -0.023534369029678832 -0.0018227572048598157 0 -0.024010593975871297 -0.0011857926142603537 0 -0.022316681764984872 -0.0025021183590967569 0 -0.022137284630666353 -0.0019708869388210173 0 -0.02238127606104573 -0.0024888540195354648 0 -0.02183161150391779 -0.0025156587419041272 0 -0.02232232015858597 -0.0027219045253185281 0 -0.021598026187676474 -0.002843419574009908 0 -0.022316681764984872 -0.0025021183590967569 0 -0.022615611321438234 -0.0026607649249733036 0 -0.02238127606104573 -0.0024888540195354648 0 -0.02232232015858597 -0.0027219045253185281 0 -0.024125703259084072 -0.002036495066026784 0 -0.02567999131420641 -0.0020443513385914711 0 -0.023498048995895669 -0.0022722939934154223 0 -0.024668926466609963 -0.0028843259439064878 0 -0.025803468924114194 -0.0020580391380667163 0 -0.024646785999187723 -0.0018379105530723424 0 -0.025160432642942574 -0.0012351323972717371 0 -0.025803468924114194 -0.0020580391380667163 0 -0.024646785999187723 -0.0018379105530723424 0 -0.025160432642942574 -0.0012351323972717371 0 -0.02461645177125258 -0.001168014871644605 0 -0.023534369029678832 -0.0018227572048598157 0 -0.024646785999187723 -0.0018379105530723424 0 -0.024010593975871297 -0.0011857926142603537 0 -0.022316681764984872 -0.0025021183590967569 0 -0.024125703259084072 -0.002036495066026784 0 -0.024646785999187723 -0.0018379105530723424 0 -0.02461645177125258 -0.001168014871644605 0 -0.024010593975871297 -0.0011857926142603537 0 -0.021178762122231937 -0.0023969375834876367 0 -0.023498048995895669 -0.0022722939934154223 0 -0.023369974245028926 -0.0033128912067909981 0 -0.022138825367645377 -0.0030330086501935264 0 -0.023116692845978497 -0.0036637609030535814 0 -0.022594398123489231 -0.0040517864862310181 0 -0.022138825367645377 -0.0030330086501935264 0 -0.023116692845978497 -0.0036637609030535814 0 -0.023369974245028926 -0.0033128912067909981 0 -0.022316681764984872 -0.0025021183590967569 0 -0.023040599350828288 -0.0032687344266803245 0 -0.023116692845978497 -0.0036637609030535814 0 -0.024010375775700438 -0.0036326093216817331 0 -0.023369974245028926 -0.0033128912067909981 0 -0.023116692845978497 -0.0036637609030535814 0 -0.024010375775700438 -0.0036326093216817331 0 -0.024360906320587326 -0.0048896225603145289 0 -0.023498048995895669 -0.0022722939934154223 0 -0.023369974245028926 -0.0033128912067909981 0 -0.023889457594241631 -0.0030330970152027716 0 -0.023498048995895669 -0.0022722939934154223 0 -0.023889457594241631 -0.0030330970152027716 0 -0.024668926466609963 -0.0028843259439064878 0 -0.024010375775700438 -0.0036326093216817331 0 -0.023369974245028926 -0.0033128912067909981 0 -0.023889457594241631 -0.0030330970152027716 0 -0.024010375775700438 -0.0036326093216817331 0 -0.023889457594241631 -0.0030330970152027716 0 -0.024668926466609963 -0.0028843259439064878 0 -0.024010375775700438 -0.0036326093216817331 0 -0.024668926466609963 -0.0028843259439064878 0 -0.024685094637596144 -0.0041712640560246615 0 -0.024668926466609963 -0.0028843259439064878 0 -0.025803468924114194 -0.0020580391380667163 0 -0.025995937389526828 -0.0043189349183744841 0 -0.024668926466609963 -0.0028843259439064878 0 -0.025995937389526828 -0.0043189349183744841 0 -0.024685094637596144 -0.0041712640560246615 0 -0.026760871463132163 -0.0019350836545915075 0 -0.025803468924114194 -0.0020580391380667163 0 -0.025995937389526828 -0.0043189349183744841 0 -0.019238882611543249 -0.0038802184108505376 0 -0.020026095268616467 -0.0062370747514903201 0 -0.013455580072483467 -0.0079788928847439877 0 -0.013523897528740027 -0.0079946476555136405 0 -0.013560232898794352 -0.0079668960148544903 0 -0.014363473330820782 -0.0075451764010860106 0 -0.019238882611543249 -0.0038802184108505376 0 -0.01340343880728617 -0.0079021283065279467 0 -0.013414994307272828 -0.0077763315997569507 0 -0.013422975543253501 -0.0079159958403701852 0 -0.013455580072483467 -0.0079788928847439877 0 -0.01340343880728617 -0.0079021283065279467 0 -0.013422975543253501 -0.0079159958403701852 0 -0.019238882611543249 -0.0038802184108505376 0 -0.024966071814041407 0.0013654813557720735 0 -0.026760871463132163 -0.0019350836545915075 0 -0.025803468924114194 -0.0020580391380667163 0 -0.025745738523604036 -0.00038199651174633938 0 -0.025160432642942574 -0.0012351323972717371 0 -0.025803468924114194 -0.0020580391380667163 0 -0.025745738523604036 -0.00038199651174633938 0 -0.019238882611543249 -0.0038802184108505376 0 -0.017876851278478149 -0.0028307963361297941 0 -0.022890303802967624 0.0020977718116986081 0 -0.022976363441566578 0.0021791749034023415 0 -0.022858293157878049 0.0021475128518901646 0 -0.022858293157878049 0.0021475128518901646 0 -0.022914755477783221 0.0021285614138378587 0 -0.022800829845873557 0.0020492636593346671 0 -0.022976363441566578 0.0021791749034023415 0 -0.022858293157878049 0.0021475128518901646 0 -0.022914755477783221 0.0021285614138378587 0 -0.022976363441566578 0.0021791749034023415 0 -0.022914755477783221 0.0021285614138378587 0 -0.023028969182092865 0.0021173033780200233 0 -0.022976363441566578 0.0021791749034023415 0 -0.023246488597198904 0.0021731535078880751 0 -0.023028969182092865 0.0021173033780200233 0 -0.024966071814041407 0.0013654813557720735 0 -0.024048086823962551 0.0013977697113974478 0 -0.025745738523604036 -0.00038199651174633938 0 -0.024689863895179145 0.00011010245892003534 0 -0.024934512768079741 0.00080354126807034181 0 -0.024689863895179145 0.00011010245892003534 0 -0.024454734351102396 0.00081638291762089175 0 -0.024934512768079741 0.00080354126807034181 0 -0.025745738523604036 -0.00038199651174633938 0 -0.024689863895179145 0.00011010245892003534 0 -0.0248972532251387 -0.00066329710799893768 0 -0.024689863895179145 0.00011010245892003534 0 -0.0248972532251387 -0.00066329710799893768 0 -0.024319812967252417 -0.00056321701431017021 0 -0.025160432642942574 -0.0012351323972717371 0 -0.02461645177125258 -0.001168014871644605 0 -0.0248972532251387 -0.00066329710799893768 0 -0.02461645177125258 -0.001168014871644605 0 -0.0248972532251387 -0.00066329710799893768 0 -0.024319812967252417 -0.00056321701431017021 0 -0.025160432642942574 -0.0012351323972717371 0 -0.025745738523604036 -0.00038199651174633938 0 -0.0248972532251387 -0.00066329710799893768 0 -0.023667224317635089 -0.00042049336062601969 0 -0.024010593975871297 -0.0011857926142603537 0 -0.024319812967252417 -0.00056321701431017021 0 -0.02461645177125258 -0.001168014871644605 0 -0.024010593975871297 -0.0011857926142603537 0 -0.024319812967252417 -0.00056321701431017021 0 -0.024689863895179145 0.00011010245892003534 0 -0.024319812967252417 -0.00056321701431017021 0 -0.024078750889040757 2.9971303878813695e-05 0 -0.023667224317635089 -0.00042049336062601969 0 -0.024319812967252417 -0.00056321701431017021 0 -0.024078750889040757 2.9971303878813695e-05 0 -0.023185955643667589 0.00022179533092005197 0 -0.024078750889040757 2.9971303878813695e-05 0 -0.024454734351102396 0.00081638291762089175 0 -0.023877450745314954 0.00061495707719606038 0 -0.024411724887305319 0.00082277370991348092 0 -0.024689863895179145 0.00011010245892003534 0 -0.024078750889040757 2.9971303878813695e-05 0 -0.024454734351102396 0.00081638291762089175 0 -0.024454734351102396 0.00081638291762089175 0 -0.024934512768079741 0.00080354126807034181 0 -0.02455760948920405 0.0011259975756469269 0 -0.024484154498348825 0.0010005241438266409 0 -0.024454734351102396 0.00081638291762089175 0 -0.02455760948920405 0.0011259975756469269 0 -0.024048086823962551 0.0013977697113974478 0 -0.02415851221329406 0.0015445199774403366 0 -0.023246488597198904 0.0021731535078880751 0 -0.023327710820309353 0.0020173723978656783 0 -0.023165069239530177 0.002081558497614005 0 -0.023246488597198904 0.0021731535078880751 0 -0.023327710820309353 0.0020173723978656783 0 -0.023722565031356439 0.0019966941497893687 0 -0.023327710820309353 0.0020173723978656783 0 -0.023722565031356439 0.0019966941497893687 0 -0.023383290935809306 0.0016977060986332029 0 -0.024327833319052083 0.0013418842011975152 0 -0.023722565031356439 0.0019966941497893687 0 -0.023821668299168819 0.0015896596294019409 0 -0.024327833319052083 0.0013418842011975152 0 -0.024462681513739915 0.0011210001604801236 0 -0.02455760948920405 0.0011259975756469269 0 -0.024315251615100862 0.0013433901613489005 0 -0.02415851221329406 0.0015445199774403366 0 -0.024327833319052083 0.0013418842011975152 0 -0.023821668299168819 0.0015896596294019409 0 -0.023924854475946146 0.0013945965995414912 0 -0.023821668299168819 0.0015896596294019409 0 -0.023383290935809306 0.0016977060986332029 0 -0.023924854475946146 0.0013945965995414912 0 -0.023722565031356439 0.0019966941497893687 0 -0.023821668299168819 0.0015896596294019409 0 -0.023383290935809306 0.0016977060986332029 0 -0.023383290935809306 0.0016977060986332029 0 -0.023924854475946146 0.0013945965995414912 0 -0.023080536593251801 0.001487410325953754 0 -0.023224011364338909 0.0010748124458389238 0 -0.023924854475946146 0.0013945965995414912 0 -0.023080536593251801 0.001487410325953754 0 -0.024168219201394701 0.0014393773975381577 0 -0.024327833319052083 0.0013418842011975152 0 -0.023924854475946146 0.0013945965995414912 0 -0.022799155418146564 0.001299665600807653 0 -0.023080536593251801 0.001487410325953754 0 -0.022740713585100665 0.0017198703551934537 0 -0.022351473575198913 0.001306836873668101 0 -0.022799155418146564 0.001299665600807653 0 -0.022740713585100665 0.0017198703551934537 0 -0.023224011364338909 0.0010748124458389238 0 -0.022799155418146564 0.001299665600807653 0 -0.023080536593251801 0.001487410325953754 0 -0.023383290935809306 0.0016977060986332029 0 -0.023080536593251801 0.001487410325953754 0 -0.022740713585100665 0.0017198703551934537 0 -0.023383290935809306 0.0016977060986332029 0 -0.022740713585100665 0.0017198703551934537 0 -0.023045094958913877 0.0019642548648009924 0 -0.022775220438078423 0.001935066080556061 0 -0.023045094958913877 0.0019642548648009924 0 -0.022906578284989963 0.0020341636361579513 0 -0.022740713585100665 0.0017198703551934537 0 -0.022775220438078423 0.001935066080556061 0 -0.023045094958913877 0.0019642548648009924 0 -0.023327710820309353 0.0020173723978656783 0 -0.023383290935809306 0.0016977060986332029 0 -0.023045094958913877 0.0019642548648009924 0 -0.023327710820309353 0.0020173723978656783 0 -0.023045094958913877 0.0019642548648009924 0 -0.023165069239530177 0.002081558497614005 0 -0.023246488597198904 0.0021731535078880751 0 -0.023165069239530177 0.002081558497614005 0 -0.023028969182092865 0.0021173033780200233 0 -0.023045094958913877 0.0019642548648009924 0 -0.023028969182092865 0.0021173033780200233 0 -0.022906578284989963 0.0020341636361579513 0 -0.023045094958913877 0.0019642548648009924 0 -0.023165069239530177 0.002081558497614005 0 -0.023028969182092865 0.0021173033780200233 0 -0.022775220438078423 0.001935066080556061 0 -0.022906578284989963 0.0020341636361579513 0 -0.022800829845873557 0.0020492636593346671 0 -0.022914755477783221 0.0021285614138378587 0 -0.022906578284989963 0.0020341636361579513 0 -0.022800829845873557 0.0020492636593346671 0 -0.022914755477783221 0.0021285614138378587 0 -0.023028969182092865 0.0021173033780200233 0 -0.022906578284989963 0.0020341636361579513 0 -0.023922690243501819 0.0027107938386296327 0 -0.018761803259952636 -0.0020728472913377027 0 -0.022858293157878049 0.0021475128518901646 0 -0.022800829845873557 0.0020492636593346671 0 -0.022659205732376213 0.0019714353266199352 0 -0.022775220438078423 0.001935066080556061 0 -0.022800829845873557 0.0020492636593346671 0 -0.022650275323471584 0.0019823042804923913 0 -0.013449948998136054 -0.0076969485271923327 0 -0.013442725561222141 -0.0077499703382589236 0 -0.013435690467878163 -0.0077671542170426877 0 -0.013449948998136054 -0.0076969485271923327 0 -0.013455770014771808 -0.0077046586443779335 0 -0.013442725561222141 -0.0077499703382589236 0 -0.018761803259952636 -0.0020728472913377027 0 -0.014682853780817112 -0.0059937343949199931 0 -0.018419399130540626 -0.0020824501596332368 0 -0.018330337914636511 -0.0021400172448966777 0 -0.018395318302944406 -0.0021307083551804361 0 -0.022740713585100665 0.0017198703551934537 0 -0.022775220438078423 0.001935066080556061 0 -0.022566665075029597 0.00183430655463173 0 -0.022775220438078423 0.001935066080556061 0 -0.022650275323471584 0.0019823042804923913 0 -0.022566665075029597 0.00183430655463173 0 -0.018761803259952636 -0.0020728472913377027 0 -0.020556399555405138 8.7046265881241943e-05 0 -0.022740713585100665 0.0017198703551934537 0 -0.022566665075029597 0.00183430655463173 0 -0.022505906245849305 0.001699311123121341 0 -0.023200883754326274 0.0020317375120073467 0 -0.021037921567864284 0.00054557384250326327 0 -0.022740713585100665 0.0017198703551934537 0 -0.02185312480793734 0.0017914814602946639 0 -0.022106069733457967 0.0015513189100623461 0 -0.018330337914636511 -0.0021400172448966777 0 -0.018395318302944406 -0.0021307083551804361 0 -0.018377853157650739 -0.0021765652508127582 0 -0.020556399555405138 8.7046265881241943e-05 0 -0.021037921567864284 0.00054557384250326327 0 -0.021786021127013725 0.0015823812941190903 0 -0.021788884147594983 0.0015809126486961164 0 -0.021736348470927629 0.0013568932877988308 0 -0.021037921567864284 0.00054557384250326327 0 -0.021466982066002109 0.0014049088840299344 0 -0.02185312480793734 0.0017914814602946639 0 -0.021788884147594983 0.0015809126486961164 0 -0.022106069733457967 0.0015513189100623461 0 -0.021832651602134368 0.0014296288601153573 0 -0.021788884147594983 0.0015809126486961164 0 -0.022106069733457967 0.0015513189100623461 0 -0.021832651602134368 0.0014296288601153573 0 -0.021788884147594983 0.0015809126486961164 0 -0.02168723484092477 0.001453872326594224 0 -0.022351473575198913 0.001306836873668101 0 -0.022740713585100665 0.0017198703551934537 0 -0.022106069733457967 0.0015513189100623461 0 -0.022351473575198913 0.001306836873668101 0 -0.021832651602134368 0.0014296288601153573 0 -0.022106069733457967 0.0015513189100623461 0 -0.021941019564592493 0.0012956179150143798 0 -0.02180911246844661 0.0014269976305481046 0 -0.021736348470927629 0.0013568932877988308 0 -0.022990174973195523 0.0020355934425223552 0 -0.018502249582784291 -0.0021990735728301567 0 -0.022057580342571496 0.0015870414292796513 0 -0.021941019564592493 0.0012956179150143798 0 -0.02180911246844661 0.0014269976305481046 0 -0.021757232116467011 0.0015789281177032606 0 -0.02180911246844661 0.0014269976305481046 0 -0.02168723484092477 0.001453872326594224 0 -0.021788884147594983 0.0015809126486961164 0 -0.02168723484092477 0.001453872326594224 0 -0.021736348470927629 0.0013568932877988308 0 -0.02180911246844661 0.0014269976305481046 0 -0.02168723484092477 0.001453872326594224 0 -0.021736348470927629 0.0013568932877988308 0 -0.021037921567864284 0.00054557384250326327 0 -0.018502249582784291 -0.0021990735728301567 0 -0.018330337914636511 -0.0021400172448966777 0 -0.018377853157650739 -0.0021765652508127582 0 -0.018262438926279215 -0.002187569829546415 0 -0.014682853780817112 -0.0059937343949199931 0 -0.018502249582784291 -0.0021990735728301567 0 -0.022337552559591328 0.0010232636935751981 0 -0.021941019564592493 0.0012956179150143798 0 -0.021556422355142588 0.00099247351725534078 0 -0.013454353281840872 -0.0077241936669781288 0 -0.013475525128450102 -0.0076835584667789619 0 -0.013445492283158748 -0.0077353731730437133 0 -0.013432988551556391 -0.0077518532447419511 0 -0.013454353281840872 -0.0077241936669781288 0 -0.013445492283158748 -0.0077353731730437133 0 -0.013455770014771808 -0.0077046586443779335 0 -0.013475525128450102 -0.0076835584667789619 0 -0.013445492283158748 -0.0077353731730437133 0 -0.013455770014771808 -0.0077046586443779335 0 -0.013445492283158748 -0.0077353731730437133 0 -0.013442725561222141 -0.0077499703382589236 0 -0.013445492283158748 -0.0077353731730437133 0 -0.013442725561222141 -0.0077499703382589236 0 -0.013402685241258285 -0.0077858146876868626 0 -0.013432988551556391 -0.0077518532447419511 0 -0.013445492283158748 -0.0077353731730437133 0 -0.013402685241258285 -0.0077858146876868626 0 -0.013388863350365642 -0.0078127222479014227 0 -0.013348661161595783 -0.0079979382942881819 0 -0.013402685241258285 -0.0077858146876868626 0 -0.01348696596202717 -0.0078930455877138095 0 -0.013431077481588956 -0.0078906749916294351 0 -0.013430565057096442 -0.0078111945526735862 0 -0.013425290009747452 -0.0078516860739028613 0 -0.013431077481588956 -0.0078906749916294351 0 -0.013402685241258285 -0.0077858146876868626 0 -0.013430565057096442 -0.0078111945526735862 0 -0.013431077481588956 -0.0078906749916294351 0 -0.013442725561222141 -0.0077499703382589236 0 -0.013402685241258285 -0.0077858146876868626 0 -0.013430565057096442 -0.0078111945526735862 0 -0.013430565057096442 -0.0078111945526735862 0 -0.013435690467878163 -0.0077671542170426877 0 -0.013425290009747452 -0.0078516860739028613 0 -0.013442725561222141 -0.0077499703382589236 0 -0.013430565057096442 -0.0078111945526735862 0 -0.013435690467878163 -0.0077671542170426877 0 -0.013414994307272828 -0.0077763315997569507 0 -0.013449948998136054 -0.0076969485271923327 0 -0.013435690467878163 -0.0077671542170426877 0 -0.017876851278478149 -0.0028307963361297941 0 -0.018761803259952636 -0.0020728472913377027 0 -0.013414994307272828 -0.0077763315997569507 0 -0.013435690467878163 -0.0077671542170426877 0 -0.013425290009747452 -0.0078516860739028613 0 -0.013414994307272828 -0.0077763315997569507 0 -0.013425290009747452 -0.0078516860739028613 0 -0.013418737901128009 -0.0079095355178812037 0 -0.013425290009747452 -0.0078516860739028613 0 -0.013406120836182507 -0.007966363878912015 0 -0.013418737901128009 -0.0079095355178812037 0 -0.013406120836182507 -0.007966363878912015 0 -0.013418737901128009 -0.0079095355178812037 0 -0.013413811124939118 -0.0079817380451792531 0 -0.013425290009747452 -0.0078516860739028613 0 -0.013406120836182507 -0.007966363878912015 0 -0.013431077481588956 -0.0078906749916294351 0 -0.013414994307272828 -0.0077763315997569507 0 -0.013418737901128009 -0.0079095355178812037 0 -0.013422975543253501 -0.0079159958403701852 0 -0.013418737901128009 -0.0079095355178812037 0 -0.013422975543253501 -0.0079159958403701852 0 -0.013413811124939118 -0.0079817380451792531 0 -0.013455580072483467 -0.0079788928847439877 0 -0.013413811124939118 -0.0079817380451792531 0 -0.013409633539805219 -0.0080162807561159032 0 -0.013455580072483467 -0.0079788928847439877 0 -0.013422975543253501 -0.0079159958403701852 0 -0.013413811124939118 -0.0079817380451792531 0 -0.013406120836182507 -0.007966363878912015 0 -0.013413811124939118 -0.0079817380451792531 0 -0.013383470356926268 -0.0080549068882184872 0 -0.013413811124939118 -0.0079817380451792531 0 -0.013383470356926268 -0.0080549068882184872 0 -0.013409633539805219 -0.0080162807561159032 0 -0.013420015800376557 -0.008013674595410341 0 -0.013416972449010522 -0.0081070439766525084 0 -0.0133733016608047 -0.008134268447043529 0 -0.013406120836182507 -0.007966363878912015 0 -0.013383470356926268 -0.0080549068882184872 0 -0.013420015800376557 -0.008013674595410341 0 -0.013383470356926268 -0.0080549068882184872 0 -0.013420015800376557 -0.008013674595410341 0 -0.0133733016608047 -0.008134268447043529 0 -0.013420015800376557 -0.008013674595410341 0 -0.013416972449010522 -0.0081070439766525084 0 -0.013506117158831418 -0.0080764838859028066 0 -0.013420015800376557 -0.008013674595410341 0 -0.013506117158831418 -0.0080764838859028066 0 -0.01348696596202717 -0.0078930455877138095 0 -0.013420015800376557 -0.008013674595410341 0 -0.01348696596202717 -0.0078930455877138095 0 -0.013431077481588956 -0.0078906749916294351 0 -0.013338601967898 -0.008302491698706442 0 -0.013348661161595783 -0.0079979382942881819 0 -0.013406120836182507 -0.007966363878912015 0 -0.013420015800376557 -0.008013674595410341 0 -0.013431077481588956 -0.0078906749916294351 0 -0.013359125431392966 -0.0083768591429847147 0 -0.013692103541124207 -0.0085608800785268585 0 -0.013399474898894927 -0.0083376103192378589 0 -0.013359125431392966 -0.0083768591429847147 0 -0.013362491479149613 -0.0082097814596353742 0 -0.013364087049241153 -0.0080860132953054949 0 -0.013311935776397011 -0.0083720920034954949 0 -0.013730658461031909 -0.0083083349981495705 0 -0.013297374684766987 -0.0083707347774860091 0 -0.013359125431392966 -0.0083768591429847147 0 -0.013399474898894927 -0.0083376103192378589 0 -0.01331639569527261 -0.0084280918925472292 0 -0.013297374684766987 -0.0083707347774860091 0 -0.013359125431392966 -0.0083768591429847147 0 -0.01331639569527261 -0.0084280918925472292 0 -0.013359125431392966 -0.0083768591429847147 0 -0.013378454991805372 -0.0082357600193868809 0 -0.013359125431392966 -0.0083768591429847147 0 -0.013378454991805372 -0.0082357600193868809 0 -0.013362491479149613 -0.0082097814596353742 0 -0.01331639569527261 -0.0084280918925472292 0 -0.013506117158831418 -0.0080764838859028066 0 -0.013378454991805372 -0.0082357600193868809 0 -0.013416972449010522 -0.0081070439766525084 0 -0.013506117158831418 -0.0080764838859028066 0 -0.013378454991805372 -0.0082357600193868809 0 -0.013416972449010522 -0.0081070439766525084 0 -0.013378454991805372 -0.0082357600193868809 0 -0.0133733016608047 -0.008134268447043529 0 -0.0133733016608047 -0.008134268447043529 0 -0.013362491479149613 -0.0082097814596353742 0 -0.013364087049241153 -0.0080860132953054949 0 -0.013383470356926268 -0.0080549068882184872 0 -0.0133733016608047 -0.008134268447043529 0 -0.013364087049241153 -0.0080860132953054949 0 -0.013378454991805372 -0.0082357600193868809 0 -0.0133733016608047 -0.008134268447043529 0 -0.013362491479149613 -0.0082097814596353742 0 -0.013383470356926268 -0.0080549068882184872 0 -0.013409633539805219 -0.0080162807561159032 0 -0.013364087049241153 -0.0080860132953054949 0 -0.013409633539805219 -0.0080162807561159032 0 -0.013458601656473976 -0.0079345358360847027 0 -0.013479019751613428 -0.0079722823642288266 0 -0.013455580072483467 -0.0079788928847439877 0 -0.013409633539805219 -0.0080162807561159032 0 -0.013479019751613428 -0.0079722823642288266 0 -0.013692103541124207 -0.0085608800785268585 0 -0.013889470256784154 -0.0083735100820171507 0 -0.014142190304755321 -0.0086270870356994558 0 -0.013730658461031909 -0.0083083349981495705 0 -0.013021104606760038 -0.0084012292125332424 0 -0.013409633539805219 -0.0080162807561159032 0 -0.013364087049241153 -0.0080860132953054949 0 -0.013458601656473976 -0.0079345358360847027 0 -0.013692103541124207 -0.0085608800785268585 0 -0.013889470256784154 -0.0083735100820171507 0 -0.013553202304654838 -0.0082532734737395599 0 -0.013889470256784154 -0.0083735100820171507 0 -0.014199313123087002 -0.0082136337159927891 0 -0.014142190304755321 -0.0086270870356994558 0 -0.013889470256784154 -0.0083735100820171507 0 -0.013856322352887987 -0.0081369243049198344 0 -0.014199313123087002 -0.0082136337159927891 0 -0.013856322352887987 -0.0081369243049198344 0 -0.014037670362018842 -0.0079417522242480471 0 -0.014199313123087002 -0.0082136337159927891 0 -0.013889470256784154 -0.0083735100820171507 0 -0.013856322352887987 -0.0081369243049198344 0 -0.013553202304654838 -0.0082532734737395599 0 -0.013856322352887987 -0.0081369243049198344 0 -0.013553202304654838 -0.0082532734737395599 0 -0.01357392505292288 -0.0080273222723594769 0 -0.013553202304654838 -0.0082532734737395599 0 -0.013334476839264628 -0.0081037087307175865 0 -0.01357392505292288 -0.0080273222723594769 0 -0.013553202304654838 -0.0082532734737395599 0 -0.013399474898894927 -0.0083376103192378589 0 -0.013315133925621477 -0.0082331827108262628 0 -0.013692103541124207 -0.0085608800785268585 0 -0.013553202304654838 -0.0082532734737395599 0 -0.013399474898894927 -0.0083376103192378589 0 -0.013211208341198228 -0.0083006573370625249 0 -0.013297374684766987 -0.0083707347774860091 0 -0.013399474898894927 -0.0083376103192378589 0 -0.013211208341198228 -0.0083006573370625249 0 -0.013399474898894927 -0.0083376103192378589 0 -0.013315133925621477 -0.0082331827108262628 0 -0.013136976028379812 -0.0081706565727285869 0 -0.013315133925621477 -0.0082331827108262628 0 -0.013334476839264628 -0.0081037087307175865 0 -0.013553202304654838 -0.0082532734737395599 0 -0.013315133925621477 -0.0082331827108262628 0 -0.013334476839264628 -0.0081037087307175865 0 -0.013069616467502673 -0.0080002527294968512 0 -0.013334476839264628 -0.0081037087307175865 0 -0.013356537431604565 -0.0079057616216484505 0 -0.013334476839264628 -0.0081037087307175865 0 -0.013356537431604565 -0.0079057616216484505 0 -0.01357392505292288 -0.0080273222723594769 0 -0.01357392505292288 -0.0080273222723594769 0 -0.013552416865537634 -0.0078113714595995868 0 -0.013786680853837203 -0.0078641306338154138 0 -0.013356537431604565 -0.0079057616216484505 0 -0.01357392505292288 -0.0080273222723594769 0 -0.013552416865537634 -0.0078113714595995868 0 -0.013356537431604565 -0.0079057616216484505 0 -0.013552416865537634 -0.0078113714595995868 0 -0.013437148315488052 -0.0076412844467286046 0 -0.013069616467502673 -0.0080002527294968512 0 -0.013356537431604565 -0.0079057616216484505 0 -0.013211121108544053 -0.0077370918193971523 0 -0.013356537431604565 -0.0079057616216484505 0 -0.013211121108544053 -0.0077370918193971523 0 -0.013437148315488052 -0.0076412844467286046 0 -0.013130723502617988 -0.0075083324824151776 0 -0.013211121108544053 -0.0077370918193971523 0 -0.013331860000200186 -0.0074871506697858975 0 -0.013211121108544053 -0.0077370918193971523 0 -0.013331860000200186 -0.0074871506697858975 0 -0.013437148315488052 -0.0076412844467286046 0 -0.013552416865537634 -0.0078113714595995868 0 -0.013437148315488052 -0.0076412844467286046 0 -0.013669977846780864 -0.0074945302092808176 0 -0.013437148315488052 -0.0076412844467286046 0 -0.013478035864652195 -0.007376677878134898 0 -0.013669977846780864 -0.0074945302092808176 0 -0.013331860000200186 -0.0074871506697858975 0 -0.013437148315488052 -0.0076412844467286046 0 -0.013478035864652195 -0.007376677878134898 0 -0.014105366562090936 -0.01174513312269455 0 -0.012457627367610241 -0.010634885349915853 0 -0.012949084671273056 -0.013292034440216052 0 -0.013632640675836019 -0.0094771883146718659 0 -0.014673365498903796 -0.01002700215087129 0 -0.014105366562090936 -0.01174513312269455 0 -0.015772041519499725 -0.012851542957684843 0 -0.014307868943654779 -0.013349928144718245 0 -0.013632640675836019 -0.0094771883146718659 0 -0.013572368777671557 -0.010258228749135264 0 -0.013331860000200186 -0.0074871506697858975 0 -0.013478035864652195 -0.007376677878134898 0 -0.013295337249609591 -0.0072681378130501229 0 -0.012633951783494662 -0.008221660845463925 0 -0.012649265795087145 -0.0080078199932982538 0 -0.012500920634393221 -0.0082752253129033913 0 -0.013130723502617988 -0.0075083324824151776 0 -0.013331860000200186 -0.0074871506697858975 0 -0.013295337249609591 -0.0072681378130501229 0 -0.012963313042475824 -0.0073528105642228277 0 -0.013572368777671557 -0.010258228749135264 0 -0.018206485373824521 -0.013503244405722594 0 -0.018157471109799088 -0.01318431959938505 0 -0.01803998903588722 -0.013466397256394258 0 -0.018206485373824521 -0.013503244405722594 0 -0.01803998903588722 -0.013466397256394258 0 -0.018082752118637531 -0.013678319892966688 0 -0.018206485373824521 -0.013503244405722594 0 -0.018358390010331297 -0.013352716178575938 0 -0.018403111113772259 -0.013619465404147506 0 -0.014673365498903796 -0.01002700215087129 0 -0.015796663811266105 -0.013439270806552998 0 -0.013784743243093315 -0.007579569096561916 0 -0.014014623840473346 -0.0076928219497120875 0 -0.013786680853837203 -0.0078641306338154138 0 -0.018206485373824521 -0.013503244405722594 0 -0.018358390010331297 -0.013352716178575938 0 -0.018157471109799088 -0.01318431959938505 0 -0.014673365498903796 -0.01002700215087129 0 -0.013439164284921932 -0.0067490990819704683 0 -0.014673365498903796 -0.01002700215087129 0 -0.0164550689376705 -0.010602610011932344 0 -0.014014623840473346 -0.0076928219497120875 0 -0.014037670362018842 -0.0079417522242480471 0 -0.014347387353988135 -0.0078346371234272009 0 -0.014014623840473346 -0.0076928219497120875 0 -0.013786680853837203 -0.0078641306338154138 0 -0.014037670362018842 -0.0079417522242480471 0 -0.013552416865537634 -0.0078113714595995868 0 -0.013669977846780864 -0.0074945302092808176 0 -0.013786680853837203 -0.0078641306338154138 0 -0.013856322352887987 -0.0081369243049198344 0 -0.01357392505292288 -0.0080273222723594769 0 -0.013786680853837203 -0.0078641306338154138 0 -0.013856322352887987 -0.0081369243049198344 0 -0.013786680853837203 -0.0078641306338154138 0 -0.014037670362018842 -0.0079417522242480471 0 -0.014037670362018842 -0.0079417522242480471 0 -0.014347387353988135 -0.0078346371234272009 0 -0.014199313123087002 -0.0082136337159927891 0 -0.014347387353988135 -0.0078346371234272009 0 -0.014497752207606638 -0.0081358679806614667 0 -0.014199313123087002 -0.0082136337159927891 0 -0.014347387353988135 -0.0078346371234272009 0 -0.014708904053781825 -0.0080194347695240805 0 -0.014497752207606638 -0.0081358679806614667 0 -0.015621578099233062 -0.010268965245040781 0 -0.018644936999244219 -0.010138208282334794 0 -0.017664981219590713 -0.013044084773953355 0 -0.017916056980103189 -0.01294989516064984 0 -0.0179620647525503 -0.01323352068622769 0 -0.017664981219590713 -0.013044084773953355 0 -0.017916056980103189 -0.01294989516064984 0 -0.017596877446897884 -0.012683324862767586 0 -0.0164550689376705 -0.010602610011932344 0 -0.015621578099233062 -0.010268965245040781 0 -0.018157471109799088 -0.01318431959938505 0 -0.017916056980103189 -0.01294989516064984 0 -0.0179620647525503 -0.01323352068622769 0 -0.018157471109799088 -0.01318431959938505 0 -0.0179620647525503 -0.01323352068622769 0 -0.01803998903588722 -0.013466397256394258 0 -0.0179620647525503 -0.01323352068622769 0 -0.017770487394491656 -0.013350957758367653 0 -0.01803998903588722 -0.013466397256394258 0 -0.017664981219590713 -0.013044084773953355 0 -0.0179620647525503 -0.01323352068622769 0 -0.017770487394491656 -0.013350957758367653 0 -0.017946856666773821 -0.013732105407799639 0 -0.017914783079705808 -0.013359933040944582 0 -0.017770487394491656 -0.013350957758367653 0 -0.01803998903588722 -0.013466397256394258 0 -0.017926431459094394 -0.013616863624816396 0 -0.017914783079705808 -0.013359933040944582 0 -0.0179371211797313 -0.013626216601323871 0 -0.018098589230112965 -0.013604756112791723 0 -0.018028827660755687 -0.013644653512207755 0 -0.017926431459094394 -0.013616863624816396 0 -0.01803998903588722 -0.013466397256394258 0 -0.018001220715836964 -0.013617225283665482 0 -0.017926431459094394 -0.013616863624816396 0 -0.018052379326381027 -0.013685645297643883 0 -0.018277663266456357 -0.013862784953929954 0 -0.018312522979291337 -0.013715491047617026 0 -0.018058046601886264 -0.013689061461989567 0 -0.018082812029624827 -0.013663869770571191 0 -0.018052379326381027 -0.013685645297643883 0 -0.018312522979291337 -0.013715491047617026 0 -0.018220152680542646 -0.013593727140283285 0 -0.018052379326381027 -0.013685645297643883 0 -0.018028827660755687 -0.013644653512207755 0 -0.017999246501496813 -0.013621102263060894 0 -0.018098589230112965 -0.013604756112791723 0 -0.018028827660755687 -0.013644653512207755 0 -0.018053098656782871 -0.013574120812896938 0 -0.018052379326381027 -0.013685645297643883 0 -0.018028827660755687 -0.013644653512207755 0 -0.018053098656782871 -0.013574120812896938 0 -0.018174383921079638 -0.013408943835821101 0 -0.018098589230112965 -0.013604756112791723 0 -0.018053098656782871 -0.013574120812896938 0 -0.018052379326381027 -0.013685645297643883 0 -0.018053098656782871 -0.013574120812896938 0 -0.017900545271118135 -0.013537753186438052 0 -0.018053098656782871 -0.013574120812896938 0 -0.018016616697874258 -0.013410019240267242 0 -0.017900545271118135 -0.013537753186438052 0 -0.018016616697874258 -0.013410019240267242 0 -0.017954044101516412 -0.013218699894336682 0 -0.017783610287707526 -0.013339615733681264 0 -0.018174383921079638 -0.013408943835821101 0 -0.018053098656782871 -0.013574120812896938 0 -0.018016616697874258 -0.013410019240267242 0 -0.018174383921079638 -0.013408943835821101 0 -0.018016616697874258 -0.013410019240267242 0 -0.018172684079437798 -0.013168592171030218 0 -0.017946856666773821 -0.013732105407799639 0 -0.018644936999244219 -0.010138208282334794 0 -0.018172684079437798 -0.013168592171030218 0 -0.017954044101516412 -0.013218699894336682 0 -0.017959732391176514 -0.012980150454845619 0 -0.018016616697874258 -0.013410019240267242 0 -0.018172684079437798 -0.013168592171030218 0 -0.017954044101516412 -0.013218699894336682 0 -0.018644936999244219 -0.010138208282334794 0 -0.021050247289742516 -0.009005495828953148 0 -0.022445647429869094 -0.0064161375975861764 0 -0.022276097967098282 -0.0065062879222041398 0 -0.023013536024592621 -0.0067095398040297859 0 -0.022445647429869094 -0.0064161375975861764 0 -0.02276537242511243 -0.0061742023008144326 0 -0.023013536024592621 -0.0067095398040297859 0 -0.022126819528091514 -0.0080643950584901279 0 -0.021050247289742516 -0.009005495828953148 0 -0.022445647429869094 -0.0064161375975861764 0 -0.022278657586832437 -0.0065130412101563825 0 -0.022209267928758741 -0.0060803929664080113 0 -0.022445647429869094 -0.0064161375975861764 0 -0.022209267928758741 -0.0060803929664080113 0 -0.022483766709884948 -0.0061246594873446301 0 -0.02276537242511243 -0.0061742023008144326 0 -0.022511339744063906 -0.0058264447790407643 0 -0.022955309083210706 -0.0054803392560301692 0 -0.02276537242511243 -0.0061742023008144326 0 -0.022483766709884948 -0.0061246594873446301 0 -0.022511339744063906 -0.0058264447790407643 0 -0.022445647429869094 -0.0064161375975861764 0 -0.02276537242511243 -0.0061742023008144326 0 -0.022483766709884948 -0.0061246594873446301 0 -0.022209267928758741 -0.0060803929664080113 0 -0.022511339744063906 -0.0058264447790407643 0 -0.022053354222108655 -0.0054091077222620894 0 -0.022209267928758741 -0.0060803929664080113 0 -0.022483766709884948 -0.0061246594873446301 0 -0.022511339744063906 -0.0058264447790407643 0 -0.019727609975329814 -0.0070614460426052586 0 -0.017610462507999365 -0.0073597918517503084 0 -0.02276537242511243 -0.0061742023008144326 0 -0.023103551074926253 -0.0065047761696279786 0 -0.022955309083210706 -0.0054803392560301692 0 -0.020096096737102793 -0.006529431774021318 0 -0.019892585654303515 -0.0070585057258011879 0 -0.02020637712682942 -0.0070506140874292966 0 -0.019727609975329814 -0.0070614460426052586 0 -0.022989007425374595 -0.0061599842579573259 0 -0.018644936999244219 -0.010138208282334794 0 -0.019727609975329814 -0.0070614460426052586 0 -0.014708904053781825 -0.0080194347695240805 0 -0.014763990705779427 -0.0082460156743065227 0 -0.014497752207606638 -0.0081358679806614667 0 -0.023181033783718056 -0.007169113168203076 0 -0.023080551197086265 -0.006522317604201841 0 -0.023013536024592621 -0.0067095398040297859 0 -0.023181033783718056 -0.007169113168203076 0 -0.022276097967098282 -0.0065062879222041398 0 -0.023013536024592621 -0.0067095398040297859 0 -0.019727609975329814 -0.0070614460426052586 0 -0.020705231053778347 -0.006383699387664931 0 -0.02276537242511243 -0.0061742023008144326 0 -0.023103551074926253 -0.0065047761696279786 0 -0.023013536024592621 -0.0067095398040297859 0 -0.014763990705779427 -0.0082460156743065227 0 -0.014497752207606638 -0.0081358679806614667 0 -0.014471257060609756 -0.0083761275469560297 0 -0.014497752207606638 -0.0081358679806614667 0 -0.014199313123087002 -0.0082136337159927891 0 -0.014471257060609756 -0.0083761275469560297 0 -0.014199313123087002 -0.0082136337159927891 0 -0.014471257060609756 -0.0083761275469560297 0 -0.014142190304755321 -0.0086270870356994558 0 -0.014763990705779427 -0.0082460156743065227 0 -0.014471257060609756 -0.0083761275469560297 0 -0.014615785169257092 -0.0086309959489352227 0 -0.014471257060609756 -0.0083761275469560297 0 -0.014615785169257092 -0.0086309959489352227 0 -0.014142190304755321 -0.0086270870356994558 0 -0.017610462507999365 -0.0073597918517503084 0 -0.013021104606760038 -0.0084012292125332424 0 -0.013637385439191846 -0.0078807334994085466 0 -0.013458601656473976 -0.0079345358360847027 0 -0.013479019751613428 -0.0079722823642288266 0 -0.013455580072483467 -0.0079788928847439877 0 -0.013479019751613428 -0.0079722823642288266 0 -0.013560232898794352 -0.0079668960148544903 0 -0.013637385439191846 -0.0078807334994085466 0 -0.013479019751613428 -0.0079722823642288266 0 -0.013560232898794352 -0.0079668960148544903 0 -0.025062713616045632 -0.0066655032908103313 0 -0.025995937389526828 -0.0043189349183744841 0 -0.024360906320587326 -0.0048896225603145289 0 -0.017610462507999365 -0.0073597918517503084 0 -0.020026095268616467 -0.0062370747514903201 0 -0.025995937389526828 -0.0043189349183744841 0 -0.024685094637596144 -0.0041712640560246615 0 -0.024360906320587326 -0.0048896225603145289 0 -0.023116692845978497 -0.0036637609030535814 0 -0.024360906320587326 -0.0048896225603145289 0 -0.023610366048403518 -0.0066737681422493747 0 -0.024010375775700438 -0.0036326093216817331 0 -0.024685094637596144 -0.0041712640560246615 0 -0.024360906320587326 -0.0048896225603145289 0 -0.023281027171567839 -0.003728534195558254 0 -0.022989007425374595 -0.0061599842579573259 0 -0.023116692845978497 -0.0036637609030535814 0 -0.02269173930788717 -0.0045708112119389474 0 -0.023437750415330669 -0.0054120479836154397 0 -0.023116692845978497 -0.0036637609030535814 0 -0.022594398123489231 -0.0040517864862310181 0 -0.02269173930788717 -0.0045708112119389474 0 -0.022594398123489231 -0.0040517864862310181 0 -0.02269173930788717 -0.0045708112119389474 0 -0.022003957842072076 -0.004209101213291282 0 -0.02269173930788717 -0.0045708112119389474 0 -0.023437750415330669 -0.0054120479836154397 0 -0.022053354222108655 -0.0054091077222620894 0 -0.022989007425374595 -0.0061599842579573259 0 -0.022208845932450521 -0.0052917575642565185 0 -0.022511339744063906 -0.0058264447790407643 0 -0.022955309083210706 -0.0054803392560301692 0 -0.022053354222108655 -0.0054091077222620894 0 -0.025062713616045632 -0.0066655032908103313 0 -0.024360906320587326 -0.0048896225603145289 0 -0.023610366048403518 -0.0066737681422493747 0 -0.017610462507999365 -0.0073597918517503084 0 -0.022989007425374595 -0.0061599842579573259 0 -0.021344188029304257 -0.0048802609809468602 0 -0.020737576010393735 -0.0043648117644863697 0 -0.020655595548670219 -0.0054261002829312684 0 -0.021344188029304257 -0.0048802609809468602 0 -0.020655595548670219 -0.0054261002829312684 0 -0.021531798436638168 -0.0060305845305379732 0 -0.021344188029304257 -0.0048802609809468602 0 -0.022053354222108655 -0.0054091077222620894 0 -0.021531798436638168 -0.0060305845305379732 0 -0.02269173930788717 -0.0045708112119389474 0 -0.022053354222108655 -0.0054091077222620894 0 -0.022003957842072076 -0.004209101213291282 0 -0.021344188029304257 -0.0048802609809468602 0 -0.022053354222108655 -0.0054091077222620894 0 -0.022003957842072076 -0.004209101213291282 0 -0.021267499194043939 -0.0038879980770263568 0 -0.021344188029304257 -0.0048802609809468602 0 -0.022003957842072076 -0.004209101213291282 0 -0.021267499194043939 -0.0038879980770263568 0 -0.021344188029304257 -0.0048802609809468602 0 -0.020737576010393735 -0.0043648117644863697 0 -0.020393730813577725 -0.0039535123881756238 0 -0.020753510939656567 -0.0037297669247311292 0 -0.020737576010393735 -0.0043648117644863697 0 -0.020393730813577725 -0.0039535123881756238 0 -0.020737576010393735 -0.0043648117644863697 0 -0.020199214968191975 -0.0044742128725566693 0 -0.020737576010393735 -0.0043648117644863697 0 -0.020199214968191975 -0.0044742128725566693 0 -0.020655595548670219 -0.0054261002829312684 0 -0.019931971925541313 -0.0038010376225718961 0 -0.020393730813577725 -0.0039535123881756238 0 -0.020199214968191975 -0.0044742128725566693 0 -0.023023813911278963 -0.0071352835519712067 0 -0.026765921118715317 -0.0057738749019210075 0 -0.024700957411944259 -0.0048275136405686626 0 -0.024645376819007907 -0.0047124347372804248 0 -0.025036505114586334 -0.0049366291391537576 0 -0.028225006156595879 -0.0070960109048649363 0 -0.027478231523311237 -0.0073537326887685665 0 -0.027486658935119056 -0.0065228724309948282 0 -0.019931971925541313 -0.0038010376225718961 0 -0.020199214968191975 -0.0044742128725566693 0 -0.019679851078597019 -0.0044930650927059758 0 -0.020199214968191975 -0.0044742128725566693 0 -0.019679851078597019 -0.0044930650927059758 0 -0.019803273737214678 -0.0048214694456337418 0 -0.022456710179903496 -0.0047557726573742012 0 -0.023023813911278963 -0.0071352835519712067 0 -0.028225006156595879 -0.0070960109048649363 0 -0.028397342879461798 -0.0082736156135553313 0 -0.027839260325494396 -0.0078886681224287665 0 -0.023023813911278963 -0.0071352835519712067 0 -0.02542113826473676 -0.0085586028047388209 0 -0.028225006156595879 -0.0070960109048649363 0 -0.027839260325494396 -0.0078886681224287665 0 -0.027478231523311237 -0.0073537326887685665 0 -0.023023813911278963 -0.0071352835519712067 0 -0.020583352465252992 -0.0068761123597883772 0 -0.021056585991591839 -0.0084933473243074126 0 -0.021403226438708404 -0.008757039378757131 0 -0.021216311285134959 -0.0089633871719556162 0 -0.023023813911278963 -0.0071352835519712067 0 -0.021152442694898133 -0.0091316981328949318 0 -0.020199214968191975 -0.0044742128725566693 0 -0.019803273737214678 -0.0048214694456337418 0 -0.020655595548670219 -0.0054261002829312684 0 -0.021216311285134959 -0.0089633871719556162 0 -0.021359415991574739 -0.0091114033128853952 0 -0.021422562725422048 -0.0093850121707772551 0 -0.021262284946680064 -0.0090740889740096916 0 -0.02134970577756401 -0.0089410246157854891 0 -0.021422562725422048 -0.0093850121707772551 0 -0.021245495497328588 -0.0084425601830094097 0 -0.021262284946680064 -0.0090740889740096916 0 -0.02134970577756401 -0.0089410246157854891 0 -0.021403226438708404 -0.008757039378757131 0 -0.021216311285134959 -0.0089633871719556162 0 -0.021424968723004791 -0.0089703908627100561 0 -0.021216311285134959 -0.0089633871719556162 0 -0.021359415991574739 -0.0091114033128853952 0 -0.021424968723004791 -0.0089703908627100561 0 -0.028397342879461798 -0.0082736156135553313 0 -0.027839260325494396 -0.0078886681224287665 0 -0.027808149212340597 -0.0086407250195465104 0 -0.0282592145268338 -0.0089555520756680277 0 -0.027808149212340597 -0.0086407250195465104 0 -0.027961295590607449 -0.0093198481361622294 0 -0.028397342879461798 -0.0082736156135553313 0 -0.0282592145268338 -0.0089555520756680277 0 -0.027808149212340597 -0.0086407250195465104 0 -0.027808149212340597 -0.0086407250195465104 0 -0.027961295590607449 -0.0093198481361622294 0 -0.027501333632807066 -0.0091685555517650678 0 -0.028397342879461798 -0.0082736156135553313 0 -0.0282592145268338 -0.0089555520756680277 0 -0.028593442748533177 -0.0095009563673565563 0 -0.021152442694898133 -0.0091316981328949318 0 -0.021425545216036915 -0.0092893838375055892 0 -0.02542113826473676 -0.0085586028047388209 0 -0.022418443154018145 -0.011012454215497189 0 -0.021262284946680064 -0.0090740889740096916 0 -0.021422562725422048 -0.0093850121707772551 0 -0.021311821476402499 -0.009643488715955377 0 -0.021359415991574739 -0.0091114033128853952 0 -0.021422562725422048 -0.0093850121707772551 0 -0.021430488455169313 -0.0093532779813350394 0 -0.021359415991574739 -0.0091114033128853952 0 -0.021430488455169313 -0.0093532779813350394 0 -0.021480377466502238 -0.0092311051370779391 0 -0.021593051504445068 -0.0092298005368486157 0 -0.021713293599370766 -0.009015294981598752 0 -0.021749063184755772 -0.0093575394113728245 0 -0.021430488455169313 -0.0093532779813350394 0 -0.021544221068037002 -0.0093441192549611422 0 -0.021508575105827255 -0.009488967811151482 0 -0.021422562725422048 -0.0093850121707772551 0 -0.021430488455169313 -0.0093532779813350394 0 -0.021548125492048275 -0.0095260830135666264 0 -0.020523795605167254 -0.0099627696055944251 0 -0.019653122929128845 -0.011744670679087401 0 -0.021544221068037002 -0.0093441192549611422 0 -0.021593051504445068 -0.0092298005368486157 0 -0.021749063184755772 -0.0093575394113728245 0 -0.021544221068037002 -0.0093441192549611422 0 -0.021749063184755772 -0.0093575394113728245 0 -0.021508575105827255 -0.009488967811151482 0 -0.019524474986663352 -0.011316616847099692 0 -0.019653122929128845 -0.011744670679087401 0 -0.021430488455169313 -0.0093532779813350394 0 -0.021544221068037002 -0.0093441192549611422 0 -0.021480377466502238 -0.0092311051370779391 0 -0.021544221068037002 -0.0093441192549611422 0 -0.021593051504445068 -0.0092298005368486157 0 -0.021480377466502238 -0.0092311051370779391 0 -0.021593051504445068 -0.0092298005368486157 0 -0.021480377466502238 -0.0092311051370779391 0 -0.021502399263397996 -0.0091056770064647068 0 -0.021359415991574739 -0.0091114033128853952 0 -0.021480377466502238 -0.0092311051370779391 0 -0.021502399263397996 -0.0091056770064647068 0 -0.021502399263397996 -0.0091056770064647068 0 -0.021424968723004791 -0.0089703908627100561 0 -0.021713293599370766 -0.009015294981598752 0 -0.021403226438708404 -0.008757039378757131 0 -0.021424968723004791 -0.0089703908627100561 0 -0.021713293599370766 -0.009015294981598752 0 -0.020583352465252992 -0.0068761123597883772 0 -0.021792944444992756 -0.0075180612111211539 0 -0.021359415991574739 -0.0091114033128853952 0 -0.021502399263397996 -0.0091056770064647068 0 -0.021424968723004791 -0.0089703908627100561 0 -0.021593051504445068 -0.0092298005368486157 0 -0.021502399263397996 -0.0091056770064647068 0 -0.021713293599370766 -0.009015294981598752 0 -0.022278657586832437 -0.0065130412101563825 0 -0.022209267928758741 -0.0060803929664080113 0 -0.021531798436638168 -0.0060305845305379732 0 -0.021050247289742516 -0.009005495828953148 0 -0.021792944444992756 -0.0075180612111211539 0 -0.022209267928758741 -0.0060803929664080113 0 -0.022053354222108655 -0.0054091077222620894 0 -0.021531798436638168 -0.0060305845305379732 0 -0.021050247289742516 -0.009005495828953148 0 -0.019524474986663352 -0.011316616847099692 0 -0.021988551861257418 -0.0092241693973106574 0 -0.021713293599370766 -0.009015294981598752 0 -0.021749063184755772 -0.0093575394113728245 0 -0.017954044101516412 -0.013218699894336682 0 -0.017959732391176514 -0.012980150454845619 0 -0.017813464906555197 -0.013063456216324449 0 -0.017954044101516412 -0.013218699894336682 0 -0.017813464906555197 -0.013063456216324449 0 -0.017783610287707526 -0.013339615733681264 0 -0.019653122929128845 -0.011744670679087401 0 -0.018014316923343578 -0.013816799406995581 0 -0.018484397379826819 -0.013935885392893459 0 -0.018473513149356562 -0.013906011075681844 0 -0.01840249556502422 -0.013909104051002345 0 -0.017813464906555197 -0.013063456216324449 0 -0.017674211787082891 -0.013137779895065026 0 -0.017783610287707526 -0.013339615733681264 0 -0.018484397379826819 -0.013935885392893459 0 -0.018473513149356562 -0.013906011075681844 0 -0.018528080006046492 -0.013914180026486684 0 -0.018473513149356562 -0.013906011075681844 0 -0.01840249556502422 -0.013909104051002345 0 -0.018429888568205838 -0.013862897763019232 0 -0.018473513149356562 -0.013906011075681844 0 -0.018429888568205838 -0.013862897763019232 0 -0.01850142172648667 -0.013875056677634582 0 -0.018016616697874258 -0.013410019240267242 0 -0.017783610287707526 -0.013339615733681264 0 -0.017900545271118135 -0.013537753186438052 0 -0.018014316923343578 -0.013816799406995581 0 -0.018082812029624827 -0.013663869770571191 0 -0.01840249556502422 -0.013909104051002345 0 -0.018277663266456357 -0.013862784953929954 0 -0.018429888568205838 -0.013862897763019232 0 -0.018277663266456357 -0.013862784953929954 0 -0.018379832585818247 -0.013810449798905097 0 -0.018429888568205838 -0.013862897763019232 0 -0.018429888568205838 -0.013862897763019232 0 -0.018485458323382793 -0.013800994774331195 0 -0.01850142172648667 -0.013875056677634582 0 -0.018379832585818247 -0.013810449798905097 0 -0.018429888568205838 -0.013862897763019232 0 -0.018485458323382793 -0.013800994774331195 0 -0.019118790427469955 -0.014072406889487644 0 -0.018949681617130034 -0.013667860825790782 0 -0.018312522979291337 -0.013715491047617026 0 -0.018379832585818247 -0.013810449798905097 0 -0.018485458323382793 -0.013800994774331195 0 -0.018312522979291337 -0.013715491047617026 0 -0.019810270288117951 -0.013483869699895597 0 -0.017994148188942977 -0.013837513635583372 0 -0.019165278668458265 -0.014288598223190478 0 -0.019118790427469955 -0.014072406889487644 0 -0.018312522979291337 -0.013715491047617026 0 -0.019810270288117951 -0.013483869699895597 0 -0.019654251748925409 -0.013908813167674604 0 -0.019179668216685257 -0.014322054350655268 0 -0.019118790427469955 -0.014072406889487644 0 -0.019342286121759086 -0.014087247855058438 0 -0.019118790427469955 -0.014072406889487644 0 -0.018949681617130034 -0.013667860825790782 0 -0.019342286121759086 -0.014087247855058438 0 -0.018277663266456357 -0.013862784953929954 0 -0.018379832585818247 -0.013810449798905097 0 -0.018312522979291337 -0.013715491047617026 0 -0.024447219256632111 -0.013525429841100575 0 -0.025146920148634528 -0.013880889977095516 0 -0.022118029600549163 -0.014775897479713454 0 -0.022156716206022258 -0.01484694003099849 0 -0.022124568238708724 -0.014890641309526742 0 -0.02680931388989902 -0.012217232552278584 0 -0.026519647554857157 -0.012341845527037135 0 -0.026772152655245463 -0.012596370035868578 0 -0.022118029600549163 -0.014775897479713454 0 -0.022171695892638236 -0.014794198579646449 0 -0.022200155616544537 -0.014752012005069771 0 -0.022118029600549163 -0.014775897479713454 0 -0.022171695892638236 -0.014794198579646449 0 -0.022156716206022258 -0.01484694003099849 0 -0.020056320253211007 -0.014796265189715706 0 -0.021366482040848664 -0.015045998394301121 0 -0.018949681617130034 -0.013667860825790782 0 -0.019342286121759086 -0.014087247855058438 0 -0.019718510463308376 -0.014078585250728651 0 -0.021369963388488029 -0.015994825766093488 0 -0.021974496029673773 -0.01635380800187022 0 -0.021664777500476285 -0.015856494295257935 0 -0.022171695892638236 -0.014794198579646449 0 -0.022156716206022258 -0.01484694003099849 0 -0.022209213566782786 -0.014787189878821529 0 -0.019342286121759086 -0.014087247855058438 0 -0.019466281354882153 -0.014221802389416669 0 -0.019718510463308376 -0.014078585250728651 0 -0.019179668216685257 -0.014322054350655268 0 -0.019342286121759086 -0.014087247855058438 0 -0.019466281354882153 -0.014221802389416669 0 -0.022171695892638236 -0.014794198579646449 0 -0.022209213566782786 -0.014787189878821529 0 -0.022200155616544537 -0.014752012005069771 0 -0.019466281354882153 -0.014221802389416669 0 -0.019718510463308376 -0.014078585250728651 0 -0.019624113138343436 -0.014399493157323114 0 -0.021366482040848664 -0.015045998394301121 0 -0.021520802798989224 -0.015079605302485843 0 -0.022236895501579985 -0.014777045230550864 0 -0.022200155616544537 -0.014752012005069771 0 -0.02221484343846801 -0.014523830776788236 0 -0.019810270288117951 -0.013483869699895597 0 -0.020375227363040059 -0.01333274229415732 0 -0.022293926661197248 -0.012735615119993065 0 -0.021972071234080987 -0.012519709562508205 0 -0.022228230466984921 -0.012324908296013067 0 -0.021366482040848664 -0.015045998394301121 0 -0.022131231753588131 -0.013375649084017283 0 -0.019718510463308376 -0.014078585250728651 0 -0.019624113138343436 -0.014399493157323114 0 -0.019848043042695416 -0.014714039245163886 0 -0.019179668216685257 -0.014322054350655268 0 -0.019466281354882153 -0.014221802389416669 0 -0.019624113138343436 -0.014399493157323114 0 -0.019179668216685257 -0.014322054350655268 0 -0.019624113138343436 -0.014399493157323114 0 -0.019848043042695416 -0.014714039245163886 0 -0.019810270288117951 -0.013483869699895597 0 -0.022131231753588131 -0.013375649084017283 0 -0.024447219256632111 -0.013525429841100575 0 -0.024440644709226775 -0.012873848224922648 0 -0.026840741425710087 -0.011835994191196967 0 -0.026540574373577305 -0.011633814621212553 0 -0.026473014451979575 -0.012029049449791702 0 -0.022118029600549163 -0.014775897479713454 0 -0.02221484343846801 -0.014523830776788236 0 -0.022141792842903473 -0.014471079514387917 0 -0.022131231753588131 -0.013375649084017283 0 -0.024440644709226775 -0.012873848224922648 0 -0.02680931388989902 -0.012217232552278584 0 -0.026840741425710087 -0.011835994191196967 0 -0.026473014451979575 -0.012029049449791702 0 -0.022118029600549163 -0.014775897479713454 0 -0.022200155616544537 -0.014752012005069771 0 -0.02221484343846801 -0.014523830776788236 0 -0.024172069388862853 -0.013160705310927102 0 -0.023744815958859761 -0.012893487723917779 0 -0.023904485056411247 -0.011430400357861572 0 -0.027734386303745247 -0.0096387829306016429 0 -0.028177186837755438 -0.009679498429253381 0 -0.027512866206691456 -0.010029213414785961 0 -0.02573103855513514 -0.011593760554724507 0 -0.025733449057642556 -0.011605658940677352 0 -0.025872468442383556 -0.01153732127010108 0 -0.024440644709226775 -0.012873848224922648 0 -0.027003973910120556 -0.010836234647764573 0 -0.025739668347792722 -0.011468747656671064 0 -0.02573103855513514 -0.011593760554724507 0 -0.025872468442383556 -0.01153732127010108 0 -0.024440644709226775 -0.012873848224922648 0 -0.025252622039894618 -0.011164190925035341 0 -0.026064071331332098 -0.010720714009008498 0 -0.027003973910120556 -0.010836234647764573 0 -0.022131231753588131 -0.013375649084017283 0 -0.025252622039894618 -0.011164190925035341 0 -0.020375227363040059 -0.01333274229415732 0 -0.022418443154018145 -0.011012454215497189 0 -0.021972071234080987 -0.012519709562508205 0 -0.021913611577635741 -0.012065077501613286 0 -0.022228230466984921 -0.012324908296013067 0 -0.018473513149356562 -0.013906011075681844 0 -0.01850142172648667 -0.013875056677634582 0 -0.018528080006046492 -0.013914180026486684 0 -0.021913611577635741 -0.012065077501613286 0 -0.022228230466984921 -0.012324908296013067 0 -0.02215545851735963 -0.01189874476565469 0 -0.0282592145268338 -0.0089555520756680277 0 -0.028593442748533177 -0.0095009563673565563 0 -0.028107316878300048 -0.0097558951963681514 0 -0.021913611577635741 -0.012065077501613286 0 -0.02215545851735963 -0.01189874476565469 0 -0.021909051278236433 -0.012028890701752074 0 -0.022418443154018145 -0.011012454215497189 0 -0.026064071331332098 -0.010720714009008498 0 -0.019653122929128845 -0.011744670679087401 0 -0.022418443154018145 -0.011012454215497189 0 -0.021422562725422048 -0.0093850121707772551 0 -0.021548125492048275 -0.0095260830135666264 0 -0.021311821476402499 -0.009643488715955377 0 -0.0282592145268338 -0.0089555520756680277 0 -0.028177186837755438 -0.009679498429253381 0 -0.027961295590607449 -0.0093198481361622294 0 -0.028351128825135994 -0.0086180540520512383 0 -0.026064071331332098 -0.010720714009008498 0 -0.027734386303745247 -0.0096387829306016429 0 -0.028011167178184408 -0.0095708503386189563 0 -0.027961295590607449 -0.0093198481361622294 0 -0.028011167178184408 -0.0095708503386189563 0 -0.028177186837755438 -0.009679498429253381 0 -0.027961295590607449 -0.0093198481361622294 0 -0.027734386303745247 -0.0096387829306016429 0 -0.028011167178184408 -0.0095708503386189563 0 -0.028177186837755438 -0.009679498429253381 0 -0.025252622039894618 -0.011164190925035341 0 -0.026064071331332098 -0.010720714009008498 0 -0.027734386303745247 -0.0096387829306016429 0 -0.027961295590607449 -0.0093198481361622294 0 -0.027501333632807066 -0.0091685555517650678 0 -0.027501333632807066 -0.0091685555517650678 0 -0.027392707136097233 -0.009523118628580126 0 -0.026856371990434804 -0.0091132635914381727 0 -0.027392707136097233 -0.009523118628580126 0 -0.026856371990434804 -0.0091132635914381727 0 -0.0271585922512983 -0.0098130941073263245 0 -0.027734386303745247 -0.0096387829306016429 0 -0.027501333632807066 -0.0091685555517650678 0 -0.027392707136097233 -0.009523118628580126 0 -0.026856371990434804 -0.0091132635914381727 0 -0.026548710099849143 -0.0096265562888509428 0 -0.0271585922512983 -0.0098130941073263245 0 -0.026856371990434804 -0.0091132635914381727 0 -0.026548710099849143 -0.0096265562888509428 0 -0.026102233978077573 -0.0090766940165447601 0 -0.026744939537693101 -0.010035011977230723 0 -0.027528480500135736 -0.010045557929635629 0 -0.026584987576284053 -0.010539019260418205 0 -0.026744939537693101 -0.010035011977230723 0 -0.026584987576284053 -0.010539019260418205 0 -0.025857898665477459 -0.010049367193406759 0 -0.026548710099849143 -0.0096265562888509428 0 -0.026744939537693101 -0.010035011977230723 0 -0.0271585922512983 -0.0098130941073263245 0 -0.027003973910120556 -0.010836234647764573 0 -0.026340614541296117 -0.011181834072226062 0 -0.026744939537693101 -0.010035011977230723 0 -0.027528480500135736 -0.010045557929635629 0 -0.0271585922512983 -0.0098130941073263245 0 -0.027734386303745247 -0.0096387829306016429 0 -0.027392707136097233 -0.009523118628580126 0 -0.027512866206691456 -0.010029213414785961 0 -0.027392707136097233 -0.009523118628580126 0 -0.027512866206691456 -0.010029213414785961 0 -0.0271585922512983 -0.0098130941073263245 0 -0.027003973910120556 -0.010836234647764573 0 -0.027070659509959544 -0.010166000081828249 0 -0.026540574373577305 -0.011633814621212553 0 -0.026473014451979575 -0.012029049449791702 0 -0.026078400233694676 -0.011844275878793487 0 -0.026473014451979575 -0.012029049449791702 0 -0.026078400233694676 -0.011844275878793487 0 -0.026203224450784858 -0.012269725498464043 0 -0.026078400233694676 -0.011844275878793487 0 -0.026203224450784858 -0.012269725498464043 0 -0.025860715497807201 -0.012255438496868158 0 -0.026203224450784858 -0.012269725498464043 0 -0.026519647554857157 -0.012341845527037135 0 -0.026314119628485441 -0.01260180369022095 0 -0.026473014451979575 -0.012029049449791702 0 -0.026203224450784858 -0.012269725498464043 0 -0.026519647554857157 -0.012341845527037135 0 -0.02680931388989902 -0.012217232552278584 0 -0.026473014451979575 -0.012029049449791702 0 -0.026519647554857157 -0.012341845527037135 0 -0.02499982550056604 -0.012032991798438085 0 -0.025459392673041148 -0.012228084651778146 0 -0.025000136795966601 -0.012861256139500626 0 -0.025453752687076527 -0.012158673185434215 0 -0.025546891461102537 -0.011604458072164991 0 -0.02499982550056604 -0.012032991798438085 0 -0.025459392673041148 -0.012228084651778146 0 -0.025553662943302937 -0.011819933794238978 0 -0.025000168066176776 -0.012032336663788423 0 -0.025546891461102537 -0.011604458072164991 0 -0.026203224450784858 -0.012269725498464043 0 -0.025860715497807201 -0.012255438496868158 0 -0.025829034116979108 -0.012663112070449751 0 -0.025459392673041148 -0.012228084651778146 0 -0.025860715497807201 -0.012255438496868158 0 -0.025829034116979108 -0.012663112070449751 0 -0.025459392673041148 -0.012228084651778146 0 -0.025860715497807201 -0.012255438496868158 0 -0.025534437619080103 -0.012045711427994574 0 -0.026078400233694676 -0.011844275878793487 0 -0.025860715497807201 -0.012255438496868158 0 -0.025534437619080103 -0.012045711427994574 0 -0.026340614541296117 -0.011181834072226062 0 -0.025546891461102537 -0.011604458072164991 0 -0.026584987576284053 -0.010539019260418205 0 -0.025625047788545456 -0.011040001215480358 0 -0.025857898665477459 -0.010049367193406759 0 -0.025546891461102537 -0.011604458072164991 0 -0.025901637657941075 -0.010239564050977449 0 -0.025649378863279438 -0.011696818774099475 0 -0.024999995539388375 -0.010657192527336535 0 -0.025916732304477632 -0.010524369142372928 0 -0.024999998238158842 -0.012032429805852608 0 -0.025649378863279438 -0.011696818774099475 0 -0.024999995539388375 -0.010657192527336535 0 -0.024999995539388375 -0.010657192527336535 0 -0.025916732304477632 -0.010524369142372928 0 -0.025529269660118065 -0.0099124157844763233 0 -0.026548710099849143 -0.0096265562888509428 0 -0.026744939537693101 -0.010035011977230723 0 -0.025857898665477459 -0.010049367193406759 0 -0.025901637657941075 -0.010239564050977449 0 -0.026129752267152778 -0.0092069207391238823 0 -0.025916732304477632 -0.010524369142372928 0 -0.025529269660118065 -0.0099124157844763233 0 -0.0261646896604289 -0.009337022664649846 0 -0.026548710099849143 -0.0096265562888509428 0 -0.025857898665477459 -0.010049367193406759 0 -0.026102233978077573 -0.0090766940165447601 0 -0.024999995539388375 -0.010657192527336535 0 -0.025529269660118065 -0.0099124157844763233 0 -0.024999965680393674 -0.0092819251655673653 0 -0.025529269660118065 -0.0099124157844763233 0 -0.024999965680393674 -0.0092819251655673653 0 -0.0261646896604289 -0.009337022664649846 0 -0.024999965680393674 -0.0092819251655673653 0 -0.02562451503733711 -0.0085383469412770759 0 -0.0261646896604289 -0.009337022664649846 0 -0.02562451503733711 -0.0085383469412770759 0 -0.024999965590973155 -0.0079066509973304833 0 -0.025804676810368347 -0.0073922150967888518 0 -0.024999965680393674 -0.0092819251655673653 0 -0.02562451503733711 -0.0085383469412770759 0 -0.024999965590973155 -0.0079066509973304833 0 -0.02562451503733711 -0.0085383469412770759 0 -0.02635290625246867 -0.0081284890649552435 0 -0.025804676810368347 -0.0073922150967888518 0 -0.02562451503733711 -0.0085383469412770759 0 -0.02635290625246867 -0.0081284890649552435 0 -0.0261646896604289 -0.009337022664649846 0 -0.02634242315347261 -0.0082036284875214322 0 -0.026129752267152778 -0.0092069207391238823 0 -0.026856371990434804 -0.0091132635914381727 0 -0.02635290625246867 -0.0081284890649552435 0 -0.026102233978077573 -0.0090766940165447601 0 -0.026856371990434804 -0.0091132635914381727 0 -0.02635290625246867 -0.0081284890649552435 0 -0.027168870212664221 -0.0086313368991842686 0 -0.027808149212340597 -0.0086407250195465104 0 -0.027168870212664221 -0.0086313368991842686 0 -0.02733228364616223 -0.0081157746300608135 0 -0.027501333632807066 -0.0091685555517650678 0 -0.026856371990434804 -0.0091132635914381727 0 -0.027168870212664221 -0.0086313368991842686 0 -0.027808149212340597 -0.0086407250195465104 0 -0.027501333632807066 -0.0091685555517650678 0 -0.027168870212664221 -0.0086313368991842686 0 -0.027839260325494396 -0.0078886681224287665 0 -0.027808149212340597 -0.0086407250195465104 0 -0.02733228364616223 -0.0081157746300608135 0 -0.027839260325494396 -0.0078886681224287665 0 -0.02733228364616223 -0.0081157746300608135 0 -0.027478231523311237 -0.0073537326887685665 0 -0.02635290625246867 -0.0081284890649552435 0 -0.027168870212664221 -0.0086313368991842686 0 -0.02733228364616223 -0.0081157746300608135 0 -0.02635290625246867 -0.0081284890649552435 0 -0.02733228364616223 -0.0081157746300608135 0 -0.026948256949807129 -0.0076643520120610702 0 -0.02635290625246867 -0.0081284890649552435 0 -0.026948256949807129 -0.0076643520120610702 0 -0.026617973482766649 -0.0070505380724975152 0 -0.026948256949807129 -0.0076643520120610702 0 -0.027478231523311237 -0.0073537326887685665 0 -0.026617973482766649 -0.0070505380724975152 0 -0.02733228364616223 -0.0081157746300608135 0 -0.026948256949807129 -0.0076643520120610702 0 -0.027478231523311237 -0.0073537326887685665 0 -0.027478231523311237 -0.0073537326887685665 0 -0.027486658935119056 -0.0065228724309948282 0 -0.026617973482766649 -0.0070505380724975152 0 -0.026769639141789838 -0.0059378822090603665 0 -0.027486658935119056 -0.0065228724309948282 0 -0.026617973482766649 -0.0070505380724975152 0 -0.026769639141789838 -0.0059378822090603665 0 -0.026617973482766649 -0.0070505380724975152 0 -0.02596587372974821 -0.0063253192499446512 0 -0.026617973482766649 -0.0070505380724975152 0 -0.02596587372974821 -0.0063253192499446512 0 -0.025804676810368347 -0.0073922150967888518 0 -0.02596587372974821 -0.0063253192499446512 0 -0.024999981310690818 -0.0065316667221214332 0 -0.025804676810368347 -0.0073922150967888518 0 -0.024999965590973155 -0.0079066509973304833 0 -0.024999981310690818 -0.0065316667221214332 0 -0.025804676810368347 -0.0073922150967888518 0 -0.02635290625246867 -0.0081284890649552435 0 -0.026617973482766649 -0.0070505380724975152 0 -0.025804676810368347 -0.0073922150967888518 0 -0.026086234988065615 -0.017257012227215207 0 -0.025755350818444739 -0.017992480546433279 0 -0.025667760501415147 -0.016995969026840307 0 -0.026478565517320397 -0.01751628062972747 0 -0.025742768660059142 -0.018039989645652104 0 -0.026560419806868522 -0.018386499854167123 0 -0.026246524268590747 -0.017362075161892233 0 -0.025769769885823673 -0.018008563957046989 0 -0.026504993623414443 -0.017442486832304122 0 -0.026086234988065615 -0.017257012227215207 0 -0.025755350818444739 -0.017992480546433279 0 -0.024999981676566124 -0.017350512246848478 0 -0.025755350818444739 -0.017992480546433279 0 -0.025667760501415147 -0.016995969026840307 0 -0.024999981676566124 -0.017350512246848478 0 -0.025755350818444739 -0.017992480546433279 0 -0.024999999496718425 -0.018550051208371728 0 -0.025742768660059142 -0.018039989645652104 0 -0.025000000175105543 -0.018550163212741149 0 -0.025955923193983786 -0.018762202414846781 0 -0.025769769885823673 -0.018008563957046989 0 -0.025000173703048925 -0.018549939257781724 0 -0.025742768660059142 -0.018039989645652104 0 -0.026560419806868522 -0.018386499854167123 0 -0.025955923193983786 -0.018762202414846781 0 -0.025864772153214085 -0.017625333810269546 0 -0.026036980192874482 -0.01733656087750847 0 -0.025886132595661943 -0.017055329114043755 0 -0.02572260246730558 -0.017358615297856005 0 -0.025864772153214085 -0.017625333810269546 0 -0.025865803504617719 -0.018025153042746298 0 -0.02572260246730558 -0.017358615297856005 0 -0.025864772153214085 -0.017625333810269546 0 -0.025881947235514843 -0.017059185272085182 0 -0.026011724938892606 -0.018705590626561529 0 -0.025306230564349101 -0.019041664203194333 0 -0.026468141641366214 -0.020703417096901478 0 -0.025752548730538997 -0.017433711246196078 0 -0.025070056851827092 -0.02274099930070066 0 -0.025137802430381308 -0.017040087430363074 0 -0.026011724938892606 -0.018705590626561529 0 -0.025306230564349101 -0.019041664203194333 0 -0.025868680814048053 -0.017551567179824895 0 -0.025889953363922479 -0.017056546125126699 0 -0.025864772153214085 -0.017625333810269546 0 -0.026241284011681115 -0.017424579457065204 0 -0.025865803504617719 -0.018025153042746298 0 -0.026241284011681115 -0.017424579457065204 0 -0.026822410470371628 -0.017548859016915549 0 -0.025865803504617719 -0.018025153042746298 0 -0.025864772153214085 -0.017625333810269546 0 -0.026036980192874482 -0.01733656087750847 0 -0.026241284011681115 -0.017424579457065204 0 -0.026036980192874482 -0.01733656087750847 0 -0.026241284011681115 -0.017424579457065204 0 -0.02618421164312915 -0.017080270655819459 0 -0.0262608921714125 -0.016798981403057349 0 -0.025886132595661943 -0.017055329114043755 0 -0.025893089847412752 -0.016506318776628767 0 -0.026241284011681115 -0.017424579457065204 0 -0.02618421164312915 -0.017080270655819459 0 -0.026626157658759947 -0.017014844699498342 0 -0.02618421164312915 -0.017080270655819459 0 -0.0262608921714125 -0.016798981403057349 0 -0.026626157658759947 -0.017014844699498342 0 -0.026036980192874482 -0.01733656087750847 0 -0.02618421164312915 -0.017080270655819459 0 -0.025886132595661943 -0.017055329114043755 0 -0.02618421164312915 -0.017080270655819459 0 -0.0262608921714125 -0.016798981403057349 0 -0.025886132595661943 -0.017055329114043755 0 -0.0262608921714125 -0.016798981403057349 0 -0.026604766348847984 -0.016509644369418503 0 -0.026626157658759947 -0.017014844699498342 0 -0.025881947235514843 -0.017059185272085182 0 -0.025587750307460869 -0.016735700259679933 0 -0.025898934171659296 -0.016515319729120657 0 -0.025889953363922479 -0.017056546125126699 0 -0.026113132544711114 -0.01660355530058066 0 -0.025137802430381308 -0.017040087430363074 0 -0.026011724938892606 -0.018705590626561529 0 -0.025564684253778263 -0.01673626479042967 0 -0.026246524268590747 -0.017362075161892233 0 -0.025922285406410599 -0.018633763476150401 0 -0.02572260246730558 -0.017358615297856005 0 -0.025881947235514843 -0.017059185272085182 0 -0.025587750307460869 -0.016735700259679933 0 -0.025752548730538997 -0.017433711246196078 0 -0.026167167449590904 -0.017070813279179187 0 -0.026246524268590747 -0.017362075161892233 0 -0.026167167449590904 -0.017070813279179187 0 -0.026457434366041678 -0.017318416645843115 0 -0.026626270127134564 -0.017198253375883904 0 -0.026374523482255229 -0.016352411574833192 0 -0.026167167449590904 -0.017070813279179187 0 -0.026502824777319762 -0.016405757635725552 0 -0.026613703607010188 -0.017149136983777142 0 -0.026987305387124304 -0.016884211059127737 0 -0.026414604563010698 -0.016275184923413403 0 -0.026167167449590904 -0.017070813279179187 0 -0.026113132544711114 -0.01660355530058066 0 -0.0262608921714125 -0.016798981403057349 0 -0.026266949581165995 -0.016227733158463105 0 -0.026604766348847984 -0.016509644369418503 0 -0.025792935370083966 -0.016577048244409885 0 -0.026266949581165995 -0.016227733158463105 0 -0.026227789187895603 -0.01579043509271497 0 -0.0262608921714125 -0.016798981403057349 0 -0.025893089847412752 -0.016506318776628767 0 -0.026266949581165995 -0.016227733158463105 0 -0.026113132544711114 -0.01660355530058066 0 -0.026182086273529585 -0.016345405183217962 0 -0.026266949581165995 -0.016227733158463105 0 -0.026636334929062463 -0.015951438220310712 0 -0.026604766348847984 -0.016509644369418503 0 -0.025792935370083966 -0.016577048244409885 0 -0.026227789187895603 -0.01579043509271497 0 -0.025811497396046431 -0.015448330753132518 0 -0.026227789187895603 -0.01579043509271497 0 -0.025811497396046431 -0.015448330753132518 0 -0.026713355828050556 -0.01529234413214405 0 -0.02649643017063644 -0.015599965924795768 0 -0.026513863045754701 -0.015311082878831185 0 -0.026266949581165995 -0.016227733158463105 0 -0.026227789187895603 -0.01579043509271497 0 -0.026636334929062463 -0.015951438220310712 0 -0.026227789187895603 -0.01579043509271497 0 -0.026713355828050556 -0.01529234413214405 0 -0.026636334929062463 -0.015951438220310712 0 -0.026987305387124304 -0.016884211059127737 0 -0.027028065645080819 -0.015852722956082182 0 -0.026414604563010698 -0.016275184923413403 0 -0.027028065645080819 -0.015852722956082182 0 -0.026079153374659814 -0.015997259036260651 0 -0.026414604563010698 -0.016275184923413403 0 -0.026113132544711114 -0.01660355530058066 0 -0.02649643017063644 -0.015599965924795768 0 -0.026588214402449958 -0.015482652301518605 0 -0.02584199859208617 -0.015731820123060021 0 -0.026104251874418536 -0.015087428978795118 0 -0.02649643017063644 -0.015599965924795768 0 -0.02600005819368854 -0.015875156407790796 0 -0.026079153374659814 -0.015997259036260651 0 -0.026182738257116287 -0.016309941341505565 0 -0.025895103337016032 -0.016458295426643378 0 -0.026182738257116287 -0.016309941341505565 0 -0.026139537005977299 -0.016469816437355844 0 -0.025895103337016032 -0.016458295426643378 0 -0.026079153374659814 -0.015997259036260651 0 -0.026182738257116287 -0.016309941341505565 0 -0.026414604563010698 -0.016275184923413403 0 -0.026182738257116287 -0.016309941341505565 0 -0.026374523482255229 -0.016352411574833192 0 -0.026139537005977299 -0.016469816437355844 0 -0.026182738257116287 -0.016309941341505565 0 -0.026414604563010698 -0.016275184923413403 0 -0.026374523482255229 -0.016352411574833192 0 -0.026504993623414443 -0.017442486832304122 0 -0.026374523482255229 -0.016352411574833192 0 -0.026148341730213052 -0.016821382961536312 0 -0.026626270127134564 -0.017198253375883904 0 -0.026414604563010698 -0.016275184923413403 0 -0.026374523482255229 -0.016352411574833192 0 -0.026374523482255229 -0.016352411574833192 0 -0.026139537005977299 -0.016469816437355844 0 -0.026148341730213052 -0.016821382961536312 0 -0.026246524268590747 -0.017362075161892233 0 -0.026420491477894364 -0.016440058980004238 0 -0.026139537005977299 -0.016469816437355844 0 -0.025895103337016032 -0.016458295426643378 0 -0.026148341730213052 -0.016821382961536312 0 -0.025895103337016032 -0.016458295426643378 0 -0.026148341730213052 -0.016821382961536312 0 -0.025667760501415147 -0.016995969026840307 0 -0.026086234988065615 -0.017257012227215207 0 -0.026148341730213052 -0.016821382961536312 0 -0.025667760501415147 -0.016995969026840307 0 -0.026504993623414443 -0.017442486832304122 0 -0.026086234988065615 -0.017257012227215207 0 -0.026148341730213052 -0.016821382961536312 0 -0.025895103337016032 -0.016458295426643378 0 -0.025667760501415147 -0.016995969026840307 0 -0.025000008940553951 -0.016151056896931217 0 -0.024999981676566124 -0.017350512246848478 0 -0.025667760501415147 -0.016995969026840307 0 -0.025000008940553951 -0.016151056896931217 0 -0.02584199859208617 -0.015731820123060021 0 -0.024999958871221126 -0.016150584774279757 0 -0.025592578848116013 -0.015177158019601773 0 -0.026079153374659814 -0.015997259036260651 0 -0.025895103337016032 -0.016458295426643378 0 -0.025000008940553951 -0.016151056896931217 0 -0.02600005819368854 -0.015875156407790796 0 -0.025000086792740434 -0.016150932160981679 0 -0.024999892006832232 -0.015054587435673577 0 -0.025592578848116013 -0.015177158019601773 0 -0.02576667757082236 -0.014498848071079533 0 -0.024999958871221126 -0.016150584774279757 0 -0.024999892006832232 -0.015054587435673577 0 -0.025592578848116013 -0.015177158019601773 0 -0.02584199859208617 -0.015731820123060021 0 -0.025592578848116013 -0.015177158019601773 0 -0.026104251874418536 -0.015087428978795118 0 -0.025592578848116013 -0.015177158019601773 0 -0.026104251874418536 -0.015087428978795118 0 -0.02576667757082236 -0.014498848071079533 0 -0.024999892006832232 -0.015054587435673577 0 -0.02576667757082236 -0.014498848071079533 0 -0.024999900436155298 -0.013958225250409939 0 -0.024999900436155298 -0.013958225250409939 0 -0.025609872272064169 -0.013753576600604585 0 -0.024999964780235057 -0.012862395023784513 0 -0.02576667757082236 -0.014498848071079533 0 -0.024999900436155298 -0.013958225250409939 0 -0.025609872272064169 -0.013753576600604585 0 -0.025609872272064169 -0.013753576600604585 0 -0.025872398964572087 -0.013257303826750619 0 -0.026172013384734388 -0.013908250972598034 0 -0.02576667757082236 -0.014498848071079533 0 -0.025609872272064169 -0.013753576600604585 0 -0.026172013384734388 -0.013908250972598034 0 -0.02573371648396279 -0.012964891501376745 0 -0.025000190240251251 -0.012861823750593642 0 -0.025459392673041148 -0.012228084651778146 0 -0.025829034116979108 -0.012663112070449751 0 -0.025000136795966601 -0.012861256139500626 0 -0.025609872272064169 -0.013753576600604585 0 -0.025872398964572087 -0.013257303826750619 0 -0.024999964780235057 -0.012862395023784513 0 -0.026801012581586237 -0.012954879598996763 0 -0.025146920148634528 -0.013880889977095516 0 -0.026537057001586758 -0.013465836393913425 0 -0.027134180836930366 -0.013539469600061166 0 -0.02707215573995371 -0.013567162432107165 0 -0.026537057001586758 -0.013465836393913425 0 -0.026893688752728587 -0.0137712906314081 0 -0.02707215573995371 -0.013567162432107165 0 -0.026519647554857157 -0.012341845527037135 0 -0.026314119628485441 -0.01260180369022095 0 -0.026772152655245463 -0.012596370035868578 0 -0.02573371648396279 -0.012964891501376745 0 -0.026801012581586237 -0.012954879598996763 0 -0.025872398964572087 -0.013257303826750619 0 -0.026537057001586758 -0.013465836393913425 0 -0.026172013384734388 -0.013908250972598034 0 -0.026203224450784858 -0.012269725498464043 0 -0.025829034116979108 -0.012663112070449751 0 -0.026314119628485441 -0.01260180369022095 0 -0.026172013384734388 -0.013908250972598034 0 -0.026637343400382006 -0.01398973308011334 0 -0.026465905529225991 -0.014565289642221374 0 -0.026537057001586758 -0.013465836393913425 0 -0.026172013384734388 -0.013908250972598034 0 -0.026637343400382006 -0.01398973308011334 0 -0.026537057001586758 -0.013465836393913425 0 -0.026637343400382006 -0.01398973308011334 0 -0.026893688752728587 -0.0137712906314081 0 -0.026637343400382006 -0.01398973308011334 0 -0.026893688752728587 -0.0137712906314081 0 -0.026884205244557976 -0.01398963106912819 0 -0.026637343400382006 -0.01398973308011334 0 -0.026884205244557976 -0.01398963106912819 0 -0.026935791993713636 -0.014310987558964892 0 -0.026637343400382006 -0.01398973308011334 0 -0.026465905529225991 -0.014565289642221374 0 -0.026935791993713636 -0.014310987558964892 0 -0.026465905529225991 -0.014565289642221374 0 -0.026895368517512758 -0.014804020701279421 0 -0.026935791993713636 -0.014310987558964892 0 -0.02576667757082236 -0.014498848071079533 0 -0.026172013384734388 -0.013908250972598034 0 -0.026465905529225991 -0.014565289642221374 0 -0.026104251874418536 -0.015087428978795118 0 -0.02576667757082236 -0.014498848071079533 0 -0.026465905529225991 -0.014565289642221374 0 -0.026588214402449958 -0.015482652301518605 0 -0.026104251874418536 -0.015087428978795118 0 -0.026465905529225991 -0.014565289642221374 0 -0.02649643017063644 -0.015599965924795768 0 -0.026456766494473784 -0.0145536652029046 0 -0.026310160286079062 -0.015322882676428768 0 -0.026465905529225991 -0.014565289642221374 0 -0.026713355828050556 -0.01529234413214405 0 -0.026465905529225991 -0.014565289642221374 0 -0.026713355828050556 -0.01529234413214405 0 -0.026895368517512758 -0.014804020701279421 0 -0.026895368517512758 -0.014804020701279421 0 -0.027294942094048664 -0.014534662807735802 0 -0.027428371402671761 -0.015463157929102448 0 -0.026713355828050556 -0.01529234413214405 0 -0.026895368517512758 -0.014804020701279421 0 -0.027428371402671761 -0.015463157929102448 0 -0.024631709029701129 -0.014614064294877674 0 -0.02462432523218526 -0.014235567925762079 0 -0.021789430068453915 -0.014549906495271561 0 -0.02218076993074106 -0.014527002904872894 0 -0.022004519813964975 -0.013676444412108397 0 -0.021789430068453915 -0.014549906495271561 0 -0.021455409183726751 -0.014210791824009562 0 -0.022004519813964975 -0.013676444412108397 0 -0.021789430068453915 -0.014549906495271561 0 -0.02218076993074106 -0.014527002904872894 0 -0.022111411021068172 -0.014762024674905842 0 -0.026895368517512758 -0.014804020701279421 0 -0.027294942094048664 -0.014534662807735802 0 -0.026935791993713636 -0.014310987558964892 0 -0.027294942094048664 -0.014534662807735802 0 -0.027115547873182346 -0.013878063667836173 0 -0.027137636045454317 -0.013729532198861435 0 -0.026884205244557976 -0.01398963106912819 0 -0.026935791993713636 -0.014310987558964892 0 -0.027115547873182346 -0.013878063667836173 0 -0.024631709029701129 -0.014614064294877674 0 -0.025720170531682171 -0.014050474878051085 0 -0.027294942094048664 -0.014534662807735802 0 -0.026935791993713636 -0.014310987558964892 0 -0.027115547873182346 -0.013878063667836173 0 -0.02218076993074106 -0.014527002904872894 0 -0.022111411021068172 -0.014762024674905842 0 -0.022229358910354987 -0.014886535442932843 0 -0.026893688752728587 -0.0137712906314081 0 -0.027115547873182346 -0.013878063667836173 0 -0.027125680905734525 -0.013741152501438262 0 -0.026893688752728587 -0.0137712906314081 0 -0.026884205244557976 -0.01398963106912819 0 -0.027115547873182346 -0.013878063667836173 0 -0.026000469296124505 -0.013882588191276662 0 -0.025720170531682171 -0.014050474878051085 0 -0.022111411021068172 -0.014762024674905842 0 -0.022229358910354987 -0.014886535442932843 0 -0.02214528842752234 -0.014876282155279624 0 -0.021781683114988751 -0.014515256169849425 0 -0.022066454705386131 -0.015318074772457727 0 -0.021789430068453915 -0.014549906495271561 0 -0.022111411021068172 -0.014762024674905842 0 -0.022096018620425033 -0.014910700412835919 0 -0.021789430068453915 -0.014549906495271561 0 -0.021861853695805459 -0.015518917515957978 0 -0.021604498901835245 -0.01516713663214851 0 -0.021861853695805459 -0.015518917515957978 0 -0.021442447121545236 -0.015546799764293974 0 -0.021604498901835245 -0.01516713663214851 0 -0.022111411021068172 -0.014762024674905842 0 -0.022096018620425033 -0.014910700412835919 0 -0.02214528842752234 -0.014876282155279624 0 -0.022096018620425033 -0.014910700412835919 0 -0.022143819554974391 -0.01488827603906708 0 -0.02214528842752234 -0.014876282155279624 0 -0.021974496029673773 -0.01635380800187022 0 -0.021861853695805459 -0.015518917515957978 0 -0.021664777500476285 -0.015856494295257935 0 -0.022156716206022258 -0.01484694003099849 0 -0.022209213566782786 -0.014787189878821529 0 -0.022096018620425033 -0.014910700412835919 0 -0.021366482040848664 -0.015045998394301121 0 -0.022066454705386131 -0.015318074772457727 0 -0.021861853695805459 -0.015518917515957978 0 -0.021664777500476285 -0.015856494295257935 0 -0.021442447121545236 -0.015546799764293974 0 -0.022156716206022258 -0.01484694003099849 0 -0.022096018620425033 -0.014910700412835919 0 -0.022143819554974391 -0.01488827603906708 0 -0.022156716206022258 -0.01484694003099849 0 -0.022143819554974391 -0.01488827603906708 0 -0.022124568238708724 -0.014890641309526742 0 -0.022550979029083623 -0.014271918225656294 0 -0.025146920148634528 -0.013880889977095516 0 -0.02617163196462698 -0.013888093123599928 0 -0.025720170531682171 -0.014050474878051085 0 -0.027134180836930366 -0.013539469600061166 0 -0.02707215573995371 -0.013567162432107165 0 -0.027103002270618758 -0.013718928334331785 0 -0.026893688752728587 -0.0137712906314081 0 -0.02707215573995371 -0.013567162432107165 0 -0.027125680905734525 -0.013741152501438262 0 -0.022205835845013757 -0.014908461526194027 0 -0.022229358910354987 -0.014886535442932843 0 -0.02214528842752234 -0.014876282155279624 0 -0.022143819554974391 -0.01488827603906708 0 -0.022205835845013757 -0.014908461526194027 0 -0.02214528842752234 -0.014876282155279624 0 -0.025146920148634528 -0.013880889977095516 0 -0.025720170531682171 -0.014050474878051085 0 -0.018949681617130034 -0.013667860825790782 0 -0.018312522979291337 -0.013715491047617026 0 -0.018325833777404439 -0.013452838559802782 0 -0.019634816364739488 -0.014789804024936898 0 -0.021138959216899723 -0.015633160241854505 0 -0.020690193415846533 -0.015627116468099032 0 -0.021048447838498529 -0.015739699158693211 0 -0.021147169200130371 -0.015459310336075392 0 -0.018312522979291337 -0.013715491047617026 0 -0.018325833777404439 -0.013452838559802782 0 -0.018220152680542646 -0.013593727140283285 0 -0.020056320253211007 -0.014796265189715706 0 -0.019634816364739488 -0.014789804024936898 0 -0.021369963388488029 -0.015994825766093488 0 -0.020688505381378983 -0.015617267126529305 0 -0.021048447838498529 -0.015739699158693211 0 -0.021369963388488029 -0.015994825766093488 0 -0.021048447838498529 -0.015739699158693211 0 -0.021442447121545236 -0.015546799764293974 0 -0.021369963388488029 -0.015994825766093488 0 -0.021664777500476285 -0.015856494295257935 0 -0.021442447121545236 -0.015546799764293974 0 -0.021048447838498529 -0.015739699158693211 0 -0.021442447121545236 -0.015546799764293974 0 -0.021147169200130371 -0.015459310336075392 0 -0.021147169200130371 -0.015459310336075392 0 -0.02130338977795259 -0.015139604796453054 0 -0.020913156169025206 -0.01526114863672332 0 -0.021442447121545236 -0.015546799764293974 0 -0.021147169200130371 -0.015459310336075392 0 -0.02130338977795259 -0.015139604796453054 0 -0.021442447121545236 -0.015546799764293974 0 -0.021604498901835245 -0.01516713663214851 0 -0.02130338977795259 -0.015139604796453054 0 -0.021604498901835245 -0.01516713663214851 0 -0.021493249530901204 -0.014882058606776832 0 -0.02130338977795259 -0.015139604796453054 0 -0.021493249530901204 -0.014882058606776832 0 -0.02130338977795259 -0.015139604796453054 0 -0.021282584142039984 -0.014663064212699594 0 -0.02130338977795259 -0.015139604796453054 0 -0.021032143885206009 -0.014935092951367713 0 -0.020913156169025206 -0.01526114863672332 0 -0.02130338977795259 -0.015139604796453054 0 -0.021032143885206009 -0.014935092951367713 0 -0.021282584142039984 -0.014663064212699594 0 -0.021032143885206009 -0.014935092951367713 0 -0.020913156169025206 -0.01526114863672332 0 -0.020711711796077625 -0.015021269702375417 0 -0.020690193415846533 -0.015627116468099032 0 -0.021147169200130371 -0.015459310336075392 0 -0.020913156169025206 -0.01526114863672332 0 -0.020913156169025206 -0.01526114863672332 0 -0.020564760242206256 -0.015274579950222016 0 -0.020711711796077625 -0.015021269702375417 0 -0.020690193415846533 -0.015627116468099032 0 -0.020913156169025206 -0.01526114863672332 0 -0.020564760242206256 -0.015274579950222016 0 -0.020564760242206256 -0.015274579950222016 0 -0.020711711796077625 -0.015021269702375417 0 -0.020399596106967403 -0.015071973441027791 0 -0.020711711796077625 -0.015021269702375417 0 -0.020451438390941261 -0.014796264171026949 0 -0.020399596106967403 -0.015071973441027791 0 -0.020451438390941261 -0.014796264171026949 0 -0.020817286319116599 -0.014691858309545362 0 -0.020509008748522788 -0.014422971428120613 0 -0.020711711796077625 -0.015021269702375417 0 -0.020451438390941261 -0.014796264171026949 0 -0.020817286319116599 -0.014691858309545362 0 -0.021032143885206009 -0.014935092951367713 0 -0.020711711796077625 -0.015021269702375417 0 -0.020817286319116599 -0.014691858309545362 0 -0.020817286319116599 -0.014691858309545362 0 -0.020977497443859527 -0.014311260495229353 0 -0.021282584142039984 -0.014663064212699594 0 -0.020817286319116599 -0.014691858309545362 0 -0.020977497443859527 -0.014311260495229353 0 -0.020509008748522788 -0.014422971428120613 0 -0.021789430068453915 -0.014549906495271561 0 -0.021604498901835245 -0.01516713663214851 0 -0.021493249530901204 -0.014882058606776832 0 -0.021789430068453915 -0.014549906495271561 0 -0.021493249530901204 -0.014882058606776832 0 -0.021282584142039984 -0.014663064212699594 0 -0.021032143885206009 -0.014935092951367713 0 -0.020817286319116599 -0.014691858309545362 0 -0.021282584142039984 -0.014663064212699594 0 -0.020977497443859527 -0.014311260495229353 0 -0.021282584142039984 -0.014663064212699594 0 -0.021455409183726751 -0.014210791824009562 0 -0.021789430068453915 -0.014549906495271561 0 -0.021282584142039984 -0.014663064212699594 0 -0.021455409183726751 -0.014210791824009562 0 -0.021455409183726751 -0.014210791824009562 0 -0.021186455005172741 -0.013894783683247588 0 -0.022004519813964975 -0.013676444412108397 0 -0.020977497443859527 -0.014311260495229353 0 -0.021455409183726751 -0.014210791824009562 0 -0.021186455005172741 -0.013894783683247588 0 -0.020977497443859527 -0.014311260495229353 0 -0.020509008748522788 -0.014422971428120613 0 -0.020586874923244743 -0.013924851531243525 0 -0.020977497443859527 -0.014311260495229353 0 -0.021186455005172741 -0.013894783683247588 0 -0.020586874923244743 -0.013924851531243525 0 -0.021186455005172741 -0.013894783683247588 0 -0.020586874923244743 -0.013924851531243525 0 -0.020850651299322703 -0.013157302816391067 0 -0.024473879245773572 -0.021316541807458577 0 -0.023217592059321803 -0.018024630689068691 0 -0.025987680123414347 -0.018566480890638011 0 -0.024473879245773572 -0.021316541807458577 0 -0.023217592059321803 -0.018024630689068691 0 -0.021892651473170006 -0.02042214345369615 0 -0.024473879245773572 -0.021316541807458577 0 -0.0278684556674311 -0.019634115070217457 0 -0.025987680123414347 -0.018566480890638011 0 -0.022524379767222796 -0.0173057093258152 0 -0.025097647778848917 -0.016138014492205147 0 -0.020850651299322703 -0.013157302816391067 0 -0.022004519813964975 -0.013676444412108397 0 -0.021766844805255835 -0.012775408509710885 0 -0.021186455005172741 -0.013894783683247588 0 -0.020850651299322703 -0.013157302816391067 0 -0.022004519813964975 -0.013676444412108397 0 -0.027428371402671761 -0.015463157929102448 0 -0.026999579280110601 -0.015839665423094031 0 -0.027164867654485805 -0.016359148055519111 0 -0.02462432523218526 -0.014235567925762079 0 -0.025097647778848917 -0.016138014492205147 0 -0.026713355828050556 -0.01529234413214405 0 -0.027428371402671761 -0.015463157929102448 0 -0.026999579280110601 -0.015839665423094031 0 -0.026999579280110601 -0.015839665423094031 0 -0.026636334929062463 -0.015951438220310712 0 -0.026888778480952905 -0.016251972267194291 0 -0.026713355828050556 -0.01529234413214405 0 -0.026999579280110601 -0.015839665423094031 0 -0.026636334929062463 -0.015951438220310712 0 -0.026636334929062463 -0.015951438220310712 0 -0.026888778480952905 -0.016251972267194291 0 -0.026604766348847984 -0.016509644369418503 0 -0.026999579280110601 -0.015839665423094031 0 -0.026888778480952905 -0.016251972267194291 0 -0.027164867654485805 -0.016359148055519111 0 -0.026888778480952905 -0.016251972267194291 0 -0.027164867654485805 -0.016359148055519111 0 -0.026948630389272917 -0.016699441262682264 0 -0.026888778480952905 -0.016251972267194291 0 -0.026604766348847984 -0.016509644369418503 0 -0.026948630389272917 -0.016699441262682264 0 -0.027428371402671761 -0.015463157929102448 0 -0.027164867654485805 -0.016359148055519111 0 -0.027500026211366987 -0.016581018604668325 0 -0.027164867654485805 -0.016359148055519111 0 -0.027152244616694691 -0.016654340468778513 0 -0.026948630389272917 -0.016699441262682264 0 -0.027164867654485805 -0.016359148055519111 0 -0.027152244616694691 -0.016654340468778513 0 -0.027318189444866598 -0.016674979963706964 0 -0.027152244616694691 -0.016654340468778513 0 -0.027318189444866598 -0.016674979963706964 0 -0.027246328077555435 -0.016805528715865208 0 -0.027318189444866598 -0.016674979963706964 0 -0.027409088391259943 -0.016640278106738581 0 -0.027246328077555435 -0.016805528715865208 0 -0.027164867654485805 -0.016359148055519111 0 -0.027318189444866598 -0.016674979963706964 0 -0.027500026211366987 -0.016581018604668325 0 -0.025945813175052374 -0.015970494911382062 0 -0.025097647778848917 -0.016138014492205147 0 -0.027409088391259943 -0.016640278106738581 0 -0.027202261469779714 -0.017001721487745706 0 -0.027172403806507196 -0.017250412165869224 0 -0.025097647778848917 -0.016138014492205147 0 -0.02753073230767052 -0.018147756330988477 0 -0.027409088391259943 -0.016640278106738581 0 -0.027202261469779714 -0.017001721487745706 0 -0.027246328077555435 -0.016805528715865208 0 -0.027202261469779714 -0.017001721487745706 0 -0.027246328077555435 -0.016805528715865208 0 -0.027141535013217581 -0.016861441170819936 0 -0.027152244616694691 -0.016654340468778513 0 -0.027141535013217581 -0.016861441170819936 0 -0.026948630389272917 -0.016699441262682264 0 -0.027152244616694691 -0.016654340468778513 0 -0.027246328077555435 -0.016805528715865208 0 -0.027141535013217581 -0.016861441170819936 0 -0.027141535013217581 -0.016861441170819936 0 -0.027097514524801875 -0.017078134159589767 0 -0.026948630389272917 -0.016699441262682264 0 -0.027202261469779714 -0.017001721487745706 0 -0.027141535013217581 -0.016861441170819936 0 -0.027097514524801875 -0.017078134159589767 0 -0.027202261469779714 -0.017001721487745706 0 -0.027097514524801875 -0.017078134159589767 0 -0.027172403806507196 -0.017250412165869224 0 -0.027097514524801875 -0.017078134159589767 0 -0.027150047856692269 -0.016939093824053141 0 -0.027172403806507196 -0.017250412165869224 0 -0.027097514524801875 -0.017078134159589767 0 -0.026948630389272917 -0.016699441262682264 0 -0.026626157658759947 -0.017014844699498342 0 -0.026604766348847984 -0.016509644369418503 0 -0.026948630389272917 -0.016699441262682264 0 -0.026626157658759947 -0.017014844699498342 0 -0.027097514524801875 -0.017078134159589767 0 -0.026626157658759947 -0.017014844699498342 0 -0.026822410470371628 -0.017548859016915549 0 -0.026241284011681115 -0.017424579457065204 0 -0.026626157658759947 -0.017014844699498342 0 -0.026822410470371628 -0.017548859016915549 0 -0.027097514524801875 -0.017078134159589767 0 -0.026822410470371628 -0.017548859016915549 0 -0.027150047856692269 -0.016939093824053141 0 -0.02466180287477519 -0.023330067184229971 0 -0.023787629713869725 -0.023137165498828417 0 -0.022415619150196103 -0.029026857193486015 0 -0.020521853726136921 -0.029283809445556294 0 -0.020904285603102177 -0.02768358067607465 0 -0.020521853726136921 -0.029283809445556294 0 -0.018818333903211901 -0.029736826713781264 0 -0.019232262462416879 -0.028140876401326037 0 -0.023787629713869725 -0.023137165498828417 0 -0.02098780846744094 -0.023883365720511227 0 -0.027150047856692269 -0.016939093824053141 0 -0.023217592059321803 -0.018024630689068691 0 -0.025987680123414347 -0.018566480890638011 0 -0.0278684556674311 -0.019634115070217457 0 -0.025987680123414347 -0.018566480890638011 0 -0.027172403806507196 -0.017250412165869224 0 -0.027150047856692269 -0.016939093824053141 0 -0.025987680123414347 -0.018566480890638011 0 -0.027172403806507196 -0.017250412165869224 0 -0.018818333903211901 -0.029736826713781264 0 -0.016894741972654337 -0.028131280467705289 0 -0.019232262462416879 -0.028140876401326037 0 -0.018818333903211901 -0.029736826713781264 0 -0.016894741972654337 -0.028131280467705289 0 -0.016757239102132272 -0.030384643919005083 0 -0.02098780846744094 -0.023883365720511227 0 -0.018225520533891971 -0.025032986926061585 0 -0.016894741972654337 -0.028131280467705289 0 -0.015025545149415998 -0.028010707908368473 0 -0.015328118114775569 -0.029187756053411597 0 -0.016894741972654337 -0.028131280467705289 0 -0.015025545149415998 -0.028010707908368473 0 -0.015562745046910969 -0.027299268462452942 0 -0.014094592110750691 -0.028011415551563279 0 -0.013632488264554224 -0.027390937711389115 0 -0.014294947197165193 -0.027547466943599056 0 -0.015025545149415998 -0.028010707908368473 0 -0.014094592110750691 -0.028011415551563279 0 -0.014294947197165193 -0.027547466943599056 0 -0.015025545149415998 -0.028010707908368473 0 -0.014094592110750691 -0.028011415551563279 0 -0.014431896360326518 -0.028636656209879166 0 -0.015025545149415998 -0.028010707908368473 0 -0.014431896360326518 -0.028636656209879166 0 -0.015328118114775569 -0.029187756053411597 0 -0.014094592110750691 -0.028011415551563279 0 -0.01387087682906249 -0.028593709033968628 0 -0.013317990058021069 -0.027904914238381734 0 -0.014094592110750691 -0.028011415551563279 0 -0.014431896360326518 -0.028636656209879166 0 -0.01387087682906249 -0.028593709033968628 0 -0.014431896360326518 -0.028636656209879166 0 -0.01387087682906249 -0.028593709033968628 0 -0.01420915833952667 -0.029217908386134667 0 -0.011335187766073777 -0.024824370201230156 0 -0.011797864893335605 -0.025698276686713047 0 -0.011948181741603663 -0.02616380077420806 0 -0.014546187207636957 -0.029949701004990899 0 -0.014516658060751123 -0.031168848191427231 0 -0.013383077228765148 -0.029283608571697511 0 -0.01420915833952667 -0.029217908386134667 0 -0.014546187207636957 -0.029949701004990899 0 -0.013383077228765148 -0.029283608571697511 0 -0.01387087682906249 -0.028593709033968628 0 -0.01420915833952667 -0.029217908386134667 0 -0.013383077228765148 -0.029283608571697511 0 -0.01420915833952667 -0.029217908386134667 0 -0.014546187207636957 -0.029949701004990899 0 -0.015328118114775569 -0.029187756053411597 0 -0.014431896360326518 -0.028636656209879166 0 -0.01420915833952667 -0.029217908386134667 0 -0.015328118114775569 -0.029187756053411597 0 -0.014546187207636957 -0.029949701004990899 0 -0.015328118114775569 -0.029187756053411597 0 -0.016757239102132272 -0.030384643919005083 0 -0.016894741972654337 -0.028131280467705289 0 -0.015328118114775569 -0.029187756053411597 0 -0.016757239102132272 -0.030384643919005083 0 -0.015453745228225018 -0.020928025762524949 0 -0.018605799466122005 -0.021870114605984724 0 -0.019294605733427103 -0.019476096796742094 0 -0.014546187207636957 -0.029949701004990899 0 -0.014516658060751123 -0.031168848191427231 0 -0.016757239102132272 -0.030384643919005083 0 -0.01396407786644554 -0.025160950623187378 0 -0.018225520533891971 -0.025032986926061585 0 -0.01396407786644554 -0.025160950623187378 0 -0.012672532137754296 -0.028225273319345715 0 -0.011335187766073777 -0.024824370201230156 0 -0.012010627611787084 -0.024930121807995101 0 -0.011797864893335605 -0.025698276686713047 0 -0.011335187766073777 -0.024824370201230156 0 -0.012147699431051885 -0.024476822980053301 0 -0.012010627611787084 -0.024930121807995101 0 -0.01396407786644554 -0.025160950623187378 0 -0.011566542274743496 -0.024831169268788197 0 -0.011855579979646773 -0.024569486019364352 0 -0.011695020083228086 -0.024207885081080627 0 -0.012038273591628399 -0.02406210078754524 0 -0.011855579979646773 -0.024569486019364352 0 -0.012038273591628399 -0.02406210078754524 0 -0.012147699431051885 -0.024476822980053301 0 -0.01396407786644554 -0.025160950623187378 0 -0.014180248445357865 -0.023368117477953504 0 -0.015453745228225018 -0.020928025762524949 0 -0.016506271397030273 -0.022770764507329937 0 -0.018605799466122005 -0.021870114605984724 0 -0.016506271397030273 -0.022770764507329937 0 -0.018605799466122005 -0.021870114605984724 0 -0.017546512909626406 -0.02461844817534016 0 -0.018605799466122005 -0.021870114605984724 0 -0.020997077378538107 -0.022986550829068312 0 -0.017546512909626406 -0.02461844817534016 0 -0.018605799466122005 -0.021870114605984724 0 -0.021892651473170006 -0.02042214345369615 0 -0.020997077378538107 -0.022986550829068312 0 -0.018605799466122005 -0.021870114605984724 0 -0.019294605733427103 -0.019476096796742094 0 -0.021892651473170006 -0.02042214345369615 0 -0.023217592059321803 -0.018024630689068691 0 -0.019294605733427103 -0.019476096796742094 0 -0.021892651473170006 -0.02042214345369615 0 -0.020586874923244743 -0.013924851531243525 0 -0.020850651299322703 -0.013157302816391067 0 -0.019859356919089657 -0.013537577620378726 0 -0.022524379767222796 -0.0173057093258152 0 -0.020747702159942431 -0.017988244508258727 0 -0.024473879245773572 -0.021316541807458577 0 -0.021892651473170006 -0.02042214345369615 0 -0.020997077378538107 -0.022986550829068312 0 -0.020586874923244743 -0.013924851531243525 0 -0.019859356919089657 -0.013537577620378726 0 -0.020096605728838632 -0.014157738201492335 0 -0.019859356919089657 -0.013537577620378726 0 -0.020096605728838632 -0.014157738201492335 0 -0.019565663138020398 -0.014178834836894409 0 -0.020509008748522788 -0.014422971428120613 0 -0.020586874923244743 -0.013924851531243525 0 -0.020096605728838632 -0.014157738201492335 0 -0.020747702159942431 -0.017988244508258727 0 -0.016950999475325256 -0.02086212237796662 0 -0.019859356919089657 -0.013537577620378726 0 -0.019565663138020398 -0.014178834836894409 0 -0.018793520836760565 -0.013960756760324667 0 -0.019565663138020398 -0.014178834836894409 0 -0.01911051856807346 -0.014293106297133491 0 -0.018793520836760565 -0.013960756760324667 0 -0.019354891249141457 -0.014496875024310121 0 -0.019094322436060695 -0.014738357478124917 0 -0.01911051856807346 -0.014293106297133491 0 -0.019565663138020398 -0.014178834836894409 0 -0.019354891249141457 -0.014496875024310121 0 -0.01911051856807346 -0.014293106297133491 0 -0.019565663138020398 -0.014178834836894409 0 -0.019641490617638674 -0.014775718535804743 0 -0.02008211074803402 -0.014624074444040297 0 -0.019565663138020398 -0.014178834836894409 0 -0.019354891249141457 -0.014496875024310121 0 -0.019641490617638674 -0.014775718535804743 0 -0.019354891249141457 -0.014496875024310121 0 -0.019641490617638674 -0.014775718535804743 0 -0.019094322436060695 -0.014738357478124917 0 -0.020509008748522788 -0.014422971428120613 0 -0.020096605728838632 -0.014157738201492335 0 -0.02008211074803402 -0.014624074444040297 0 -0.020096605728838632 -0.014157738201492335 0 -0.019565663138020398 -0.014178834836894409 0 -0.02008211074803402 -0.014624074444040297 0 -0.019641490617638674 -0.014775718535804743 0 -0.019951824168474335 -0.014886932546878024 0 -0.02008211074803402 -0.014624074444040297 0 -0.019951824168474335 -0.014886932546878024 0 -0.02008211074803402 -0.014624074444040297 0 -0.02015877342559429 -0.014933984686204648 0 -0.020451438390941261 -0.014796264171026949 0 -0.020509008748522788 -0.014422971428120613 0 -0.02008211074803402 -0.014624074444040297 0 -0.020451438390941261 -0.014796264171026949 0 -0.02008211074803402 -0.014624074444040297 0 -0.02015877342559429 -0.014933984686204648 0 -0.02015877342559429 -0.014933984686204648 0 -0.020399596106967403 -0.015071973441027791 0 -0.019922026976170387 -0.015217164689716829 0 -0.019634816364739488 -0.014789804024936898 0 -0.019517623315295333 -0.014917504679551103 0 -0.019322127783493379 -0.014718207030946564 0 -0.018945726259310597 -0.014488254440314255 0 -0.018857668730631456 -0.01453617191875234 0 -0.020690193415846533 -0.015627116468099032 0 -0.020564760242206256 -0.015274579950222016 0 -0.019922026976170387 -0.015217164689716829 0 -0.019634816364739488 -0.014789804024936898 0 -0.018249871838741626 -0.013935745627380994 0 -0.020564760242206256 -0.015274579950222016 0 -0.020399596106967403 -0.015071973441027791 0 -0.019922026976170387 -0.015217164689716829 0 -0.020451438390941261 -0.014796264171026949 0 -0.02015877342559429 -0.014933984686204648 0 -0.020399596106967403 -0.015071973441027791 0 -0.019951824168474335 -0.014886932546878024 0 -0.02015877342559429 -0.014933984686204648 0 -0.019922026976170387 -0.015217164689716829 0 -0.019641490617638674 -0.014775718535804743 0 -0.019951824168474335 -0.014886932546878024 0 -0.019922026976170387 -0.015217164689716829 0 -0.017997546523264171 -0.013561493451536078 0 -0.017944667664719954 -0.013648072158593472 0 -0.017921455277696154 -0.013772308655480868 0 -0.018857668730631456 -0.01453617191875234 0 -0.018461027885542169 -0.014372668609745632 0 -0.018609822310849455 -0.014292094877782973 0 -0.019641490617638674 -0.014775718535804743 0 -0.019922026976170387 -0.015217164689716829 0 -0.019094322436060695 -0.014738357478124917 0 -0.018249871838741626 -0.013935745627380994 0 -0.018255476254692378 -0.014095709075543564 0 -0.019517623315295333 -0.014917504679551103 0 -0.018835590846452522 -0.014488075089604351 0 -0.018945726259310597 -0.014488254440314255 0 -0.018857668730631456 -0.01453617191875234 0 -0.018609822310849455 -0.014292094877782973 0 -0.017997546523264171 -0.013561493451536078 0 -0.017999246501496813 -0.013621102263060894 0 -0.017944667664719954 -0.013648072158593472 0 -0.018028827660755687 -0.013644653512207755 0 -0.017999246501496813 -0.013621102263060894 0 -0.017926431459094394 -0.013616863624816396 0 -0.017997546523264171 -0.013561493451536078 0 -0.017999246501496813 -0.013621102263060894 0 -0.018106115261853278 -0.013584637950648999 0 -0.018325833777404439 -0.013452838559802782 0 -0.017997546523264171 -0.013561493451536078 0 -0.018106115261853278 -0.013584637950648999 0 -0.018052379326381027 -0.013685645297643883 0 -0.017999246501496813 -0.013621102263060894 0 -0.018106115261853278 -0.013584637950648999 0 -0.018052379326381027 -0.013685645297643883 0 -0.018220152680542646 -0.013593727140283285 0 -0.018106115261853278 -0.013584637950648999 0 -0.018325833777404439 -0.013452838559802782 0 -0.018220152680542646 -0.013593727140283285 0 -0.018106115261853278 -0.013584637950648999 0 -0.01803998903588722 -0.013466397256394258 0 -0.018001220715836964 -0.013617225283665482 0 -0.018082752118637531 -0.013678319892966688 0 -0.018001220715836964 -0.013617225283665482 0 -0.017967575924198922 -0.013694101401109635 0 -0.018082752118637531 -0.013678319892966688 0 -0.018001220715836964 -0.013617225283665482 0 -0.017926431459094394 -0.013616863624816396 0 -0.017967575924198922 -0.013694101401109635 0 -0.017999246501496813 -0.013621102263060894 0 -0.017926431459094394 -0.013616863624816396 0 -0.017944667664719954 -0.013648072158593472 0 -0.017926431459094394 -0.013616863624816396 0 -0.017944667664719954 -0.013648072158593472 0 -0.017967575924198922 -0.013694101401109635 0 -0.017944667664719954 -0.013648072158593472 0 -0.017921455277696154 -0.013772308655480868 0 -0.017967575924198922 -0.013694101401109635 0 -0.017921455277696154 -0.013772308655480868 0 -0.017967575924198922 -0.013694101401109635 0 -0.018041356648878799 -0.013814368418409382 0 -0.017967575924198922 -0.013694101401109635 0 -0.018041356648878799 -0.013814368418409382 0 -0.018082752118637531 -0.013678319892966688 0 -0.018255476254692378 -0.014095709075543564 0 -0.018132401278063339 -0.014078037508875294 0 -0.017921455277696154 -0.013772308655480868 0 -0.018041356648878799 -0.013814368418409382 0 -0.018131376962565952 -0.014083544625517377 0 -0.018461027885542169 -0.014372668609745632 0 -0.018137988623464531 -0.014139382185403412 0 -0.018131376962565952 -0.014083544625517377 0 -0.018461027885542169 -0.014372668609745632 0 -0.018137988623464531 -0.014139382185403412 0 -0.018360976834948077 -0.014111379883673484 0 -0.018461027885542169 -0.014372668609745632 0 -0.018609822310849455 -0.014292094877782973 0 -0.018360976834948077 -0.014111379883673484 0 -0.018835590846452522 -0.014488075089604351 0 -0.018403568735568556 -0.014162403347152458 0 -0.019094322436060695 -0.014738357478124917 0 -0.01911051856807346 -0.014293106297133491 0 -0.018360976834948077 -0.014111379883673484 0 -0.01911051856807346 -0.014293106297133491 0 -0.018793520836760565 -0.013960756760324667 0 -0.018360976834948077 -0.014111379883673484 0 -0.014180248445357865 -0.023368117477953504 0 -0.016950999475325256 -0.02086212237796662 0 -0.018137988623464531 -0.014139382185403412 0 -0.018793520836760565 -0.013960756760324667 0 -0.018360976834948077 -0.014111379883673484 0 -0.011695020083228086 -0.024207885081080627 0 -0.011541592271695423 -0.023852602577671946 0 -0.012038273591628399 -0.02406210078754524 0 -0.01484611106548232 -0.018752055390536929 0 -0.016950999475325256 -0.02086212237796662 0 -0.012036036171687371 -0.023598510653666544 0 -0.011541592271695423 -0.023852602577671946 0 -0.012038273591628399 -0.02406210078754524 0 -0.012036036171687371 -0.023598510653666544 0 -0.012427374125294386 -0.023893875125282106 0 -0.01266253574079837 -0.023696224716401374 0 -0.012036036171687371 -0.023598510653666544 0 -0.012038273591628399 -0.02406210078754524 0 -0.012427374125294386 -0.023893875125282106 0 -0.012038273591628399 -0.02406210078754524 0 -0.012427374125294386 -0.023893875125282106 0 -0.012534502689269677 -0.024190665310463433 0 -0.012427374125294386 -0.023893875125282106 0 -0.012797849018469809 -0.023894140999725672 0 -0.012534502689269677 -0.024190665310463433 0 -0.012427374125294386 -0.023893875125282106 0 -0.012797849018469809 -0.023894140999725672 0 -0.01266253574079837 -0.023696224716401374 0 -0.012797849018469809 -0.023894140999725672 0 -0.01266253574079837 -0.023696224716401374 0 -0.012929030324828327 -0.023687159926158625 0 -0.012544474247134379 -0.023361439309346928 0 -0.013140010751287391 -0.023297497620962813 0 -0.012929030324828327 -0.023687159926158625 0 -0.01266253574079837 -0.023696224716401374 0 -0.012544474247134379 -0.023361439309346928 0 -0.012929030324828327 -0.023687159926158625 0 -0.012544474247134379 -0.023361439309346928 0 -0.013105504220813987 -0.023055864000438749 0 -0.013140010751287391 -0.023297497620962813 0 -0.012036036171687371 -0.023598510653666544 0 -0.01266253574079837 -0.023696224716401374 0 -0.012544474247134379 -0.023361439309346928 0 -0.018137988623464531 -0.014139382185403412 0 -0.018197236619551492 -0.014017678581302012 0 -0.018131376962565952 -0.014083544625517377 0 -0.01484611106548232 -0.018752055390536929 0 -0.015528488440869787 -0.018770353168324049 0 -0.018197236619551492 -0.014017678581302012 0 -0.018131376962565952 -0.014083544625517377 0 -0.018160617309434759 -0.013855503274525944 0 -0.018041356648878799 -0.013814368418409382 0 -0.018131376962565952 -0.014083544625517377 0 -0.018160617309434759 -0.013855503274525944 0 -0.018041356648878799 -0.013814368418409382 0 -0.018160617309434759 -0.013855503274525944 0 -0.018082752118637531 -0.013678319892966688 0 -0.018285902506668041 -0.013844535687068506 0 -0.018403111113772259 -0.013619465404147506 0 -0.01843669353771113 -0.013899106463032758 0 -0.015528488440869787 -0.018770353168324049 0 -0.0147787845075503 -0.017254978076657379 0 -0.018197236619551492 -0.014017678581302012 0 -0.018285902506668041 -0.013844535687068506 0 -0.01843669353771113 -0.013899106463032758 0 -0.018197236619551492 -0.014017678581302012 0 -0.018160617309434759 -0.013855503274525944 0 -0.018285902506668041 -0.013844535687068506 0 -0.018160617309434759 -0.013855503274525944 0 -0.018285902506668041 -0.013844535687068506 0 -0.01822751047953293 -0.013701821669404741 0 -0.018285902506668041 -0.013844535687068506 0 -0.01822751047953293 -0.013701821669404741 0 -0.018403111113772259 -0.013619465404147506 0 -0.018206485373824521 -0.013503244405722594 0 -0.01822751047953293 -0.013701821669404741 0 -0.018403111113772259 -0.013619465404147506 0 -0.018160617309434759 -0.013855503274525944 0 -0.01822751047953293 -0.013701821669404741 0 -0.018082752118637531 -0.013678319892966688 0 -0.018206485373824521 -0.013503244405722594 0 -0.01822751047953293 -0.013701821669404741 0 -0.018082752118637531 -0.013678319892966688 0 -0.012863007365925367 -0.013312099901590501 0 -0.011440333638033965 -0.016085029073080407 0 -0.014647761347191189 -0.014502256234118048 0 -0.015772041519499725 -0.012851542957684843 0 -0.014307868943654779 -0.013349928144718245 0 -0.014406836709777151 -0.015525499972822437 0 -0.013572368777671557 -0.010258228749135264 0 -0.012746692024669201 -0.019063210595572842 0 -0.013572368777671557 -0.010258228749135264 0 -0.012756652623100646 -0.013860342578718021 0 -0.015796663811266105 -0.013439270806552998 0 -0.0147787845075503 -0.017254978076657379 0 -0.014307868943654779 -0.013349928144718245 0 -0.012949084671273056 -0.013292034440216052 0 -0.014406836709777151 -0.015525499972822437 0 -0.014105366562090936 -0.01174513312269455 0 -0.014307868943654779 -0.013349928144718245 0 -0.012949084671273056 -0.013292034440216052 0 -0.012949084671273056 -0.013292034440216052 0 -0.014406836709777151 -0.015525499972822437 0 -0.013459626065796298 -0.015989385403643142 0 -0.0147787845075503 -0.017254978076657379 0 -0.013357599644210265 -0.022512577585094697 0 -0.012868536963222517 -0.023969454353116895 0 -0.012944766409624513 -0.023845134393459685 0 -0.01286169996995209 -0.023866975576576598 0 -0.01410608489379212 -0.018910085582668858 0 -0.01321005138455031 -0.019347620861858934 0 -0.013396853634720658 -0.020299215884364012 0 -0.012746692024669201 -0.019063210595572842 0 -0.013357599644210265 -0.022512577585094697 0 -0.012746692024669201 -0.019063210595572842 0 -0.0147787845075503 -0.017254978076657379 0 -0.012868536963222517 -0.023969454353116895 0 -0.012741379297646308 -0.023936038678215879 0 -0.01286169996995209 -0.023866975576576598 0 -0.012746692024669201 -0.019063210595572842 0 -0.012756652623100646 -0.013860342578718021 0 -0.012868536963222517 -0.023969454353116895 0 -0.012741379297646308 -0.023936038678215879 0 -0.012558278076505303 -0.024034703038026864 0 -0.012741379297646308 -0.023936038678215879 0 -0.012725653815876989 -0.023883245767070654 0 -0.012615829487737545 -0.023949973733378069 0 -0.012741379297646308 -0.023936038678215879 0 -0.012725653815876989 -0.023883245767070654 0 -0.012802750841403454 -0.023855487728180198 0 -0.013096281342777802 -0.024261514984793141 0 -0.012884574652096864 -0.024203937566984059 0 -0.012725653815876989 -0.023883245767070654 0 -0.012615829487737545 -0.023949973733378069 0 -0.012666573372053958 -0.023883576297811255 0 -0.012721499162493016 -0.023797410971628186 0 -0.012915846732826745 -0.023736467781029332 0 -0.012545773438028733 -0.023808874847173988 0 -0.012727930832168157 -0.023838465070949791 0 -0.012666573372053958 -0.023883576297811255 0 -0.01267065142269898 -0.023838597183190837 0 -0.012727930832168157 -0.023838465070949791 0 -0.012725653815876989 -0.023883245767070654 0 -0.012666573372053958 -0.023883576297811255 0 -0.012727930832168157 -0.023838465070949791 0 -0.012754603263616208 -0.023850795208523554 0 -0.012725653815876989 -0.023883245767070654 0 -0.012754603263616208 -0.023850795208523554 0 -0.012725653815876989 -0.023883245767070654 0 -0.012802750841403454 -0.023855487728180198 0 -0.012754603263616208 -0.023850795208523554 0 -0.012790755897867878 -0.023835202307011121 0 -0.0127722641373913 -0.02382881787402831 0 -0.012727930832168157 -0.023838465070949791 0 -0.012754603263616208 -0.023850795208523554 0 -0.0127722641373913 -0.02382881787402831 0 -0.012741379297646308 -0.023936038678215879 0 -0.012802750841403454 -0.023855487728180198 0 -0.01286169996995209 -0.023866975576576598 0 -0.012862967477643419 -0.02383342794157808 0 -0.012802750841403454 -0.023855487728180198 0 -0.01286169996995209 -0.023866975576576598 0 -0.012862967477643419 -0.02383342794157808 0 -0.012848316929476789 -0.023821013834125986 0 -0.012802750841403454 -0.023855487728180198 0 -0.012862967477643419 -0.02383342794157808 0 -0.012848316929476789 -0.023821013834125986 0 -0.012878025371893023 -0.023804253401813462 0 -0.012848316929476789 -0.023821013834125986 0 -0.012802750841403454 -0.023855487728180198 0 -0.012824097959902482 -0.023821086093660199 0 -0.012754603263616208 -0.023850795208523554 0 -0.012802750841403454 -0.023855487728180198 0 -0.012790755897867878 -0.023835202307011121 0 -0.012802750841403454 -0.023855487728180198 0 -0.012790755897867878 -0.023835202307011121 0 -0.012824097959902482 -0.023821086093660199 0 -0.012790755897867878 -0.023835202307011121 0 -0.012801075733095517 -0.023818863866374249 0 -0.012824097959902482 -0.023821086093660199 0 -0.012801075733095517 -0.023818863866374249 0 -0.012824097959902482 -0.023821086093660199 0 -0.012829097631488125 -0.023803240519728888 0 -0.012824097959902482 -0.023821086093660199 0 -0.012829097631488125 -0.023803240519728888 0 -0.012865530333296297 -0.023793075364754637 0 -0.012801075733095517 -0.023818863866374249 0 -0.012829097631488125 -0.023803240519728888 0 -0.012786733208474692 -0.0238049868036549 0 -0.012848316929476789 -0.023821013834125986 0 -0.012865530333296297 -0.023793075364754637 0 -0.012878025371893023 -0.023804253401813462 0 -0.012848316929476789 -0.023821013834125986 0 -0.012824097959902482 -0.023821086093660199 0 -0.012865530333296297 -0.023793075364754637 0 -0.012865530333296297 -0.023793075364754637 0 -0.012856728868671206 -0.023778694771966934 0 -0.012912603862881792 -0.023766366206535324 0 -0.012865530333296297 -0.023793075364754637 0 -0.0128988700854318 -0.023778672112837202 0 -0.012912603862881792 -0.023766366206535324 0 -0.012829097631488125 -0.023803240519728888 0 -0.012865530333296297 -0.023793075364754637 0 -0.012856728868671206 -0.023778694771966934 0 -0.012829097631488125 -0.023803240519728888 0 -0.012856728868671206 -0.023778694771966934 0 -0.012786733208474692 -0.0238049868036549 0 -0.012856728868671206 -0.023778694771966934 0 -0.012721499162493016 -0.023797410971628186 0 -0.012786733208474692 -0.0238049868036549 0 -0.012727930832168157 -0.023838465070949791 0 -0.012721499162493016 -0.023797410971628186 0 -0.012786733208474692 -0.0238049868036549 0 -0.012727930832168157 -0.023838465070949791 0 -0.012721499162493016 -0.023797410971628186 0 -0.01267065142269898 -0.023838597183190837 0 -0.012727930832168157 -0.023838465070949791 0 -0.0127722641373913 -0.02382881787402831 0 -0.012786733208474692 -0.0238049868036549 0 -0.012801075733095517 -0.023818863866374249 0 -0.0127722641373913 -0.02382881787402831 0 -0.012786733208474692 -0.0238049868036549 0 -0.012790755897867878 -0.023835202307011121 0 -0.012801075733095517 -0.023818863866374249 0 -0.0127722641373913 -0.02382881787402831 0 -0.012944766409624513 -0.023845134393459685 0 -0.012911422902295253 -0.023807487666932452 0 -0.012920146602174779 -0.023766956632899513 0 -0.012911422902295253 -0.023807487666932452 0 -0.012889039237339266 -0.023821400838293608 0 -0.012903964160541813 -0.023785816119523594 0 -0.012911422902295253 -0.023807487666932452 0 -0.012910288937041449 -0.02383442519797091 0 -0.012889039237339266 -0.023821400838293608 0 -0.012944766409624513 -0.023845134393459685 0 -0.012911422902295253 -0.023807487666932452 0 -0.012910288937041449 -0.02383442519797091 0 -0.012944766409624513 -0.023845134393459685 0 -0.012910288937041449 -0.02383442519797091 0 -0.01286169996995209 -0.023866975576576598 0 -0.012862967477643419 -0.02383342794157808 0 -0.01286169996995209 -0.023866975576576598 0 -0.012889039237339266 -0.023821400838293608 0 -0.012910288937041449 -0.02383442519797091 0 -0.01286169996995209 -0.023866975576576598 0 -0.012889039237339266 -0.023821400838293608 0 -0.012889039237339266 -0.023821400838293608 0 -0.012878025371893023 -0.023804253401813462 0 -0.012903964160541813 -0.023785816119523594 0 -0.012862967477643419 -0.02383342794157808 0 -0.012889039237339266 -0.023821400838293608 0 -0.012878025371893023 -0.023804253401813462 0 -0.012865530333296297 -0.023793075364754637 0 -0.012878025371893023 -0.023804253401813462 0 -0.0128988700854318 -0.023778672112837202 0 -0.012878025371893023 -0.023804253401813462 0 -0.0128988700854318 -0.023778672112837202 0 -0.012903964160541813 -0.023785816119523594 0 -0.0128988700854318 -0.023778672112837202 0 -0.012924034136590573 -0.02375733432823391 0 -0.012903964160541813 -0.023785816119523594 0 -0.0128988700854318 -0.023778672112837202 0 -0.012924034136590573 -0.02375733432823391 0 -0.012912603862881792 -0.023766366206535324 0 -0.012924034136590573 -0.02375733432823391 0 -0.012903964160541813 -0.023785816119523594 0 -0.012920146602174779 -0.023766956632899513 0 -0.012911422902295253 -0.023807487666932452 0 -0.012903964160541813 -0.023785816119523594 0 -0.012920146602174779 -0.023766956632899513 0 -0.012944766409624513 -0.023845134393459685 0 -0.012920146602174779 -0.023766956632899513 0 -0.012929030324828327 -0.023687159926158625 0 -0.012924034136590573 -0.02375733432823391 0 -0.012920146602174779 -0.023766956632899513 0 -0.012929030324828327 -0.023687159926158625 0 -0.013357599644210265 -0.022512577585094697 0 -0.012803228477305618 -0.023885562487794509 0 -0.012940212543750326 -0.023810494662288056 0 -0.012915846732826745 -0.023736467781029332 0 -0.012979860736039971 -0.024093442333664797 0 -0.013096281342777802 -0.024261514984793141 0 -0.012860919703350376 -0.024640010955595378 0 -0.012924034136590573 -0.02375733432823391 0 -0.012929030324828327 -0.023687159926158625 0 -0.012940212543750326 -0.023810494662288056 0 -0.012797849018469809 -0.023894140999725672 0 -0.012929030324828327 -0.023687159926158625 0 -0.012940212543750326 -0.023810494662288056 0 -0.012940212543750326 -0.023810494662288056 0 -0.012912603862881792 -0.023766366206535324 0 -0.012915846732826745 -0.023736467781029332 0 -0.012924034136590573 -0.02375733432823391 0 -0.012940212543750326 -0.023810494662288056 0 -0.012912603862881792 -0.023766366206535324 0 -0.012797849018469809 -0.023894140999725672 0 -0.012940212543750326 -0.023810494662288056 0 -0.012979860736039971 -0.024093442333664797 0 -0.013228411314267685 -0.024791951312419295 0 -0.013398377417100997 -0.025006909553422777 0 -0.012785362458804178 -0.025156762107971724 0 -0.013228411314267685 -0.024791951312419295 0 -0.013398377417100997 -0.025006909553422777 0 -0.013645663786242077 -0.024435638560183368 0 -0.012856728868671206 -0.023778694771966934 0 -0.012721499162493016 -0.023797410971628186 0 -0.012915846732826745 -0.023736467781029332 0 -0.012856728868671206 -0.023778694771966934 0 -0.012912603862881792 -0.023766366206535324 0 -0.012915846732826745 -0.023736467781029332 0 -0.012702919808601219 -0.024859618868806686 0 -0.012508885525661824 -0.02542627299823284 0 -0.011995520087343121 -0.024686909399069572 0 -0.011866606978758217 -0.025252760077708134 0 -0.012109140790418334 -0.025006903613632902 0 -0.013398377417100997 -0.025006909553422777 0 -0.013139160364667366 -0.025606605606037832 0 -0.012785362458804178 -0.025156762107971724 0 -0.011866606978758217 -0.025252760077708134 0 -0.012294143399516934 -0.025232580673850299 0 -0.012109140790418334 -0.025006903613632902 0 -0.011866606978758217 -0.025252760077708134 0 -0.012108663877825762 -0.025751319447557708 0 -0.012294143399516934 -0.025232580673850299 0 -0.013139160364667366 -0.025606605606037832 0 -0.012785362458804178 -0.025156762107971724 0 -0.012634860454045943 -0.025785758535374372 0 -0.012979860736039971 -0.024093442333664797 0 -0.012534502689269677 -0.024190665310463433 0 -0.012662275668349418 -0.02470599606305833 0 -0.012860919703350376 -0.024640010955595378 0 -0.012459586837753056 -0.025130933801048094 0 -0.012797849018469809 -0.023894140999725672 0 -0.012979860736039971 -0.024093442333664797 0 -0.012534502689269677 -0.024190665310463433 0 -0.012038273591628399 -0.02406210078754524 0 -0.012534502689269677 -0.024190665310463433 0 -0.012147699431051885 -0.024476822980053301 0 -0.012534502689269677 -0.024190665310463433 0 -0.012147699431051885 -0.024476822980053301 0 -0.012662275668349418 -0.02470599606305833 0 -0.012010627611787084 -0.024930121807995101 0 -0.012662275668349418 -0.02470599606305833 0 -0.011797864893335605 -0.025698276686713047 0 -0.012340027317203269 -0.025526783448379397 0 -0.011797864893335605 -0.025698276686713047 0 -0.012240839723847657 -0.025836347727179309 0 -0.012459586837753056 -0.025130933801048094 0 -0.011833415309397889 -0.025670115999305913 0 -0.012147699431051885 -0.024476822980053301 0 -0.012010627611787084 -0.024930121807995101 0 -0.012662275668349418 -0.02470599606305833 0 -0.012785362458804178 -0.025156762107971724 0 -0.012634860454045943 -0.025785758535374372 0 -0.012340027317203269 -0.025526783448379397 0 -0.012634860454045943 -0.025785758535374372 0 -0.012340027317203269 -0.025526783448379397 0 -0.012240839723847657 -0.025836347727179309 0 -0.012469553894777765 -0.026069376947254915 0 -0.012389561107455137 -0.02634339597962675 0 -0.012817407318034537 -0.026289381537350543 0 -0.012634860454045943 -0.025785758535374372 0 -0.012469553894777765 -0.026069376947254915 0 -0.012817407318034537 -0.026289381537350543 0 -0.012634860454045943 -0.025785758535374372 0 -0.012469553894777765 -0.026069376947254915 0 -0.012240839723847657 -0.025836347727179309 0 -0.012469553894777765 -0.026069376947254915 0 -0.012240839723847657 -0.025836347727179309 0 -0.012225769352900227 -0.026073357080651501 0 -0.012469553894777765 -0.026069376947254915 0 -0.012225769352900227 -0.026073357080651501 0 -0.012389561107455137 -0.02634339597962675 0 -0.011797864893335605 -0.025698276686713047 0 -0.012060576254591891 -0.025971166759366608 0 -0.011948181741603663 -0.02616380077420806 0 -0.011797864893335605 -0.025698276686713047 0 -0.012060576254591891 -0.025971166759366608 0 -0.012240839723847657 -0.025836347727179309 0 -0.012060576254591891 -0.025971166759366608 0 -0.012240839723847657 -0.025836347727179309 0 -0.012225769352900227 -0.026073357080651501 0 -0.012225769352900227 -0.026073357080651501 0 -0.011948181741603663 -0.02616380077420806 0 -0.012389561107455137 -0.02634339597962675 0 -0.012060576254591891 -0.025971166759366608 0 -0.012225769352900227 -0.026073357080651501 0 -0.011948181741603663 -0.02616380077420806 0 -0.013383077228765148 -0.029283608571697511 0 -0.013317990058021069 -0.027904914238381734 0 -0.012472070565637752 -0.026830736110220302 0 -0.011948181741603663 -0.02616380077420806 0 -0.012389561107455137 -0.02634339597962675 0 -0.012472070565637752 -0.026830736110220302 0 -0.012672532137754296 -0.028225273319345715 0 -0.01241925308200555 -0.026717052389043615 0 -0.01387087682906249 -0.028593709033968628 0 -0.013383077228765148 -0.029283608571697511 0 -0.013317990058021069 -0.027904914238381734 0 -0.013317990058021069 -0.027904914238381734 0 -0.012472070565637752 -0.026830736110220302 0 -0.013164412190127126 -0.027222866168962623 0 -0.014094592110750691 -0.028011415551563279 0 -0.013317990058021069 -0.027904914238381734 0 -0.013632488264554224 -0.027390937711389115 0 -0.013317990058021069 -0.027904914238381734 0 -0.013632488264554224 -0.027390937711389115 0 -0.013164412190127126 -0.027222866168962623 0 -0.012389561107455137 -0.02634339597962675 0 -0.012475482568078016 -0.026513469475890606 0 -0.012472070565637752 -0.026830736110220302 0 -0.012475482568078016 -0.026513469475890606 0 -0.012817407318034537 -0.026289381537350543 0 -0.012276795079999816 -0.026535016362842553 0 -0.012389561107455137 -0.02634339597962675 0 -0.012475482568078016 -0.026513469475890606 0 -0.012817407318034537 -0.026289381537350543 0 -0.01235065248273841 -0.026064777661523295 0 -0.012287733802826158 -0.02644914662017547 0 -0.011848952169522529 -0.025899521824980138 0 -0.012041358749748765 -0.026221041650150954 0 -0.012276795079999816 -0.026535016362842553 0 -0.012108663877825762 -0.025751319447557708 0 -0.011848952169522529 -0.025899521824980138 0 -0.012041358749748765 -0.026221041650150954 0 -0.012108663877825762 -0.025751319447557708 0 -0.012041358749748765 -0.026221041650150954 0 -0.012199177052552397 -0.026142646783474038 0 -0.011866606978758217 -0.025252760077708134 0 -0.012108663877825762 -0.025751319447557708 0 -0.011848952169522529 -0.025899521824980138 0 -0.013139160364667366 -0.025606605606037832 0 -0.012634860454045943 -0.025785758535374372 0 -0.012817407318034537 -0.026289381537350543 0 -0.012508885525661824 -0.02542627299823284 0 -0.01235065248273841 -0.026064777661523295 0 -0.012135279564858438 -0.025887057876817682 0 -0.012296931252752873 -0.025681556137632202 0 -0.012000704625138461 -0.026213177794601347 0 -0.012125881337398597 -0.026283028022338381 0 -0.012325745855324354 -0.026068804181235371 0 -0.012000704625138461 -0.026213177794601347 0 -0.012325745855324354 -0.026068804181235371 0 -0.012302018183078656 -0.025668086055439826 0 -0.012230840196827079 -0.025607451813676633 0 -0.012267926032187281 -0.025654611194670558 0 -0.012281163947035743 -0.025648459134110305 0 -0.012000704625138461 -0.026213177794601347 0 -0.012041358749748765 -0.026221041650150954 0 -0.012199177052552397 -0.026142646783474038 0 -0.012135279564858438 -0.025887057876817682 0 -0.01222082704754103 -0.025794244452866943 0 -0.012230840196827079 -0.025607451813676633 0 -0.012306882368186176 -0.025555093890265144 0 -0.012249409448203078 -0.025466194392505574 0 -0.012000704625138461 -0.026213177794601347 0 -0.012125881337398597 -0.026283028022338381 0 -0.012041358749748765 -0.026221041650150954 0 -0.012125881337398597 -0.026283028022338381 0 -0.012041358749748765 -0.026221041650150954 0 -0.012276795079999816 -0.026535016362842553 0 -0.012276795079999816 -0.026535016362842553 0 -0.012733616569482499 -0.026284027032616539 0 -0.012325745855324354 -0.026068804181235371 0 -0.012125881337398597 -0.026283028022338381 0 -0.012276795079999816 -0.026535016362842553 0 -0.012325745855324354 -0.026068804181235371 0 -0.012475482568078016 -0.026513469475890606 0 -0.012276795079999816 -0.026535016362842553 0 -0.012472070565637752 -0.026830736110220302 0 -0.012276795079999816 -0.026535016362842553 0 -0.012472070565637752 -0.026830736110220302 0 -0.012733616569482499 -0.026284027032616539 0 -0.013632488264554224 -0.027390937711389115 0 -0.013233251168325834 -0.026806318262041367 0 -0.013997707880015932 -0.026944423744803783 0 -0.013632488264554224 -0.027390937711389115 0 -0.013164412190127126 -0.027222866168962623 0 -0.013233251168325834 -0.026806318262041367 0 -0.012472070565637752 -0.026830736110220302 0 -0.013164412190127126 -0.027222866168962623 0 -0.013233251168325834 -0.026806318262041367 0 -0.012472070565637752 -0.026830736110220302 0 -0.013233251168325834 -0.026806318262041367 0 -0.012733616569482499 -0.026284027032616539 0 -0.013233251168325834 -0.026806318262041367 0 -0.013713992302973231 -0.026304237221482476 0 -0.013997707880015932 -0.026944423744803783 0 -0.013233251168325834 -0.026806318262041367 0 -0.012733616569482499 -0.026284027032616539 0 -0.013713992302973231 -0.026304237221482476 0 -0.012733616569482499 -0.026284027032616539 0 -0.013292049987065619 -0.025838233175777488 0 -0.013713992302973231 -0.026304237221482476 0 -0.012733616569482499 -0.026284027032616539 0 -0.012772792060369621 -0.025685740275244312 0 -0.013292049987065619 -0.025838233175777488 0 -0.013292049987065619 -0.025838233175777488 0 -0.013785250513625313 -0.025691348186178312 0 -0.013713992302973231 -0.026304237221482476 0 -0.012772792060369621 -0.025685740275244312 0 -0.013292049987065619 -0.025838233175777488 0 -0.013458337073011575 -0.025392447678628065 0 -0.013292049987065619 -0.025838233175777488 0 -0.013458337073011575 -0.025392447678628065 0 -0.013785250513625313 -0.025691348186178312 0 -0.012772792060369621 -0.025685740275244312 0 -0.012325745855324354 -0.026068804181235371 0 -0.012302018183078656 -0.025668086055439826 0 -0.012733616569482499 -0.026284027032616539 0 -0.012772792060369621 -0.025685740275244312 0 -0.012325745855324354 -0.026068804181235371 0 -0.012772792060369621 -0.025685740275244312 0 -0.012302018183078656 -0.025668086055439826 0 -0.012333695991427985 -0.025575661137108376 0 -0.012745877150172438 -0.025662927214822641 0 -0.012466324509786483 -0.025128677614436636 0 -0.012302018183078656 -0.025668086055439826 0 -0.012333695991427985 -0.025575661137108376 0 -0.012292748392357462 -0.025637187439435671 0 -0.013232514991691082 -0.024947853421933158 0 -0.013190655164749484 -0.024320967067193815 0 -0.014018745592162611 -0.025076630794266655 0 -0.012772792060369621 -0.025685740275244312 0 -0.013232514991691082 -0.024947853421933158 0 -0.012515623027799469 -0.024553986890126694 0 -0.013458337073011575 -0.025392447678628065 0 -0.013232514991691082 -0.024947853421933158 0 -0.014018745592162611 -0.025076630794266655 0 -0.012772792060369621 -0.025685740275244312 0 -0.013458337073011575 -0.025392447678628065 0 -0.013232514991691082 -0.024947853421933158 0 -0.013232514991691082 -0.024947853421933158 0 -0.013190655164749484 -0.024320967067193815 0 -0.012515623027799469 -0.024553986890126694 0 -0.013895717227199941 -0.024653522921180917 0 -0.014432062004026195 -0.025230583368094504 0 -0.014546259898514231 -0.024897329648519342 0 -0.014580373393361426 -0.024725537388111497 0 -0.014713555221245499 -0.024911639275712844 0 -0.012515623027799469 -0.024553986890126694 0 -0.012375256223360255 -0.023918600896083154 0 -0.012662706477651341 -0.0241452678901325 0 -0.013190655164749484 -0.024320967067193815 0 -0.012515623027799469 -0.024553986890126694 0 -0.012662706477651341 -0.0241452678901325 0 -0.012466324509786483 -0.025128677614436636 0 -0.012251803243459626 -0.024708877782507389 0 -0.012333695991427985 -0.025575661137108376 0 -0.012291887574245351 -0.025653154348044382 0 -0.012270918103886077 -0.02569440586836284 0 -0.012333695991427985 -0.025575661137108376 0 -0.012291887574245351 -0.025653154348044382 0 -0.012292748392357462 -0.025637187439435671 0 -0.012291887574245351 -0.025653154348044382 0 -0.012292748392357462 -0.025637187439435671 0 -0.012267926032187281 -0.025654611194670558 0 -0.012230840196827079 -0.025607451813676633 0 -0.012302018183078656 -0.025668086055439826 0 -0.012267926032187281 -0.025654611194670558 0 -0.012302018183078656 -0.025668086055439826 0 -0.012292748392357462 -0.025637187439435671 0 -0.012267926032187281 -0.025654611194670558 0 -0.012267926032187281 -0.025654611194670558 0 -0.012286187393327288 -0.025689116589638669 0 -0.012281163947035743 -0.025648459134110305 0 -0.012291887574245351 -0.025653154348044382 0 -0.012286187393327288 -0.025689116589638669 0 -0.012306823578382661 -0.025698899355404849 0 -0.012291887574245351 -0.025653154348044382 0 -0.012267926032187281 -0.025654611194670558 0 -0.012286187393327288 -0.025689116589638669 0 -0.012291887574245351 -0.025653154348044382 0 -0.012306823578382661 -0.025698899355404849 0 -0.012307862719613667 -0.025702628939584259 0 -0.012286187393327288 -0.025689116589638669 0 -0.012306823578382661 -0.025698899355404849 0 -0.012304216057004502 -0.025730367002701753 0 -0.013116570467884919 -0.025425940648157837 0 -0.015007185466222496 -0.024999599955311588 0 -0.011738383088532584 -0.02500011625722387 0 -0.012306823578382661 -0.025698899355404849 0 -0.012344862447231137 -0.025738683288570655 0 -0.012304216057004502 -0.025730367002701753 0 -0.012306823578382661 -0.025698899355404849 0 -0.012344862447231137 -0.025738683288570655 0 -0.012307862719613667 -0.025702628939584259 0 -0.012344862447231137 -0.025738683288570655 0 -0.012307862719613667 -0.025702628939584259 0 -0.012323457303477076 -0.025749378193960802 0 -0.012291887574245351 -0.025653154348044382 0 -0.012307862719613667 -0.025702628939584259 0 -0.012270918103886077 -0.02569440586836284 0 -0.012307862719613667 -0.025702628939584259 0 -0.012270918103886077 -0.02569440586836284 0 -0.012323457303477076 -0.025749378193960802 0 -0.012270918103886077 -0.02569440586836284 0 -0.012323457303477076 -0.025749378193960802 0 -0.012307778986335085 -0.025840051560065035 0 -0.012375256223360255 -0.023918600896083154 0 -0.012228244126506286 -0.023543231686570989 0 -0.012383585898251151 -0.023509923836117868 0 -0.012251803243459626 -0.024708877782507389 0 -0.012736037591914372 -0.025126234620230951 0 -0.012344862447231137 -0.025738683288570655 0 -0.012458617985529098 -0.02582264016943053 0 -0.012303651824861695 -0.025773692504277603 0 -0.012736037591914372 -0.025126234620230951 0 -0.012442476456494173 -0.025823734484259467 0 -0.012323457303477076 -0.025749378193960802 0 -0.012307778986335085 -0.025840051560065035 0 -0.012458617985529098 -0.02582264016943053 0 -0.012344862447231137 -0.025738683288570655 0 -0.012323457303477076 -0.025749378193960802 0 -0.012458617985529098 -0.02582264016943053 0 -0.012458617985529098 -0.02582264016943053 0 -0.01298810139674629 -0.025571528527277246 0 -0.01237075719499698 -0.025516701289885549 0 -0.01298810139674629 -0.025571528527277246 0 -0.013116570467884919 -0.025425940648157837 0 -0.01237075719499698 -0.025516701289885549 0 -0.013057685865306801 -0.025846016597833019 0 -0.012458617985529098 -0.02582264016943053 0 -0.01298810139674629 -0.025571528527277246 0 -0.013380936845508024 -0.024990788303563608 0 -0.013265798723919956 -0.02583872094116867 0 -0.012736037591914372 -0.025126234620230951 0 -0.013056519500601965 -0.025766675142879433 0 -0.01298810139674629 -0.025571528527277246 0 -0.01312305237866831 -0.025717756433594276 0 -0.013116570467884919 -0.025425940648157837 0 -0.013851783268158151 -0.026457630586429928 0 -0.013909152723531692 -0.02593662273493362 0 -0.013116570467884919 -0.025425940648157837 0 -0.013033339113268009 -0.025722254413802697 0 -0.01298810139674629 -0.025571528527277246 0 -0.01312305237866831 -0.025717756433594276 0 -0.012736037591914372 -0.025126234620230951 0 -0.013380936845508024 -0.024990788303563608 0 -0.013909152723531692 -0.02593662273493362 0 -0.013116570467884919 -0.025425940648157837 0 -0.014085958936628302 -0.025626022886728116 0 -0.013116570467884919 -0.025425940648157837 0 -0.015007185466222496 -0.024999599955311588 0 -0.014085958936628302 -0.025626022886728116 0 -0.015007185466222496 -0.024999599955311588 0 -0.01468756624166526 -0.025473458519015977 0 -0.015883322875819495 -0.025456083643279857 0 -0.015007185466222496 -0.024999599955311588 0 -0.014085958936628302 -0.025626022886728116 0 -0.01468756624166526 -0.025473458519015977 0 -0.014085958936628302 -0.025626022886728116 0 -0.01468756624166526 -0.025473458519015977 0 -0.01440214406886702 -0.026024829517179094 0 -0.01468756624166526 -0.025473458519015977 0 -0.01440214406886702 -0.026024829517179094 0 -0.015058350198293475 -0.026239335911443312 0 -0.013380936845508024 -0.024990788303563608 0 -0.015284388423831809 -0.02559921329391732 0 -0.013851783268158151 -0.026457630586429928 0 -0.01440214406886702 -0.026024829517179094 0 -0.015058350198293475 -0.026239335911443312 0 -0.014205355228527701 -0.024409938323208157 0 -0.014506736749758791 -0.024360238551591064 0 -0.014376855891456512 -0.024474227672608605 0 -0.013909152723531692 -0.02593662273493362 0 -0.014085958936628302 -0.025626022886728116 0 -0.01440214406886702 -0.026024829517179094 0 -0.013851783268158151 -0.026457630586429928 0 -0.013909152723531692 -0.02593662273493362 0 -0.01440214406886702 -0.026024829517179094 0 -0.01468756624166526 -0.025473458519015977 0 -0.015114037179277198 -0.026315019028134237 0 -0.015883322875819495 -0.025456083643279857 0 -0.014811162336024336 -0.025717567372129397 0 -0.015284388423831809 -0.02559921329391732 0 -0.014506736749758791 -0.024360238551591064 0 -0.014484896504336153 -0.024546595090941509 0 -0.014624499539719537 -0.024581210978234711 0 -0.015284388423831809 -0.02559921329391732 0 -0.015751097813310185 -0.025331107171999514 0 -0.014506736749758791 -0.024360238551591064 0 -0.014484896504336153 -0.024546595090941509 0 -0.014376855891456512 -0.024474227672608605 0 -0.014205355228527701 -0.024409938323208157 0 -0.014376855891456512 -0.024474227672608605 0 -0.014377706851342383 -0.024636549327430673 0 -0.013380936845508024 -0.024990788303563608 0 -0.013457217199066984 -0.024058681712431928 0 -0.012375256223360255 -0.023918600896083154 0 -0.012383585898251151 -0.023509923836117868 0 -0.012660031452784654 -0.023829558563725248 0 -0.014484896504336153 -0.024546595090941509 0 -0.014376855891456512 -0.024474227672608605 0 -0.014377706851342383 -0.024636549327430673 0 -0.013190655164749484 -0.024320967067193815 0 -0.012660031452784654 -0.023829558563725248 0 -0.012662706477651341 -0.0241452678901325 0 -0.012375256223360255 -0.023918600896083154 0 -0.012660031452784654 -0.023829558563725248 0 -0.012662706477651341 -0.0241452678901325 0 -0.013895717227199941 -0.024653522921180917 0 -0.013457217199066984 -0.024058681712431928 0 -0.014546259898514231 -0.024897329648519342 0 -0.014377706851342383 -0.024636549327430673 0 -0.014580373393361426 -0.024725537388111497 0 -0.014624499539719537 -0.024581210978234711 0 -0.014580373393361426 -0.024725537388111497 0 -0.014754275618118318 -0.024799091519774802 0 -0.014484896504336153 -0.024546595090941509 0 -0.014624499539719537 -0.024581210978234711 0 -0.014580373393361426 -0.024725537388111497 0 -0.014484896504336153 -0.024546595090941509 0 -0.014377706851342383 -0.024636549327430673 0 -0.014580373393361426 -0.024725537388111497 0 -0.015751097813310185 -0.025331107171999514 0 -0.015706423901487791 -0.025259462526886895 0 -0.016803615513197718 -0.026055502110291312 0 -0.017086132379900917 -0.026253386965331908 0 -0.017007864543583884 -0.026428296976597487 0 -0.016803615513197718 -0.026055502110291312 0 -0.017086132379900917 -0.026253386965331908 0 -0.017196190678650535 -0.026128289181613168 0 -0.014624499539719537 -0.024581210978234711 0 -0.014754275618118318 -0.024799091519774802 0 -0.014777427266886082 -0.024816532560604745 0 -0.014580373393361426 -0.024725537388111497 0 -0.014754275618118318 -0.024799091519774802 0 -0.014713555221245499 -0.024911639275712844 0 -0.015591553202824014 -0.025168576568908141 0 -0.015706423901487791 -0.025259462526886895 0 -0.017178239152573271 -0.026385429035223559 0 -0.017086132379900917 -0.026253386965331908 0 -0.017311340931075371 -0.026341564380002225 0 -0.017178239152573271 -0.026385429035223559 0 -0.017086132379900917 -0.026253386965331908 0 -0.017007864543583884 -0.026428296976597487 0 -0.017086132379900917 -0.026253386965331908 0 -0.017311340931075371 -0.026341564380002225 0 -0.017196190678650535 -0.026128289181613168 0 -0.017686356002597312 -0.026299538774030171 0 -0.017196190678650535 -0.026128289181613168 0 -0.017685547713535615 -0.026059364651229721 0 -0.017686356002597312 -0.026299538774030171 0 -0.017311340931075371 -0.026341564380002225 0 -0.017602031772168149 -0.026522061530393572 0 -0.017178239152573271 -0.026385429035223559 0 -0.017311340931075371 -0.026341564380002225 0 -0.017350178000271683 -0.026506677692299078 0 -0.017686356002597312 -0.026299538774030171 0 -0.017311340931075371 -0.026341564380002225 0 -0.017196190678650535 -0.026128289181613168 0 -0.017196190678650535 -0.026128289181613168 0 -0.016813845667045461 -0.025811311285492411 0 -0.017685547713535615 -0.026059364651229721 0 -0.016803615513197718 -0.026055502110291312 0 -0.017196190678650535 -0.026128289181613168 0 -0.016813845667045461 -0.025811311285492411 0 -0.015007185466222496 -0.024999599955311588 0 -0.015883322875819495 -0.025456083643279857 0 -0.017465435527395053 -0.024999899038683892 0 -0.016813845667045461 -0.025811311285492411 0 -0.015883322875819495 -0.025456083643279857 0 -0.017465435527395053 -0.024999899038683892 0 -0.016692903414031682 -0.025896574795889631 0 -0.016803615513197718 -0.026055502110291312 0 -0.016813845667045461 -0.025811311285492411 0 -0.015114037179277198 -0.026315019028134237 0 -0.016813845667045461 -0.025811311285492411 0 -0.015883322875819495 -0.025456083643279857 0 -0.015284388423831809 -0.02559921329391732 0 -0.017013141796774992 -0.025955479716873057 0 -0.016813845667045461 -0.025811311285492411 0 -0.017829843251104167 -0.025762558904964646 0 -0.017685547713535615 -0.026059364651229721 0 -0.017465435527395053 -0.024999899038683892 0 -0.017829843251104167 -0.025762558904964646 0 -0.018902621504378402 -0.025776390574880431 0 -0.016813845667045461 -0.025811311285492411 0 -0.017465435527395053 -0.024999899038683892 0 -0.017829843251104167 -0.025762558904964646 0 -0.017829843251104167 -0.025762558904964646 0 -0.018232059220749119 -0.026058956756171509 0 -0.018902621504378402 -0.025776390574880431 0 -0.017829843251104167 -0.025762558904964646 0 -0.018232059220749119 -0.026058956756171509 0 -0.017685547713535615 -0.026059364651229721 0 -0.017686356002597312 -0.026299538774030171 0 -0.017685547713535615 -0.026059364651229721 0 -0.01824628595377218 -0.026211031047506765 0 -0.018232059220749119 -0.026058956756171509 0 -0.017685547713535615 -0.026059364651229721 0 -0.01824628595377218 -0.026211031047506765 0 -0.018232059220749119 -0.026058956756171509 0 -0.01824628595377218 -0.026211031047506765 0 -0.018800820998754651 -0.026029901686545426 0 -0.018232059220749119 -0.026058956756171509 0 -0.018800820998754651 -0.026029901686545426 0 -0.019497683381582361 -0.025306507620855283 0 -0.018680377103613709 -0.026488706325109433 0 -0.018350193523886782 -0.026871996348784229 0 -0.018032600372437757 -0.026544980271617665 0 -0.01824628595377218 -0.026211031047506765 0 -0.018680377103613709 -0.026488706325109433 0 -0.018032600372437757 -0.026544980271617665 0 -0.01824628595377218 -0.026211031047506765 0 -0.018800820998754651 -0.026029901686545426 0 -0.018680377103613709 -0.026488706325109433 0 -0.018350193523886782 -0.026871996348784229 0 -0.018438587149842936 -0.02744362244049248 0 -0.019019767680161854 -0.027043816627282804 0 -0.018680377103613709 -0.026488706325109433 0 -0.018350193523886782 -0.026871996348784229 0 -0.019019767680161854 -0.027043816627282804 0 -0.018350193523886782 -0.026871996348784229 0 -0.018032600372437757 -0.026544980271617665 0 -0.01765228056225944 -0.026876486351490189 0 -0.018350193523886782 -0.026871996348784229 0 -0.01765228056225944 -0.026876486351490189 0 -0.018438587149842936 -0.02744362244049248 0 -0.017111726103972522 -0.026221234608370496 0 -0.018038393501226747 -0.027009748034362974 0 -0.018032600372437757 -0.026544980271617665 0 -0.017602031772168149 -0.026522061530393572 0 -0.01765228056225944 -0.026876486351490189 0 -0.017686356002597312 -0.026299538774030171 0 -0.01824628595377218 -0.026211031047506765 0 -0.018032600372437757 -0.026544980271617665 0 -0.017686356002597312 -0.026299538774030171 0 -0.018032600372437757 -0.026544980271617665 0 -0.017602031772168149 -0.026522061530393572 0 -0.015272430203848011 -0.02446230380846064 0 -0.016395885182668584 -0.02547107502918642 0 -0.015816027081258253 -0.025583253106951195 0 -0.015706423901487791 -0.025259462526886895 0 -0.017111726103972522 -0.026221234608370496 0 -0.017350178000271683 -0.026506677692299078 0 -0.017007864543583884 -0.026428296976597487 0 -0.01765228056225944 -0.026876486351490189 0 -0.017602031772168149 -0.026522061530393572 0 -0.017350178000271683 -0.026506677692299078 0 -0.01765228056225944 -0.026876486351490189 0 -0.017311340931075371 -0.026341564380002225 0 -0.017602031772168149 -0.026522061530393572 0 -0.017350178000271683 -0.026506677692299078 0 -0.014546259898514231 -0.024897329648519342 0 -0.014713555221245499 -0.024911639275712844 0 -0.01476877228297655 -0.025321240459479557 0 -0.015706423901487791 -0.025259462526886895 0 -0.015362144139160625 -0.025268903005896976 0 -0.014777964023819782 -0.024810473849646672 0 -0.014833951376656201 -0.025060939501300675 0 -0.015113948169485499 -0.025236865722329468 0 -0.014713555221245499 -0.024911639275712844 0 -0.014833951376656201 -0.025060939501300675 0 -0.01476877228297655 -0.025321240459479557 0 -0.014713555221245499 -0.024911639275712844 0 -0.014777964023819782 -0.024810473849646672 0 -0.014833951376656201 -0.025060939501300675 0 -0.014754275618118318 -0.024799091519774802 0 -0.014713555221245499 -0.024911639275712844 0 -0.014777964023819782 -0.024810473849646672 0 -0.017178239152573271 -0.026385429035223559 0 -0.017350178000271683 -0.026506677692299078 0 -0.017007864543583884 -0.026428296976597487 0 -0.01476877228297655 -0.025321240459479557 0 -0.015113948169485499 -0.025236865722329468 0 -0.015287603413103047 -0.026157323197402774 0 -0.014833951376656201 -0.025060939501300675 0 -0.01476877228297655 -0.025321240459479557 0 -0.015113948169485499 -0.025236865722329468 0 -0.013458337073011575 -0.025392447678628065 0 -0.014018745592162611 -0.025076630794266655 0 -0.013785250513625313 -0.025691348186178312 0 -0.016395885182668584 -0.02547107502918642 0 -0.015816027081258253 -0.025583253106951195 0 -0.016363329681855405 -0.02682942498592646 0 -0.015113948169485499 -0.025236865722329468 0 -0.015287603413103047 -0.026157323197402774 0 -0.015755559507107761 -0.026148217152082456 0 -0.015362144139160625 -0.025268903005896976 0 -0.016103320422939629 -0.026577711526867807 0 -0.015287603413103047 -0.026157323197402774 0 -0.015755559507107761 -0.026148217152082456 0 -0.015162304845017682 -0.026663188893123104 0 -0.015287603413103047 -0.026157323197402774 0 -0.014804306984638249 -0.0263547196787253 0 -0.015162304845017682 -0.026663188893123104 0 -0.014018745592162611 -0.025076630794266655 0 -0.015287603413103047 -0.026157323197402774 0 -0.014368042887132433 -0.026014970560431658 0 -0.014018745592162611 -0.025076630794266655 0 -0.013785250513625313 -0.025691348186178312 0 -0.014368042887132433 -0.026014970560431658 0 -0.014432062004026195 -0.025230583368094504 0 -0.015217973777934452 -0.026124010275773973 0 -0.015287603413103047 -0.026157323197402774 0 -0.014368042887132433 -0.026014970560431658 0 -0.014804306984638249 -0.0263547196787253 0 -0.014368042887132433 -0.026014970560431658 0 -0.014804306984638249 -0.0263547196787253 0 -0.014508893352695973 -0.026641018523383114 0 -0.014368042887132433 -0.026014970560431658 0 -0.013713992302973231 -0.026304237221482476 0 -0.014508893352695973 -0.026641018523383114 0 -0.013785250513625313 -0.025691348186178312 0 -0.014368042887132433 -0.026014970560431658 0 -0.013713992302973231 -0.026304237221482476 0 -0.013713992302973231 -0.026304237221482476 0 -0.014508893352695973 -0.026641018523383114 0 -0.013997707880015932 -0.026944423744803783 0 -0.014508893352695973 -0.026641018523383114 0 -0.014823377434467168 -0.027275778333333989 0 -0.013997707880015932 -0.026944423744803783 0 -0.014804306984638249 -0.0263547196787253 0 -0.014508893352695973 -0.026641018523383114 0 -0.015162304845017682 -0.026663188893123104 0 -0.014508893352695973 -0.026641018523383114 0 -0.014823377434467168 -0.027275778333333989 0 -0.015162304845017682 -0.026663188893123104 0 -0.015025545149415998 -0.028010707908368473 0 -0.014823377434467168 -0.027275778333333989 0 -0.014294947197165193 -0.027547466943599056 0 -0.014823377434467168 -0.027275778333333989 0 -0.013997707880015932 -0.026944423744803783 0 -0.014294947197165193 -0.027547466943599056 0 -0.013632488264554224 -0.027390937711389115 0 -0.013997707880015932 -0.026944423744803783 0 -0.014294947197165193 -0.027547466943599056 0 -0.016894741972654337 -0.028131280467705289 0 -0.015755559507107761 -0.026148217152082456 0 -0.015562745046910969 -0.027299268462452942 0 -0.015755559507107761 -0.026148217152082456 0 -0.015162304845017682 -0.026663188893123104 0 -0.015562745046910969 -0.027299268462452942 0 -0.015025545149415998 -0.028010707908368473 0 -0.014823377434467168 -0.027275778333333989 0 -0.015562745046910969 -0.027299268462452942 0 -0.014823377434467168 -0.027275778333333989 0 -0.015162304845017682 -0.026663188893123104 0 -0.015562745046910969 -0.027299268462452942 0 -0.016827826297418438 -0.028013814915352708 0 -0.016103320422939629 -0.026577711526867807 0 -0.016894741972654337 -0.028131280467705289 0 -0.016363329681855405 -0.02682942498592646 0 -0.017271688513885851 -0.027332006355305551 0 -0.016894741972654337 -0.028131280467705289 0 -0.017271688513885851 -0.027332006355305551 0 -0.019232262462416879 -0.028140876401326037 0 -0.017271688513885851 -0.027332006355305551 0 -0.017659689376695313 -0.026558999854911076 0 -0.019232262462416879 -0.028140876401326037 0 -0.018038393501226747 -0.027009748034362974 0 -0.0191803783717929 -0.028082840584514289 0 -0.018438587149842936 -0.02744362244049248 0 -0.019232262462416879 -0.028140876401326037 0 -0.019019767680161854 -0.027043816627282804 0 -0.016395885182668584 -0.02547107502918642 0 -0.016363329681855405 -0.02682942498592646 0 -0.017659689376695313 -0.026558999854911076 0 -0.016363329681855405 -0.02682942498592646 0 -0.017271688513885851 -0.027332006355305551 0 -0.017659689376695313 -0.026558999854911076 0 -0.019845964291891303 -0.02708124413958158 0 -0.019232262462416879 -0.028140876401326037 0 -0.020904285603102177 -0.02768358067607465 0 -0.019845964291891303 -0.02708124413958158 0 -0.020904285603102177 -0.02768358067607465 0 -0.020571238043749218 -0.026501313878530438 0 -0.019845964291891303 -0.02708124413958158 0 -0.019232262462416879 -0.028140876401326037 0 -0.019019767680161854 -0.027043816627282804 0 -0.020521853726136921 -0.029283809445556294 0 -0.019232262462416879 -0.028140876401326037 0 -0.020904285603102177 -0.02768358067607465 0 -0.022415619150196103 -0.029026857193486015 0 -0.023023302989030058 -0.027560680340582993 0 -0.020904285603102177 -0.02768358067607465 0 -0.023023302989030058 -0.027560680340582993 0 -0.023206554243702437 -0.026308844389112566 0 -0.021594499864806244 -0.026205070983402926 0 -0.023023302989030058 -0.027560680340582993 0 -0.020904285603102177 -0.02768358067607465 0 -0.021594499864806244 -0.026205070983402926 0 -0.020904285603102177 -0.02768358067607465 0 -0.020571238043749218 -0.026501313878530438 0 -0.021594499864806244 -0.026205070983402926 0 -0.020571238043749218 -0.026501313878530438 0 -0.021594499864806244 -0.026205070983402926 0 -0.020657872041160548 -0.025895905130432009 0 -0.021594499864806244 -0.026205070983402926 0 -0.0229378239827417 -0.023207189318084746 0 -0.023484317039905882 -0.025031610651612374 0 -0.023206554243702437 -0.026308844389112566 0 -0.021594499864806244 -0.026205070983402926 0 -0.023484317039905882 -0.025031610651612374 0 -0.02161237386592697 -0.026107245987291861 0 -0.02233261612515303 -0.024442598300752866 0 -0.021594499864806244 -0.026205070983402926 0 -0.021579186804030866 -0.025849477428601823 0 -0.020657872041160548 -0.025895905130432009 0 -0.020571238043749218 -0.026501313878530438 0 -0.020657872041160548 -0.025895905130432009 0 -0.019609447257163553 -0.026262475800153295 0 -0.019845964291891303 -0.02708124413958158 0 -0.020571238043749218 -0.026501313878530438 0 -0.019609447257163553 -0.026262475800153295 0 -0.019845964291891303 -0.02708124413958158 0 -0.019019767680161854 -0.027043816627282804 0 -0.019609447257163553 -0.026262475800153295 0 -0.018680377103613709 -0.026488706325109433 0 -0.019019767680161854 -0.027043816627282804 0 -0.019609447257163553 -0.026262475800153295 0 -0.018800820998754651 -0.026029901686545426 0 -0.018680377103613709 -0.026488706325109433 0 -0.019609447257163553 -0.026262475800153295 0 -0.018800820998754651 -0.026029901686545426 0 -0.019609447257163553 -0.026262475800153295 0 -0.019497683381582361 -0.025306507620855283 0 -0.017465435527395053 -0.024999899038683892 0 -0.018902621504378402 -0.025776390574880431 0 -0.020712964164501791 -0.024998818548321634 0 -0.020657872041160548 -0.025895905130432009 0 -0.019609447257163553 -0.026262475800153295 0 -0.019497683381582361 -0.025306507620855283 0 -0.020657872041160548 -0.025895905130432009 0 -0.019497683381582361 -0.025306507620855283 0 -0.02083163677551839 -0.025128930704630337 0 -0.01934180030375144 -0.026720634534748954 0 -0.020233313755273458 -0.026100533454856887 0 -0.020744812440544585 -0.027104132751734431 0 -0.019509229279321288 -0.026010848138607122 0 -0.020568063589975292 -0.026321238598545488 0 -0.018232059220749119 -0.026058956756171509 0 -0.01934180030375144 -0.026720634534748954 0 -0.018902621504378402 -0.025776390574880431 0 -0.01934180030375144 -0.026720634534748954 0 -0.018902621504378402 -0.025776390574880431 0 -0.020233313755273458 -0.026100533454856887 0 -0.018354079757825551 -0.026044676448901218 0 -0.019509229279321288 -0.026010848138607122 0 -0.018902621504378402 -0.025776390574880431 0 -0.020233313755273458 -0.026100533454856887 0 -0.020712964164501791 -0.024998818548321634 0 -0.020712964164501791 -0.024998818548321634 0 -0.021624397839566201 -0.026069823191696463 0 -0.023417490862154396 -0.025042925201396688 0 -0.020233313755273458 -0.026100533454856887 0 -0.020712964164501791 -0.024998818548321634 0 -0.021624397839566201 -0.026069823191696463 0 -0.021624397839566201 -0.026069823191696463 0 -0.020744812440544585 -0.027104132751734431 0 -0.022353970724374183 -0.027328770477336041 0 -0.020233313755273458 -0.026100533454856887 0 -0.021624397839566201 -0.026069823191696463 0 -0.020744812440544585 -0.027104132751734431 0 -0.021579186804030866 -0.025849477428601823 0 -0.020657872041160548 -0.025895905130432009 0 -0.02083163677551839 -0.025128930704630337 0 -0.02233261612515303 -0.024442598300752866 0 -0.023257832722818891 -0.024436862648283337 0 -0.020568063589975292 -0.026321238598545488 0 -0.023257832722818891 -0.024436862648283337 0 -0.021579186804030866 -0.025849477428601823 0 -0.02083163677551839 -0.025128930704630337 0 -0.021880809506730527 -0.02516649206324751 0 -0.0229378239827417 -0.023207189318084746 0 -0.024453614819522743 -0.021535661086990947 0 -0.024811284721655884 -0.022500426701045843 0 -0.024453614819522743 -0.021535661086990947 0 -0.025258684007137017 -0.022202574389172655 0 -0.024811284721655884 -0.022500426701045843 0 -0.020712964164501791 -0.024998818548321634 0 -0.023417490862154396 -0.025042925201396688 0 -0.025000624727985147 -0.024998244344109986 0 -0.023257832722818891 -0.024436862648283337 0 -0.025132125710792545 -0.022752242280142585 0 -0.024754417738685683 -0.023251933322641884 0 -0.024497044914236564 -0.023761794162597487 0 -0.024984660594934566 -0.022731924331047742 0 -0.025132125710792545 -0.022752242280142585 0 -0.024837137070459588 -0.022715961573280936 0 -0.025258684007137017 -0.022202574389172655 0 -0.024984660594934566 -0.022731924331047742 0 -0.02530752876993923 -0.022118538976517225 0 -0.025258684007137017 -0.022202574389172655 0 -0.02530752876993923 -0.022118538976517225 0 -0.024811284721655884 -0.022500426701045843 0 -0.024754417738685683 -0.023251933322641884 0 -0.024497044914236564 -0.023761794162597487 0 -0.024841517620589938 -0.023947190105375576 0 -0.023257832722818891 -0.024436862648283337 0 -0.023762504439733149 -0.025196509496388273 0 -0.021624397839566201 -0.026069823191696463 0 -0.022353970724374183 -0.027328770477336041 0 -0.022881738179294699 -0.026318142067467194 0 -0.025180065295286592 -0.023355874676622597 0 -0.024754417738685683 -0.023251933322641884 0 -0.024841517620589938 -0.023947190105375576 0 -0.023762504439733149 -0.025196509496388273 0 -0.02359773473135059 -0.024989840465919032 0 -0.021624397839566201 -0.026069823191696463 0 -0.022881738179294699 -0.026318142067467194 0 -0.023417490862154396 -0.025042925201396688 0 -0.024497044914236564 -0.023761794162597487 0 -0.024841517620589938 -0.023947190105375576 0 -0.023417490862154396 -0.025042925201396688 0 -0.024497044914236564 -0.023761794162597487 0 -0.023417490862154396 -0.025042925201396688 0 -0.024590798298160566 -0.023976623709958931 0 -0.025000624727985147 -0.024998244344109986 0 -0.024590798298160566 -0.023976623709958931 0 -0.02499778218603373 -0.022849389752034436 0 -0.023417490862154396 -0.025042925201396688 0 -0.025000624727985147 -0.024998244344109986 0 -0.024590798298160566 -0.023976623709958931 0 -0.024497044914236564 -0.023761794162597487 0 -0.024590798298160566 -0.023976623709958931 0 -0.024984660594934566 -0.022731924331047742 0 -0.024590798298160566 -0.023976623709958931 0 -0.02499778218603373 -0.022849389752034436 0 -0.024984660594934566 -0.022731924331047742 0 -0.02499778218603373 -0.022849389752034436 0 -0.024984660594934566 -0.022731924331047742 0 -0.02513301700891158 -0.02165110299526465 0 -0.02499778218603373 -0.022849389752034436 0 -0.02513301700891158 -0.02165110299526465 0 -0.024999465983416045 -0.019898799554096586 0 -0.02513301700891158 -0.02165110299526465 0 -0.025256445570130934 -0.02097138375005107 0 -0.024999465983416045 -0.019898799554096586 0 -0.025256445570130934 -0.02097138375005107 0 -0.025494057184571473 -0.021569623001601659 0 -0.025365135134407378 -0.020732088757735499 0 -0.02513301700891158 -0.02165110299526465 0 -0.025256445570130934 -0.02097138375005107 0 -0.025266743918444894 -0.021797197845892662 0 -0.025256445570130934 -0.02097138375005107 0 -0.025266743918444894 -0.021797197845892662 0 -0.025494057184571473 -0.021569623001601659 0 -0.024984660594934566 -0.022731924331047742 0 -0.02513301700891158 -0.02165110299526465 0 -0.025266743918444894 -0.021797197845892662 0 -0.025266743918444894 -0.021797197845892662 0 -0.02530752876993923 -0.022118538976517225 0 -0.025494057184571473 -0.021569623001601659 0 -0.024984660594934566 -0.022731924331047742 0 -0.025266743918444894 -0.021797197845892662 0 -0.02530752876993923 -0.022118538976517225 0 -0.024757084802117482 -0.022248282099251209 0 -0.025096499232832942 -0.024409610788485404 0 -0.0229378239827417 -0.023207189318084746 0 -0.024811284721655884 -0.022500426701045843 0 -0.023484317039905882 -0.025031610651612374 0 -0.02530752876993923 -0.022118538976517225 0 -0.024811284721655884 -0.022500426701045843 0 -0.025508797681314508 -0.021637280535554207 0 -0.024811284721655884 -0.022500426701045843 0 -0.023484317039905882 -0.025031610651612374 0 -0.024608720194078369 -0.026239852192083708 0 -0.023206554243702437 -0.026308844389112566 0 -0.023484317039905882 -0.025031610651612374 0 -0.024608720194078369 -0.026239852192083708 0 -0.02530752876993923 -0.022118538976517225 0 -0.025508797681314508 -0.021637280535554207 0 -0.025494057184571473 -0.021569623001601659 0 -0.025494057184571473 -0.021569623001601659 0 -0.025776234513526414 -0.020085779569289496 0 -0.025365135134407378 -0.020732088757735499 0 -0.025508797681314508 -0.021637280535554207 0 -0.025494057184571473 -0.021569623001601659 0 -0.025530904011615251 -0.021679186265628432 0 -0.025508797681314508 -0.021637280535554207 0 -0.025530904011615251 -0.021679186265628432 0 -0.025511994019125437 -0.021692076543481178 0 -0.025096499232832942 -0.024409610788485404 0 -0.025070056851827092 -0.02274099930070066 0 -0.025444389564459123 -0.02166535649897848 0 -0.025935387739711185 -0.020535859843258727 0 -0.023023302989030058 -0.027560680340582993 0 -0.023206554243702437 -0.026308844389112566 0 -0.024608720194078369 -0.026239852192083708 0 -0.023023302989030058 -0.027560680340582993 0 -0.024608720194078369 -0.026239852192083708 0 -0.024743479506303387 -0.028450618139874245 0 -0.022415619150196103 -0.029026857193486015 0 -0.023023302989030058 -0.027560680340582993 0 -0.024743479506303387 -0.028450618139874245 0 -0.02466180287477519 -0.023330067184229971 0 -0.025070056851827092 -0.02274099930070066 0 -0.025922285406410599 -0.018633763476150401 0 -0.025935387739711185 -0.020535859843258727 0 -0.025306230564349101 -0.019041664203194333 0 -0.02548411544820656 -0.02106785843939148 0 -0.026468141641366214 -0.020703417096901478 0 -0.025935387739711185 -0.020535859843258727 0 -0.025070056851827092 -0.02274099930070066 0 -0.026560419806868522 -0.018386499854167123 0 -0.026642831127361148 -0.019266418943578716 0 -0.025955923193983786 -0.018762202414846781 0 -0.025935387739711185 -0.020535859843258727 0 -0.025559359464820155 -0.01987495264025415 0 -0.026642831127361148 -0.019266418943578716 0 -0.025955923193983786 -0.018762202414846781 0 -0.025827231257880098 -0.019574550580767729 0 -0.025000000175105543 -0.018550163212741149 0 -0.024999976078143721 -0.019896414173871585 0 -0.025827231257880098 -0.019574550580767729 0 -0.025000000175105543 -0.018550163212741149 0 -0.025955923193983786 -0.018762202414846781 0 -0.025827231257880098 -0.019574550580767729 0 -0.025256445570130934 -0.02097138375005107 0 -0.024999465983416045 -0.019898799554096586 0 -0.025151965706342216 -0.02032685718553217 0 -0.024999964534642382 -0.019896639042047314 0 -0.025559359464820155 -0.01987495264025415 0 -0.025776234513526414 -0.020085779569289496 0 -0.025151965706342216 -0.02032685718553217 0 -0.025365135134407378 -0.020732088757735499 0 -0.025256445570130934 -0.02097138375005107 0 -0.025151965706342216 -0.02032685718553217 0 -0.025365135134407378 -0.020732088757735499 0 0.0043697085019078815 -0.012848458274830431 0 0.0044600197618828571 -0.013050802530474704 0 0.0042760543990876454 -0.013180523236871029 0 0.0043697085019078815 -0.012848458274830431 0 0.0041560302561849498 -0.012708669362618987 0 0.0042760543990876454 -0.013180523236871029 0 0.0041560302561849498 -0.012708669362618987 0 0.0042760543990876454 -0.013180523236871029 0 0.0039193871788074435 -0.013105100424166776 0 0.0041560302561849498 -0.012708669362618987 0 0.0039729657088035169 -0.012240719055993081 0 0.0044149453465205093 -0.012582646017458536 0 0.0043697085019078815 -0.012848458274830431 0 0.004491950615871646 -0.012838858759665573 0 0.0044149453465205093 -0.012582646017458536 0 0.0043697085019078815 -0.012848458274830431 0 0.0041560302561849498 -0.012708669362618987 0 0.0044149453465205093 -0.012582646017458536 0 0.0046169591889692659 -0.012806864203447328 0 0.0044149453465205093 -0.012582646017458536 0 0.0046767940634861831 -0.012718117054981356 0 0.004491950615871646 -0.012838858759665573 0 0.0046169591889692659 -0.012806864203447328 0 0.0044149453465205093 -0.012582646017458536 0 0.0046169591889692659 -0.012806864203447328 0 0.0046495489806752457 -0.012896549162963743 0 0.0046767940634861831 -0.012718117054981356 0 0.0046495489806752457 -0.012896549162963743 0 0.0046767940634861831 -0.012718117054981356 0 0.0047322799869233224 -0.012951629446020038 0 0.0046169591889692659 -0.012806864203447328 0 0.0046495489806752457 -0.012896549162963743 0 0.0045806116452304412 -0.012935573418230966 0 0.0039810657803180599 -0.013412270718972868 0 0.0015472047086897882 -0.016619789990086356 0 0.0046495489806752457 -0.012896549162963743 0 0.0045806116452304412 -0.012935573418230966 0 0.0046218119635127444 -0.013028222425175645 0 0.0015472047086897882 -0.016619789990086356 0 -0.00017670641198173136 -0.015438509180740316 0 0.0046495489806752457 -0.012896549162963743 0 0.0046218119635127444 -0.013028222425175645 0 0.0047322799869233224 -0.012951629446020038 0 0.0045806116452304412 -0.012935573418230966 0 0.0044600197618828571 -0.013050802530474704 0 0.0045096585322168979 -0.013242604170578588 0 0.0043697085019078815 -0.012848458274830431 0 0.004491950615871646 -0.012838858759665573 0 0.0044600197618828571 -0.013050802530474704 0 0.004491950615871646 -0.012838858759665573 0 0.0045806116452304412 -0.012935573418230966 0 0.0044600197618828571 -0.013050802530474704 0 0.004491950615871646 -0.012838858759665573 0 0.0046169591889692659 -0.012806864203447328 0 0.0045806116452304412 -0.012935573418230966 0 -0.00042600368718123097 -0.020654344690470349 0 -0.00028135609165938995 -0.020557585255783242 0 0.0015616950134926381 -0.021119159381285522 0 0.0044600197618828571 -0.013050802530474704 0 0.0045096585322168979 -0.013242604170578588 0 0.0042760543990876454 -0.013180523236871029 0 -0.00047766250293817625 -0.021817189214279008 0 -0.00089547983374256058 -0.021715164388227081 0 -0.00037729594123027551 -0.021749432429349284 0 0.0010819208289873288 -0.0207492552050349 0 -0.0016243948668948408 -0.023879246217926406 0 0.0010819208289873288 -0.0207492552050349 0 -0.00019203422744304524 -0.020896241648099476 0 0.0045806116452304412 -0.012935573418230966 0 0.0045096585322168979 -0.013242604170578588 0 0.0046967599822127252 -0.013104266072511576 0 -0.00089547983374256058 -0.021715164388227081 0 -0.00037729594123027551 -0.021749432429349284 0 -0.0019446802659452899 -0.021271335004686122 0 -0.0016243948668948408 -0.023879246217926406 0 -0.0039600020414567311 -0.025456375045656836 0 0.0015472047086897882 -0.016619789990086356 0 -0.0027917077126427816 -0.020184624472475595 0 0.0010819208289873288 -0.0207492552050349 0 0.0015472047086897882 -0.016619789990086356 0 -0.00048219297686723272 -0.021812819717312897 0 -0.00089547983374256058 -0.021715164388227081 0 -0.0014759565521603856 -0.02245392195096408 0 -0.00089547983374256058 -0.021715164388227081 0 -0.0014759565521603856 -0.02245392195096408 0 -0.0016785861822118183 -0.021494921677659391 0 -0.0014759565521603856 -0.02245392195096408 0 -0.0016785861822118183 -0.021494921677659391 0 -0.0022619207604342353 -0.021701440988214787 0 -0.00089547983374256058 -0.021715164388227081 0 -0.0016785861822118183 -0.021494921677659391 0 -0.0019446802659452899 -0.021271335004686122 0 -0.0016785861822118183 -0.021494921677659391 0 -0.0019454245650646481 -0.021265986137290773 0 -0.0022619207604342353 -0.021701440988214787 0 -0.0048162516567472188 -0.030222829550134559 0 -0.0057980062215761347 -0.029960717283676393 0 -0.0054431715463977969 -0.029423516621452758 0 -0.0037674736960501411 -0.024255116296323591 0 -0.0039600020414567311 -0.025456375045656836 0 -0.0048162516567472188 -0.030222829550134559 0 -0.004023365794010348 -0.029715262917118079 0 -0.004822350387317112 -0.029244448667350226 0 -0.0048162516567472188 -0.030222829550134559 0 -0.004822350387317112 -0.029244448667350226 0 -0.0054431715463977969 -0.029423516621452758 0 -0.0016243948668948408 -0.023879246217926406 0 -0.00268609502278871 -0.028110285596271715 0 -0.004023365794010348 -0.029715262917118079 0 -0.0038774925570602675 -0.02960059411768818 0 -0.004822350387317112 -0.029244448667350226 0 -0.00033911473043051626 -0.025128608972484368 0 -0.00065602658222042843 -0.025371540617303019 0 -0.00061974728476084503 -0.025039952853104838 0 -0.0016243948668948408 -0.023879246217926406 0 0.0017480706849283276 -0.019636973677033782 0 0.0010819208289873288 -0.0207492552050349 0 0.0017480706849283276 -0.019636973677033782 0 0.0017480706849283276 -0.019636973677033782 0 0.0027229483517361122 -0.016286607315638781 0 0.0017480706849283276 -0.019636973677033782 0 6.6074707399512155e-05 -0.02253212506092497 0 -0.00061974728476084503 -0.025039952853104838 0 -0.00085327110278908427 -0.025249939105061913 0 -0.00091893996246141397 -0.024971218329360285 0 0.0014074022617174564 -0.019780151326125647 0 0.0013151590834393565 -0.019818864538885088 0 0.001314836440349333 -0.019818512592592957 0 -0.00065602658222042843 -0.025371540617303019 0 -0.00085327110278908427 -0.025249939105061913 0 -0.00097066432412670788 -0.025600825436961495 0 -0.00065602658222042843 -0.025371540617303019 0 -0.00061974728476084503 -0.025039952853104838 0 -0.00085327110278908427 -0.025249939105061913 0 -0.004023365794010348 -0.029715262917118079 0 -0.0038774925570602675 -0.02960059411768818 0 -0.0031938081474401129 -0.02924389928020351 0 -0.00085327110278908427 -0.025249939105061913 0 -0.0010962072019070936 -0.025266060252243951 0 -0.00097066432412670788 -0.025600825436961495 0 -0.0010962072019070936 -0.025266060252243951 0 -0.0012235059266862203 -0.025548605334609648 0 -0.00097066432412670788 -0.025600825436961495 0 -0.0010962072019070936 -0.025266060252243951 0 -0.0014280896202633242 -0.025287865895872286 0 -0.0012235059266862203 -0.025548605334609648 0 -0.0010962072019070936 -0.025266060252243951 0 -0.0014280896202633242 -0.025287865895872286 0 -0.0012163612778424955 -0.024898670508357406 0 -0.0014280896202633242 -0.025287865895872286 0 -0.0015080707838218564 -0.0248248099892623 0 -0.0012163612778424955 -0.024898670508357406 0 -0.00085327110278908427 -0.025249939105061913 0 -0.0010962072019070936 -0.025266060252243951 0 -0.00091893996246141397 -0.024971218329360285 0 -0.0010962072019070936 -0.025266060252243951 0 -0.00091893996246141397 -0.024971218329360285 0 -0.0012163612778424955 -0.024898670508357406 0 0.0015501513366668784 -0.025692930538359519 0 0.0013430118614489264 -0.025734472206520448 0 0.0013602629058967163 -0.026200697509385928 0 0.00097132523892830129 -0.025601281624999046 0 0.0012336514836326373 -0.026294418528662124 0 4.4907541655110937e-05 -0.02598353207554337 0 0.00038486909235263089 -0.025499083055343395 0 0.0010727868767087833 -0.02631382566984445 0 4.4907541655110937e-05 -0.02598353207554337 0 0.00070283043968669384 -0.026844448597395661 0 0.00034636579995427004 -0.027374699327930879 0 -0.00086373660385156558 -0.025795871769277608 0 0.00033184466153677878 -0.02471221181803698 0 4.4907541655110937e-05 -0.02598353207554337 0 0.0010727868767087833 -0.02631382566984445 0 0.00070283043968669384 -0.026844448597395661 0 0.0012336514836326373 -0.026294418528662124 0 0.001819180990521824 -0.027161038485292329 0 0.0010727868767087833 -0.02631382566984445 0 0.0011392679035466477 -0.027164081323435507 0 0.0018413460412252751 -0.027230764499333857 0 0.0010727868767087833 -0.02631382566984445 0 0.00070283043968669384 -0.026844448597395661 0 0.0011392679035466477 -0.027164081323435507 0 0.0011392679035466477 -0.027164081323435507 0 0.001338839212176583 -0.027984185430348023 0 0.0018413460412252751 -0.027230764499333857 0 0.0011392679035466477 -0.027164081323435507 0 0.00075600993320344093 -0.027496678076708345 0 0.001338839212176583 -0.027984185430348023 0 0.00070283043968669384 -0.026844448597395661 0 0.0011392679035466477 -0.027164081323435507 0 0.00075600993320344093 -0.027496678076708345 0 0.0015429141700226462 -0.019986442169142065 0 0.0015315118433868275 -0.019945398116880748 0 0.0013634290582281983 -0.01989705664295472 0 0.00075600993320344093 -0.027496678076708345 0 0.00036551158400826271 -0.027599411063690148 0 0.00030487826478085129 -0.027350707180454268 0 0.00092719988355572107 -0.026226625678242469 0 0.00033184466153677878 -0.02471221181803698 0 0.0019650511959823161 -0.019502510474277382 0 0.00033184466153677878 -0.02471221181803698 0 0.00070283043968669384 -0.026844448597395661 0 0.00075600993320344093 -0.027496678076708345 0 0.00034636579995427004 -0.027374699327930879 0 0.0027080740126878607 -0.012857423424316667 0 0.0025517976034623445 -0.012263686539008821 0 0.0032106733074237373 -0.012481864627610155 0 0.0019650511959823161 -0.019502510474277382 0 0.0031805991983074929 -0.014562035279976654 0 0.00075600993320344093 -0.027496678076708345 0 0.00036551158400826271 -0.027599411063690148 0 0.001338839212176583 -0.027984185430348023 0 0.0042947402796909197 -0.018916905768593294 0 0.0040919308659394752 -0.01795380891064155 0 0.0032209884206184781 -0.018576898112995965 0 0.0019650511959823161 -0.019502510474277382 0 0.0023591995508721801 -0.023554650181188946 0 0.0040919308659394752 -0.01795380891064155 0 0.0032209884206184781 -0.018576898112995965 0 0.0030034860622719446 -0.017613535760053364 0 0.001314836440349333 -0.019818512592592957 0 0.0013634290582281983 -0.01989705664295472 0 0.001358672088531566 -0.019878892581137838 0 0.0013151590834393565 -0.019818864538885088 0 0.001314836440349333 -0.019818512592592957 0 0.001358672088531566 -0.019878892581137838 0 0.0041560302561849498 -0.012708669362618987 0 0.0039193871788074435 -0.013105100424166776 0 0.0034095362767368824 -0.013005684150309449 0 0.0027229483517361122 -0.016286607315638781 0 0.0022843055507804268 -0.016232206157703183 0 6.6074707399512155e-05 -0.02253212506092497 0 -4.1148037899471823e-05 -0.022231258037691329 0 0.0019650511959823161 -0.019502510474277382 0 0.0022843055507804268 -0.016232206157703183 0 0.00033184466153677878 -0.02471221181803698 0 -4.1148037899471823e-05 -0.022231258037691329 0 0.0015315118433868275 -0.019945398116880748 0 0.0013634290582281983 -0.01989705664295472 0 0.001358672088531566 -0.019878892581137838 0 0.0034095362767368824 -0.013005684150309449 0 0.0032106733074237373 -0.012481864627610155 0 0.0039729657088035169 -0.012240719055993081 0 0.0027080740126878607 -0.012857423424316667 0 0.0034095362767368824 -0.013005684150309449 0 0.0032106733074237373 -0.012481864627610155 0 0.0041560302561849498 -0.012708669362618987 0 0.0034095362767368824 -0.013005684150309449 0 0.0039729657088035169 -0.012240719055993081 0 0.0039729657088035169 -0.012240719055993081 0 0.0034182622740388802 -0.012042372054401111 0 0.0034664962303495722 -0.011519593086276555 0 0.0032106733074237373 -0.012481864627610155 0 0.0034182622740388802 -0.012042372054401111 0 0.0028872968308195873 -0.011794175530230032 0 0.0034182622740388802 -0.012042372054401111 0 0.0034664962303495722 -0.011519593086276555 0 0.0028872968308195873 -0.011794175530230032 0 0.0032106733074237373 -0.012481864627610155 0 0.0039729657088035169 -0.012240719055993081 0 0.0034182622740388802 -0.012042372054401111 0 0.0034664962303495722 -0.011519593086276555 0 0.0028872968308195873 -0.011794175530230032 0 0.0028856162940253441 -0.011280760624267767 0 0.0034664962303495722 -0.011519593086276555 0 0.0028856162940253441 -0.011280760624267767 0 0.0035286531050935251 -0.010822909143421527 0 0.0039729657088035169 -0.012240719055993081 0 0.0034664962303495722 -0.011519593086276555 0 0.0040875516467658787 -0.010904625937813998 0 0.0034664962303495722 -0.011519593086276555 0 0.0040875516467658787 -0.010904625937813998 0 0.0035286531050935251 -0.010822909143421527 0 0.0040919308659394752 -0.01795380891064155 0 0.0038804876779839994 -0.016972921267430097 0 0.0030034860622719446 -0.017613535760053364 0 0.0070393069864298401 -0.016140953018892751 0 0.0053873501312964684 -0.016518290108105738 0 0.0056971445651578653 -0.017105576146839004 0 0.0041083757272774484 -0.014385000323223037 0 0.0045559696127108742 -0.017214032206997555 0 0.0025517976034623445 -0.012263686539008821 0 0.0028872968308195873 -0.011794175530230032 0 0.0024098061157469802 -0.011649351212125332 0 0.0025517976034623445 -0.012263686539008821 0 0.0032106733074237373 -0.012481864627610155 0 0.0028872968308195873 -0.011794175530230032 0 0.0031805991983074929 -0.014562035279976654 0 0.0041083757272774484 -0.014385000323223037 0 0.0028872968308195873 -0.011794175530230032 0 0.0024941735757404125 -0.01158500438593304 0 0.0024098061157469802 -0.011649351212125332 0 0.0028872968308195873 -0.011794175530230032 0 0.0028856162940253441 -0.011280760624267767 0 0.0027188125955778832 -0.01149739149293299 0 0.0028856162940253441 -0.011280760624267767 0 0.0023915085211530115 -0.010995213455673685 0 0.002980902801807427 -0.010841581038035109 0 0.0028856162940253441 -0.011280760624267767 0 0.0025835452563969653 -0.01133975644860194 0 0.0024784550168580198 -0.011106045957067904 0 0.0022450940897125451 -0.010933901603146045 0 0.0047620080122743767 -0.0122598198591549 0 0.0028872968308195873 -0.011794175530230032 0 0.0027188125955778832 -0.01149739149293299 0 0.0024941735757404125 -0.01158500438593304 0 0.0025835452563969653 -0.01133975644860194 0 0.0027188125955778832 -0.01149739149293299 0 0.0024941735757404125 -0.01158500438593304 0 0.0028856162940253441 -0.011280760624267767 0 0.0025835452563969653 -0.01133975644860194 0 0.0027188125955778832 -0.01149739149293299 0 0.006078770656452296 -0.014017079269623747 0 0.0074424661455789179 -0.016132516502501224 0 0.0070393069864298401 -0.016140953018892751 0 0.0067970872722252036 -0.015095998106866298 0 0.0053873501312964684 -0.016518290108105738 0 0.0088610447974213618 -0.016430102898040897 0 0.009056999921516623 -0.016544264061948432 0 0.0091833886432541867 -0.016452975657480336 0 0.0041083757272774484 -0.014385000323223037 0 0.006078770656452296 -0.014017079269623747 0 0.0025835452563969653 -0.01133975644860194 0 0.0024941735757404125 -0.01158500438593304 0 0.0023413436167144959 -0.011240405168457776 0 0.0024941735757404125 -0.01158500438593304 0 0.0024172505789681028 -0.011643115864626748 0 0.0023413436167144959 -0.011240405168457776 0 0.0040210361655365293 -0.014155654862833624 0 0.0041083757272774484 -0.014385000323223037 0 0.0025835452563969653 -0.01133975644860194 0 0.0023413436167144959 -0.011240405168457776 0 0.0024784550168580198 -0.011106045957067904 0 0.0061970954619914049 -0.013091452892294034 0 0.0062476486057795443 -0.013293909207419489 0 0.0060793936160452077 -0.013203281107442682 0 0.006078770656452296 -0.014017079269623747 0 0.0047620080122743767 -0.0122598198591549 0 0.006078770656452296 -0.014017079269623747 0 0.0071391882621394172 -0.014100134221890362 0 0.0072427439396252147 -0.012072801712662697 0 0.0068991059444042753 -0.011508904748769092 0 0.008287642483584462 -0.012247840577938113 0 0.0071391882621394172 -0.014100134221890362 0 0.0092879154545414851 -0.014618204523358358 0 0.0088900145455911538 -0.01653645729636961 0 0.009145498830273515 -0.016663028766839602 0 0.009056999921516623 -0.016544264061948432 0 0.0074590654367675353 -0.012425379697350955 0 0.0072427439396252147 -0.012072801712662697 0 0.008287642483584462 -0.012247840577938113 0 0.0074590654367675353 -0.012425379697350955 0 0.0072427439396252147 -0.012072801712662697 0 0.006774280924145136 -0.012233802806152707 0 0.0088610447974213618 -0.016430102898040897 0 0.0088900145455911538 -0.01653645729636961 0 0.009056999921516623 -0.016544264061948432 0 0.0068991059444042753 -0.011508904748769092 0 0.0066414717465455193 -0.01179612577060247 0 0.0068932545169034277 -0.011919502317709711 0 0.0072427439396252147 -0.012072801712662697 0 0.0068991059444042753 -0.011508904748769092 0 0.0068932545169034277 -0.011919502317709711 0 0.0071391882621394172 -0.014100134221890362 0 0.0047620080122743767 -0.0122598198591549 0 0.0068991059444042753 -0.011508904748769092 0 0.0064189104314101939 -0.011256068482492351 0 0.0066414717465455193 -0.01179612577060247 0 0.0066414717465455193 -0.01179612577060247 0 0.006774280924145136 -0.012233802806152707 0 0.0060638833314444578 -0.012320229096496509 0 0.0066414717465455193 -0.01179612577060247 0 0.0068932545169034277 -0.011919502317709711 0 0.006774280924145136 -0.012233802806152707 0 0.0072427439396252147 -0.012072801712662697 0 0.0068932545169034277 -0.011919502317709711 0 0.006774280924145136 -0.012233802806152707 0 0.0047620080122743767 -0.0122598198591549 0 0.0037000839605961064 -0.010949049543018213 0 0.0064189104314101939 -0.011256068482492351 0 0.0060638833314444578 -0.012320229096496509 0 0.0049773687471305356 -0.012639734107609964 0 0.0023915085211530115 -0.010995213455673685 0 0.002980902801807427 -0.010841581038035109 0 0.0031184107771137092 -0.010276771863443945 0 0.0064189104314101939 -0.011256068482492351 0 0.0066414717465455193 -0.01179612577060247 0 0.0060638833314444578 -0.012320229096496509 0 0.0031420483227725935 -0.0098574278246757029 0 0.0032892575557411062 -0.0099360821291682271 0 0.0037261845856496703 -0.0099934879348445929 0 0.0060638833314444578 -0.012320229096496509 0 0.0056356759974271241 -0.013549724986092977 0 0.0049773687471305356 -0.012639734107609964 0 0.0051922048746538118 -0.011335751579961121 0 0.0037000839605961064 -0.010949049543018213 0 0.0032892575557411062 -0.0099360821291682271 0 0.0032338840056337758 -0.0099588445550803251 0 0.003436445620322233 -0.010242019030077069 0 0.0031420483227725935 -0.0098574278246757029 0 0.0032892575557411062 -0.0099360821291682271 0 0.0032301914693919137 -0.0099618586963765854 0 0.0049151620828828072 -0.011325662974595028 0 0.0051922048746538118 -0.011335751579961121 0 0.0067530532559431349 -0.012125425038275376 0 0.0064680285021474476 -0.011733833862775852 0 0.0079263114843044387 -0.011197922681366381 0 0.0051922048746538118 -0.011335751579961121 0 0.0074153773806764625 -0.01214320267460367 0 0.0052364845966088149 -0.010396138213043579 0 0.0051922048746538118 -0.011335751579961121 0 0.0060638833314444578 -0.012320229096496509 0 0.0056356759974271241 -0.013549724986092977 0 0.0069333364083682724 -0.013081433221434494 0 0.006774280924145136 -0.012233802806152707 0 0.0060638833314444578 -0.012320229096496509 0 0.0069333364083682724 -0.013081433221434494 0 0.0074590654367675353 -0.012425379697350955 0 0.006774280924145136 -0.012233802806152707 0 0.0069333364083682724 -0.013081433221434494 0 0.0074153773806764625 -0.01214320267460367 0 0.0097070837861924896 -0.012771868367057473 0 0.0074590654367675353 -0.012425379697350955 0 0.0069333364083682724 -0.013081433221434494 0 0.0082477562455266495 -0.012609178433303683 0 0.0040875516467658787 -0.010904625937813998 0 0.0038016189476565146 -0.010418136945702088 0 0.0035286531050935251 -0.010822909143421527 0 0.0040875516467658787 -0.010904625937813998 0 0.0038016189476565146 -0.010418136945702088 0 0.0042308050859397378 -0.010272529601652451 0 0.0038016189476565146 -0.010418136945702088 0 0.0035286531050935251 -0.010822909143421527 0 0.0033414180879978396 -0.010284183517304256 0 0.0028856162940253441 -0.011280760624267767 0 0.002980902801807427 -0.010841581038035109 0 0.0035286531050935251 -0.010822909143421527 0 0.0033608614547694371 -0.010546774488016941 0 0.0037000839605961064 -0.010949049543018213 0 0.002980902801807427 -0.010841581038035109 0 0.0035286531050935251 -0.010822909143421527 0 0.0031184107771137092 -0.010276771863443945 0 0.0038016189476565146 -0.010418136945702088 0 0.003690159790690564 -0.010180580948955695 0 0.0033414180879978396 -0.010284183517304256 0 0.003690159790690564 -0.010180580948955695 0 0.0037261845856496703 -0.0099934879348445929 0 0.0039143701373179291 -0.010095710992530486 0 0.0052364845966088149 -0.010396138213043579 0 0.0031063451505941998 -0.0097686558402061332 0 0.003690159790690564 -0.010180580948955695 0 0.0035788611350214554 -0.01009666298243 0 0.0037261845856496703 -0.0099934879348445929 0 0.0032892575557411062 -0.0099360821291682271 0 0.003436445620322233 -0.010242019030077069 0 0.0035788611350214554 -0.01009666298243 0 0.003690159790690564 -0.010180580948955695 0 0.0033414180879978396 -0.010284183517304256 0 0.0035788611350214554 -0.01009666298243 0 0.0037000839605961064 -0.010949049543018213 0 0.003766331437945769 -0.010457989829304487 0 0.0032892575557411062 -0.0099360821291682271 0 0.0035788611350214554 -0.01009666298243 0 0.0037261845856496703 -0.0099934879348445929 0 0.0038290648398438126 -0.0099436952469421341 0 0.0037261845856496703 -0.0099934879348445929 0 0.0038323619838633613 -0.0099525127655572913 0 0.0037261845856496703 -0.0099934879348445929 0 0.0038323619838633613 -0.0099525127655572913 0 0.0039143701373179291 -0.010095710992530486 0 0.0038723227924706239 -0.0098286159499202351 0 0.0038323619838633613 -0.0099525127655572913 0 0.0039143701373179291 -0.010095710992530486 0 0.0038723227924706239 -0.0098286159499202351 0 0.0039143701373179291 -0.010095710992530486 0 0.0042308050859397378 -0.010272529601652451 0 0.0038016189476565146 -0.010418136945702088 0 0.003690159790690564 -0.010180580948955695 0 0.0039143701373179291 -0.010095710992530486 0 0.0038016189476565146 -0.010418136945702088 0 0.0039143701373179291 -0.010095710992530486 0 0.0042308050859397378 -0.010272529601652451 0 0.0051758516397047063 -0.0085266510637537121 0 0.0051361085967989413 -0.0087760210894549801 0 0.0038723227924706239 -0.0098286159499202351 0 0.0042308050859397378 -0.010272529601652451 0 0.0048982083106360345 -0.01004362027263502 0 0.0052606737021601672 -0.0076673271681445233 0 0.0053322252205593949 -0.0074905676447644216 0 0.0052990178996719147 -0.007855988480764001 0 0.0047881466113067006 -0.010581122181907526 0 0.0052875695352532105 -0.011074388172312972 0 0.0054052715603585258 -0.010177383921834057 0 0.0048982083106360345 -0.01004362027263502 0 0.0047881466113067006 -0.010581122181907526 0 0.0054052715603585258 -0.010177383921834057 0 0.0048982083106360345 -0.01004362027263502 0 0.0054052715603585258 -0.010177383921834057 0 0.0056695881606836761 -0.010040703839429083 0 0.0051361085967989413 -0.0087760210894549801 0 0.0055352387532606765 -0.0091953135381444354 0 0.0040875516467658787 -0.010904625937813998 0 0.0042308050859397378 -0.010272529601652451 0 0.0047881466113067006 -0.010581122181907526 0 0.0042308050859397378 -0.010272529601652451 0 0.0048982083106360345 -0.01004362027263502 0 0.0047881466113067006 -0.010581122181907526 0 0.0039729657088035169 -0.012240719055993081 0 0.0040875516467658787 -0.010904625937813998 0 0.0046989708171844592 -0.011364975640797546 0 0.0040875516467658787 -0.010904625937813998 0 0.0047881466113067006 -0.010581122181907526 0 0.0046989708171844592 -0.011364975640797546 0 0.0047881466113067006 -0.010581122181907526 0 0.0046989708171844592 -0.011364975640797546 0 0.0052875695352532105 -0.011074388172312972 0 0.0046989708171844592 -0.011364975640797546 0 0.0052875695352532105 -0.011074388172312972 0 0.0052824568503992879 -0.012187673935723176 0 0.0039729657088035169 -0.012240719055993081 0 0.0046989708171844592 -0.011364975640797546 0 0.0052824568503992879 -0.012187673935723176 0 0.0039153079240449411 -0.012270106006844519 0 0.0050028822640639844 -0.012341582952526456 0 0.0057970631470310105 -0.010212840610075128 0 0.0057075460828962263 -0.0098854929605505376 0 0.0059332149219148127 -0.0099603826618071389 0 0.0049144962814777664 -0.012719936460107514 0 0.0059443570063974736 -0.010371328413762369 0 0.0050028822640639844 -0.012341582952526456 0 0.0049144962814777664 -0.012719936460107514 0 0.0052875695352532105 -0.011074388172312972 0 0.0052824568503992879 -0.012187673935723176 0 0.0060777387014988365 -0.011273021207151691 0 0.0052824568503992879 -0.012187673935723176 0 0.0066137602947215187 -0.012212531814157117 0 0.0060777387014988365 -0.011273021207151691 0 0.0059443570063974736 -0.010371328413762369 0 0.0054536537008875842 -0.010229511218567531 0 0.0052875695352532105 -0.011074388172312972 0 0.0060777387014988365 -0.011273021207151691 0 0.0054052715603585258 -0.010177383921834057 0 0.0058064346040378693 -0.0097797103730566312 0 0.0056695881606836761 -0.010040703839429083 0 0.0060225432054587221 -0.0094708643776329603 0 0.0057075460828962263 -0.0098854929605505376 0 0.0058064346040378693 -0.0097797103730566312 0 0.0059332149219148127 -0.0099603826618071389 0 0.0057075460828962263 -0.0098854929605505376 0 0.0058064346040378693 -0.0097797103730566312 0 0.0056695881606836761 -0.010040703839429083 0 0.0057548470203871924 -0.0084535016921803707 0 0.0052668118882368822 -0.0083156680917302866 0 0.0060225432054587221 -0.0094708643776329603 0 0.0057548470203871924 -0.0084535016921803707 0 0.0052668118882368822 -0.0083156680917302866 0 0.0054393582295194191 -0.0080006698911271011 0 0.0055352387532606765 -0.0091953135381444354 0 0.0060464703447414827 -0.0094850919945728453 0 0.0057075460828962263 -0.0098854929605505376 0 0.0054052715603585258 -0.010177383921834057 0 0.0056695881606836761 -0.010040703839429083 0 0.0053322252205593949 -0.0074905676447644216 0 0.0052668118882368822 -0.0083156680917302866 0 0.0052990178996719147 -0.007855988480764001 0 0.0052668118882368822 -0.0083156680917302866 0 0.0052990178996719147 -0.007855988480764001 0 0.0054393582295194191 -0.0080006698911271011 0 0.0052606737021601672 -0.0076673271681445233 0 0.0052990178996719147 -0.007855988480764001 0 0.0054393582295194191 -0.0080006698911271011 0 0.0052606737021601672 -0.0076673271681445233 0 0.0054393582295194191 -0.0080006698911271011 0 0.0057726369220205288 -0.0078972025004301217 0 0.0057548470203871924 -0.0084535016921803707 0 0.0054393582295194191 -0.0080006698911271011 0 0.0057726369220205288 -0.0078972025004301217 0 0.0050738283124014631 -0.0071459458587090369 0 0.001014830147472939 -0.0087212091257112805 0 0.0057548470203871924 -0.0084535016921803707 0 0.0057726369220205288 -0.0078972025004301217 0 0.0062920048600622544 -0.008698249327428945 0 0.0057726369220205288 -0.0078972025004301217 0 0.0062920048600622544 -0.008698249327428945 0 0.0068374821280047671 -0.0083095331866428115 0 0.0057548470203871924 -0.0084535016921803707 0 0.0062920048600622544 -0.008698249327428945 0 0.0060225432054587221 -0.0094708643776329603 0 0.0062920048600622544 -0.008698249327428945 0 0.0060225432054587221 -0.0094708643776329603 0 0.006428167783023556 -0.0092833582460308279 0 0.0062920048600622544 -0.008698249327428945 0 0.0069193319344578886 -0.0090564272875251119 0 0.0068374821280047671 -0.0083095331866428115 0 -0.0022649201851961762 -0.010576553895885703 0 -0.002335631373638891 -0.0097816630871497105 0 -0.001927155802380137 -0.0099150862198420005 0 -0.0015786230323012254 -0.011520241560557882 0 0.001014830147472939 -0.0087212091257112805 0 0.0062920048600622544 -0.008698249327428945 0 0.0069193319344578886 -0.0090564272875251119 0 0.006428167783023556 -0.0092833582460308279 0 -0.0015786230323012254 -0.011520241560557882 0 -0.0071608025310099348 -0.010525416966087112 0 0.0017965116629706929 -0.0068979262649558276 0 0.0030145128818000735 -0.006621285464362997 0 0.0017364568017952356 -0.0062561229113187533 0 0.001014830147472939 -0.0087212091257112805 0 -0.0071608025310099348 -0.010525416966087112 0 -0.0044260966299913473 -0.0086244425231392554 0 -0.0047353910192295436 -0.0088513782641352848 0 -0.0049870237099051192 -0.0084599546469626818 0 -0.0043416775329190799 -0.0094959900726029091 0 -0.0047353910192295436 -0.0088513782641352848 0 -0.0051872788339209401 -0.0088237187934756146 0 -0.0030935098285945601 -0.0075655419035013383 0 0.001014830147472939 -0.0087212091257112805 0 -0.0043416775329190799 -0.0094959900726029091 0 -0.0044260966299913473 -0.0086244425231392554 0 -0.0047353910192295436 -0.0088513782641352848 0 -0.0090956041745465909 -0.010359450788101266 0 -0.0092718210552465759 -0.010681862863206092 0 -0.0099946041662810972 -0.010091390225116788 0 -0.012186821999944124 -0.00868359129821176 0 -0.012312311995358306 -0.0089553581883253745 0 -0.012095578116184997 -0.0088428741646946717 0 -0.012186821999944124 -0.00868359129821176 0 -0.012116689433567649 -0.0086057588392562025 0 -0.012143740442883509 -0.0086113776541269591 0 -0.0030935098285945601 -0.0075655419035013383 0 -0.010181378801857873 -0.0091542089082485324 0 -0.012262771007696604 -0.0088920645085261447 0 -0.010181378801857873 -0.0091542089082485324 0 -0.010181378801857873 -0.0091542089082485324 0 -0.010487300135703807 -0.010618974233265379 0 -0.0071608025310099348 -0.010525416966087112 0 -0.010181378801857873 -0.0091542089082485324 0 -0.0047353910192295436 -0.0088513782641352848 0 -0.0049870237099051192 -0.0084599546469626818 0 -0.0051872788339209401 -0.0088237187934756146 0 -0.012312311995358306 -0.0089553581883253745 0 -0.012095578116184997 -0.0088428741646946717 0 -0.012104872697946984 -0.0090121179688961561 0 -0.012312311995358306 -0.0089553581883253745 0 -0.012104872697946984 -0.0090121179688961561 0 -0.012139586734676305 -0.0091085369250895141 0 -0.012011048069150732 -0.0088358780887584625 0 -0.012095578116184997 -0.0088428741646946717 0 -0.01199811559614768 -0.0089706737950802362 0 -0.012095578116184997 -0.0088428741646946717 0 -0.012104872697946984 -0.0090121179688961561 0 -0.01199811559614768 -0.0089706737950802362 0 -0.012104872697946984 -0.0090121179688961561 0 -0.01201372959899699 -0.0090655245683588549 0 -0.01199811559614768 -0.0089706737950802362 0 -0.01201372959899699 -0.0090655245683588549 0 -0.012095111203300039 -0.0091193521465449366 0 -0.011963241550278626 -0.0092515723626001179 0 -0.012095111203300039 -0.0091193521465449366 0 -0.012131644056166952 -0.0091080865018936304 0 -0.011963241550278626 -0.0092515723626001179 0 -0.010487300135703807 -0.010618974233265379 0 -0.01077646366653133 -0.012012511076989439 0 -0.0086938205670602422 -0.013529780829975037 0 -0.0085870997234256483 -0.013981746642395808 0 -0.0080737962119632467 -0.014063564751724504 0 -0.012104872697946984 -0.0090121179688961561 0 -0.01201372959899699 -0.0090655245683588549 0 -0.012095111203300039 -0.0091193521465449366 0 -0.012104872697946984 -0.0090121179688961561 0 -0.012095111203300039 -0.0091193521465449366 0 -0.012139586734676305 -0.0091085369250895141 0 -0.011225677913376595 -0.010262694299888244 0 -0.010487300135703807 -0.010618974233265379 0 -0.0086938205670602422 -0.013529780829975037 0 -0.0085870997234256483 -0.013981746642395808 0 -0.0088210805477005622 -0.013867692438107556 0 -0.0071608025310099348 -0.010525416966087112 0 -0.010487300135703807 -0.010618974233265379 0 -0.0092965722024927859 -0.013322405905775485 0 -0.0086938205670602422 -0.013529780829975037 0 -0.0090928555064981008 -0.013754355051889882 0 -0.0095775057544082078 -0.013860883643725791 0 -0.0092965722024927859 -0.013322405905775485 0 -0.0090928555064981008 -0.013754355051889882 0 -0.0086938205670602422 -0.013529780829975037 0 -0.0088210805477005622 -0.013867692438107556 0 -0.0090928555064981008 -0.013754355051889882 0 -0.0088210805477005622 -0.013867692438107556 0 -0.0090928555064981008 -0.013754355051889882 0 -0.0089116376707965607 -0.014208397401451812 0 -0.0095775057544082078 -0.013860883643725791 0 -0.0090928555064981008 -0.013754355051889882 0 -0.0092374056913678698 -0.014294750429624728 0 -0.0090928555064981008 -0.013754355051889882 0 -0.0092374056913678698 -0.014294750429624728 0 -0.0089116376707965607 -0.014208397401451812 0 -0.0092374056913678698 -0.014294750429624728 0 -0.0089116376707965607 -0.014208397401451812 0 -0.0090442287028151963 -0.014578003265424492 0 -0.0089116376707965607 -0.014208397401451812 0 -0.0090442287028151963 -0.014578003265424492 0 -0.0087589422381062279 -0.014652967913676923 0 -0.0092374056913678698 -0.014294750429624728 0 -0.0090442287028151963 -0.014578003265424492 0 -0.0092372481467707622 -0.014721915984604783 0 -0.0092374056913678698 -0.014294750429624728 0 -0.0092372481467707622 -0.014721915984604783 0 -0.0095280401346030837 -0.014603308026706136 0 -0.0085870997234256483 -0.013981746642395808 0 -0.0085224853120696893 -0.014322092119616849 0 -0.0080737962119632467 -0.014063564751724504 0 -0.0085870997234256483 -0.013981746642395808 0 -0.0089116376707965607 -0.014208397401451812 0 -0.0085224853120696893 -0.014322092119616849 0 -0.0085870997234256483 -0.013981746642395808 0 -0.0088210805477005622 -0.013867692438107556 0 -0.0089116376707965607 -0.014208397401451812 0 -0.0089116376707965607 -0.014208397401451812 0 -0.0085224853120696893 -0.014322092119616849 0 -0.0087589422381062279 -0.014652967913676923 0 -0.0085224853120696893 -0.014322092119616849 0 -0.0087589422381062279 -0.014652967913676923 0 -0.0082525929090862815 -0.014712241431755601 0 -0.0085224853120696893 -0.014322092119616849 0 -0.0082525929090862815 -0.014712241431755601 0 -0.0080737962119632467 -0.014063564751724504 0 -0.011875873842646727 -0.018931359165671523 0 -0.012888051022387933 -0.025160996542190246 0 -0.0087589422381062279 -0.014652967913676923 0 -0.0082525929090862815 -0.014712241431755601 0 -0.0090217905871316176 -0.015256401985403935 0 -0.011875873842646727 -0.018931359165671523 0 -0.011065246496465156 -0.019175107489275436 0 -0.011871478473185844 -0.021955872170420363 0 -0.013251749260911726 -0.022926637661296462 0 -0.0124052889742165 -0.023689854710724319 0 -0.0092439088797462172 -0.015037461208913045 0 -0.0095280401346030837 -0.014603308026706136 0 -0.0094470370596981233 -0.015338595768021882 0 -0.0092372481467707622 -0.014721915984604783 0 -0.0092439088797462172 -0.015037461208913045 0 -0.0095280401346030837 -0.014603308026706136 0 -0.0092372481467707622 -0.014721915984604783 0 -0.0090362388680071699 -0.0149613357280616 0 -0.0092439088797462172 -0.015037461208913045 0 -0.0090442287028151963 -0.014578003265424492 0 -0.0087589422381062279 -0.014652967913676923 0 -0.0090362388680071699 -0.0149613357280616 0 -0.0087589422381062279 -0.014652967913676923 0 -0.0090362388680071699 -0.0149613357280616 0 -0.0090217905871316176 -0.015256401985403935 0 -0.0090442287028151963 -0.014578003265424492 0 -0.0092372481467707622 -0.014721915984604783 0 -0.0090362388680071699 -0.0149613357280616 0 -0.0090362388680071699 -0.0149613357280616 0 -0.009007154293748881 -0.01525181592424869 0 -0.0092439088797462172 -0.015037461208913045 0 -0.010462385186172521 -0.015759805717579047 0 -0.011065246496465156 -0.019175107489275436 0 -0.009007154293748881 -0.01525181592424869 0 -0.0092439088797462172 -0.015037461208913045 0 -0.0092222284802002917 -0.015347231446157015 0 -0.0092439088797462172 -0.015037461208913045 0 -0.0094470370596981233 -0.015338595768021882 0 -0.0092222284802002917 -0.015347231446157015 0 -0.001282691107494024 -0.012349452543091654 0 -0.0012178524571770817 -0.012465730101342585 0 -0.001068034677691274 -0.012241024425511593 0 -0.001282691107494024 -0.012349452543091654 0 -0.001068034677691274 -0.012241024425511593 0 -0.0014094051468901364 -0.012241212042027478 0 -0.001282691107494024 -0.012349452543091654 0 -0.001364228493820181 -0.012465525932701518 0 -0.0014094051468901364 -0.012241212042027478 0 -0.0054634154493219348 -0.013637352143451442 0 -0.0056070316089723406 -0.014574693492516723 0 -0.001282691107494024 -0.012349452543091654 0 -0.001364228493820181 -0.012465525932701518 0 -0.0012178524571770817 -0.012465730101342585 0 0.0059332149219148127 -0.0099603826618071389 0 0.00645187348825455 -0.0098384556354904548 0 0.0061089391353508441 -0.010296531542788553 0 0.0031321364136934243 -0.010470613796580897 0 0.0017853320775108007 -0.012982236507544537 0 0.0057970631470310105 -0.010212840610075128 0 0.0059332149219148127 -0.0099603826618071389 0 0.0061089391353508441 -0.010296531542788553 0 0.0059332149219148127 -0.0099603826618071389 0 0.0060225432054587221 -0.0094708643776329603 0 0.00645187348825455 -0.0098384556354904548 0 0.0058064346040378693 -0.0097797103730566312 0 0.0059332149219148127 -0.0099603826618071389 0 0.0060225432054587221 -0.0094708643776329603 0 0.0060225432054587221 -0.0094708643776329603 0 0.006428167783023556 -0.0092833582460308279 0 0.00645187348825455 -0.0098384556354904548 0 0.0069193319344578886 -0.0090564272875251119 0 0.006428167783023556 -0.0092833582460308279 0 0.00645187348825455 -0.0098384556354904548 0 -0.0013442590279863075 -0.01264894852712768 0 -0.001364228493820181 -0.012465525932701518 0 -0.0012178524571770817 -0.012465730101342585 0 -0.0015786230323012254 -0.011520241560557882 0 -0.0054634154493219348 -0.013637352143451442 0 -0.0015786230323012254 -0.011520241560557882 0 0.0031321364136934243 -0.010470613796580897 0 -0.0095775057544082078 -0.013860883643725791 0 -0.0092374056913678698 -0.014294750429624728 0 -0.0095280401346030837 -0.014603308026706136 0 -0.012615829487737545 -0.023949973733378069 0 -0.012499243468043467 -0.023964991977220875 0 -0.012558278076505303 -0.024034703038026864 0 -0.012756652623100646 -0.013860342578718021 0 -0.012394506624450083 -0.015126545709353656 0 -0.012499243468043467 -0.023964991977220875 0 -0.012558278076505303 -0.024034703038026864 0 -0.01245543970556783 -0.023928316092642839 0 -0.012741379297646308 -0.023936038678215879 0 -0.012615829487737545 -0.023949973733378069 0 -0.012558278076505303 -0.024034703038026864 0 -0.012615829487737545 -0.023949973733378069 0 -0.012536261962663805 -0.023956802595449824 0 -0.012499243468043467 -0.023964991977220875 0 -0.012615829487737545 -0.023949973733378069 0 -0.012536261962663805 -0.023956802595449824 0 -0.012592869009418944 -0.02392331259264344 0 -0.012536261962663805 -0.023956802595449824 0 -0.012470783167304586 -0.023966209110392718 0 -0.012464323206974961 -0.023968363719736766 0 -0.012470783167304586 -0.023966209110392718 0 -0.012440174006901152 -0.023992279238396808 0 -0.012464323206974961 -0.023968363719736766 0 -0.012536261962663805 -0.023956802595449824 0 -0.012470783167304586 -0.023966209110392718 0 -0.012499243468043467 -0.023964991977220875 0 -0.012633951783494662 -0.008221660845463925 0 -0.012500920634393221 -0.0082752253129033913 0 -0.012653932997424537 -0.008363440981702764 0 -0.01272449036214513 -0.0082229383970054658 0 -0.012633951783494662 -0.008221660845463925 0 -0.012653932997424537 -0.008363440981702764 0 -0.012854625822488443 -0.0083146437300508948 0 -0.011848806634875413 -0.0089012008445528146 0 -0.012612217480287378 -0.0093789441090948254 0 -0.013019854873472514 -0.0080847585712903024 0 -0.012854625822488443 -0.0083146437300508948 0 -0.012612217480287378 -0.0093789441090948254 0 -0.013061468843595219 -0.0070779698754429169 0 -0.012756652623100646 -0.013860342578718021 0 -0.012070437878174781 -0.0075682167628821533 0 -0.012394506624450083 -0.015126545709353656 0 -0.011169080610182871 -0.0089582376482463567 0 -0.010023578677233899 -0.011184042084750365 0 -0.011109061132393603 -0.010885947392786701 0 -0.012854625822488443 -0.0083146437300508948 0 -0.01272449036214513 -0.0082229383970054658 0 -0.012653932997424537 -0.008363440981702764 0 -0.012474573670400415 -0.0238867678190142 0 -0.012728182540815203 -0.024113006269771049 0 -0.012537145753008848 -0.024110382951835936 0 -0.012499243468043467 -0.023964991977220875 0 -0.01245543970556783 -0.023928316092642839 0 -0.012464565217909753 -0.023921272609497911 0 -0.012394506624450083 -0.015126545709353656 0 -0.011950381880126431 -0.016660611281169906 0 -0.012464565217909753 -0.023921272609497911 0 -0.012462926416253923 -0.02396912600093988 0 -0.012482162281351211 -0.024019288403962873 0 -0.012470783167304586 -0.023966209110392718 0 -0.012499243468043467 -0.023964991977220875 0 -0.012464565217909753 -0.023921272609497911 0 -0.012474573670400415 -0.0238867678190142 0 -0.012464565217909753 -0.023921272609497911 0 -0.012482162281351211 -0.024019288403962873 0 -0.012470783167304586 -0.023966209110392718 0 -0.012464565217909753 -0.023921272609497911 0 -0.012462926416253923 -0.02396912600093988 0 -0.012470783167304586 -0.023966209110392718 0 -0.012462926416253923 -0.02396912600093988 0 -0.012440174006901152 -0.023992279238396808 0 -0.012462926416253923 -0.02396912600093988 0 -0.012482162281351211 -0.024019288403962873 0 -0.012440174006901152 -0.023992279238396808 0 -0.012474573670400415 -0.0238867678190142 0 -0.012482162281351211 -0.024019288403962873 0 -0.012537145753008848 -0.024110382951835936 0 -0.010023578677233899 -0.011184042084750365 0 -0.011109061132393603 -0.010885947392786701 0 -0.011743356836508441 -0.012451535077177707 0 -0.012394506624450083 -0.015126545709353656 0 -0.012418380969666557 -0.018642929980335964 0 -0.011812920131363536 -0.011333253729475959 0 -0.011109061132393603 -0.010885947392786701 0 -0.011743356836508441 -0.012451535077177707 0 -0.011812920131363536 -0.011333253729475959 0 -0.011109061132393603 -0.010885947392786701 0 -0.011708282191144658 -0.010239493365794636 0 -0.011169080610182871 -0.0089582376482463567 0 -0.011109061132393603 -0.010885947392786701 0 -0.011708282191144658 -0.010239493365794636 0 -0.011890882224689344 -0.0089424692333193983 0 -0.011708282191144658 -0.010239493365794636 0 -0.012883956704068809 -0.011184028277332567 0 -0.012012233003727895 -0.0090122959289243645 0 -0.012132616494655151 -0.010178144378944962 0 -0.011890882224689344 -0.0089424692333193983 0 -0.01199811559614768 -0.0089706737950802362 0 -0.011937927204689214 -0.009108089804339985 0 -0.01201372959899699 -0.0090655245683588549 0 -0.01199811559614768 -0.0089706737950802362 0 -0.011937927204689214 -0.009108089804339985 0 -0.01201372959899699 -0.0090655245683588549 0 -0.011937927204689214 -0.009108089804339985 0 -0.011963241550278626 -0.0092515723626001179 0 -0.012883956704068809 -0.011184028277332567 0 -0.013234237046486125 -0.01229129487661257 0 -0.011743356836508441 -0.012451535077177707 0 -0.011812920131363536 -0.011333253729475959 0 -0.011708282191144658 -0.010239493365794636 0 -0.012883956704068809 -0.011184028277332567 0 -0.011812920131363536 -0.011333253729475959 0 -0.012883956704068809 -0.011184028277332567 0 -0.011743356836508441 -0.012451535077177707 0 -0.012132616494655151 -0.010178144378944962 0 -0.01077646366653133 -0.012012511076989439 0 -0.012970625144455636 -0.024383296242151221 0 -0.012742899967259738 -0.02449280422573177 0 -0.012728182540815203 -0.024113006269771049 0 -0.011875873842646727 -0.018931359165671523 0 -0.012418380969666557 -0.018642929980335964 0 -0.013661780507668832 -0.013851433426238527 0 -0.013234237046486125 -0.01229129487661257 0 -0.011743356836508441 -0.012451535077177707 0 -0.011875873842646727 -0.018931359165671523 0 -0.01077646366653133 -0.012012511076989439 0 -0.012970625144455636 -0.024383296242151221 0 -0.012742899967259738 -0.02449280422573177 0 -0.012821497014486852 -0.024694253808272459 0 -0.012970625144455636 -0.024383296242151221 0 -0.012821497014486852 -0.024694253808272459 0 -0.012959896012496539 -0.024789846798455143 0 -0.012742899967259738 -0.02449280422573177 0 -0.012546156700052083 -0.02462410462293595 0 -0.01267958291393629 -0.02480106800679879 0 -0.012742899967259738 -0.02449280422573177 0 -0.012593448935727865 -0.024332506419665601 0 -0.012546156700052083 -0.02462410462293595 0 -0.012742899967259738 -0.02449280422573177 0 -0.012593448935727865 -0.024332506419665601 0 -0.012728182540815203 -0.024113006269771049 0 -0.012593448935727865 -0.024332506419665601 0 -0.012728182540815203 -0.024113006269771049 0 -0.012537145753008848 -0.024110382951835936 0 -0.012482162281351211 -0.024019288403962873 0 -0.012537145753008848 -0.024110382951835936 0 -0.012446263158646977 -0.024091072857512979 0 -0.012537145753008848 -0.024110382951835936 0 -0.012446263158646977 -0.024091072857512979 0 -0.012485304418960336 -0.024234423550326331 0 -0.012482162281351211 -0.024019288403962873 0 -0.012440174006901152 -0.023992279238396808 0 -0.012446263158646977 -0.024091072857512979 0 -0.012440174006901152 -0.023992279238396808 0 -0.012446263158646977 -0.024091072857512979 0 -0.012395812333026704 -0.023988378128095251 0 -0.012485304418960336 -0.024234423550326331 0 -0.012451678509005169 -0.024411729295819133 0 -0.012370513038653582 -0.024242096478452126 0 -0.012446263158646977 -0.024091072857512979 0 -0.012485304418960336 -0.024234423550326331 0 -0.012370513038653582 -0.024242096478452126 0 -0.012593448935727865 -0.024332506419665601 0 -0.012537145753008848 -0.024110382951835936 0 -0.012485304418960336 -0.024234423550326331 0 -0.012593448935727865 -0.024332506419665601 0 -0.012546156700052083 -0.02462410462293595 0 -0.012451678509005169 -0.024411729295819133 0 -0.012593448935727865 -0.024332506419665601 0 -0.012485304418960336 -0.024234423550326331 0 -0.012451678509005169 -0.024411729295819133 0 -0.012546156700052083 -0.02462410462293595 0 -0.012451678509005169 -0.024411729295819133 0 -0.012343850829995886 -0.024572492164709095 0 -0.012451678509005169 -0.024411729295819133 0 -0.012319959247509175 -0.024406207304122445 0 -0.012343850829995886 -0.024572492164709095 0 -0.012451678509005169 -0.024411729295819133 0 -0.012319959247509175 -0.024406207304122445 0 -0.012370513038653582 -0.024242096478452126 0 -0.012702919808601219 -0.024859618868806686 0 -0.012884574652096864 -0.024203937566984059 0 -0.012319959247509175 -0.024406207304122445 0 -0.012242281173630786 -0.024302175353496422 0 -0.012370513038653582 -0.024242096478452126 0 -0.011995520087343121 -0.024686909399069572 0 -0.012186693302745742 -0.024460102258200573 0 -0.01220092512597333 -0.02413823913050989 0 -0.012319959247509175 -0.024406207304122445 0 -0.012343850829995886 -0.024572492164709095 0 -0.012186693302745742 -0.024460102258200573 0 -0.012319959247509175 -0.024406207304122445 0 -0.012186693302745742 -0.024460102258200573 0 -0.012242281173630786 -0.024302175353496422 0 -0.012343850829995886 -0.024572492164709095 0 -0.012186693302745742 -0.024460102258200573 0 -0.012192750194857008 -0.024680157635736808 0 -0.011995520087343121 -0.024686909399069572 0 -0.012186693302745742 -0.024460102258200573 0 -0.012192750194857008 -0.024680157635736808 0 -0.012721499162493016 -0.023797410971628186 0 -0.012618222367789509 -0.023815657471886891 0 -0.012545773438028733 -0.023808874847173988 0 -0.012721499162493016 -0.023797410971628186 0 -0.012618222367789509 -0.023815657471886891 0 -0.01267065142269898 -0.023838597183190837 0 -0.012618222367789509 -0.023815657471886891 0 -0.012545773438028733 -0.023808874847173988 0 -0.012569234266495555 -0.023855741676439935 0 -0.012186693302745742 -0.024460102258200573 0 -0.012242281173630786 -0.024302175353496422 0 -0.01220092512597333 -0.02413823913050989 0 -0.012242281173630786 -0.024302175353496422 0 -0.012370513038653582 -0.024242096478452126 0 -0.012295359921541361 -0.024208060330988612 0 -0.012370513038653582 -0.024242096478452126 0 -0.012353499327953604 -0.024134596514168119 0 -0.012295359921541361 -0.024208060330988612 0 -0.012446263158646977 -0.024091072857512979 0 -0.012370513038653582 -0.024242096478452126 0 -0.012353499327953604 -0.024134596514168119 0 -0.012242281173630786 -0.024302175353496422 0 -0.012295359921541361 -0.024208060330988612 0 -0.01220092512597333 -0.02413823913050989 0 -0.012353499327953604 -0.024134596514168119 0 -0.012295359921541361 -0.024208060330988612 0 -0.01220092512597333 -0.02413823913050989 0 -0.012353499327953604 -0.024134596514168119 0 -0.01220092512597333 -0.02413823913050989 0 -0.012395812333026704 -0.023988378128095251 0 -0.012541017812137109 -0.023778024813232809 0 -0.012516423944941277 -0.023866362240475572 0 -0.012395812333026704 -0.023988378128095251 0 -0.012884574652096864 -0.024203937566984059 0 -0.012877141118312382 -0.024172491368519695 0 -0.012884574652096864 -0.024203937566984059 0 -0.012658269638460827 -0.024199066426479638 0 -0.012516423944941277 -0.023866362240475572 0 -0.012395812333026704 -0.023988378128095251 0 -0.012479171367754839 -0.023944651257919385 0 -0.012516423944941277 -0.023866362240475572 0 -0.012479171367754839 -0.023944651257919385 0 -0.012539679597817169 -0.023930488903845061 0 -0.012446263158646977 -0.024091072857512979 0 -0.012353499327953604 -0.024134596514168119 0 -0.012395812333026704 -0.023988378128095251 0 -0.012440174006901152 -0.023992279238396808 0 -0.012395812333026704 -0.023988378128095251 0 -0.012464323206974961 -0.023968363719736766 0 -0.012536261962663805 -0.023956802595449824 0 -0.012464323206974961 -0.023968363719736766 0 -0.012539679597817169 -0.023930488903845061 0 -0.012479171367754839 -0.023944651257919385 0 -0.012464323206974961 -0.023968363719736766 0 -0.012539679597817169 -0.023930488903845061 0 -0.012395812333026704 -0.023988378128095251 0 -0.012479171367754839 -0.023944651257919385 0 -0.012464323206974961 -0.023968363719736766 0 -0.012536261962663805 -0.023956802595449824 0 -0.012592869009418944 -0.02392331259264344 0 -0.012539679597817169 -0.023930488903845061 0 -0.012615829487737545 -0.023949973733378069 0 -0.012592869009418944 -0.02392331259264344 0 -0.012666573372053958 -0.023883576297811255 0 -0.012592869009418944 -0.02392331259264344 0 -0.012539679597817169 -0.023930488903845061 0 -0.01261073979193884 -0.023867456266135175 0 -0.012592869009418944 -0.02392331259264344 0 -0.012666573372053958 -0.023883576297811255 0 -0.01261073979193884 -0.023867456266135175 0 -0.012666573372053958 -0.023883576297811255 0 -0.01267065142269898 -0.023838597183190837 0 -0.01261073979193884 -0.023867456266135175 0 -0.012618222367789509 -0.023815657471886891 0 -0.01267065142269898 -0.023838597183190837 0 -0.01261073979193884 -0.023867456266135175 0 -0.012618222367789509 -0.023815657471886891 0 -0.012569234266495555 -0.023855741676439935 0 -0.01261073979193884 -0.023867456266135175 0 -0.012545773438028733 -0.023808874847173988 0 -0.012516423944941277 -0.023866362240475572 0 -0.012569234266495555 -0.023855741676439935 0 -0.012539679597817169 -0.023930488903845061 0 -0.012569234266495555 -0.023855741676439935 0 -0.01261073979193884 -0.023867456266135175 0 -0.012516423944941277 -0.023866362240475572 0 -0.012539679597817169 -0.023930488903845061 0 -0.012569234266495555 -0.023855741676439935 0 -0.012294143399516934 -0.025232580673850299 0 -0.012109140790418334 -0.025006903613632902 0 -0.012320121009006346 -0.024818963700481096 0 -0.011995520087343121 -0.024686909399069572 0 -0.012109140790418334 -0.025006903613632902 0 -0.012192750194857008 -0.024680157635736808 0 -0.012109140790418334 -0.025006903613632902 0 -0.012192750194857008 -0.024680157635736808 0 -0.012320121009006346 -0.024818963700481096 0 -0.012343850829995886 -0.024572492164709095 0 -0.012192750194857008 -0.024680157635736808 0 -0.012320121009006346 -0.024818963700481096 0 -0.012294143399516934 -0.025232580673850299 0 -0.012320121009006346 -0.024818963700481096 0 -0.012494688723339411 -0.024919331424664366 0 -0.012546156700052083 -0.02462410462293595 0 -0.012343850829995886 -0.024572492164709095 0 -0.012320121009006346 -0.024818963700481096 0 -0.012546156700052083 -0.02462410462293595 0 -0.012320121009006346 -0.024818963700481096 0 -0.012494688723339411 -0.024919331424664366 0 -0.012294143399516934 -0.025232580673850299 0 -0.012494688723339411 -0.024919331424664366 0 -0.012584268662750534 -0.025112125728521759 0 -0.012584268662750534 -0.025112125728521759 0 -0.01267958291393629 -0.02480106800679879 0 -0.012766600042996767 -0.024906375863975927 0 -0.012494688723339411 -0.024919331424664366 0 -0.012584268662750534 -0.025112125728521759 0 -0.01267958291393629 -0.02480106800679879 0 -0.012546156700052083 -0.02462410462293595 0 -0.012494688723339411 -0.024919331424664366 0 -0.01267958291393629 -0.02480106800679879 0 -0.012742899967259738 -0.02449280422573177 0 -0.01267958291393629 -0.02480106800679879 0 -0.012821497014486852 -0.024694253808272459 0 -0.01267958291393629 -0.02480106800679879 0 -0.012821497014486852 -0.024694253808272459 0 -0.012766600042996767 -0.024906375863975927 0 -0.012821497014486852 -0.024694253808272459 0 -0.012766600042996767 -0.024906375863975927 0 -0.012959896012496539 -0.024789846798455143 0 -0.012584268662750534 -0.025112125728521759 0 -0.012766600042996767 -0.024906375863975927 0 -0.012707972876837826 -0.02509081859705841 0 -0.012766600042996767 -0.024906375863975927 0 -0.012707972876837826 -0.02509081859705841 0 -0.012835144481687148 -0.024943733608579131 0 -0.012707972876837826 -0.02509081859705841 0 -0.012835144481687148 -0.024943733608579131 0 -0.012791916605720823 -0.025057622771442415 0 -0.012707972876837826 -0.02509081859705841 0 -0.012711175723932775 -0.02523679120227627 0 -0.012791916605720823 -0.025057622771442415 0 -0.012707972876837826 -0.02509081859705841 0 -0.012611180476043163 -0.025228168701850667 0 -0.012711175723932775 -0.02523679120227627 0 -0.012711175723932775 -0.02523679120227627 0 -0.012627035280058126 -0.025330869113730368 0 -0.012712346557278953 -0.025359036830692742 0 -0.012627035280058126 -0.025330869113730368 0 -0.012712346557278953 -0.025359036830692742 0 -0.012636177789524519 -0.025406384017399249 0 -0.012611180476043163 -0.025228168701850667 0 -0.012711175723932775 -0.02523679120227627 0 -0.012627035280058126 -0.025330869113730368 0 -0.012611180476043163 -0.025228168701850667 0 -0.012627035280058126 -0.025330869113730368 0 -0.012504085462676333 -0.025316566042030583 0 -0.012627035280058126 -0.025330869113730368 0 -0.012504085462676333 -0.025316566042030583 0 -0.012548546302168158 -0.025445272118407233 0 -0.012584268662750534 -0.025112125728521759 0 -0.012611180476043163 -0.025228168701850667 0 -0.012504085462676333 -0.025316566042030583 0 -0.012584268662750534 -0.025112125728521759 0 -0.012707972876837826 -0.02509081859705841 0 -0.012611180476043163 -0.025228168701850667 0 -0.012294143399516934 -0.025232580673850299 0 -0.012584268662750534 -0.025112125728521759 0 -0.012458099414376794 -0.025664842464005303 0 -0.012584268662750534 -0.025112125728521759 0 -0.012504085462676333 -0.025316566042030583 0 -0.012356581267543717 -0.025276881463671505 0 -0.012571365003295556 -0.02516042339268373 0 -0.012400294684811687 -0.025473411153105432 0 -0.012504085462676333 -0.025316566042030583 0 -0.012356581267543717 -0.025276881463671505 0 -0.012363939149000426 -0.025428439938368644 0 -0.012400294684811687 -0.025473411153105432 0 -0.01222082704754103 -0.025794244452866943 0 -0.012356581267543717 -0.025276881463671505 0 -0.012249409448203078 -0.025466194392505574 0 -0.012363939149000426 -0.025428439938368644 0 -0.012108663877825762 -0.025751319447557708 0 -0.012458099414376794 -0.025664842464005303 0 -0.012199177052552397 -0.026142646783474038 0 -0.012108663877825762 -0.025751319447557708 0 -0.012294143399516934 -0.025232580673850299 0 -0.012458099414376794 -0.025664842464005303 0 -0.0037648480491893556 -0.019349271866772367 0 -0.0033639703849211947 -0.019451437492460949 0 -0.0040919926955285254 -0.01989647000017835 0 -0.0037648480491893556 -0.019349271866772367 0 -0.0040919926955285254 -0.01989647000017835 0 -0.0041466936305875257 -0.019147169998692145 0 -0.0029077772551904537 -0.019175545695021352 0 -0.0034476843462019784 -0.01931941783805332 0 -0.0033484395543782004 -0.019454173277658412 0 -0.0037648480491893556 -0.019349271866772367 0 -0.0034476843462019784 -0.01931941783805332 0 -0.0033639703849211947 -0.019451437492460949 0 -0.00065492732626671658 -0.017092948055652452 0 -0.00017670641198173136 -0.015438509180740316 0 0.0025396160236745738 -0.016118740832987411 0 0.00019196253043663386 -0.01223635113004286 0 0.00035337677695352688 -0.015141608638975153 0 0.00019196253043663386 -0.01223635113004286 0 0.00035337677695352688 -0.015141608638975153 0 -0.0041493044146192906 -0.015080516936827373 0 0.00035337677695352688 -0.015141608638975153 0 -0.00014539924411014808 -0.016072170207464587 0 -0.0041493044146192906 -0.015080516936827373 0 0.0049144962814777664 -0.012719936460107514 0 -0.00017670641198173136 -0.015438509180740316 0 0.0025396160236745738 -0.016118740832987411 0 0.00035337677695352688 -0.015141608638975153 0 -0.00012884645147019476 -0.016045343357168444 0 0.0049144962814777664 -0.012719936460107514 0 0.0017853320775108007 -0.012982236507544537 0 0.00072941277522640827 -0.014811039737550323 0 0.0017853320775108007 -0.012982236507544537 0 0.0017853320775108007 -0.012982236507544537 0 -0.0056070316089723406 -0.014574693492516723 0 -0.00014539924411014808 -0.016072170207464587 0 -0.0040663356173340961 -0.015985425670579811 0 -0.0041493044146192906 -0.015080516936827373 0 -0.00017670641198173136 -0.015438509180740316 0 -0.0068409806466939909 -0.01835555472696606 0 -0.0056070316089723406 -0.014574693492516723 0 -0.0068409806466939909 -0.01835555472696606 0 -0.012487246712683737 -0.020284308841304707 0 -0.013361107645908763 -0.020867422993235789 0 -0.012400829399381051 -0.022173006586464684 0 -0.009007154293748881 -0.01525181592424869 0 -0.0093898480231295271 -0.015536466449346871 0 -0.0092222284802002917 -0.015347231446157015 0 -0.0056070316089723406 -0.014574693492516723 0 -0.0080459459861681737 -0.014725685674082289 0 -0.011065246496465156 -0.019175107489275436 0 -0.012885941522318015 -0.023800351426633191 0 -0.011065246496465156 -0.019175107489275436 0 -0.0068409806466939909 -0.01835555472696606 0 -0.0094013564382173648 -0.015350336546660003 0 -0.0093898480231295271 -0.015536466449346871 0 -0.0092222284802002917 -0.015347231446157015 0 -0.013251749260911726 -0.022926637661296462 0 -0.0124052889742165 -0.023689854710724319 0 -0.013063433141151189 -0.024471016125998769 0 -0.012959896012496539 -0.024789846798455143 0 -0.012835144481687148 -0.024943733608579131 0 -0.012909222427665982 -0.024930683759304271 0 -0.012766600042996767 -0.024906375863975927 0 -0.012959896012496539 -0.024789846798455143 0 -0.012835144481687148 -0.024943733608579131 0 -0.0124052889742165 -0.023689854710724319 0 -0.013063433141151189 -0.024471016125998769 0 -0.012909222427665982 -0.024930683759304271 0 -0.012888051022387933 -0.025160996542190246 0 -0.012791185754914263 -0.024499256201593669 0 -0.013361107645908763 -0.020867422993235789 0 -0.012400829399381051 -0.022173006586464684 0 -0.013213971149099222 -0.023043228518390173 0 -0.0068409806466939909 -0.01835555472696606 0 -0.0090692590506067945 -0.021435644616063315 0 -0.012885941522318015 -0.023800351426633191 0 -0.012652603649028822 -0.024487292732963219 0 -0.012400829399381051 -0.022173006586464684 0 -0.013213971149099222 -0.023043228518390173 0 -0.012425081347940473 -0.023920913436345524 0 -0.013063433141151189 -0.024471016125998769 0 -0.012891865860110379 -0.0253305648651093 0 -0.012909222427665982 -0.024930683759304271 0 -0.012711175723932775 -0.02523679120227627 0 -0.012891865860110379 -0.0253305648651093 0 -0.012791916605720823 -0.025057622771442415 0 -0.012835144481687148 -0.024943733608579131 0 -0.012791916605720823 -0.025057622771442415 0 -0.012909222427665982 -0.024930683759304271 0 -0.012891865860110379 -0.0253305648651093 0 -0.012791916605720823 -0.025057622771442415 0 -0.012909222427665982 -0.024930683759304271 0 -0.012711175723932775 -0.02523679120227627 0 -0.012891865860110379 -0.0253305648651093 0 -0.012712346557278953 -0.025359036830692742 0 -0.012891865860110379 -0.0253305648651093 0 -0.012712346557278953 -0.025359036830692742 0 -0.012637317867812423 -0.025346505501263928 0 -0.012652603649028822 -0.024487292732963219 0 -0.012635259141285193 -0.025315182008174095 0 -0.013213971149099222 -0.023043228518390173 0 -0.012425081347940473 -0.023920913436345524 0 -0.013098701189930473 -0.024905666976009412 0 -0.012425081347940473 -0.023920913436345524 0 -0.013098701189930473 -0.024905666976009412 0 -0.012637317867812423 -0.025346505501263928 0 -0.0090692590506067945 -0.021435644616063315 0 -0.0074806313840674182 -0.022001968074764483 0 -0.0072577258152499617 -0.023596381059861487 0 -0.006335026898398417 -0.023872277548638882 0 -0.0068369151254022214 -0.02338896559679822 0 -0.0042330989117309601 -0.018433001419316752 0 -0.0037689037844960637 -0.018940817443700405 0 -0.0036372506098461071 -0.018580740296002977 0 -0.0074806313840674182 -0.022001968074764483 0 -0.0045892235412921551 -0.022303514825414681 0 -0.0045892235412921551 -0.022303514825414681 0 -0.0065218097848217371 -0.024592906522359691 0 -0.0041466936305875257 -0.019147169998692145 0 -0.0042330989117309601 -0.018433001419316752 0 -0.0037689037844960637 -0.018940817443700405 0 -0.0037648480491893556 -0.019349271866772367 0 -0.0034476843462019784 -0.01931941783805332 0 -0.0037689037844960637 -0.018940817443700405 0 -0.0037648480491893556 -0.019349271866772367 0 -0.0041466936305875257 -0.019147169998692145 0 -0.0037689037844960637 -0.018940817443700405 0 -0.0029077772551904537 -0.019175545695021352 0 -0.0034476843462019784 -0.01931941783805332 0 -0.0032834342204313386 -0.018868624693648001 0 -0.0037689037844960637 -0.018940817443700405 0 -0.0032834342204313386 -0.018868624693648001 0 -0.0036372506098461071 -0.018580740296002977 0 -0.0034476843462019784 -0.01931941783805332 0 -0.0037689037844960637 -0.018940817443700405 0 -0.0032834342204313386 -0.018868624693648001 0 -0.0039600020414567311 -0.025456375045656836 0 -0.0065855728780010838 -0.027794797953049885 0 -0.0050081592936770608 -0.026340590583638513 0 -0.0059351871939562614 -0.026068972084659144 0 -0.0062971567060589907 -0.025280086224010324 0 -0.0019454245650646481 -0.021265986137290773 0 -0.0022619207604342353 -0.021701440988214787 0 -0.0030563673065015702 -0.020930879497797494 0 -0.0039600020414567311 -0.025456375045656836 0 -0.0045892235412921551 -0.022303514825414681 0 -0.0027917077126427816 -0.020184624472475595 0 -0.0045892235412921551 -0.022303514825414681 0 -0.0057980062215761347 -0.029960717283676393 0 -0.0068399015187905832 -0.029189635340230679 0 -0.0058476066706982148 -0.028903057032666435 0 -0.0069911124584591021 -0.028573444245005009 0 -0.0068399015187905832 -0.029189635340230679 0 -0.0058476066706982148 -0.028903057032666435 0 -0.0069133091081375886 -0.028602832414640671 0 -0.0058731740562535792 -0.028957802848023972 0 -0.0063674033850956912 -0.028665032348353221 0 -0.0058618508613446302 -0.02902856930871112 0 -0.0058960764547250615 -0.028327433620807016 0 -0.0063674033850956912 -0.028665032348353221 0 -0.0065062249486027646 -0.028168409320404111 0 -0.0058960764547250615 -0.028327433620807016 0 -0.0063674033850956912 -0.028665032348353221 0 -0.0069911124584591021 -0.028573444245005009 0 -0.0058618508613446302 -0.02902856930871112 0 -0.0063823832369937312 -0.028575732464729633 0 -0.0065746426699391028 -0.027994401386727649 0 -0.0069911124584591021 -0.028573444245005009 0 -0.0068399015187905832 -0.029189635340230679 0 -0.0077789829127867293 -0.028522173883713982 0 -0.0069911124584591021 -0.028573444245005009 0 -0.0065895214304030588 -0.027834338696944287 0 -0.0073392149015575059 -0.027799226532081792 0 -0.0063674033850956912 -0.028665032348353221 0 -0.0069911124584591021 -0.028573444245005009 0 -0.0065895214304030588 -0.027834338696944287 0 -0.0062971567060589907 -0.025280086224010324 0 -0.0065878013601552892 -0.025445498798118284 0 -0.0072492065585707515 -0.024813125473264919 0 -0.0065855728780010838 -0.027794797953049885 0 -0.0086364599398532447 -0.026075083006716362 0 -0.0059351871939562614 -0.026068972084659144 0 -0.0062971567060589907 -0.025280086224010324 0 -0.0065878013601552892 -0.025445498798118284 0 -0.0072577258152499617 -0.023596381059861487 0 -0.0068369151254022214 -0.02338896559679822 0 -0.0073367876135354559 -0.022911884892725009 0 -0.0062971567060589907 -0.025280086224010324 0 -0.0072785313562571891 -0.024471370935867633 0 -0.0072492065585707515 -0.024813125473264919 0 -0.0074806313840674182 -0.022001968074764483 0 -0.0095657757845334195 -0.024904315145817115 0 -0.013098701189930473 -0.024905666976009412 0 -0.012637317867812423 -0.025346505501263928 0 -0.012931592700854611 -0.025530479050549636 0 -0.012637317867812423 -0.025346505501263928 0 -0.012931592700854611 -0.025530479050549636 0 -0.012737277735437513 -0.02551982313016923 0 -0.0065218097848217371 -0.024592906522359691 0 -0.0095657757845334195 -0.024904315145817115 0 -0.012712346557278953 -0.025359036830692742 0 -0.012643445105222815 -0.025409702777433495 0 -0.012636177789524519 -0.025406384017399249 0 -0.012712346557278953 -0.025359036830692742 0 -0.012637317867812423 -0.025346505501263928 0 -0.012643445105222815 -0.025409702777433495 0 -0.012637317867812423 -0.025346505501263928 0 -0.012663190271952795 -0.025476181306475568 0 -0.012643445105222815 -0.025409702777433495 0 -0.012663190271952795 -0.025476181306475568 0 -0.012643445105222815 -0.025409702777433495 0 -0.012639092363714586 -0.025516591714397879 0 -0.012637317867812423 -0.025346505501263928 0 -0.012663190271952795 -0.025476181306475568 0 -0.012737277735437513 -0.02551982313016923 0 -0.012605668489377513 -0.025473955384466763 0 -0.012643445105222815 -0.025409702777433495 0 -0.012636177789524519 -0.025406384017399249 0 -0.012605668489377513 -0.025473955384466763 0 -0.012643445105222815 -0.025409702777433495 0 -0.012639092363714586 -0.025516591714397879 0 -0.012610890026909296 -0.025605019204428862 0 -0.012711240540720621 -0.025594049034819891 0 -0.012565241320018931 -0.025657432934425326 0 -0.012605668489377513 -0.025473955384466763 0 -0.012596304975851229 -0.025550762005513098 0 -0.012639092363714586 -0.025516591714397879 0 -0.012596304975851229 -0.025550762005513098 0 -0.012639092363714586 -0.025516591714397879 0 -0.012658568552159721 -0.025572380698178469 0 -0.012639092363714586 -0.025516591714397879 0 -0.012678591937407975 -0.025540899948617395 0 -0.012658568552159721 -0.025572380698178469 0 -0.012663190271952795 -0.025476181306475568 0 -0.012639092363714586 -0.025516591714397879 0 -0.012678591937407975 -0.025540899948617395 0 -0.012663190271952795 -0.025476181306475568 0 -0.012678591937407975 -0.025540899948617395 0 -0.012737277735437513 -0.02551982313016923 0 -0.012678591937407975 -0.025540899948617395 0 -0.012658568552159721 -0.025572380698178469 0 -0.012714820310221973 -0.025598835250149651 0 -0.012658568552159721 -0.025572380698178469 0 -0.012610890026909296 -0.025605019204428862 0 -0.012711240540720621 -0.025594049034819891 0 -0.012658568552159721 -0.025572380698178469 0 -0.012714820310221973 -0.025598835250149651 0 -0.012711240540720621 -0.025594049034819891 0 -0.012596304975851229 -0.025550762005513098 0 -0.012658568552159721 -0.025572380698178469 0 -0.012610890026909296 -0.025605019204428862 0 -0.0069911124584591021 -0.028573444245005009 0 -0.0077789829127867293 -0.028522173883713982 0 -0.0081019658690416538 -0.028257143470140703 0 -0.0069911124584591021 -0.028573444245005009 0 -0.0081019658690416538 -0.028257143470140703 0 -0.0073392149015575059 -0.027799226532081792 0 -0.0086364599398532447 -0.026075083006716362 0 -0.0095657757845334195 -0.024904315145817115 0 -0.0095657757845334195 -0.024904315145817115 0 -0.01207716496682357 -0.024718175891917098 0 -0.012931592700854611 -0.025530479050549636 0 -0.012737277735437513 -0.02551982313016923 0 -0.012714820310221973 -0.025598835250149651 0 -0.012678591937407975 -0.025540899948617395 0 -0.012737277735437513 -0.02551982313016923 0 -0.012714820310221973 -0.025598835250149651 0 -0.012622456272447628 -0.025613869789483063 0 -0.012605114914109445 -0.025694195600218933 0 -0.012714820310221973 -0.025598835250149651 0 -0.0086364599398532447 -0.026075083006716362 0 -0.0099265256534487069 -0.026638844164248675 0 -0.012622456272447628 -0.025613869789483063 0 -0.012714820310221973 -0.025598835250149651 0 -0.012711240540720621 -0.025594049034819891 0 -0.0080785609173244354 -0.027161635176799034 0 -0.0068592516262632273 -0.02700088978066607 0 -0.0073392149015575059 -0.027799226532081792 0 -0.0081019658690416538 -0.028257143470140703 0 -0.0080785609173244354 -0.027161635176799034 0 -0.0073392149015575059 -0.027799226532081792 0 -0.012711240540720621 -0.025594049034819891 0 -0.012565241320018931 -0.025657432934425326 0 -0.01253288657498847 -0.025734726475500621 0 -0.0099265256534487069 -0.026638844164248675 0 -0.01153013146002368 -0.026386102437054366 0 -0.0081019658690416538 -0.028257143470140703 0 -0.0080785609173244354 -0.027161635176799034 0 -0.009388155543180482 -0.02715945223007744 0 -0.0080785609173244354 -0.027161635176799034 0 -0.0087078253392244755 -0.026622368915109849 0 -0.009388155543180482 -0.02715945223007744 0 -0.0087078253392244755 -0.026622368915109849 0 -0.009388155543180482 -0.02715945223007744 0 -0.0093219610701769599 -0.026095115693770817 0 -0.0080785609173244354 -0.027161635176799034 0 -0.0087078253392244755 -0.026622368915109849 0 -0.0080602539746198916 -0.026009386605293634 0 -0.0080785609173244354 -0.027161635176799034 0 -0.0068592516262632273 -0.02700088978066607 0 -0.0080602539746198916 -0.026009386605293634 0 -0.0071661121058217182 -0.027645213469055234 0 -0.0080564757637414351 -0.026865243141681153 0 -0.0071661121058217182 -0.027645213469055234 0 -0.0074571551557139669 -0.027547685485869517 0 -0.0066802493942127172 -0.027666564225304811 0 -0.0063878556217307984 -0.027431597138375605 0 -0.0068831223883890416 -0.027130697118094287 0 -0.0077848241024582087 -0.027809886968289083 0 -0.007494413092250355 -0.028325002272412639 0 -0.0077335578803651066 -0.027658821567834908 0 -0.0077848241024582087 -0.027809886968289083 0 -0.007494413092250355 -0.028325002272412639 0 -0.0083939537876469 -0.027614895431130011 0 -0.0063878556217307984 -0.027431597138375605 0 -0.0062445568386137254 -0.02785939653488238 0 -0.0057594528135287964 -0.02770001681705396 0 -0.0063878556217307984 -0.027431597138375605 0 -0.0058675670190550784 -0.027098466628224044 0 -0.0057594528135287964 -0.02770001681705396 0 -0.0066802493942127172 -0.027666564225304811 0 -0.0063878556217307984 -0.027431597138375605 0 -0.0062445568386137254 -0.02785939653488238 0 -0.0062445568386137254 -0.02785939653488238 0 -0.0065062249486027646 -0.028168409320404111 0 -0.0058960764547250615 -0.028327433620807016 0 -0.0062445568386137254 -0.02785939653488238 0 -0.0057594528135287964 -0.02770001681705396 0 -0.0058960764547250615 -0.028327433620807016 0 -0.0066802493942127172 -0.027666564225304811 0 -0.0062445568386137254 -0.02785939653488238 0 -0.0065062249486027646 -0.028168409320404111 0 -0.0071661121058217182 -0.027645213469055234 0 -0.0065746426699391028 -0.027994401386727649 0 -0.0068592516262632273 -0.02700088978066607 0 -0.0065895214304030588 -0.027834338696944287 0 -0.0073392149015575059 -0.027799226532081792 0 -0.012306882368186176 -0.025555093890265144 0 -0.012354416036306442 -0.02563830808342513 0 -0.012281163947035743 -0.025648459134110305 0 -0.012230840196827079 -0.025607451813676633 0 -0.012306882368186176 -0.025555093890265144 0 -0.012281163947035743 -0.025648459134110305 0 -0.012306882368186176 -0.025555093890265144 0 -0.012249409448203078 -0.025466194392505574 0 -0.012363939149000426 -0.025428439938368644 0 -0.012306882368186176 -0.025555093890265144 0 -0.012363939149000426 -0.025428439938368644 0 -0.012424138528187549 -0.025493134745766102 0 -0.012504085462676333 -0.025316566042030583 0 -0.012363939149000426 -0.025428439938368644 0 -0.012424138528187549 -0.025493134745766102 0 -0.012306882368186176 -0.025555093890265144 0 -0.012424138528187549 -0.025493134745766102 0 -0.012354416036306442 -0.02563830808342513 0 -0.012478075396145275 -0.025544095207864933 0 -0.012424138528187549 -0.025493134745766102 0 -0.012354416036306442 -0.02563830808342513 0 -0.012478075396145275 -0.025544095207864933 0 -0.012438791563050632 -0.02562759659946777 0 -0.012354416036306442 -0.02563830808342513 0 -0.012504085462676333 -0.025316566042030583 0 -0.012424138528187549 -0.025493134745766102 0 -0.012548546302168158 -0.025445272118407233 0 -0.012478075396145275 -0.025544095207864933 0 -0.012424138528187549 -0.025493134745766102 0 -0.012548546302168158 -0.025445272118407233 0 -0.012627035280058126 -0.025330869113730368 0 -0.012548546302168158 -0.025445272118407233 0 -0.012636177789524519 -0.025406384017399249 0 -0.012605668489377513 -0.025473955384466763 0 -0.012548546302168158 -0.025445272118407233 0 -0.012636177789524519 -0.025406384017399249 0 -0.012605668489377513 -0.025473955384466763 0 -0.012548546302168158 -0.025445272118407233 0 -0.012544735926445704 -0.025530639842236604 0 -0.012605668489377513 -0.025473955384466763 0 -0.012596304975851229 -0.025550762005513098 0 -0.012544735926445704 -0.025530639842236604 0 -0.012478075396145275 -0.025544095207864933 0 -0.012548546302168158 -0.025445272118407233 0 -0.012544735926445704 -0.025530639842236604 0 -0.012478075396145275 -0.025544095207864933 0 -0.012524744051616658 -0.025609981407577965 0 -0.012438791563050632 -0.02562759659946777 0 -0.012478075396145275 -0.025544095207864933 0 -0.012544735926445704 -0.025530639842236604 0 -0.012524744051616658 -0.025609981407577965 0 -0.012596304975851229 -0.025550762005513098 0 -0.012544735926445704 -0.025530639842236604 0 -0.012524744051616658 -0.025609981407577965 0 -0.012596304975851229 -0.025550762005513098 0 -0.012610890026909296 -0.025605019204428862 0 -0.012524744051616658 -0.025609981407577965 0 -0.012479059240176194 -0.02567160983042439 0 -0.012527378168182494 -0.025735733422493016 0 -0.01237649388217809 -0.025704411319910581 0 -0.012524744051616658 -0.025609981407577965 0 -0.012565241320018931 -0.025657432934425326 0 -0.012479059240176194 -0.02567160983042439 0 -0.012610890026909296 -0.025605019204428862 0 -0.012524744051616658 -0.025609981407577965 0 -0.012565241320018931 -0.025657432934425326 0 -0.012524744051616658 -0.025609981407577965 0 -0.012479059240176194 -0.02567160983042439 0 -0.012438791563050632 -0.02562759659946777 0 -0.012565241320018931 -0.025657432934425326 0 -0.012479059240176194 -0.02567160983042439 0 -0.012531625821294258 -0.025707211340053229 0 -0.012565241320018931 -0.025657432934425326 0 -0.012531625821294258 -0.025707211340053229 0 -0.01253288657498847 -0.025734726475500621 0 -0.012479059240176194 -0.02567160983042439 0 -0.012531625821294258 -0.025707211340053229 0 -0.012527378168182494 -0.025735733422493016 0 -0.011634821641241985 -0.02615270762014783 0 -0.01153013146002368 -0.026386102437054366 0 -0.011922146467912413 -0.026094251533614502 0 -0.012219133900188726 -0.025808617272092504 0 -0.011910519666234153 -0.025819902534797615 0 -0.01153013146002368 -0.026386102437054366 0 -0.010597738460705637 -0.025903802624466715 0 -0.01153013146002368 -0.026386102437054366 0 -0.012517236309202017 -0.025599060804348966 0 -0.012289825811411369 -0.02574412193788999 0 -0.01237649388217809 -0.025704411319910581 0 -0.012219133900188726 -0.025808617272092504 0 -0.012527378168182494 -0.025735733422493016 0 -0.01237649388217809 -0.025704411319910581 0 -0.012219133900188726 -0.025808617272092504 0 -0.012289825811411369 -0.02574412193788999 0 -0.01237649388217809 -0.025704411319910581 0 -0.012354416036306442 -0.02563830808342513 0 -0.01237649388217809 -0.025704411319910581 0 -0.012438791563050632 -0.02562759659946777 0 -0.012354416036306442 -0.02563830808342513 0 -0.012479059240176194 -0.02567160983042439 0 -0.01237649388217809 -0.025704411319910581 0 -0.012438791563050632 -0.02562759659946777 0 -0.012354416036306442 -0.02563830808342513 0 -0.012285867943475763 -0.025732824464526929 0 -0.012281163947035743 -0.025648459134110305 0 -0.012289825811411369 -0.02574412193788999 0 -0.012354416036306442 -0.02563830808342513 0 -0.012285867943475763 -0.025732824464526929 0 -0.012289825811411369 -0.02574412193788999 0 -0.012285867943475763 -0.025732824464526929 0 -0.012215685119693577 -0.025773547676012185 0 -0.012286187393327288 -0.025689116589638669 0 -0.012285867943475763 -0.025732824464526929 0 -0.012304216057004502 -0.025730367002701753 0 -0.012285867943475763 -0.025732824464526929 0 -0.012304216057004502 -0.025730367002701753 0 -0.012280614128456739 -0.025754374500291093 0 -0.012286187393327288 -0.025689116589638669 0 -0.012285867943475763 -0.025732824464526929 0 -0.012281163947035743 -0.025648459134110305 0 -0.012458617985529098 -0.02582264016943053 0 -0.012303651824861695 -0.025773692504277603 0 -0.012256821527789846 -0.025706681298775187 0 -0.012303651824861695 -0.025773692504277603 0 -0.012161355852002001 -0.025711908741287509 0 -0.012256821527789846 -0.025706681298775187 0 -0.012344862447231137 -0.025738683288570655 0 -0.012303651824861695 -0.025773692504277603 0 -0.012304216057004502 -0.025730367002701753 0 -0.012303651824861695 -0.025773692504277603 0 -0.012304216057004502 -0.025730367002701753 0 -0.012280614128456739 -0.025754374500291093 0 -0.012285867943475763 -0.025732824464526929 0 -0.012280614128456739 -0.025754374500291093 0 -0.012215685119693577 -0.025773547676012185 0 -0.012303651824861695 -0.025773692504277603 0 -0.012280614128456739 -0.025754374500291093 0 -0.012215685119693577 -0.025773547676012185 0 -0.012303651824861695 -0.025773692504277603 0 -0.012215685119693577 -0.025773547676012185 0 -0.012161355852002001 -0.025711908741287509 0 -0.012215685119693577 -0.025773547676012185 0 -0.012161355852002001 -0.025711908741287509 0 -0.012136687203896298 -0.025728772986693908 0 -0.012161355852002001 -0.025711908741287509 0 -0.012040707533042429 -0.025634181880275799 0 -0.012136687203896298 -0.025728772986693908 0 -0.012040707533042429 -0.025634181880275799 0 -0.012043029347605068 -0.025698261002443806 0 -0.01195526593808431 -0.025602830057734276 0 -0.012040707533042429 -0.025634181880275799 0 -0.012043029347605068 -0.025698261002443806 0 -0.012136687203896298 -0.025728772986693908 0 -0.012043029347605068 -0.025698261002443806 0 -0.012136687203896298 -0.025728772986693908 0 -0.012219133900188726 -0.025808617272092504 0 -0.012043029347605068 -0.025698261002443806 0 -0.012219133900188726 -0.025808617272092504 0 -0.012002626140043214 -0.025734980886877062 0 -0.012289825811411369 -0.02574412193788999 0 -0.012215685119693577 -0.025773547676012185 0 -0.012219133900188726 -0.025808617272092504 0 -0.012215685119693577 -0.025773547676012185 0 -0.012136687203896298 -0.025728772986693908 0 -0.012219133900188726 -0.025808617272092504 0 -0.012219133900188726 -0.025808617272092504 0 -0.012002626140043214 -0.025734980886877062 0 -0.011910519666234153 -0.025819902534797615 0 -0.010597738460705637 -0.025903802624466715 0 -0.010270259779923734 -0.025882434611164001 0 -0.012002626140043214 -0.025734980886877062 0 -0.011910519666234153 -0.025819902534797615 0 -0.011924102689546873 -0.025663168848306439 0 -0.012043029347605068 -0.025698261002443806 0 -0.012002626140043214 -0.025734980886877062 0 -0.011924102689546873 -0.025663168848306439 0 -0.010270259779923734 -0.025882434611164001 0 -0.012428686560648657 -0.025354183446925166 0 -0.012043029347605068 -0.025698261002443806 0 -0.011924102689546873 -0.025663168848306439 0 -0.01195526593808431 -0.025602830057734276 0 -0.011925226615752115 -0.025700467631039357 0 -0.011923953468652977 -0.025687698272803643 0 -0.01195526593808431 -0.025602830057734276 0 -0.010270259779923734 -0.025882434611164001 0 -0.010042376553203787 -0.026267445771998254 0 -0.0094008511462355671 -0.025920693126664188 0 -0.0099612309266579359 -0.025462928290625318 0 -0.010584509515904001 -0.025923536360321669 0 -0.011923953468652977 -0.025687698272803643 0 -0.011951035288747374 -0.025542636462828391 0 -0.01195526593808431 -0.025602830057734276 0 -0.010042376553203787 -0.026267445771998254 0 -0.011396601305659681 -0.025680077260681416 0 -0.0094604312390133734 -0.026827766753029676 0 -0.0094008511462355671 -0.025920693126664188 0 -0.010584509515904001 -0.025923536360321669 0 -0.010042376553203787 -0.026267445771998254 0 -0.0093542639543544148 -0.02599090298875267 0 -0.0099612309266579359 -0.025462928290625318 0 -0.010532177825749648 -0.024999989106646792 0 -0.0093268466086312632 -0.024999998399281742 0 -0.0094008511462355671 -0.025920693126664188 0 -0.0099612309266579359 -0.025462928290625318 0 -0.0093268466086312632 -0.024999998399281742 0 -0.0099612309266579359 -0.025462928290625318 0 -0.010532177825749648 -0.024999989106646792 0 -0.010584509515904001 -0.025923536360321669 0 -0.012040707533042429 -0.025634181880275799 0 -0.011951035288747374 -0.025542636462828391 0 -0.01195526593808431 -0.025602830057734276 0 -0.012161355852002001 -0.025711908741287509 0 -0.012035932097397048 -0.0255560343134952 0 -0.012256821527789846 -0.025706681298775187 0 -0.012161355852002001 -0.025711908741287509 0 -0.012040707533042429 -0.025634181880275799 0 -0.012035932097397048 -0.0255560343134952 0 -0.012040707533042429 -0.025634181880275799 0 -0.011951035288747374 -0.025542636462828391 0 -0.012035932097397048 -0.0255560343134952 0 -0.011396601305659681 -0.025680077260681416 0 -0.01173741335693348 -0.025000200248560978 0 -0.011951035288747374 -0.025542636462828391 0 -0.012035932097397048 -0.0255560343134952 0 -0.011738383088532584 -0.02500011625722387 0 -0.010532177825749648 -0.024999989106646792 0 -0.010584509515904001 -0.025923536360321669 0 -0.01173754947672739 -0.025000001790801807 0 -0.012035932097397048 -0.0255560343134952 0 -0.011738383088532584 -0.02500011625722387 0 -0.01237075719499698 -0.025516701289885549 0 -0.013116570467884919 -0.025425940648157837 0 -0.011738383088532584 -0.02500011625722387 0 -0.01237075719499698 -0.025516701289885549 0 -0.012035932097397048 -0.0255560343134952 0 -0.01237075719499698 -0.025516701289885549 0 -0.012256821527789846 -0.025706681298775187 0 -0.012458617985529098 -0.02582264016943053 0 -0.01237075719499698 -0.025516701289885549 0 -0.012256821527789846 -0.025706681298775187 0 -0.007275139875564351 -0.026908443051412524 0 -0.0076052891180800955 -0.027851107871568276 0 -0.007892654805597173 -0.027018515135704298 0 -0.007275139875564351 -0.026908443051412524 0 -0.007892654805597173 -0.027018515135704298 0 -0.0075804710158776378 -0.026366220299728346 0 -0.0067078851368676693 -0.026485881393958917 0 -0.0063629047126489103 -0.026908320706287091 0 -0.0059615239184827376 -0.02639828833373015 0 -0.0067078851368676693 -0.026485881393958917 0 -0.0065904466685704696 -0.025803977866934707 0 -0.0059615239184827376 -0.02639828833373015 0 -0.0063629047126489103 -0.026908320706287091 0 -0.0059615239184827376 -0.02639828833373015 0 -0.0058675670190550784 -0.027098466628224044 0 -0.0063878556217307984 -0.027431597138375605 0 -0.0063629047126489103 -0.026908320706287091 0 -0.0058675670190550784 -0.027098466628224044 0 -0.006975130742019723 -0.026672217329079331 0 -0.0074571551557139669 -0.027547685485869517 0 -0.0063878556217307984 -0.027431597138375605 0 -0.0063629047126489103 -0.026908320706287091 0 -0.0068831223883890416 -0.027130697118094287 0 -0.0074571551557139669 -0.027547685485869517 0 -0.0079358101665965783 -0.026976080324841979 0 -0.0067078851368676693 -0.026485881393958917 0 -0.0063629047126489103 -0.026908320706287091 0 -0.0068831223883890416 -0.027130697118094287 0 -0.0075291268352530374 -0.027660777769794379 0 -0.0074571551557139669 -0.027547685485869517 0 -0.0077848241024582087 -0.027809886968289083 0 -0.0077305079951585998 -0.027658404007109349 0 -0.0083939537876469 -0.027614895431130011 0 -0.0077305079951585998 -0.027658404007109349 0 -0.0083939537876469 -0.027614895431130011 0 -0.0082470577987124941 -0.027253938812404163 0 -0.0077305079951585998 -0.027658404007109349 0 -0.0082470577987124941 -0.027253938812404163 0 -0.0079742438672218401 -0.026921691700987321 0 -0.0083939537876469 -0.027614895431130011 0 -0.0082470577987124941 -0.027253938812404163 0 -0.0088007672262157884 -0.027171405543851435 0 -0.0093219610701769599 -0.026095115693770817 0 -0.0092670770288699068 -0.025033506133056365 0 -0.0080602539746198916 -0.026009386605293634 0 -0.010270259779923734 -0.025882434611164001 0 -0.0080564757637414351 -0.026865243141681153 0 -0.0093605216389976206 -0.026854867831673606 0 -0.0083939537876469 -0.027614895431130011 0 -0.0088007672262157884 -0.027171405543851435 0 -0.0087078253392244755 -0.026622368915109849 0 -0.0093219610701769599 -0.026095115693770817 0 -0.0080602539746198916 -0.026009386605293634 0 -0.0088007672262157884 -0.027171405543851435 0 -0.008763249405780188 -0.026481000530648578 0 -0.0084289699329801772 -0.026900541282670651 0 -0.0093533121363680166 -0.026747336650002358 0 -0.0088007672262157884 -0.027171405543851435 0 -0.008763249405780188 -0.026481000530648578 0 -0.010042376553203787 -0.026267445771998254 0 -0.0086840573303724258 -0.027280539563575117 0 -0.0093605216389976206 -0.026854867831673606 0 -0.009355048575263477 -0.026737380645915746 0 -0.0088007672262157884 -0.027171405543851435 0 -0.007892654805597173 -0.027018515135704298 0 -0.0082000821521693475 -0.02616169105233376 0 -0.0075804710158776378 -0.026366220299728346 0 -0.0079358101665965783 -0.026976080324841979 0 -0.008176697238273755 -0.02623717758175307 0 -0.0079742438672218401 -0.026921691700987321 0 -0.0084289699329801772 -0.026900541282670651 0 -0.0082000821521693475 -0.02616169105233376 0 -0.008763249405780188 -0.026481000530648578 0 -0.0084289699329801772 -0.026900541282670651 0 -0.0082000821521693475 -0.02616169105233376 0 -0.0082470577987124941 -0.027253938812404163 0 -0.0079742438672218401 -0.026921691700987321 0 -0.0084289699329801772 -0.026900541282670651 0 -0.0082470577987124941 -0.027253938812404163 0 -0.0088007672262157884 -0.027171405543851435 0 -0.0084289699329801772 -0.026900541282670651 0 -0.0082000821521693475 -0.02616169105233376 0 -0.0085685406047871938 -0.02566503250807688 0 -0.0076279808470894267 -0.025718373560412448 0 -0.008763249405780188 -0.026481000530648578 0 -0.0082000821521693475 -0.02616169105233376 0 -0.0085685406047871938 -0.02566503250807688 0 -0.0093533121363680166 -0.026747336650002358 0 -0.0093332813200947551 -0.025899914390487756 0 -0.008763249405780188 -0.026481000530648578 0 -0.0093332813200947551 -0.025899914390487756 0 -0.008763249405780188 -0.026481000530648578 0 -0.0085685406047871938 -0.02566503250807688 0 -0.0093542639543544148 -0.02599090298875267 0 -0.0093268112097585638 -0.025000146628876681 0 -0.0093332813200947551 -0.025899914390487756 0 -0.0093267155092296231 -0.025000004235841186 0 -0.0085685406047871938 -0.02566503250807688 0 -0.0093267155092296231 -0.025000004235841186 0 -0.0085685406047871938 -0.02566503250807688 0 -0.0079477683620157343 -0.024999974862773035 0 -0.0085685406047871938 -0.02566503250807688 0 -0.0079477683620157343 -0.024999974862773035 0 -0.0076279808470894267 -0.025718373560412448 0 -0.0076279808470894267 -0.025718373560412448 0 -0.006929530329033852 -0.025955359401247761 0 -0.0065687056210728982 -0.024999990673265537 0 -0.0079477683620157343 -0.024999974862773035 0 -0.0076279808470894267 -0.025718373560412448 0 -0.0065687056210728982 -0.024999990673265537 0 -0.007275139875564351 -0.026908443051412524 0 -0.0075804710158776378 -0.026366220299728346 0 -0.006929530329033852 -0.025955359401247761 0 -0.006975130742019723 -0.026672217329079331 0 -0.0067632399080641871 -0.025864976757693069 0 -0.0082000821521693475 -0.02616169105233376 0 -0.0076279808470894267 -0.025718373560412448 0 -0.0075804710158776378 -0.026366220299728346 0 -0.0076279808470894267 -0.025718373560412448 0 -0.0075804710158776378 -0.026366220299728346 0 -0.006929530329033852 -0.025955359401247761 0 -0.0065904466685704696 -0.025803977866934707 0 -0.0059112295717314231 -0.025712485281525845 0 -0.0059615239184827376 -0.02639828833373015 0 -0.0065904466685704696 -0.025803977866934707 0 -0.0065681845029448415 -0.024999999279672846 0 -0.0059112295717314231 -0.025712485281525845 0 -0.0067632399080641871 -0.025864976757693069 0 -0.0065686700382729911 -0.025000169547940414 0 -0.0065681845029448415 -0.024999999279672846 0 -0.0056375081335222933 -0.024999986357230435 0 -0.0059112295717314231 -0.025712485281525845 0 -0.0056375081335222933 -0.024999986357230435 0 -0.0049543013818375715 -0.025953793813188571 0 -0.0059112295717314231 -0.025712485281525845 0 -0.0056375081335222933 -0.024999986357230435 0 -0.0047066699323327788 -0.024999905197809515 0 -0.0049543013818375715 -0.025953793813188571 0 -0.0047063926552990878 -0.025000152239810853 0 -0.0047916001135646967 -0.025923811155052753 0 -0.0049543013818375715 -0.025953793813188571 0 -0.0059112295717314231 -0.025712485281525845 0 -0.0059615239184827376 -0.02639828833373015 0 -0.0047060150010442923 -0.024999986863928132 0 -0.0032544023034726511 -0.024999859997676614 0 -0.0036660067256195539 -0.025411929990744403 0 -0.0036660067256195539 -0.025411929990744403 0 -0.0034124224229459743 -0.025937263963374504 0 -0.0029461115547222676 -0.025312634361693908 0 -0.0032544023034726511 -0.024999859997676614 0 -0.0036660067256195539 -0.025411929990744403 0 -0.0029461115547222676 -0.025312634361693908 0 -0.0047060150010442923 -0.024999986863928132 0 -0.0046317674783103932 -0.025934988431717966 0 -0.0040233652409445361 -0.025747884309910683 0 -0.0047060150010442923 -0.024999986863928132 0 -0.0036660067256195539 -0.025411929990744403 0 -0.0040233652409445361 -0.025747884309910683 0 -0.0046317674783103932 -0.025934988431717966 0 -0.0040233652409445361 -0.025747884309910683 0 -0.0040090067273946001 -0.026337899825504982 0 -0.0040233652409445361 -0.025747884309910683 0 -0.0034124224229459743 -0.025937263963374504 0 -0.0040090067273946001 -0.026337899825504982 0 -0.0036660067256195539 -0.025411929990744403 0 -0.0040233652409445361 -0.025747884309910683 0 -0.0034124224229459743 -0.025937263963374504 0 -0.003441531216563533 -0.026647700183595597 0 -0.0040090067273946001 -0.026337899825504982 0 -0.0039100788871648902 -0.026974860519923823 0 -0.0034124224229459743 -0.025937263963374504 0 -0.003441531216563533 -0.026647700183595597 0 -0.0040090067273946001 -0.026337899825504982 0 -0.0040090067273946001 -0.026337899825504982 0 -0.0039100788871648902 -0.026974860519923823 0 -0.0046645689497929769 -0.026718207319992426 0 -0.0046317674783103932 -0.025934988431717966 0 -0.0040090067273946001 -0.026337899825504982 0 -0.0046645689497929769 -0.026718207319992426 0 -0.0039100788871648902 -0.026974860519923823 0 -0.0046645689497929769 -0.026718207319992426 0 -0.0042314876335362173 -0.027393981511781497 0 -0.0039100788871648902 -0.026974860519923823 0 -0.0034435540334971718 -0.027141660121868749 0 -0.003725968995727406 -0.027432987570576058 0 -0.003441531216563533 -0.026647700183595597 0 -0.0039100788871648902 -0.026974860519923823 0 -0.0034435540334971718 -0.027141660121868749 0 -0.0059615239184827376 -0.02639828833373015 0 -0.0050724029548629016 -0.026715857466411055 0 -0.0058675670190550784 -0.027098466628224044 0 -0.0049543013818375715 -0.025953793813188571 0 -0.0059615239184827376 -0.02639828833373015 0 -0.0050724029548629016 -0.026715857466411055 0 -0.0047916001135646967 -0.025923811155052753 0 -0.0048684458565818236 -0.026714520288945675 0 -0.0046645689497929769 -0.026718207319992426 0 -0.0047810651894518589 -0.027446380148224286 0 -0.0042314876335362173 -0.027393981511781497 0 -0.0048684458565818236 -0.026714520288945675 0 -0.0049444909801490593 -0.027471238062591847 0 -0.0050724029548629016 -0.026715857466411055 0 -0.0058675670190550784 -0.027098466628224044 0 -0.0051026549962023583 -0.027445072963333039 0 -0.0058675670190550784 -0.027098466628224044 0 -0.0057594528135287964 -0.02770001681705396 0 -0.0051026549962023583 -0.027445072963333039 0 -0.0057594528135287964 -0.02770001681705396 0 -0.0050218756316639367 -0.028235578062157055 0 -0.0058960764547250615 -0.028327433620807016 0 -0.0050185988372998024 -0.028197356274478769 0 -0.0049444909801490593 -0.027471238062591847 0 -0.0057594528135287964 -0.02770001681705396 0 -0.0050218756316639367 -0.028235578062157055 0 -0.0051026549962023583 -0.027445072963333039 0 -0.0050218756316639367 -0.028235578062157055 0 -0.0047810651894518589 -0.027446380148224286 0 -0.004396269955964485 -0.027848891904760319 0 -0.0039100788871648902 -0.026974860519923823 0 -0.0042314876335362173 -0.027393981511781497 0 -0.003725968995727406 -0.027432987570576058 0 -0.0042314876335362173 -0.027393981511781497 0 -0.0038256632894632628 -0.02786436670422936 0 -0.004396269955964485 -0.027848891904760319 0 -0.0047810651894518589 -0.027446380148224286 0 -0.0042314876335362173 -0.027393981511781497 0 -0.004396269955964485 -0.027848891904760319 0 -0.003725968995727406 -0.027432987570576058 0 -0.0038256632894632628 -0.02786436670422936 0 -0.0032673174918961896 -0.02761553286252098 0 -0.0034435540334971718 -0.027141660121868749 0 -0.003725968995727406 -0.027432987570576058 0 -0.0032673174918961896 -0.02761553286252098 0 -0.0042314876335362173 -0.027393981511781497 0 -0.003725968995727406 -0.027432987570576058 0 -0.0038256632894632628 -0.02786436670422936 0 -0.0038256632894632628 -0.02786436670422936 0 -0.0033576303376572987 -0.027990540375705579 0 -0.0032673174918961896 -0.02761553286252098 0 -0.0038256632894632628 -0.02786436670422936 0 -0.0035691241297697096 -0.028229459046289342 0 -0.0033576303376572987 -0.027990540375705579 0 -0.0038256632894632628 -0.02786436670422936 0 -0.0035691241297697096 -0.028229459046289342 0 -0.0041149792012906234 -0.028332699914113454 0 -0.0050218756316639367 -0.028235578062157055 0 -0.004396269955964485 -0.027848891904760319 0 -0.0041149792012906234 -0.028332699914113454 0 -0.0038256632894632628 -0.02786436670422936 0 -0.004396269955964485 -0.027848891904760319 0 -0.0041149792012906234 -0.028332699914113454 0 -0.0041149792012906234 -0.028332699914113454 0 -0.0043145970991283434 -0.028866812422081903 0 -0.0034945641401976542 -0.028647738784365447 0 -0.0050218756316639367 -0.028235578062157055 0 -0.0041149792012906234 -0.028332699914113454 0 -0.0043145970991283434 -0.028866812422081903 0 -0.0043145970991283434 -0.028866812422081903 0 -0.0034945641401976542 -0.028647738784365447 0 -0.0037284050825149924 -0.029148868688515489 0 -0.0035691241297697096 -0.028229459046289342 0 -0.0041149792012906234 -0.028332699914113454 0 -0.0034945641401976542 -0.028647738784365447 0 -0.0035691241297697096 -0.028229459046289342 0 -0.0034945641401976542 -0.028647738784365447 0 -0.0031149258371879615 -0.028241387677165442 0 -0.0038774925570602675 -0.02960059411768818 0 -0.0037284050825149924 -0.029148868688515489 0 -0.0031938081474401129 -0.02924389928020351 0 -0.00268609502278871 -0.028110285596271715 0 -0.002096531318224236 -0.027360851153737837 0 -0.0034945641401976542 -0.028647738784365447 0 -0.0037284050825149924 -0.029148868688515489 0 -0.0031938081474401129 -0.02924389928020351 0 -0.0038774925570602675 -0.02960059411768818 0 -0.0037284050825149924 -0.029148868688515489 0 -0.0041953913407570768 -0.029240266748869152 0 -0.0043145970991283434 -0.028866812422081903 0 -0.0041953913407570768 -0.029240266748869152 0 -0.0048772605900095269 -0.02934900046649818 0 -0.0039447482718477636 -0.029581964992149844 0 -0.0048366340161981715 -0.029299355367540351 0 -0.0038774925570602675 -0.02960059411768818 0 -0.0041953913407570768 -0.029240266748869152 0 -0.0048772605900095269 -0.02934900046649818 0 -0.0043145970991283434 -0.028866812422081903 0 -0.0037284050825149924 -0.029148868688515489 0 -0.0041953913407570768 -0.029240266748869152 0 -0.0043145970991283434 -0.028866812422081903 0 -0.0048772605900095269 -0.02934900046649818 0 -0.0052615282702460006 -0.028779056674060974 0 -0.0048366340161981715 -0.029299355367540351 0 -0.0058731740562535792 -0.028957802848023972 0 -0.0048772605900095269 -0.02934900046649818 0 -0.0058618508613446302 -0.02902856930871112 0 -0.0052615282702460006 -0.028779056674060974 0 -0.004822350387317112 -0.029244448667350226 0 -0.0058476066706982148 -0.028903057032666435 0 -0.0054431715463977969 -0.029423516621452758 0 -0.0057980062215761347 -0.029960717283676393 0 -0.0058476066706982148 -0.028903057032666435 0 -0.0054431715463977969 -0.029423516621452758 0 -0.0058618508613446302 -0.02902856930871112 0 -0.0052615282702460006 -0.028779056674060974 0 -0.0058960764547250615 -0.028327433620807016 0 -0.0050218756316639367 -0.028235578062157055 0 -0.0052615282702460006 -0.028779056674060974 0 -0.0058960764547250615 -0.028327433620807016 0 -0.0050218756316639367 -0.028235578062157055 0 -0.0043145970991283434 -0.028866812422081903 0 -0.0052615282702460006 -0.028779056674060974 0 0.0014553415578581028 -0.025796814431218638 0 0.0014236012088307932 -0.025764471640540958 0 0.00141663839379187 -0.025724152587785595 0 0.0014553415578581028 -0.025796814431218638 0 0.00141663839379187 -0.025724152587785595 0 0.0014596101772979483 -0.025741412215926743 0 0.0014553415578581028 -0.025796814431218638 0 0.0014236012088307932 -0.025764471640540958 0 0.0013875086857306482 -0.025846735888637045 0 0.0015187433437794187 -0.025680025254619317 0 0.0013875086857306482 -0.025846735888637045 0 0.0013684374747045672 -0.026003388428042125 0 0.0014236012088307932 -0.025764471640540958 0 0.0015187433437794187 -0.025680025254619317 0 0.0013875086857306482 -0.025846735888637045 0 0.0014236012088307932 -0.025764471640540958 0 0.0015187433437794187 -0.025680025254619317 0 0.00141663839379187 -0.025724152587785595 0 0.0015187433437794187 -0.025680025254619317 0 0.0014563512786786097 -0.025701655607468628 0 0.00141663839379187 -0.025724152587785595 0 0.0015501513366668784 -0.025692930538359519 0 0.0013430118614489264 -0.025734472206520448 0 0.0014563512786786097 -0.025701655607468628 0 0.0015501513366668784 -0.025692930538359519 0 0.0015187433437794187 -0.025680025254619317 0 0.0014563512786786097 -0.025701655607468628 0 0.00097132523892830129 -0.025601281624999046 0 -0.00042895522957321879 -0.025806325269064019 0 4.4907541655110937e-05 -0.02598353207554337 0 0.00038486909235263089 -0.025499083055343395 0 -0.00023877704897853498 -0.02472091252856343 0 0.0013430118614489264 -0.025734472206520448 0 0.00141663839379187 -0.025724152587785595 0 0.0014596101772979483 -0.025741412215926743 0 0.0013430118614489264 -0.025734472206520448 0 0.0014563512786786097 -0.025701655607468628 0 0.00141663839379187 -0.025724152587785595 0 -0.0014280896202633242 -0.025287865895872286 0 -0.0012235059266862203 -0.025548605334609648 0 -0.0013331270420219473 -0.025764569602481018 0 -0.00086373660385156558 -0.025795871769277608 0 -0.00042895522957321879 -0.025806325269064019 0 -0.0012235059266862203 -0.025548605334609648 0 -0.0012879991450475113 -0.025823730700401198 0 -0.0013331270420219473 -0.025764569602481018 0 -0.0012235059266862203 -0.025548605334609648 0 -0.00097066432412670788 -0.025600825436961495 0 -0.0012879991450475113 -0.025823730700401198 0 -0.002096531318224236 -0.027360851153737837 0 -0.0011101580339699538 -0.027159849582188877 0 -0.0031938081474401129 -0.02924389928020351 0 -0.0028926631150339352 -0.028664380207252871 0 -0.0021317304577678714 -0.028609953963516781 0 -0.0034945641401976542 -0.028647738784365447 0 -0.0031938081474401129 -0.02924389928020351 0 -0.0028926631150339352 -0.028664380207252871 0 -0.0034945641401976542 -0.028647738784365447 0 -0.0028926631150339352 -0.028664380207252871 0 -0.0027941680237179656 -0.02834877891401711 0 -0.0028926631150339352 -0.028664380207252871 0 -0.0027941680237179656 -0.02834877891401711 0 -0.0021317304577678714 -0.028609953963516781 0 -0.0027941680237179656 -0.02834877891401711 0 -0.0029136057348604408 -0.027982290774973738 0 -0.0025291499349333899 -0.028073726804832735 0 -0.0034945641401976542 -0.028647738784365447 0 -0.0027941680237179656 -0.02834877891401711 0 -0.0029136057348604408 -0.027982290774973738 0 -0.0033999404852984392 -0.028535851548411442 0 -0.0031318471887505947 -0.028249305214266201 0 0.0014553415578581028 -0.025796814431218638 0 0.0014687598437479737 -0.025766781837803412 0 0.0014596101772979483 -0.025741412215926743 0 -0.00010713522382472912 -0.026716779904709023 0 -0.00042895522957321879 -0.025806325269064019 0 0.00016696861898966582 -0.026994458267121504 0 -0.00027744531284473018 -0.027289130929659261 0 -0.00056360663053893142 -0.026063039902052672 0 -0.0011101580339699538 -0.027159849582188877 0 -0.00010713522382472912 -0.026716779904709023 0 -0.0011101580339699538 -0.027159849582188877 0 -0.00042895522957321879 -0.025806325269064019 0 -0.0011101580339699538 -0.027159849582188877 0 -0.0021251130713670153 -0.028059571171228804 0 -0.0027941680237179656 -0.02834877891401711 0 -0.0021317304577678714 -0.028609953963516781 0 -0.0025291499349333899 -0.028073726804832735 0 -0.0020894921668038768 -0.028608782341002979 0 -0.0019991410079379392 -0.028549540300195297 0 -0.0025291499349333899 -0.028073726804832735 0 0.0014553415578581028 -0.025796814431218638 0 0.0015291216377855057 -0.025743774155248148 0 0.0014945136958041871 -0.0259002956563361 0 0.0014805872039159761 -0.025723108375382719 0 -0.00010713522382472912 -0.026716779904709023 0 -0.00010713522382472912 -0.026716779904709023 0 -0.0012959805612684223 -0.027391041173294189 0 0.0015291216377855057 -0.025743774155248148 0 0.0014945136958041871 -0.0259002956563361 0 0.0015968667471027262 -0.026025902172341294 0 -0.0019991410079379392 -0.028549540300195297 0 -0.0022861823528864365 -0.027340254603540549 0 -0.0025291499349333899 -0.028073726804832735 0 0.0014945136958041871 -0.0259002956563361 0 0.0015968667471027262 -0.026025902172341294 0 0.0013841830735170505 -0.026001559135114125 0 -0.0027137908419441418 -0.027833341906950117 0 -0.0030857623681604307 -0.027911267737999592 0 -0.0032673174918961896 -0.02761553286252098 0 -0.0035691241297697096 -0.028229459046289342 0 -0.0031149258371879615 -0.028241387677165442 0 -0.0033576303376572987 -0.027990540375705579 0 -0.0031149258371879615 -0.028241387677165442 0 -0.0030857623681604307 -0.027911267737999592 0 -0.0033576303376572987 -0.027990540375705579 0 -0.0022861823528864365 -0.027340254603540549 0 -0.0029136057348604408 -0.027982290774973738 0 -0.0025291499349333899 -0.028073726804832735 0 -0.0012959805612684223 -0.027391041173294189 0 -0.0031318471887505947 -0.028249305214266201 0 -0.0027137908419441418 -0.027833341906950117 0 -0.0031149258371879615 -0.028241387677165442 0 -0.0030857623681604307 -0.027911267737999592 0 -0.0030857623681604307 -0.027911267737999592 0 -0.0033576303376572987 -0.027990540375705579 0 -0.0032673174918961896 -0.02761553286252098 0 -0.0027137908419441418 -0.027833341906950117 0 -0.0032673174918961896 -0.02761553286252098 0 -0.0028930618459475257 -0.027044059899367295 0 -0.0012959805612684223 -0.027391041173294189 0 0.00046447620203526576 -0.026982149472931122 0 -0.0017072015028281936 -0.028860847020629535 0 -0.00074328446701937476 -0.027903499463702904 0 -0.0020587168044578818 -0.027424603487982657 0 -0.0012959805612684223 -0.027391041173294189 0 -0.0025489245932376887 -0.027416578296298837 0 0.0015968667471027262 -0.026025902172341294 0 0.001325342134015554 -0.02627412348214948 0 0.0013841830735170505 -0.026001559135114125 0 0.001325342134015554 -0.02627412348214948 0 0.0013841830735170505 -0.026001559135114125 0 0.001070218213125265 -0.026189344980226483 0 0.0014553415578581028 -0.025796814431218638 0 0.0013841830735170505 -0.026001559135114125 0 0.0013875086857306482 -0.025846735888637045 0 0.0013841830735170505 -0.026001559135114125 0 0.0013875086857306482 -0.025846735888637045 0 0.001070218213125265 -0.026189344980226483 0 0.0014553415578581028 -0.025796814431218638 0 0.0014945136958041871 -0.0259002956563361 0 0.0013841830735170505 -0.026001559135114125 0 0.0013875086857306482 -0.025846735888637045 0 0.001070218213125265 -0.026189344980226483 0 0.0013684374747045672 -0.026003388428042125 0 0.001070218213125265 -0.026189344980226483 0 0.00048161250678489803 -0.026586178676401853 0 0.0009045102732161065 -0.026359066960837906 0 0.001325342134015554 -0.02627412348214948 0 0.001070218213125265 -0.026189344980226483 0 0.00048161250678489803 -0.026586178676401853 0 -0.00074328446701937476 -0.027903499463702904 0 0.00048161250678489803 -0.026586178676401853 0 -0.0011922245807822083 -0.026763237561357095 0 0.00046447620203526576 -0.026982149472931122 0 0.00044996073192337126 -0.026675326194708117 0 0.00048161250678489803 -0.026586178676401853 0 -0.0011922245807822083 -0.026763237561357095 0 -0.0010073484487233778 -0.025914597177555943 0 0.00048161250678489803 -0.026586178676401853 0 0.0003212661792658532 -0.025917611922093565 0 -0.0010073484487233778 -0.025914597177555943 0 0.00048161250678489803 -0.026586178676401853 0 0.0003212661792658532 -0.025917611922093565 0 0.0009045102732161065 -0.026359066960837906 0 -0.003441531216563533 -0.026647700183595597 0 -0.0034435540334971718 -0.027141660121868749 0 -0.0028930618459475257 -0.027044059899367295 0 -0.0034435540334971718 -0.027141660121868749 0 -0.0032673174918961896 -0.02761553286252098 0 -0.0028930618459475257 -0.027044059899367295 0 -0.00074328446701937476 -0.027903499463702904 0 -0.0020587168044578818 -0.027424603487982657 0 -0.0011922245807822083 -0.026763237561357095 0 -0.0011922245807822083 -0.026763237561357095 0 -0.0024093485906227785 -0.026239407597637175 0 -0.0010073484487233778 -0.025914597177555943 0 -0.0020587168044578818 -0.027424603487982657 0 -0.0011922245807822083 -0.026763237561357095 0 -0.0024093485906227785 -0.026239407597637175 0 -0.0025489245932376887 -0.027416578296298837 0 -0.0027124075368031345 -0.026181879336693911 0 -0.003441531216563533 -0.026647700183595597 0 -0.0028930618459475257 -0.027044059899367295 0 -0.0030029601640814076 -0.02625810938086269 0 -0.0034124224229459743 -0.025937263963374504 0 -0.003441531216563533 -0.026647700183595597 0 -0.0030029601640814076 -0.02625810938086269 0 -0.0034124224229459743 -0.025937263963374504 0 -0.0030029601640814076 -0.02625810938086269 0 -0.0029461115547222676 -0.025312634361693908 0 -0.0024093485906227785 -0.026239407597637175 0 -0.0019990122132539198 -0.025620732640108668 0 -0.0029461115547222676 -0.025312634361693908 0 -0.0027124075368031345 -0.026181879336693911 0 -0.0029343128800189949 -0.025352992316391626 0 -0.0024093485906227785 -0.026239407597637175 0 -0.0019990122132539198 -0.025620732640108668 0 -0.0010073484487233778 -0.025914597177555943 0 -0.0019990122132539198 -0.025620732640108668 0 -0.0018017554344098481 -0.024999771379388316 0 -0.0010073484487233778 -0.025914597177555943 0 -0.0019990122132539198 -0.025620732640108668 0 -0.0018017554344098481 -0.024999771379388316 0 -0.0029461115547222676 -0.025312634361693908 0 -0.0032544023034726511 -0.024999859997676614 0 -0.0018017554344098481 -0.024999771379388316 0 -0.0029461115547222676 -0.025312634361693908 0 0.0003212661792658532 -0.025917611922093565 0 -0.0010073484487233778 -0.025914597177555943 0 -0.0003495958229679173 -0.024999802099735579 0 -0.0018017554344098481 -0.024999771379388316 0 -0.0010073484487233778 -0.025914597177555943 0 -0.0003495958229679173 -0.024999802099735579 0 0.0003212661792658532 -0.025917611922093565 0 -0.0003495958229679173 -0.024999802099735579 0 0.00079979164161747822 -0.025596362729114242 0 -0.0003495958229679173 -0.024999802099735579 0 0.00079979164161747822 -0.025596362729114242 0 0.0011021430425481873 -0.024999918525629376 0 0.0003212661792658532 -0.025917611922093565 0 0.00079979164161747822 -0.025596362729114242 0 0.0011323883407226905 -0.026107885512704102 0 0.0016309232602896217 -0.025718574416830266 0 0.001605937344701001 -0.026149613305433209 0 0.0011323883407226905 -0.026107885512704102 0 0.00079979164161747822 -0.025596362729114242 0 0.0016309232602896217 -0.025718574416830266 0 0.0011323883407226905 -0.026107885512704102 0 0.00079979164161747822 -0.025596362729114242 0 0.0011021430425481873 -0.024999918525629376 0 0.0016309232602896217 -0.025718574416830266 0 0.002553725824758094 -0.024999861383796795 0 0.0023363057767082792 -0.025646956747699137 0 0.0016309232602896217 -0.025718574416830266 0 0.0011021430425481873 -0.024999918525629376 0 0.002553725824758094 -0.024999861383796795 0 0.0016309232602896217 -0.025718574416830266 0 0.002553725824758094 -0.024999861383796795 0 0.0023363057767082792 -0.025646956747699137 0 0.0031219427161009112 -0.025657120499729062 0 0.0021188742305923614 -0.026178360744112419 0 0.0031219427161009112 -0.025657120499729062 0 0.0030375482531204076 -0.026605323185601295 0 0.0023363057767082792 -0.025646956747699137 0 0.0021188742305923614 -0.026178360744112419 0 0.0031219427161009112 -0.025657120499729062 0 0.0023363057767082792 -0.025646956747699137 0 0.0016309232602896217 -0.025718574416830266 0 0.0021188742305923614 -0.026178360744112419 0 0.0016309232602896217 -0.025718574416830266 0 0.001605937344701001 -0.026149613305433209 0 0.0021188742305923614 -0.026178360744112419 0 0.001605937344701001 -0.026149613305433209 0 0.0021188742305923614 -0.026178360744112419 0 0.0016780819253597618 -0.02608872434336381 0 0.0021188742305923614 -0.026178360744112419 0 0.0016780819253597618 -0.02608872434336381 0 0.0021448112593491267 -0.026183870393242641 0 0.001312328360301358 -0.0261482079442306 0 0.0031906055652791104 -0.025922995575412104 0 0.00210541277687988 -0.026123807158523096 0 0.0031906055652791104 -0.025922995575412104 0 0.0018142904263156573 -0.025889945794560637 0 0.0016780819253597618 -0.02608872434336381 0 0.0017142613591671855 -0.025998034089238588 0 0.0018142904263156573 -0.025889945794560637 0 0.0016780819253597618 -0.02608872434336381 0 0.0018573457007456107 -0.025580322387028304 0 0.001605937344701001 -0.026149613305433209 0 0.0016780819253597618 -0.02608872434336381 0 0.0012756252188952401 -0.026240219228744519 0 0.0012756252188952401 -0.026240219228744519 0 0.0009045102732161065 -0.026359066960837906 0 0.0011323883407226905 -0.026107885512704102 0 0.001070218213125265 -0.026189344980226483 0 0.0012756252188952401 -0.026240219228744519 0 0.0009045102732161065 -0.026359066960837906 0 0.0003212661792658532 -0.025917611922093565 0 0.0009045102732161065 -0.026359066960837906 0 0.0011323883407226905 -0.026107885512704102 0 0.001605937344701001 -0.026149613305433209 0 0.0012756252188952401 -0.026240219228744519 0 0.0011323883407226905 -0.026107885512704102 0 0.0066654671390429269 -0.025174842063000667 0 0.0054616936376199309 -0.024999384929185003 0 0.0066738590111002352 -0.024999776863260829 0 0.0054581206169944316 -0.025000184573783224 0 0.0053990790736716662 -0.025409420058455302 0 0.0066654671390429269 -0.025174842063000667 0 0.0054616936376199309 -0.024999384929185003 0 0.0061766514733712554 -0.025146515318378245 0 0.0054616936376199309 -0.024999384929185003 0 0.0061766514733712554 -0.025146515318378245 0 0.0061006139530881036 -0.025116263666363398 0 0.0066654671390429269 -0.025174842063000667 0 0.0061766514733712554 -0.025146515318378245 0 0.0065102873857357099 -0.025443495220114236 0 0.0061766514733712554 -0.025146515318378245 0 0.0061006139530881036 -0.025116263666363398 0 0.0061634230780775578 -0.025278870852756024 0 0.0061006139530881036 -0.025116263666363398 0 0.0056153807393013967 -0.025389479479947824 0 0.0059867410040890939 -0.025334386617900308 0 0.0061006139530881036 -0.025116263666363398 0 0.0059867410040890939 -0.025334386617900308 0 0.0061634230780775578 -0.025278870852756024 0 0.0054582839663009138 -0.025000054002512703 0 0.0043040884889201433 -0.025826808926516228 0 0.0040060646889671647 -0.024999831892950502 0 0.0043040884889201433 -0.025826808926516228 0 0.0040060646889671647 -0.024999831892950502 0 0.0031219427161009112 -0.025657120499729062 0 0.002553725824758094 -0.024999861383796795 0 0.0040060646889671647 -0.024999831892950502 0 0.0031219427161009112 -0.025657120499729062 0 0.0043040884889201433 -0.025826808926516228 0 0.0031219427161009112 -0.025657120499729062 0 0.0030375482531204076 -0.026605323185601295 0 0.0053990790736716662 -0.025409420058455302 0 0.0031906055652791104 -0.025922995575412104 0 0.0018573457007456107 -0.025580322387028304 0 0.002021663402740979 -0.025739645612158572 0 0.0022950322637178967 -0.025554755577675777 0 0.0018142904263156573 -0.025889945794560637 0 0.0018573457007456107 -0.025580322387028304 0 0.002021663402740979 -0.025739645612158572 0 0.0018142904263156573 -0.025889945794560637 0 0.002021663402740979 -0.025739645612158572 0 0.0019760380847617756 -0.025870937339573161 0 0.002021663402740979 -0.025739645612158572 0 0.0022089482311041077 -0.025761606789183333 0 0.0022950322637178967 -0.025554755577675777 0 0.002021663402740979 -0.025739645612158572 0 0.0022089482311041077 -0.025761606789183333 0 0.0019760380847617756 -0.025870937339573161 0 0.0022089482311041077 -0.025761606789183333 0 0.0022950322637178967 -0.025554755577675777 0 0.0024791547287834224 -0.025723584606198478 0 0.0031906055652791104 -0.025922995575412104 0 0.0040417003299665242 -0.02551834069551856 0 0.0056153807393013967 -0.025389479479947824 0 0.0061343135216767571 -0.025583877831752897 0 0.0059867410040890939 -0.025334386617900308 0 0.0061343135216767571 -0.025583877831752897 0 0.0059867410040890939 -0.025334386617900308 0 0.0061634230780775578 -0.025278870852756024 0 0.0061766514733712554 -0.025146515318378245 0 0.0061634230780775578 -0.025278870852756024 0 0.0065102873857357099 -0.025443495220114236 0 0.0061343135216767571 -0.025583877831752897 0 0.0061634230780775578 -0.025278870852756024 0 0.0065102873857357099 -0.025443495220114236 0 0.0061343135216767571 -0.025583877831752897 0 0.0065102873857357099 -0.025443495220114236 0 0.0068551796454881398 -0.025822107168602084 0 0.0040417003299665242 -0.02551834069551856 0 0.0062704671053817355 -0.025496535434136609 0 0.0022950322637178967 -0.025554755577675777 0 0.0024791547287834224 -0.025723584606198478 0 0.0028412434048973693 -0.025584642232196607 0 0.0068085692595064107 -0.025676889677618563 0 0.0062704671053817355 -0.025496535434136609 0 0.0024791547287834224 -0.025723584606198478 0 0.0028412434048973693 -0.025584642232196607 0 0.0027204522397373887 -0.025735463636349435 0 0.0028412434048973693 -0.025584642232196607 0 0.0028765810358473559 -0.025744813705327146 0 0.0027204522397373887 -0.025735463636349435 0 0.0062704671053817355 -0.025496535434136609 0 0.0090831434881820487 -0.026234460801989001 0 0.0062704671053817355 -0.025496535434136609 0 0.010469555227520239 -0.023060007794914239 0 0.008817622615247548 -0.025985017117884451 0 0.008961626932136894 -0.026089726431554366 0 0.0089259181963919302 -0.02602878074412928 0 0.008817622615247548 -0.025985017117884451 0 0.0089680473980006409 -0.02611126637686105 0 0.008961626932136894 -0.026089726431554366 0 0.0028412434048973693 -0.025584642232196607 0 0.0028765810358473559 -0.025744813705327146 0 0.0030438957992478658 -0.025750934504482754 0 0.0074239131787296143 -0.02603042228437066 0 0.0080941007778198466 -0.025604534675060447 0 0.0089259181963919302 -0.02602878074412928 0 0.0074239131787296143 -0.02603042228437066 0 0.0072748018837666233 -0.025388315430398489 0 0.0080941007778198466 -0.025604534675060447 0 0.0066654671390429269 -0.025174842063000667 0 0.0065102873857357099 -0.025443495220114236 0 0.0072748018837666233 -0.025388315430398489 0 0.0072748018837666233 -0.025388315430398489 0 0.0078722400838000511 -0.025145334868864846 0 0.0080941007778198466 -0.025604534675060447 0 0.0066654671390429269 -0.025174842063000667 0 0.0072748018837666233 -0.025388315430398489 0 0.0078722400838000511 -0.025145334868864846 0 0.0065102873857357099 -0.025443495220114236 0 0.0074239131787296143 -0.02603042228437066 0 0.0072748018837666233 -0.025388315430398489 0 0.0029190051760573702 -0.026213413779245239 0 0.0029107017427473267 -0.026019481717227257 0 0.0031520173126288369 -0.02611203005091443 0 0.0029190051760573702 -0.026213413779245239 0 0.002772759465197395 -0.026059117677519377 0 0.0026547175228667469 -0.026170373046668378 0 0.002772759465197395 -0.026059117677519377 0 0.0027729680103717393 -0.02592695029634336 0 0.0026152994561171772 -0.025973195434235409 0 0.002772759465197395 -0.026059117677519377 0 0.0029107017427473267 -0.026019481717227257 0 0.0027729680103717393 -0.02592695029634336 0 0.0029190051760573702 -0.026213413779245239 0 0.002772759465197395 -0.026059117677519377 0 0.0029107017427473267 -0.026019481717227257 0 0.0029107017427473267 -0.026019481717227257 0 0.0029292668958713539 -0.025891378610132163 0 0.0031520173126288369 -0.02611203005091443 0 0.0029107017427473267 -0.026019481717227257 0 0.0029292668958713539 -0.025891378610132163 0 0.0027729680103717393 -0.02592695029634336 0 0.0029292668958713539 -0.025891378610132163 0 0.0028765810358473559 -0.025744813705327146 0 0.0030438957992478658 -0.025750934504482754 0 0.0029292668958713539 -0.025891378610132163 0 0.0028765810358473559 -0.025744813705327146 0 0.0027863521483114041 -0.025801188295399801 0 0.0027204522397373887 -0.025735463636349435 0 0.0027863521483114041 -0.025801188295399801 0 0.0026253448738801227 -0.025822871414956511 0 0.0028765810358473559 -0.025744813705327146 0 0.0027204522397373887 -0.025735463636349435 0 0.0027863521483114041 -0.025801188295399801 0 0.0027863521483114041 -0.025801188295399801 0 0.0027729680103717393 -0.02592695029634336 0 0.0026253448738801227 -0.025822871414956511 0 0.0029292668958713539 -0.025891378610132163 0 0.0027863521483114041 -0.025801188295399801 0 0.0027729680103717393 -0.02592695029634336 0 0.0027729680103717393 -0.02592695029634336 0 0.0026152994561171772 -0.025973195434235409 0 0.0026253448738801227 -0.025822871414956511 0 0.0026152994561171772 -0.025973195434235409 0 0.0026253448738801227 -0.025822871414956511 0 0.0024790932132457699 -0.025893037918827709 0 0.0024791547287834224 -0.025723584606198478 0 0.0026253448738801227 -0.025822871414956511 0 0.0024790932132457699 -0.025893037918827709 0 0.0024791547287834224 -0.025723584606198478 0 0.0027204522397373887 -0.025735463636349435 0 0.0026253448738801227 -0.025822871414956511 0 0.0024791547287834224 -0.025723584606198478 0 0.0024790932132457699 -0.025893037918827709 0 0.0022478311254212876 -0.025905656496364546 0 0.0026152994561171772 -0.025973195434235409 0 0.0024790932132457699 -0.025893037918827709 0 0.0024294091942342433 -0.026046503358611656 0 0.0024790932132457699 -0.025893037918827709 0 0.0024294091942342433 -0.026046503358611656 0 0.0022478311254212876 -0.025905656496364546 0 0.0026152994561171772 -0.025973195434235409 0 0.0024294091942342433 -0.026046503358611656 0 0.0026547175228667469 -0.026170373046668378 0 0.002772759465197395 -0.026059117677519377 0 0.0026152994561171772 -0.025973195434235409 0 0.0026547175228667469 -0.026170373046668378 0 0.0024294091942342433 -0.026046503358611656 0 0.0026547175228667469 -0.026170373046668378 0 0.002396603038463408 -0.026285996119857751 0 0.0021755370508908913 -0.026224613008655525 0 0.0022140117499672356 -0.026101274633260427 0 0.002396603038463408 -0.026285996119857751 0 0.0024294091942342433 -0.026046503358611656 0 0.0022140117499672356 -0.026101274633260427 0 0.002396603038463408 -0.026285996119857751 0 0.0021755370508908913 -0.026224613008655525 0 0.0022140117499672356 -0.026101274633260427 0 0.0019881956399205327 -0.026159300451048088 0 0.0021755370508908913 -0.026224613008655525 0 0.0019881956399205327 -0.026159300451048088 0 0.0021092259164672712 -0.026333909698199275 0 0.0022140117499672356 -0.026101274633260427 0 0.0022478311254212876 -0.025905656496364546 0 0.001953589162022173 -0.025998058470784301 0 0.0022140117499672356 -0.026101274633260427 0 0.001953589162022173 -0.025998058470784301 0 0.0019881956399205327 -0.026159300451048088 0 0.0024294091942342433 -0.026046503358611656 0 0.0022140117499672356 -0.026101274633260427 0 0.0022478311254212876 -0.025905656496364546 0 0.0022089482311041077 -0.025761606789183333 0 0.0024791547287834224 -0.025723584606198478 0 0.0022478311254212876 -0.025905656496364546 0 0.0022089482311041077 -0.025761606789183333 0 0.0022478311254212876 -0.025905656496364546 0 0.0019760380847617756 -0.025870937339573161 0 0.0022478311254212876 -0.025905656496364546 0 0.0019760380847617756 -0.025870937339573161 0 0.001953589162022173 -0.025998058470784301 0 0.0019760380847617756 -0.025870937339573161 0 0.001953589162022173 -0.025998058470784301 0 0.0017142613591671855 -0.025998034089238588 0 0.0018142904263156573 -0.025889945794560637 0 0.0019760380847617756 -0.025870937339573161 0 0.0017142613591671855 -0.025998034089238588 0 0.001953589162022173 -0.025998058470784301 0 0.0017489727789006559 -0.026056408915408159 0 0.0017142613591671855 -0.025998034089238588 0 0.0019881956399205327 -0.026159300451048088 0 0.0017489727789006559 -0.026056408915408159 0 0.0019823561964963264 -0.026436479788196791 0 0.001953589162022173 -0.025998058470784301 0 0.0019881956399205327 -0.026159300451048088 0 0.0017489727789006559 -0.026056408915408159 0 0.0017489727789006559 -0.026056408915408159 0 0.0017167164003223305 -0.026006798578608339 0 0.001613203536757792 -0.025978587225964602 0 0.0049709073007550581 -0.022626741044672966 0 0.0031703267830502564 -0.024697159198782792 0 0.0022825021817397657 -0.026220812366223308 0 0.0049709073007550581 -0.022626741044672966 0 0.0076475767735415161 -0.022252771597408655 0 0.0066644057418609546 -0.023392841742863237 0 0.0049362034295692249 -0.023035199710446316 0 0.0076475767735415161 -0.022252771597408655 0 0.0066644057418609546 -0.023392841742863237 0 0.0079006643901658354 -0.024175616949072457 0 0.0049709073007550581 -0.022626741044672966 0 0.008324591357359681 -0.020128058163678318 0 0.0076475767735415161 -0.022252771597408655 0 0.0079006643901658354 -0.024175616949072457 0 0.0084128320333439581 -0.023857383888798808 0 0.0072926811490499318 -0.017029067800429922 0 0.0076972968034769553 -0.017151158825443592 0 0.0076496434247597276 -0.017503009251933339 0 0.0072926811490499318 -0.017029067800429922 0 0.0074786248652791371 -0.01694731965488825 0 0.0076972968034769553 -0.017151158825443592 0 0.0019823561964963264 -0.026436479788196791 0 0.0022156790315576167 -0.026354910726981578 0 0.0021092259164672712 -0.026333909698199275 0 0.0019881956399205327 -0.026159300451048088 0 0.0019823561964963264 -0.026436479788196791 0 0.0021092259164672712 -0.026333909698199275 0 0.0049709073007550581 -0.022626741044672966 0 0.0041912823917859658 -0.02393098767761092 0 0.0041912823917859658 -0.02393098767761092 0 0.0034712717635087755 -0.024179334721093786 0 0.0021755370508908913 -0.026224613008655525 0 0.0021942086792896562 -0.026355570519809669 0 0.0021092259164672712 -0.026333909698199275 0 0.0021755370508908913 -0.026224613008655525 0 0.0021942086792896562 -0.026355570519809669 0 0.002396603038463408 -0.026285996119857751 0 0.0041912823917859658 -0.02393098767761092 0 0.0019816622652340092 -0.0256382130721198 0 0.0041912823917859658 -0.02393098767761092 0 0.0046203420642816004 -0.021507690174826975 0 0.0074786248652791371 -0.01694731965488825 0 0.0076972968034769553 -0.017151158825443592 0 0.0081078740114523609 -0.016998974570751994 0 0.0022238404920793611 -0.026338751297445326 0 0.002396603038463408 -0.026285996119857751 0 0.0027370685283877507 -0.026440629518605228 0 0.0026547175228667469 -0.026170373046668378 0 0.002396603038463408 -0.026285996119857751 0 0.0027370685283877507 -0.026440629518605228 0 0.0076972968034769553 -0.017151158825443592 0 0.0080205272911647932 -0.017276588323566999 0 0.0076496434247597276 -0.017503009251933339 0 0.0076972968034769553 -0.017151158825443592 0 0.0080205272911647932 -0.017276588323566999 0 0.0081078740114523609 -0.016998974570751994 0 0.0080205272911647932 -0.017276588323566999 0 0.0076496434247597276 -0.017503009251933339 0 0.0081512545797964939 -0.017569173212196802 0 0.0080205272911647932 -0.017276588323566999 0 0.0084078552473121765 -0.017397866189646539 0 0.0081078740114523609 -0.016998974570751994 0 0.0084078552473121765 -0.017397866189646539 0 0.0081078740114523609 -0.016998974570751994 0 0.0088622237802981844 -0.017143295962039198 0 0.0080205272911647932 -0.017276588323566999 0 0.0084078552473121765 -0.017397866189646539 0 0.0081512545797964939 -0.017569173212196802 0 0.0029190051760573702 -0.026213413779245239 0 0.0027370685283877507 -0.026440629518605228 0 0.0032930639275277917 -0.026501190670773209 0 0.0046203420642816004 -0.021507690174826975 0 0.01057702565340855 -0.020630677184510442 0 0.0029190051760573702 -0.026213413779245239 0 0.0026547175228667469 -0.026170373046668378 0 0.0027370685283877507 -0.026440629518605228 0 0.0013684374747045672 -0.026003388428042125 0 0.0015337790962953509 -0.026076183319157401 0 0.0016641286574999557 -0.025827927522192744 0 0.001070218213125265 -0.026189344980226483 0 0.0012756252188952401 -0.026240219228744519 0 0.0013684374747045672 -0.026003388428042125 0 0.0012756252188952401 -0.026240219228744519 0 0.0013684374747045672 -0.026003388428042125 0 0.0015337790962953509 -0.026076183319157401 0 0.0016780819253597618 -0.02608872434336381 0 0.0015337790962953509 -0.026076183319157401 0 0.0017142613591671855 -0.025998034089238588 0 0.0016780819253597618 -0.02608872434336381 0 0.0012756252188952401 -0.026240219228744519 0 0.0015337790962953509 -0.026076183319157401 0 0.0017489727789006559 -0.026056408915408159 0 0.0017142613591671855 -0.025998034089238588 0 0.001613203536757792 -0.025978587225964602 0 0.0015337790962953509 -0.026076183319157401 0 0.0017142613591671855 -0.025998034089238588 0 0.001613203536757792 -0.025978587225964602 0 0.0015337790962953509 -0.026076183319157401 0 0.001613203536757792 -0.025978587225964602 0 0.0016641286574999557 -0.025827927522192744 0 0.001613203536757792 -0.025978587225964602 0 0.001559433339174452 -0.025803262094469853 0 0.0016641286574999557 -0.025827927522192744 0 0.0017167164003223305 -0.026006798578608339 0 0.001613203536757792 -0.025978587225964602 0 0.001559433339174452 -0.025803262094469853 0 0.0049362034295692249 -0.023035199710446316 0 0.0040923361696349773 -0.025511917686143477 0 0.0058455641688885491 -0.024618415289097226 0 0.0066644057418609546 -0.023392841742863237 0 0.0049362034295692249 -0.023035199710446316 0 0.0058455641688885491 -0.024618415289097226 0 0.001559433339174452 -0.025803262094469853 0 0.0020136658328537759 -0.025189173788345204 0 0.0016641286574999557 -0.025827927522192744 0 0.0049362034295692249 -0.023035199710446316 0 0.0020136658328537759 -0.025189173788345204 0 0.0040923361696349773 -0.025511917686143477 0 0.0031703267830502564 -0.024697159198782792 0 0.0021899508780884483 -0.02500742197927475 0 0.0015187433437794187 -0.025680025254619317 0 0.0020136658328537759 -0.025189173788345204 0 0.0016641286574999557 -0.025827927522192744 0 0.0015187433437794187 -0.025680025254619317 0 0.0013684374747045672 -0.026003388428042125 0 0.0016641286574999557 -0.025827927522192744 0 0.0015501513366668784 -0.025692930538359519 0 0.0015187433437794187 -0.025680025254619317 0 0.0020136658328537759 -0.025189173788345204 0 0.0015501513366668784 -0.025692930538359519 0 0.0013602629058967163 -0.026200697509385928 0 0.0020101419513096027 -0.026184048136710086 0 0.0015501513366668784 -0.025692930538359519 0 0.0020136658328537759 -0.025189173788345204 0 0.0020101419513096027 -0.026184048136710086 0 0.0020136658328537759 -0.025189173788345204 0 0.0029574991984110724 -0.026230169116000138 0 0.0020101419513096027 -0.026184048136710086 0 0.0020136658328537759 -0.025189173788345204 0 0.0029574991984110724 -0.026230169116000138 0 0.0040923361696349773 -0.025511917686143477 0 0.0029574991984110724 -0.026230169116000138 0 0.0027172075324250937 -0.027145940864002387 0 0.0036684024231660563 -0.026763068145725211 0 0.0029574991984110724 -0.026230169116000138 0 0.0020101419513096027 -0.026184048136710086 0 0.0027172075324250937 -0.027145940864002387 0 0.0013602629058967163 -0.026200697509385928 0 0.0020101419513096027 -0.026184048136710086 0 0.0018413460412252751 -0.027230764499333857 0 0.0020101419513096027 -0.026184048136710086 0 0.0018413460412252751 -0.027230764499333857 0 0.0027172075324250937 -0.027145940864002387 0 0.0018413460412252751 -0.027230764499333857 0 0.0027172075324250937 -0.027145940864002387 0 0.002372247936750272 -0.028393849997962035 0 0.0027172075324250937 -0.027145940864002387 0 0.002372247936750272 -0.028393849997962035 0 0.0034843157959490159 -0.027858156692245308 0 0.0035731649733137527 -0.02141536492825542 0 0.0066122690992214961 -0.024709740577950716 0 0.0068278793531576934 -0.02215190982690347 0 0.006538449938154979 -0.022061897430805083 0 0.0055328454004376871 -0.023124606541113053 0 0.0076610500724870875 -0.02011470380780837 0 0.0066122690992214961 -0.024709740577950716 0 0.0035731649733137527 -0.02141536492825542 0 0.0076610500724870875 -0.02011470380780837 0 0.0023591995508721801 -0.023554650181188946 0 0.0035731649733137527 -0.02141536492825542 0 0.001338839212176583 -0.027984185430348023 0 0.0018413460412252751 -0.027230764499333857 0 0.002372247936750272 -0.028393849997962035 0 0.0032209884206184781 -0.018576898112995965 0 0.0021464130417767359 -0.018245945451948502 0 0.0030034860622719446 -0.017613535760053364 0 0.0089620591464043605 -0.022868997359136695 0 0.0087121361484933917 -0.022732450744782959 0 0.0091221163444847615 -0.022547428896813871 0 0.0089620591464043605 -0.022868997359136695 0 0.0087149537955621258 -0.02299624123216262 0 0.0087121361484933917 -0.022732450744782959 0 0.0094773099205712093 -0.022663997376120602 0 0.0092379122099234129 -0.022940972109555209 0 0.0091221163444847615 -0.022547428896813871 0 0.0089620591464043605 -0.022868997359136695 0 0.0092379122099234129 -0.022940972109555209 0 0.0091221163444847615 -0.022547428896813871 0 0.0027172075324250937 -0.027145940864002387 0 0.0034843157959490159 -0.027858156692245308 0 0.0036684024231660563 -0.026763068145725211 0 0.0089620591464043605 -0.022868997359136695 0 0.0092379122099234129 -0.022940972109555209 0 0.009004296589556194 -0.023143001374960413 0 0.0066122690992214961 -0.024709740577950716 0 0.0070956613905886062 -0.025215065912850457 0 0.0066122690992214961 -0.024709740577950716 0 0.0094911541988975355 -0.022890068019875094 0 0.0093052165763615642 -0.023101215591916174 0 0.0091100468135274833 -0.023259244531242427 0 0.0090111698338010675 -0.023432787428007126 0 0.0034843157959490159 -0.027858156692245308 0 0.0053360777695977473 -0.026799117070246681 0 0.0036684024231660563 -0.026763068145725211 0 0.009004296589556194 -0.023143001374960413 0 0.0087149537955621258 -0.02299624123216262 0 0.0086638383423633444 -0.023194200872699699 0 0.0089620591464043605 -0.022868997359136695 0 0.009004296589556194 -0.023143001374960413 0 0.0087149537955621258 -0.02299624123216262 0 0.0094911541988975355 -0.022890068019875094 0 0.008601473204028565 -0.02348851029766251 0 0.009004296589556194 -0.023143001374960413 0 0.0087180732790816083 -0.023394944041014124 0 0.0086638383423633444 -0.023194200872699699 0 0.0091100468135274833 -0.023259244531242427 0 0.0090111698338010675 -0.023432787428007126 0 0.0087180732790816083 -0.023394944041014124 0 0.0090111698338010675 -0.023432787428007126 0 0.0087180732790816083 -0.023394944041014124 0 0.0084799242801440015 -0.023574396332815363 0 0.0053360777695977473 -0.026799117070246681 0 0.0036684024231660563 -0.026763068145725211 0 0.0040923361696349773 -0.025511917686143477 0 0.0029574991984110724 -0.026230169116000138 0 0.0036684024231660563 -0.026763068145725211 0 0.0040923361696349773 -0.025511917686143477 0 0.0053360777695977473 -0.026799117070246681 0 0.0040923361696349773 -0.025511917686143477 0 0.0058455641688885491 -0.024618415289097226 0 0.0053360777695977473 -0.026799117070246681 0 0.0058455641688885491 -0.024618415289097226 0 0.0079006643901658354 -0.024175616949072457 0 0.0066644057418609546 -0.023392841742863237 0 0.0058455641688885491 -0.024618415289097226 0 0.0079006643901658354 -0.024175616949072457 0 0.0070956613905886062 -0.025215065912850457 0 0.0079246888263909548 -0.024181381771925241 0 0.0079006643901658354 -0.024175616949072457 0 0.0084799242801440015 -0.023574396332815363 0 0.0083354635392261477 -0.023540390719367116 0 0.0079006643901658354 -0.024175616949072457 0 0.0082752734138067646 -0.023683167780592134 0 0.0083354635392261477 -0.023540390719367116 0 0.0079006643901658354 -0.024175616949072457 0 0.0084128320333439581 -0.023857383888798808 0 0.0082752734138067646 -0.023683167780592134 0 0.0084128320333439581 -0.023857383888798808 0 0.0082752734138067646 -0.023683167780592134 0 0.0083724373411907232 -0.023401996964342409 0 0.0082752734138067646 -0.023683167780592134 0 0.008388434784758602 -0.023297248341671555 0 0.0083354635392261477 -0.023540390719367116 0 0.0082752734138067646 -0.023683167780592134 0 0.008388434784758602 -0.023297248341671555 0 0.0083724373411907232 -0.023401996964342409 0 0.008388434784758602 -0.023297248341671555 0 0.0083724373411907232 -0.023401996964342409 0 0.0084563948380510477 -0.023034897834129115 0 0.008388434784758602 -0.023297248341671555 0 0.0083354635392261477 -0.023540390719367116 0 0.0085021643486478584 -0.023189703121019391 0 0.0090111698338010675 -0.023432787428007126 0 0.0079006643901658354 -0.024175616949072457 0 0.0084799242801440015 -0.023574396332815363 0 0.0085296886109871 -0.023378294352571889 0 0.0083354635392261477 -0.023540390719367116 0 0.0085021643486478584 -0.023189703121019391 0 0.0087180732790816083 -0.023394944041014124 0 0.0085296886109871 -0.023378294352571889 0 0.0086638383423633444 -0.023194200872699699 0 0.0085296886109871 -0.023378294352571889 0 0.0086638383423633444 -0.023194200872699699 0 0.0085021643486478584 -0.023189703121019391 0 0.0087180732790816083 -0.023394944041014124 0 0.0085296886109871 -0.023378294352571889 0 0.0084799242801440015 -0.023574396332815363 0 0.0085296886109871 -0.023378294352571889 0 0.0084799242801440015 -0.023574396332815363 0 0.0083354635392261477 -0.023540390719367116 0 0.0084640834231702548 -0.017739523007206569 0 0.008214720778224209 -0.017913514449266883 0 0.0086282544255091055 -0.0180578877379549 0 0.0084078552473121765 -0.017397866189646539 0 0.0084640834231702548 -0.017739523007206569 0 0.0081512545797964939 -0.017569173212196802 0 0.0084640834231702548 -0.017739523007206569 0 0.0081512545797964939 -0.017569173212196802 0 0.008214720778224209 -0.017913514449266883 0 0.008324591357359681 -0.020128058163678318 0 0.008233469621835689 -0.02099675539786169 0 0.0076496434247597276 -0.017503009251933339 0 0.0081512545797964939 -0.017569173212196802 0 0.008214720778224209 -0.017913514449266883 0 0.0076496434247597276 -0.017503009251933339 0 0.008214720778224209 -0.017913514449266883 0 0.0079677713579550911 -0.018601487782389899 0 0.0084128320333439581 -0.023857383888798808 0 0.0083724373411907232 -0.023401996964342409 0 0.0083432293932801955 -0.023023845028834141 0 0.0083724373411907232 -0.023401996964342409 0 0.0083432293932801955 -0.023023845028834141 0 0.0084563948380510477 -0.023034897834129115 0 0.0079677713579550911 -0.018601487782389899 0 0.0098378810514079939 -0.019650988922186988 0 0.0098085629766623758 -0.017737988263126041 0 0.008214720778224209 -0.017913514449266883 0 0.0079677713579550911 -0.018601487782389899 0 0.0098085629766623758 -0.017737988263126041 0 0.0085259068554505678 -0.017892098600726884 0 0.0088658392084802213 -0.017831990205914357 0 0.0083432293932801955 -0.023023845028834141 0 0.008694187434398936 -0.022755704483832753 0 0.0096828371401749477 -0.022226619343833191 0 0.0079677713579550911 -0.018601487782389899 0 0.0096828371401749477 -0.022226619343833191 0 0.0098378810514079939 -0.019650988922186988 0 0.008233469621835689 -0.02099675539786169 0 0.0096044900155897971 -0.022225321116105968 0 0.008694187434398936 -0.022755704483832753 0 0.0085753426615527151 -0.022870510385491167 0 0.0088403552790678949 -0.022747209904084884 0 0.0083432293932801955 -0.023023845028834141 0 0.008694187434398936 -0.022755704483832753 0 0.0084563948380510477 -0.023034897834129115 0 0.008694187434398936 -0.022755704483832753 0 0.0084563948380510477 -0.023034897834129115 0 0.0085753426615527151 -0.022870510385491167 0 0.0084563948380510477 -0.023034897834129115 0 0.0085753426615527151 -0.022870510385491167 0 0.0084641409437417308 -0.022988613058015302 0 0.00857005184481144 -0.022916370656779105 0 0.0087744909222864029 -0.023080998025381844 0 0.0085065762981868659 -0.023049214583850279 0 0.0085753426615527151 -0.022870510385491167 0 0.00857005184481144 -0.022916370656779105 0 0.0088403552790678949 -0.022747209904084884 0 0.00857005184481144 -0.022916370656779105 0 0.0087744909222864029 -0.023080998025381844 0 0.0088403552790678949 -0.022747209904084884 0 0.0087744909222864029 -0.023080998025381844 0 0.0088403552790678949 -0.022747209904084884 0 0.0092194233667207866 -0.023365054067415666 0 0.008694187434398936 -0.022755704483832753 0 0.0088403552790678949 -0.022747209904084884 0 0.0096828371401749477 -0.022226619343833191 0 0.0088403552790678949 -0.022747209904084884 0 0.0092194233667207866 -0.023365054067415666 0 0.0096828371401749477 -0.022226619343833191 0 0.0087149537955621258 -0.02299624123216262 0 0.0085021643486478584 -0.023189703121019391 0 0.0084760905860980403 -0.022916204379071405 0 0.0087149537955621258 -0.02299624123216262 0 0.0086638383423633444 -0.023194200872699699 0 0.0085021643486478584 -0.023189703121019391 0 0.0085021643486478584 -0.023189703121019391 0 0.0084641409437417308 -0.022988613058015302 0 0.0084760905860980403 -0.022916204379071405 0 0.008388434784758602 -0.023297248341671555 0 0.0085021643486478584 -0.023189703121019391 0 0.0084641409437417308 -0.022988613058015302 0 0.008388434784758602 -0.023297248341671555 0 0.0084563948380510477 -0.023034897834129115 0 0.0084641409437417308 -0.022988613058015302 0 0.0085753426615527151 -0.022870510385491167 0 0.00857005184481144 -0.022916370656779105 0 0.0084641409437417308 -0.022988613058015302 0 0.00857005184481144 -0.022916370656779105 0 0.0084641409437417308 -0.022988613058015302 0 0.0084760905860980403 -0.022916204379071405 0 0.00857005184481144 -0.022916370656779105 0 0.0084760905860980403 -0.022916204379071405 0 0.0085065762981868659 -0.023049214583850279 0 0.0084485712459275147 -0.022866084102709808 0 0.0085847540979394395 -0.0229198448101889 0 0.0084760905860980403 -0.022916204379071405 0 0.0087121361484933917 -0.022732450744782959 0 0.0083292730036500767 -0.022607067215523691 0 0.0087149537955621258 -0.02299624123216262 0 0.0084760905860980403 -0.022916204379071405 0 0.0087121361484933917 -0.022732450744782959 0 0.0087121361484933917 -0.022732450744782959 0 0.0087468337358339726 -0.022409256057559956 0 0.0083292730036500767 -0.022607067215523691 0 0.0091310988851968748 -0.019426269772021554 0 0.011298444120049982 -0.017275590980054774 0 0.0083292730036500767 -0.022607067215523691 0 0.0083698783354628839 -0.022257748582914523 0 0.0081982270464428277 -0.022322741551428358 0 0.0087468337358339726 -0.022409256057559956 0 0.0083292730036500767 -0.022607067215523691 0 0.0083698783354628839 -0.022257748582914523 0 0.0085847540979394395 -0.0229198448101889 0 0.011664794099697265 -0.019794980170037873 0 0.013945396721932459 -0.014064322127839476 0 0.014474270987866784 -0.014229183232573042 0 0.013992559137699588 -0.014831521673911219 0 0.011298444120049982 -0.017275590980054774 0 0.011664794099697265 -0.019794980170037873 0 0.011298444120049982 -0.017275590980054774 0 0.015079418876515633 -0.0166330962917625 0 0.010198752636802626 -0.016206141657372903 0 0.010628242493968045 -0.016349568744446673 0 0.010147306630951727 -0.016500145245789952 0 0.013945396721932459 -0.014064322127839476 0 0.013992559137699588 -0.014831521673911219 0 0.013079272407125388 -0.014370926377031763 0 0.011298444120049982 -0.017275590980054774 0 0.011913966265491245 -0.015098511636326703 0 0.017841297894416575 -0.017208889418603667 0 0.017672045110963659 -0.017506013052381867 0 0.018117905517349472 -0.017402804483678681 0 0.017841297894416575 -0.017208889418603667 0 0.016908637184400367 -0.01740655785473276 0 0.017672045110963659 -0.017506013052381867 0 0.0087744909222864029 -0.023080998025381844 0 0.0092194233667207866 -0.023365054067415666 0 0.0087055708123492063 -0.02330538429418326 0 0.013774506329166753 -0.020321901606062825 0 0.011664794099697265 -0.019794980170037873 0 0.0087744909222864029 -0.023080998025381844 0 0.0085065762981868659 -0.023049214583850279 0 0.0087055708123492063 -0.02330538429418326 0 0.016908637184400367 -0.01740655785473276 0 0.017168238767665912 -0.017712120477586336 0 0.017672045110963659 -0.017506013052381867 0 0.011664794099697265 -0.019794980170037873 0 0.015079418876515633 -0.0166330962917625 0 0.011793424420895529 -0.017405166725190678 0 0.013007840032125203 -0.016949786457223708 0 0.013649425619050016 -0.017995099600319062 0 0.015079418876515633 -0.0166330962917625 0 0.015582903721930082 -0.015188315160329284 0 0.015079418876515633 -0.0166330962917625 0 0.017765795119515111 -0.016750487388290262 0 0.016259488556805344 -0.015520015079715163 0 0.017052962410235222 -0.015763655015506632 0 0.016598878475522428 -0.016055516223112534 0 0.017168238767665912 -0.017712120477586336 0 0.017672045110963659 -0.017506013052381867 0 0.017985959222081342 -0.017674471341750691 0 0.017672045110963659 -0.017506013052381867 0 0.017985959222081342 -0.017674471341750691 0 0.018117905517349472 -0.017402804483678681 0 0.017052962410235222 -0.015763655015506632 0 0.017105164621808677 -0.016106031365595734 0 0.016598878475522428 -0.016055516223112534 0 0.015582903721930082 -0.015188315160329284 0 0.017310275137732516 -0.01512635273832132 0 0.017105164621808677 -0.016106031365595734 0 0.016598878475522428 -0.016055516223112534 0 0.016933480156580048 -0.016589497035432433 0 0.014474270987866784 -0.014229183232573042 0 0.014775487190428481 -0.01469785263328958 0 0.013992559137699588 -0.014831521673911219 0 0.014775487190428481 -0.01469785263328958 0 0.014537183220823351 -0.015090552976671811 0 0.013992559137699588 -0.014831521673911219 0 0.014775487190428481 -0.01469785263328958 0 0.014537183220823351 -0.015090552976671811 0 0.01507826170120802 -0.015170835095015602 0 0.014537183220823351 -0.015090552976671811 0 0.013992559137699588 -0.014831521673911219 0 0.01430305497332607 -0.015662486316312969 0 0.014537183220823351 -0.015090552976671811 0 0.01507826170120802 -0.015170835095015602 0 0.01430305497332607 -0.015662486316312969 0 0.017310275137732516 -0.01512635273832132 0 0.015582212915283878 -0.01417803231087598 0 0.017756250795249468 -0.012686749975030947 0 0.017181424689674048 -0.012823770234042004 0 0.0176131900877066 -0.013172971781344529 0 0.017310275137732516 -0.01512635273832132 0 0.018440431947903763 -0.013616678247989827 0 0.013992559137699588 -0.014831521673911219 0 0.013476719854366317 -0.015397622369006082 0 0.013079272407125388 -0.014370926377031763 0 0.013992559137699588 -0.014831521673911219 0 0.013476719854366317 -0.015397622369006082 0 0.01430305497332607 -0.015662486316312969 0 0.013476719854366317 -0.015397622369006082 0 0.012722538295686042 -0.015126486577784591 0 0.012797476127907768 -0.01578519142017152 0 0.010789953451839021 -0.015911238429348728 0 0.011913966265491245 -0.015098511636326703 0 0.012722538295686042 -0.015126486577784591 0 0.012195626938904833 -0.014680327104468909 0 0.013079272407125388 -0.014370926377031763 0 0.013476719854366317 -0.015397622369006082 0 0.012722538295686042 -0.015126486577784591 0 0.013079272407125388 -0.014370926377031763 0 0.012722538295686042 -0.015126486577784591 0 0.012048910031927759 -0.015402959743468843 0 0.012797476127907768 -0.01578519142017152 0 0.012722538295686042 -0.015126486577784591 0 0.012195626938904833 -0.014680327104468909 0 0.012048910031927759 -0.015402959743468843 0 0.012751822548433033 -0.013965751437390053 0 0.013311884898563215 -0.014545848238704679 0 0.013062993298112243 -0.012607941316777027 0 0.012184185750271727 -0.012808096056271675 0 0.012033508430806288 -0.012068060486180263 0 0.012751822548433033 -0.013965751437390053 0 0.010432709334510676 -0.014371340833698508 0 0.0097070837861924896 -0.012771868367057473 0 0.011268515083290333 -0.011834042647506647 0 0.0079263114843044387 -0.011197922681366381 0 0.0093698865031632255 -0.010666984620187557 0 0.0091319274920427258 -0.012919436538136139 0 0.012184185750271727 -0.012808096056271675 0 0.01178742248103902 -0.012159834095220947 0 0.011663323584632056 -0.013356234986774787 0 0.012184185750271727 -0.012808096056271675 0 0.01178742248103902 -0.012159834095220947 0 0.012033508430806288 -0.012068060486180263 0 0.0091677055488574265 -0.016723134494586407 0 0.0093172564150015499 -0.016591993735280142 0 0.0091833886432541867 -0.016452975657480336 0 0.009145498830273515 -0.016663028766839602 0 0.009056999921516623 -0.016544264061948432 0 0.0091833886432541867 -0.016452975657480336 0 0.0092879154545414851 -0.014618204523358358 0 0.0091054471494929588 -0.017116541885808838 0 0.0074590654367675353 -0.012425379697350955 0 0.0082477562455266495 -0.012609178433303683 0 0.008287642483584462 -0.012247840577938113 0 0.0097070837861924896 -0.012771868367057473 0 0.0092879154545414851 -0.014618204523358358 0 0.0091677055488574265 -0.016723134494586407 0 0.0092459974294410649 -0.016764001968097159 0 0.0093172564150015499 -0.016591993735280142 0 0.0097070837861924896 -0.012771868367057473 0 0.010432709334510676 -0.014371340833698508 0 0.0093154361622430817 -0.014157117960366544 0 0.0093516412889998336 -0.013823659732062879 0 0.009704843734338324 -0.014012886459836792 0 0.0092879154545414851 -0.014618204523358358 0 0.010432709334510676 -0.014371340833698508 0 0.010789953451839021 -0.015911238429348728 0 0.010432709334510676 -0.014371340833698508 0 0.0096832629237448009 -0.016634398604916473 0 0.0092459974294410649 -0.016764001968097159 0 0.0093172564150015499 -0.016591993735280142 0 0.012195626938904833 -0.014680327104468909 0 0.012048910031927759 -0.015402959743468843 0 0.011290904560194942 -0.015002034254656382 0 0.0096832629237448009 -0.016634398604916473 0 0.0093172564150015499 -0.016591993735280142 0 0.0094748784412803273 -0.016323851732081195 0 0.0093172564150015499 -0.016591993735280142 0 0.0094748784412803273 -0.016323851732081195 0 0.0091833886432541867 -0.016452975657480336 0 0.0088610447974213618 -0.016430102898040897 0 0.0091833886432541867 -0.016452975657480336 0 0.0091127705017744007 -0.016212884749726215 0 0.0094748784412803273 -0.016323851732081195 0 0.0091833886432541867 -0.016452975657480336 0 0.0091127705017744007 -0.016212884749726215 0 0.004350803270966235 -0.018092777032274528 0 0.0039739704882862581 -0.017974566514593081 0 0.0053873501312964684 -0.016518290108105738 0 0.0076610500724870875 -0.02011470380780837 0 0.0074424661455789179 -0.016132516502501224 0 0.004350803270966235 -0.018092777032274528 0 0.0053873501312964684 -0.016518290108105738 0 0.0056971445651578653 -0.017105576146839004 0 0.0035731649733137527 -0.02141536492825542 0 0.0045559696127108742 -0.017214032206997555 0 0.009381615215519239 -0.015974415694468429 0 0.0094748784412803273 -0.016323851732081195 0 0.0097820690370818766 -0.016084094115323751 0 0.009381615215519239 -0.015974415694468429 0 0.0094748784412803273 -0.016323851732081195 0 0.0091127705017744007 -0.016212884749726215 0 0.0076610500724870875 -0.02011470380780837 0 0.0098203603246376399 -0.019301061994892225 0 0.0094748784412803273 -0.016323851732081195 0 0.0097820690370818766 -0.016084094115323751 0 0.0098539340318783506 -0.016350665448881325 0 0.0087121361484933917 -0.022732450744782959 0 0.0087468337358339726 -0.022409256057559956 0 0.0091221163444847615 -0.022547428896813871 0 0.0091310988851968748 -0.019426269772021554 0 0.0098203603246376399 -0.019301061994892225 0 0.010198752636802626 -0.016206141657372903 0 0.0097820690370818766 -0.016084094115323751 0 0.0098539340318783506 -0.016350665448881325 0 0.0096832629237448009 -0.016634398604916473 0 0.010147306630951727 -0.016500145245789952 0 0.0098539340318783506 -0.016350665448881325 0 0.010198752636802626 -0.016206141657372903 0 0.010147306630951727 -0.016500145245789952 0 0.0098539340318783506 -0.016350665448881325 0 0.0096832629237448009 -0.016634398604916473 0 0.0094748784412803273 -0.016323851732081195 0 0.0098539340318783506 -0.016350665448881325 0 0.018738049927336076 -0.017291023034904898 0 0.018411856657553016 -0.018122650627533741 0 0.018400737325244099 -0.017971784105691588 0 0.018738049927336076 -0.017291023034904898 0 0.018400737325244099 -0.017971784105691588 0 0.018789562667607489 -0.016988922056060809 0 0.018738049927336076 -0.017291023034904898 0 0.018462187517058335 -0.017699208248474051 0 0.018411856657553016 -0.018122650627533741 0 0.018738049927336076 -0.017291023034904898 0 0.018462187517058335 -0.017699208248474051 0 0.018508039840612341 -0.017190829317237474 0 0.018462187517058335 -0.017699208248474051 0 0.018411856657553016 -0.018122650627533741 0 0.018230998490546432 -0.018302337562668605 0 0.018411856657553016 -0.018122650627533741 0 0.018190725241915777 -0.018714804352357371 0 0.018400737325244099 -0.017971784105691588 0 0.018190725241915777 -0.018714804352357371 0 0.017645462804388574 -0.019400879601900047 0 0.018400737325244099 -0.017971784105691588 0 0.017645462804388574 -0.019400879601900047 0 0.017618649762543549 -0.018285703539024221 0 0.018400737325244099 -0.017971784105691588 0 0.017618649762543549 -0.018285703539024221 0 0.018400737325244099 -0.017971784105691588 0 0.018175644164298763 -0.016964635601067951 0 0.018400737325244099 -0.017971784105691588 0 0.018789562667607489 -0.016988922056060809 0 0.018175644164298763 -0.016964635601067951 0 0.018789562667607489 -0.016988922056060809 0 0.018175644164298763 -0.016964635601067951 0 0.018863650698875131 -0.015474155838649679 0 0.017618649762543549 -0.018285703539024221 0 0.018175644164298763 -0.016964635601067951 0 0.017260030432360119 -0.01716396136819856 0 0.018863650698875131 -0.015474155838649679 0 0.018000037751307832 -0.015402739874971948 0 0.018601370433193883 -0.014021067149433984 0 0.018175644164298763 -0.016964635601067951 0 0.018863650698875131 -0.015474155838649679 0 0.018000037751307832 -0.015402739874971948 0 0.018789562667607489 -0.016988922056060809 0 0.018863650698875131 -0.015474155838649679 0 0.019264034782007985 -0.016421818635118237 0 0.018863650698875131 -0.015474155838649679 0 0.019264034782007985 -0.016421818635118237 0 0.019814960790270869 -0.014391087297227967 0 0.019264034782007985 -0.016421818635118237 0 0.018832058230354439 -0.01681035442719914 0 0.019231202784432345 -0.017039150532767569 0 0.018738049927336076 -0.017291023034904898 0 0.018789562667607489 -0.016988922056060809 0 0.019264034782007985 -0.016421818635118237 0 0.018738049927336076 -0.017291023034904898 0 0.018733050945111473 -0.016895700088753171 0 0.018508039840612341 -0.017190829317237474 0 0.018738049927336076 -0.017291023034904898 0 0.019264034782007985 -0.016421818635118237 0 0.018733050945111473 -0.016895700088753171 0 0.018733050945111473 -0.016895700088753171 0 0.018832058230354439 -0.01681035442719914 0 0.018601266815648974 -0.016882926984810854 0 0.019264034782007985 -0.016421818635118237 0 0.018733050945111473 -0.016895700088753171 0 0.018832058230354439 -0.01681035442719914 0 0.018832058230354439 -0.01681035442719914 0 0.01858723454964192 -0.016934193362902049 0 0.018601266815648974 -0.016882926984810854 0 0.01858723454964192 -0.016934193362902049 0 0.018601266815648974 -0.016882926984810854 0 0.018440999957610383 -0.016875759248584924 0 0.018601266815648974 -0.016882926984810854 0 0.018440999957610383 -0.016875759248584924 0 0.018474284941408192 -0.016911627432684959 0 0.01858723454964192 -0.016934193362902049 0 0.018440999957610383 -0.016875759248584924 0 0.018327371214878051 -0.017037689578828469 0 0.018440999957610383 -0.016875759248584924 0 0.018170132451171189 -0.016692665808090746 0 0.018327371214878051 -0.017037689578828469 0 0.01771282659999824 -0.016047981987288285 0 0.017034341680340494 -0.015736047717512067 0 0.018170132451171189 -0.016692665808090746 0 0.017737712342329296 -0.016016062941691927 0 0.018327371214878051 -0.017037689578828469 0 0.018440999957610383 -0.016875759248584924 0 0.018170132451171189 -0.016692665808090746 0 0.018474284941408192 -0.016911627432684959 0 0.018170132451171189 -0.016692665808090746 0 0.018353896381979439 -0.017019910008306889 0 0.018474284941408192 -0.016911627432684959 0 0.018170132451171189 -0.016692665808090746 0 0.018178346548999257 -0.016949070570629627 0 0.018004133267349818 -0.016584964392063327 0 0.018170132451171189 -0.016692665808090746 0 0.018178346548999257 -0.016949070570629627 0 0.018353896381979439 -0.017019910008306889 0 0.018353896381979439 -0.017019910008306889 0 0.018474284941408192 -0.016911627432684959 0 0.018508039840612341 -0.017190829317237474 0 0.018733050945111473 -0.016895700088753171 0 0.018474284941408192 -0.016911627432684959 0 0.018508039840612341 -0.017190829317237474 0 0.018733050945111473 -0.016895700088753171 0 0.018601266815648974 -0.016882926984810854 0 0.018474284941408192 -0.016911627432684959 0 0.018436866161502564 -0.015580287269679589 0 0.017737712342329296 -0.016016062941691927 0 0.018205876944772145 -0.013706277094985311 0 0.01963424062971085 -0.015841833168476992 0 0.018436866161502564 -0.015580287269679589 0 0.018205876944772145 -0.013706277094985311 0 0.018170132451171189 -0.016692665808090746 0 0.017737712342329296 -0.016016062941691927 0 0.018004133267349818 -0.016584964392063327 0 0.017737712342329296 -0.016016062941691927 0 0.018100343259554182 -0.016909987078260306 0 0.018120375336109065 -0.01698972129309944 0 0.018178346548999257 -0.016949070570629627 0 0.018004133267349818 -0.016584964392063327 0 0.018040550020320342 -0.016764141263836543 0 0.018178346548999257 -0.016949070570629627 0 0.018040550020320342 -0.016764141263836543 0 0.018161865684010181 -0.017031465874409273 0 0.018178346548999257 -0.016949070570629627 0 0.018161865684010181 -0.017031465874409273 0 0.018264486682999178 -0.017200322930214847 0 0.018161865684010181 -0.017031465874409273 0 0.018149596508106484 -0.017036537231968928 0 0.018217586899345939 -0.01716330751223389 0 0.018040550020320342 -0.016764141263836543 0 0.018161865684010181 -0.017031465874409273 0 0.018149596508106484 -0.017036537231968928 0 0.018040550020320342 -0.016764141263836543 0 0.018149596508106484 -0.017036537231968928 0 0.018100343259554182 -0.016909987078260306 0 0.018149596508106484 -0.017036537231968928 0 0.018237846221279882 -0.017205532949765855 0 0.018217586899345939 -0.01716330751223389 0 0.018149596508106484 -0.017036537231968928 0 0.018188368108517101 -0.017099124565771399 0 0.018100343259554182 -0.016909987078260306 0 0.018149596508106484 -0.017036537231968928 0 0.018188368108517101 -0.017099124565771399 0 0.018237846221279882 -0.017205532949765855 0 0.018188368108517101 -0.017099124565771399 0 0.018309740442745498 -0.017208586670838123 0 0.018237846221279882 -0.017205532949765855 0 0.018188368108517101 -0.017099124565771399 0 0.018100343259554182 -0.016909987078260306 0 0.018309740442745498 -0.017208586670838123 0 0.018124685917533072 -0.016702017381747515 0 0.018084831107013775 -0.016631847711698799 0 0.017737712342329296 -0.016016062941691927 0 0.018040550020320342 -0.016764141263836543 0 0.018100343259554182 -0.016909987078260306 0 0.017737712342329296 -0.016016062941691927 0 0.018004133267349818 -0.016584964392063327 0 0.018040550020320342 -0.016764141263836543 0 0.01963424062971085 -0.015841833168476992 0 0.018436866161502564 -0.015580287269679589 0 0.018120375336109065 -0.01698972129309944 0 0.017105164621808677 -0.016106031365595734 0 0.016933480156580048 -0.016589497035432433 0 0.017831555479565161 -0.016015265999412852 0 0.017052962410235222 -0.015763655015506632 0 0.017105164621808677 -0.016106031365595734 0 0.017831555479565161 -0.016015265999412852 0 0.017310275137732516 -0.01512635273832132 0 0.018084831107013775 -0.016631847711698799 0 0.017765795119515111 -0.016750487388290262 0 0.018084831107013775 -0.016631847711698799 0 0.018436866161502564 -0.015580287269679589 0 0.017737712342329296 -0.016016062941691927 0 0.018120375336109065 -0.01698972129309944 0 0.017985959222081342 -0.017674471341750691 0 0.018309740442745498 -0.017208586670838123 0 0.018223157692864825 -0.017439642102139517 0 0.017985959222081342 -0.017674471341750691 0 0.018223157692864825 -0.017439642102139517 0 0.018117905517349472 -0.017402804483678681 0 0.018223157692864825 -0.017439642102139517 0 0.018315342840412127 -0.017395355272710612 0 0.018277907278128995 -0.017297994528911644 0 0.018309740442745498 -0.017208586670838123 0 0.018223157692864825 -0.017439642102139517 0 0.018277907278128995 -0.017297994528911644 0 0.018223157692864825 -0.017439642102139517 0 0.018315342840412127 -0.017395355272710612 0 0.018330189399199944 -0.017442968518586035 0 0.018223157692864825 -0.017439642102139517 0 0.018330189399199944 -0.017442968518586035 0 0.018117905517349472 -0.017402804483678681 0 0.018315342840412127 -0.017395355272710612 0 0.018283982084318046 -0.017294228021950103 0 0.018374836835933449 -0.017422117554432844 0 0.018315342840412127 -0.017395355272710612 0 0.018277907278128995 -0.017297994528911644 0 0.018283982084318046 -0.017294228021950103 0 0.018277907278128995 -0.017297994528911644 0 0.018237846221279882 -0.017205532949765855 0 0.018283982084318046 -0.017294228021950103 0 0.018309740442745498 -0.017208586670838123 0 0.018277907278128995 -0.017297994528911644 0 0.018237846221279882 -0.017205532949765855 0 0.018237846221279882 -0.017205532949765855 0 0.018217586899345939 -0.01716330751223389 0 0.018283982084318046 -0.017294228021950103 0 0.018217586899345939 -0.01716330751223389 0 0.018283982084318046 -0.017294228021950103 0 0.018264486682999178 -0.017200322930214847 0 0.018161865684010181 -0.017031465874409273 0 0.018217586899345939 -0.01716330751223389 0 0.018264486682999178 -0.017200322930214847 0 0.018264486682999178 -0.017200322930214847 0 0.018374836835933449 -0.017422117554432844 0 0.018370427028052215 -0.017315590269792038 0 0.018283982084318046 -0.017294228021950103 0 0.018264486682999178 -0.017200322930214847 0 0.018374836835933449 -0.017422117554432844 0 0.018374836835933449 -0.017422117554432844 0 0.01849052858531464 -0.017630657018678636 0 0.018370427028052215 -0.017315590269792038 0 0.01849052858531464 -0.017630657018678636 0 0.018330189399199944 -0.017442968518586035 0 0.018402540004707531 -0.017445850697712224 0 0.018374836835933449 -0.017422117554432844 0 0.01849052858531464 -0.017630657018678636 0 0.018330189399199944 -0.017442968518586035 0 0.018315342840412127 -0.017395355272710612 0 0.018374836835933449 -0.017422117554432844 0 0.018330189399199944 -0.017442968518586035 0 0.018330189399199944 -0.017442968518586035 0 0.018117905517349472 -0.017402804483678681 0 0.018402540004707531 -0.017445850697712224 0 0.013774506329166753 -0.020321901606062825 0 0.014989596884353413 -0.0201778486890027 0 0.017841297894416575 -0.017208889418603667 0 0.018117905517349472 -0.017402804483678681 0 0.018402540004707531 -0.017445850697712224 0 0.018462187517058335 -0.017699208248474051 0 0.018508039840612341 -0.017190829317237474 0 0.018456035748432676 -0.017674703709000025 0 0.018508039840612341 -0.017190829317237474 0 0.018370427028052215 -0.017315590269792038 0 0.018456035748432676 -0.017674703709000025 0 0.018353896381979439 -0.017019910008306889 0 0.018508039840612341 -0.017190829317237474 0 0.018370427028052215 -0.017315590269792038 0 0.018178346548999257 -0.016949070570629627 0 0.018353896381979439 -0.017019910008306889 0 0.018370427028052215 -0.017315590269792038 0 0.018178346548999257 -0.016949070570629627 0 0.018264486682999178 -0.017200322930214847 0 0.018370427028052215 -0.017315590269792038 0 0.01849052858531464 -0.017630657018678636 0 0.018456035748432676 -0.017674703709000025 0 0.018589608325975344 -0.018079005421567311 0 0.01849052858531464 -0.017630657018678636 0 0.018370427028052215 -0.017315590269792038 0 0.018456035748432676 -0.017674703709000025 0 0.018462187517058335 -0.017699208248474051 0 0.018456035748432676 -0.017674703709000025 0 0.018230998490546432 -0.018302337562668605 0 0.018456035748432676 -0.017674703709000025 0 0.018589608325975344 -0.018079005421567311 0 0.018230998490546432 -0.018302337562668605 0 0.018589608325975344 -0.018079005421567311 0 0.017973308446729928 -0.019138710742025916 0 0.018230998490546432 -0.018302337562668605 0 0.015181993683266093 -0.021304435219784278 0 0.013911011892226764 -0.019562542282471208 0 0.015864990875776124 -0.018223829422800358 0 0.015181993683266093 -0.021304435219784278 0 0.017973308446729928 -0.019138710742025916 0 0.015864990875776124 -0.018223829422800358 0 0.017069960875075559 -0.018603235518354279 0 0.017974704573402688 -0.018829832703268202 0 0.017973308446729928 -0.019138710742025916 0 0.015864990875776124 -0.018223829422800358 0 0.018222764869263521 -0.018835528521210933 0 0.016802846869326031 -0.019689017334279472 0 0.017821397786774822 -0.01923185364893042 0 0.011691618912871148 -0.022943719591855028 0 0.0096828371401749477 -0.022226619343833191 0 0.011880665228275933 -0.020392411020453589 0 0.0092194233667207866 -0.023365054067415666 0 0.011691618912871148 -0.022943719591855028 0 0.0096828371401749477 -0.022226619343833191 0 0.015181993683266093 -0.021304435219784278 0 0.011691618912871148 -0.022943719591855028 0 0.011880665228275933 -0.020392411020453589 0 0.016802846869326031 -0.019689017334279472 0 0.014989596884353413 -0.0201778486890027 0 0.01849052858531464 -0.017630657018678636 0 0.018589608325975344 -0.018079005421567311 0 0.018402540004707531 -0.017445850697712224 0 0.015181993683266093 -0.021304435219784278 0 0.013911011892226764 -0.019562542282471208 0 0.011880665228275933 -0.020392411020453589 0 0.013911011892226764 -0.019562542282471208 0 0.011880665228275933 -0.020392411020453589 0 0.011957088661103156 -0.017832915994471212 0 0.011880665228275933 -0.020392411020453589 0 0.010944786042975359 -0.019066240287477013 0 0.011957088661103156 -0.017832915994471212 0 0.0096828371401749477 -0.022226619343833191 0 0.011880665228275933 -0.020392411020453589 0 0.0098378810514079939 -0.019650988922186988 0 0.011880665228275933 -0.020392411020453589 0 0.0098378810514079939 -0.019650988922186988 0 0.010944786042975359 -0.019066240287477013 0 0.0098378810514079939 -0.019650988922186988 0 0.0098085629766623758 -0.017737988263126041 0 0.010944786042975359 -0.019066240287477013 0 0.0098085629766623758 -0.017737988263126041 0 0.010944786042975359 -0.019066240287477013 0 0.011957088661103156 -0.017832915994471212 0 0.0088658392084802213 -0.017831990205914357 0 0.012932148489817283 -0.0190189631090323 0 0.013911011892226764 -0.019562542282471208 0 0.011957088661103156 -0.017832915994471212 0 0.015864990875776124 -0.018223829422800358 0 0.012932148489817283 -0.0190189631090323 0 0.017069960875075559 -0.018603235518354279 0 0.017056032233905095 -0.018985882369827248 0 0.017581475999032901 -0.019040577235574382 0 0.0173906382667578 -0.01880667326034495 0 0.017056032233905095 -0.018985882369827248 0 0.017217222104160448 -0.018638280300687579 0 0.016991934545693515 -0.018684667210759228 0 0.017056032233905095 -0.018985882369827248 0 0.017217222104160448 -0.018638280300687579 0 0.0173906382667578 -0.01880667326034495 0 0.017217222104160448 -0.018638280300687579 0 0.0173906382667578 -0.01880667326034495 0 0.01742487518439903 -0.018656348337679055 0 0.0086282544255091055 -0.0180578877379549 0 0.0091024441115190209 -0.018183489937408544 0 0.0089758588827225667 -0.017641564865328363 0 0.012932148489817283 -0.0190189631090323 0 0.012972813788834298 -0.017653148829081387 0 0.0084078552473121765 -0.017397866189646539 0 0.0084640834231702548 -0.017739523007206569 0 0.0089758588827225667 -0.017641564865328363 0 0.0084640834231702548 -0.017739523007206569 0 0.0086282544255091055 -0.0180578877379549 0 0.0089758588827225667 -0.017641564865328363 0 0.017940472397550797 -0.018827300269058916 0 0.017581475999032901 -0.019040577235574382 0 0.018222764869263521 -0.018835528521210933 0 0.017940472397550797 -0.018827300269058916 0 0.017581475999032901 -0.019040577235574382 0 0.017635665022409024 -0.018747755412228381 0 0.017581475999032901 -0.019040577235574382 0 0.017635665022409024 -0.018747755412228381 0 0.0173906382667578 -0.01880667326034495 0 0.017635665022409024 -0.018747755412228381 0 0.01742487518439903 -0.018656348337679055 0 0.017535938958320993 -0.018637106130811154 0 0.017635665022409024 -0.018747755412228381 0 0.0173906382667578 -0.01880667326034495 0 0.01742487518439903 -0.018656348337679055 0 0.017635665022409024 -0.018747755412228381 0 0.017839583465044495 -0.018657638998418796 0 0.017535938958320993 -0.018637106130811154 0 0.017940472397550797 -0.018827300269058916 0 0.017635665022409024 -0.018747755412228381 0 0.017839583465044495 -0.018657638998418796 0 0.015401340886703916 -0.025227197469950051 0 0.016107809360463722 -0.024607272983890309 0 0.016796679700371499 -0.023817635309928108 0 0.015401340886703916 -0.025227197469950051 0 0.016107809360463722 -0.024607272983890309 0 0.015542637754575006 -0.025071518116536198 0 0.016572019949992727 -0.021886557318842179 0 0.017429714461631621 -0.021273236126201939 0 0.017940472397550797 -0.018827300269058916 0 0.017839583465044495 -0.018657638998418796 0 0.018200145385138745 -0.01884645550068836 0 0.016447761937351469 -0.024179671504211089 0 0.016658808659635035 -0.023677288321713119 0 0.016118089260856058 -0.024707333009484876 0 0.016107809360463722 -0.024607272983890309 0 0.016447761937351469 -0.024179671504211089 0 0.016796679700371499 -0.023817635309928108 0 0.016107809360463722 -0.024607272983890309 0 0.016447761937351469 -0.024179671504211089 0 0.016118089260856058 -0.024707333009484876 0 0.016796679700371499 -0.023817635309928108 0 0.017539454605912656 -0.021951210013308343 0 0.016658808659635035 -0.023677288321713119 0 0.016447761937351469 -0.024179671504211089 0 0.016796679700371499 -0.023817635309928108 0 0.016658808659635035 -0.023677288321713119 0 0.017940472397550797 -0.018827300269058916 0 0.018200145385138745 -0.01884645550068836 0 0.018222764869263521 -0.018835528521210933 0 0.018200145385138745 -0.01884645550068836 0 0.018222764869263521 -0.018835528521210933 0 0.01814741315036552 -0.018849213284899694 0 0.018200145385138745 -0.01884645550068836 0 0.01814741315036552 -0.018849213284899694 0 0.01818142074898263 -0.018713294807307594 0 0.017973308446729928 -0.019138710742025916 0 0.018222764869263521 -0.018835528521210933 0 0.01814741315036552 -0.018849213284899694 0 0.018200145385138745 -0.01884645550068836 0 0.01818142074898263 -0.018713294807307594 0 0.018150577721561031 -0.018820664346920323 0 0.017429714461631621 -0.021273236126201939 0 0.017755489533802439 -0.020315210407869468 0 0.018411856657553016 -0.018122650627533741 0 0.018190725241915777 -0.018714804352357371 0 0.01818142074898263 -0.018713294807307594 0 0.018190725241915777 -0.018714804352357371 0 0.01818142074898263 -0.018713294807307594 0 0.018150577721561031 -0.018820664346920323 0 0.01814741315036552 -0.018849213284899694 0 0.01818142074898263 -0.018713294807307594 0 0.018230998490546432 -0.018302337562668605 0 0.017973308446729928 -0.019138710742025916 0 0.01814741315036552 -0.018849213284899694 0 0.018230998490546432 -0.018302337562668605 0 0.018411856657553016 -0.018122650627533741 0 0.01818142074898263 -0.018713294807307594 0 0.018230998490546432 -0.018302337562668605 0 0.017645462804388574 -0.019400879601900047 0 0.016815985584151327 -0.021864931436290314 0 0.016512369038825785 -0.021008683694705543 0 0.017645462804388574 -0.019400879601900047 0 0.017539454605912656 -0.021951210013308343 0 0.016815985584151327 -0.021864931436290314 0 0.018190725241915777 -0.018714804352357371 0 0.017645462804388574 -0.019400879601900047 0 0.018150577721561031 -0.018820664346920323 0 0.017537571115432655 -0.019397547680169956 0 0.017755489533802439 -0.020315210407869468 0 0.017539454605912656 -0.021951210013308343 0 0.016815985584151327 -0.021864931436290314 0 0.01682157590836713 -0.022689148705756123 0 0.016815985584151327 -0.021864931436290314 0 0.016353410391310722 -0.023146619269765332 0 0.01682157590836713 -0.022689148705756123 0 0.017539454605912656 -0.021951210013308343 0 0.01682157590836713 -0.022689148705756123 0 0.016658808659635035 -0.023677288321713119 0 0.016353410391310722 -0.023146619269765332 0 0.01682157590836713 -0.022689148705756123 0 0.016658808659635035 -0.023677288321713119 0 0.016658808659635035 -0.023677288321713119 0 0.01631579635865012 -0.02430666920933373 0 0.016118089260856058 -0.024707333009484876 0 0.016353410391310722 -0.023146619269765332 0 0.016658808659635035 -0.023677288321713119 0 0.01631579635865012 -0.02430666920933373 0 0.016353410391310722 -0.023146619269765332 0 0.01631579635865012 -0.02430666920933373 0 0.01612591404206869 -0.024386911666527077 0 0.016353410391310722 -0.023146619269765332 0 0.01612591404206869 -0.024386911666527077 0 0.015809198777647492 -0.024442765329540032 0 0.01612591404206869 -0.024386911666527077 0 0.01591330398203444 -0.024677348445108691 0 0.01605812613238819 -0.024735821728647925 0 0.01631579635865012 -0.02430666920933373 0 0.01612591404206869 -0.024386911666527077 0 0.01605812613238819 -0.024735821728647925 0 0.01612591404206869 -0.024386911666527077 0 0.01591330398203444 -0.024677348445108691 0 0.015809198777647492 -0.024442765329540032 0 0.01591330398203444 -0.024677348445108691 0 0.015872971306169804 -0.024828310741454352 0 0.01605812613238819 -0.024735821728647925 0 0.015872971306169804 -0.024828310741454352 0 0.01605812613238819 -0.024735821728647925 0 0.015874065996903428 -0.024857415807034256 0 0.01605812613238819 -0.024735821728647925 0 0.015774887217890148 -0.024940500658079488 0 0.015904008900734401 -0.024823104385611305 0 0.01605812613238819 -0.024735821728647925 0 0.015874065996903428 -0.024857415807034256 0 0.015904008900734401 -0.024823104385611305 0 0.01605812613238819 -0.024735821728647925 0 0.016118089260856058 -0.024707333009484876 0 0.015774887217890148 -0.024940500658079488 0 0.01631579635865012 -0.02430666920933373 0 0.01605812613238819 -0.024735821728647925 0 0.016118089260856058 -0.024707333009484876 0 0.016107809360463722 -0.024607272983890309 0 0.016118089260856058 -0.024707333009484876 0 0.015542637754575006 -0.025071518116536198 0 0.016118089260856058 -0.024707333009484876 0 0.015542637754575006 -0.025071518116536198 0 0.015102615697495608 -0.025261603050285571 0 0.015542637754575006 -0.025071518116536198 0 0.015102615697495608 -0.025261603050285571 0 0.014710082011764611 -0.02542705206669589 0 0.015102615697495608 -0.025261603050285571 0 0.015774887217890148 -0.024940500658079488 0 0.015305512497036169 -0.025000437313463443 0 0.015102615697495608 -0.025261603050285571 0 0.015305512497036169 -0.025000437313463443 0 0.013659500530065071 -0.025287113690145573 0 0.016118089260856058 -0.024707333009484876 0 0.015102615697495608 -0.025261603050285571 0 0.015774887217890148 -0.024940500658079488 0 0.015769730801376867 -0.024774316435367146 0 0.015305512497036169 -0.025000437313463443 0 0.015511582140347613 -0.024411968912922726 0 0.015774887217890148 -0.024940500658079488 0 0.015769730801376867 -0.024774316435367146 0 0.015305512497036169 -0.025000437313463443 0 0.015305512497036169 -0.025000437313463443 0 0.015511582140347613 -0.024411968912922726 0 0.013659500530065071 -0.025287113690145573 0 0.014041257864015919 -0.025014081103314906 0 0.013666250547968968 -0.025250256561322165 0 0.012653178214563729 -0.025452133011128013 0 0.013092111562700817 -0.025615095983119663 0 0.01295472772571573 -0.025699142126267546 0 0.012653178214563729 -0.025452133011128013 0 0.013659500530065071 -0.025287113690145573 0 0.013092111562700817 -0.025615095983119663 0 0.014041257864015919 -0.025014081103314906 0 0.013878833351203499 -0.025594113066182592 0 0.015511582140347613 -0.024411968912922726 0 0.015787452613235595 -0.02472403809288784 0 0.015879282051840079 -0.02490584210265679 0 0.015769730801376867 -0.024774316435367146 0 0.015511582140347613 -0.024411968912922726 0 0.015787452613235595 -0.02472403809288784 0 0.015769730801376867 -0.024774316435367146 0 0.015787452613235595 -0.02472403809288784 0 0.015843706343009658 -0.024799287371790702 0 0.015787452613235595 -0.02472403809288784 0 0.015843706343009658 -0.024799287371790702 0 0.015819121789586905 -0.024823146825563289 0 0.015843706343009658 -0.024799287371790702 0 0.015789478495563003 -0.024862868620664245 0 0.015831564577877228 -0.024855503585347237 0 0.015843706343009658 -0.024799287371790702 0 0.015819121789586905 -0.024823146825563289 0 0.015789478495563003 -0.024862868620664245 0 0.015819121789586905 -0.024823146825563289 0 0.015774358017081418 -0.024887940763849911 0 0.015879282051840079 -0.02490584210265679 0 0.015787452613235595 -0.02472403809288784 0 0.015819121789586905 -0.024823146825563289 0 0.015879282051840079 -0.02490584210265679 0 0.015819121789586905 -0.024823146825563289 0 0.015774358017081418 -0.024887940763849911 0 0.015789478495563003 -0.024862868620664245 0 0.015774358017081418 -0.024887940763849911 0 0.015709218342632204 -0.02492844910673828 0 0.015676501646781221 -0.024966134473283171 0 0.015709218342632204 -0.02492844910673828 0 0.015745381615150471 -0.024914868937170452 0 0.015789478495563003 -0.024862868620664245 0 0.015774358017081418 -0.024887940763849911 0 0.015709218342632204 -0.02492844910673828 0 0.015789478495563003 -0.024862868620664245 0 0.015667607533020447 -0.024971057802785829 0 0.015626732059583731 -0.024989307348180837 0 0.015593783308087408 -0.025021217970086322 0 0.015709218342632204 -0.02492844910673828 0 0.015667607533020447 -0.024971057802785829 0 0.015626732059583731 -0.024989307348180837 0 0.015709218342632204 -0.02492844910673828 0 0.015667607533020447 -0.024971057802785829 0 0.015745381615150471 -0.024914868937170452 0 0.015745381615150471 -0.024914868937170452 0 0.015783778337671878 -0.024912691769729624 0 0.015705237233279209 -0.024971813018267997 0 0.015667607533020447 -0.024971057802785829 0 0.015745381615150471 -0.024914868937170452 0 0.015705237233279209 -0.024971813018267997 0 0.015745381615150471 -0.024914868937170452 0 0.015831564577877228 -0.024855503585347237 0 0.015783778337671878 -0.024912691769729624 0 0.015745381615150471 -0.024914868937170452 0 0.015789478495563003 -0.024862868620664245 0 0.015831564577877228 -0.024855503585347237 0 0.015831564577877228 -0.024855503585347237 0 0.015783778337671878 -0.024912691769729624 0 0.015874065996903428 -0.024857415807034256 0 0.015783778337671878 -0.024912691769729624 0 0.015874065996903428 -0.024857415807034256 0 0.015799966007874748 -0.024909254840378009 0 0.015872971306169804 -0.024828310741454352 0 0.015874065996903428 -0.024857415807034256 0 0.015799966007874748 -0.024909254840378009 0 0.015831564577877228 -0.024855503585347237 0 0.015874065996903428 -0.024857415807034256 0 0.015904008900734401 -0.024823104385611305 0 0.015774887217890148 -0.024940500658079488 0 0.015769730801376867 -0.024774316435367146 0 0.015904008900734401 -0.024823104385611305 0 0.015769730801376867 -0.024774316435367146 0 0.015843706343009658 -0.024799287371790702 0 0.015904008900734401 -0.024823104385611305 0 0.015843706343009658 -0.024799287371790702 0 0.015831564577877228 -0.024855503585347237 0 0.015904008900734401 -0.024823104385611305 0 0.016610204826380665 -0.018748259963579615 0 0.016815464919963191 -0.018587287506320826 0 0.01654819040756067 -0.018464059122239793 0 0.0029190051760573702 -0.026213413779245239 0 0.0032930639275277917 -0.026501190670773209 0 0.0031520173126288369 -0.02611203005091443 0 0.01057702565340855 -0.020630677184510442 0 0.0097472568018718772 -0.022458226678972643 0 0.0084078552473121765 -0.017397866189646539 0 0.0089758588827225667 -0.017641564865328363 0 0.0088622237802981844 -0.017143295962039198 0 0.012972813788834298 -0.017653148829081387 0 0.01057702565340855 -0.020630677184510442 0 0.017217222104160448 -0.018638280300687579 0 0.016896205186898168 -0.018367428961710317 0 0.017291302319214445 -0.018458471017908235 0 0.01057702565340855 -0.020630677184510442 0 0.018202377035189565 -0.018755963415065472 0 0.017217222104160448 -0.018638280300687579 0 0.016991934545693515 -0.018684667210759228 0 0.016896205186898168 -0.018367428961710317 0 0.017217222104160448 -0.018638280300687579 0 0.01742487518439903 -0.018656348337679055 0 0.017291302319214445 -0.018458471017908235 0 0.016815464919963191 -0.018587287506320826 0 0.017280278217890823 -0.018577207335491817 0 0.016747065878327763 -0.018418776614181221 0 0.017009796421412315 -0.018784698379986378 0 0.016815464919963191 -0.018587287506320826 0 0.017280278217890823 -0.018577207335491817 0 0.016610204826380665 -0.018748259963579615 0 0.017009796421412315 -0.018784698379986378 0 0.016815464919963191 -0.018587287506320826 0 0.015283175500288916 -0.022172410522221131 0 0.014422915314544137 -0.022284072069024635 0 0.013482768764991064 -0.025883252456012921 0 0.012953186658377382 -0.025774616230118935 0 0.011492855858955216 -0.026362800339684342 0 0.013482768764991064 -0.025883252456012921 0 0.01388922823862313 -0.02555327143167117 0 0.012953186658377382 -0.025774616230118935 0 0.017009796421412315 -0.018784698379986378 0 0.017280278217890823 -0.018577207335491817 0 0.017535938958320993 -0.018637106130811154 0 0.01742487518439903 -0.018656348337679055 0 0.017291302319214445 -0.018458471017908235 0 0.017535938958320993 -0.018637106130811154 0 0.018202377035189565 -0.018755963415065472 0 0.017092533245696345 -0.018559845706857762 0 0.015401340886703916 -0.025227197469950051 0 0.013482768764991064 -0.025883252456012921 0 0.014710082011764611 -0.02542705206669589 0 0.017839583465044495 -0.018657638998418796 0 0.017280278217890823 -0.018577207335491817 0 0.017535938958320993 -0.018637106130811154 0 0.015401340886703916 -0.025227197469950051 0 0.015542637754575006 -0.025071518116536198 0 0.014710082011764611 -0.02542705206669589 0 0.016572019949992727 -0.021886557318842179 0 0.015283175500288916 -0.022172410522221131 0 0.015102615697495608 -0.025261603050285571 0 0.01388922823862313 -0.02555327143167117 0 0.013659500530065071 -0.025287113690145573 0 0.015102615697495608 -0.025261603050285571 0 0.014710082011764611 -0.02542705206669589 0 0.01388922823862313 -0.02555327143167117 0 0.013482768764991064 -0.025883252456012921 0 0.014710082011764611 -0.02542705206669589 0 0.01388922823862313 -0.02555327143167117 0 0.01388922823862313 -0.02555327143167117 0 0.013659500530065071 -0.025287113690145573 0 0.012953186658377382 -0.025774616230118935 0 0.013659500530065071 -0.025287113690145573 0 0.012965871775019336 -0.025611243132098824 0 0.012953186658377382 -0.025774616230118935 0 0.013092111562700817 -0.025615095983119663 0 0.012965871775019336 -0.025611243132098824 0 0.012553017411781648 -0.025646057824019602 0 0.013092111562700817 -0.025615095983119663 0 0.012553017411781648 -0.025646057824019602 0 0.012818526782459804 -0.025551412981065138 0 0.013659500530065071 -0.025287113690145573 0 0.013092111562700817 -0.025615095983119663 0 0.012965871775019336 -0.025611243132098824 0 0.012553017411781648 -0.025646057824019602 0 0.012039348257455628 -0.02592476711989232 0 0.011569764231549939 -0.025622814060387078 0 0.012965871775019336 -0.025611243132098824 0 0.012553017411781648 -0.025646057824019602 0 0.012039348257455628 -0.02592476711989232 0 0.012039348257455628 -0.02592476711989232 0 0.012953186658377382 -0.025774616230118935 0 0.011492855858955216 -0.026362800339684342 0 0.012965871775019336 -0.025611243132098824 0 0.012039348257455628 -0.02592476711989232 0 0.012953186658377382 -0.025774616230118935 0 0.016815464919963191 -0.018587287506320826 0 0.016747065878327763 -0.018418776614181221 0 0.01654819040756067 -0.018464059122239793 0 0.012039348257455628 -0.02592476711989232 0 0.011492855858955216 -0.026362800339684342 0 0.010575644180036814 -0.026008673696232616 0 0.012039348257455628 -0.02592476711989232 0 0.010575644180036814 -0.026008673696232616 0 0.011569764231549939 -0.025622814060387078 0 0.0029292668958713539 -0.025891378610132163 0 0.0030438957992478658 -0.025750934504482754 0 0.0031520173126288369 -0.02611203005091443 0 0.011492855858955216 -0.026362800339684342 0 0.010575644180036814 -0.026008673696232616 0 0.0090141585697608405 -0.026243184705505972 0 0.010575644180036814 -0.026008673696232616 0 0.0090141585697608405 -0.026243184705505972 0 0.0093625299870748954 -0.026096443942509418 0 0.014422915314544137 -0.022284072069024635 0 0.010469555227520239 -0.023060007794914239 0 0.010469555227520239 -0.023060007794914239 0 0.0097472568018718772 -0.022458226678972643 0 0.010469555227520239 -0.023060007794914239 0 0.010462682870217529 -0.023399327623145824 0 0.0090141585697608405 -0.026243184705505972 0 0.008961626932136894 -0.026089726431554366 0 0.0090965152174473894 -0.026098875073224018 0 0.0090141585697608405 -0.026243184705505972 0 0.0090965152174473894 -0.026098875073224018 0 0.0093625299870748954 -0.026096443942509418 0 0.016747065878327763 -0.018418776614181221 0 0.016423826569233746 -0.018341437921903774 0 0.01654819040756067 -0.018464059122239793 0 0.0078722400838000511 -0.025145334868864846 0 0.0080941007778198466 -0.025604534675060447 0 0.0087286465183828103 -0.025589956501771205 0 0.0078722400838000511 -0.025145334868864846 0 0.0087286465183828103 -0.025589956501771205 0 0.010010452080714631 -0.025657401258837195 0 0.0080941007778198466 -0.025604534675060447 0 0.0087286465183828103 -0.025589956501771205 0 0.0089259181963919302 -0.02602878074412928 0 0.0090965152174473894 -0.026098875073224018 0 0.0093625299870748954 -0.026096443942509418 0 0.0089259181963919302 -0.02602878074412928 0 0.008961626932136894 -0.026089726431554366 0 0.0090965152174473894 -0.026098875073224018 0 0.0089259181963919302 -0.02602878074412928 0 0.0087286465183828103 -0.025589956501771205 0 0.0089259181963919302 -0.02602878074412928 0 0.010010452080714631 -0.025657401258837195 0 0.0093625299870748954 -0.026096443942509418 0 0.0089259181963919302 -0.02602878074412928 0 0.010010452080714631 -0.025657401258837195 0 0.010575644180036814 -0.026008673696232616 0 0.0093625299870748954 -0.026096443942509418 0 0.010010452080714631 -0.025657401258837195 0 0.010010452080714631 -0.025657401258837195 0 0.011658231166664822 -0.024535888678567559 0 0.011569764231549939 -0.025622814060387078 0 0.010575644180036814 -0.026008673696232616 0 0.010010452080714631 -0.025657401258837195 0 0.011569764231549939 -0.025622814060387078 0 0.0080794507614456983 -0.025145692482934252 0 0.009860415898193118 -0.025296832103666084 0 0.0078722400838000511 -0.025145334868864846 0 0.0080337047670161078 -0.026019797814078909 0 0.0075770810705454265 -0.025446564281909199 0 0.0078722400838000511 -0.025145334868864846 0 0.010010452080714631 -0.025657401258837195 0 0.011658231166664822 -0.024535888678567559 0 0.011658231166664822 -0.024535888678567559 0 0.011569764231549939 -0.025622814060387078 0 0.012599280772672578 -0.025376175894681378 0 0.012553017411781648 -0.025646057824019602 0 0.011569764231549939 -0.025622814060387078 0 0.012599280772672578 -0.025376175894681378 0 0.011658231166664822 -0.024535888678567559 0 0.012599280772672578 -0.025376175894681378 0 0.013140783393661299 -0.025368206906490259 0 0.012553017411781648 -0.025646057824019602 0 0.012599280772672578 -0.025376175894681378 0 0.012818526782459804 -0.025551412981065138 0 0.012599280772672578 -0.025376175894681378 0 0.012818526782459804 -0.025551412981065138 0 0.012892916467720984 -0.025513919798902052 0 0.013092111562700817 -0.025615095983119663 0 0.012818526782459804 -0.025551412981065138 0 0.012988384646509782 -0.025601499976879289 0 0.012818526782459804 -0.025551412981065138 0 0.012892916467720984 -0.025513919798902052 0 0.012988384646509782 -0.025601499976879289 0 0.012599280772672578 -0.025376175894681378 0 0.01308192243938051 -0.025489610101204877 0 0.013140783393661299 -0.025368206906490259 0 0.012599280772672578 -0.025376175894681378 0 0.012892916467720984 -0.025513919798902052 0 0.01308192243938051 -0.025489610101204877 0 0.012892916467720984 -0.025513919798902052 0 0.012988384646509782 -0.025601499976879289 0 0.01308192243938051 -0.025489610101204877 0 0.011228893399298039 -0.025878182635084446 0 0.010993115163186889 -0.026149604719017942 0 0.0080337047670161078 -0.026019797814078909 0 0.009118726298023714 -0.026460530117648581 0 0.008567551538761679 -0.02568143976813787 0 0.009118726298023714 -0.026460530117648581 0 0.008567551538761679 -0.02568143976813787 0 0.00959367281172732 -0.02576330388325684 0 0.009860415898193118 -0.025296832103666084 0 0.010993115163186889 -0.026149604719017942 0 0.008567551538761679 -0.02568143976813787 0 0.0091051487623857712 -0.024999780780078969 0 0.00959367281172732 -0.02576330388325684 0 0.008567551538761679 -0.02568143976813787 0 0.0091051487623857712 -0.024999780780078969 0 0.0078899715085013426 -0.02499979216781913 0 0.008567551538761679 -0.02568143976813787 0 0.0078899715085013426 -0.02499979216781913 0 0.0075770810705454265 -0.025446564281909199 0 0.0080337047670161078 -0.026019797814078909 0 0.008567551538761679 -0.02568143976813787 0 0.0075770810705454265 -0.025446564281909199 0 0.0078899715085013426 -0.02499979216781913 0 0.0075770810705454265 -0.025446564281909199 0 0.0066738590111002352 -0.024999776863260829 0 0.0066654671390429269 -0.025174842063000667 0 0.0075770810705454265 -0.025446564281909199 0 0.0066738590111002352 -0.024999776863260829 0 0.0066654671390429269 -0.025174842063000667 0 0.0078722400838000511 -0.025145334868864846 0 0.0075770810705454265 -0.025446564281909199 0 0.01199715448011502 -0.026126916163535262 0 0.011693435360859426 -0.026209303743298506 0 0.012051186769939944 -0.026196899925274054 0 0.01199715448011502 -0.026126916163535262 0 0.012208627543131715 -0.026189646067937732 0 0.012051186769939944 -0.026196899925274054 0 0.01199715448011502 -0.026126916163535262 0 0.011693435360859426 -0.026209303743298506 0 0.011430003898501207 -0.026022933348515628 0 0.01199715448011502 -0.026126916163535262 0 0.011430003898501207 -0.026022933348515628 0 0.011887334593249175 -0.025940860551612589 0 0.01199715448011502 -0.026126916163535262 0 0.012218320567664103 -0.026040395204642054 0 0.012215634362898022 -0.026175264453764335 0 0.01199715448011502 -0.026126916163535262 0 0.012218320567664103 -0.026040395204642054 0 0.011887334593249175 -0.025940860551612589 0 0.012218320567664103 -0.026040395204642054 0 0.012662253425058433 -0.025938089315690388 0 0.01235734509660019 -0.026295570734748579 0 0.012218320567664103 -0.026040395204642054 0 0.012215634362898022 -0.026175264453764335 0 0.01235734509660019 -0.026295570734748579 0 0.012215634362898022 -0.026175264453764335 0 0.012208627543131715 -0.026189646067937732 0 0.01235734509660019 -0.026295570734748579 0 0.01199715448011502 -0.026126916163535262 0 0.012215634362898022 -0.026175264453764335 0 0.012208627543131715 -0.026189646067937732 0 0.015576819197943086 -0.025031181539714713 0 0.015879282051840079 -0.02490584210265679 0 0.015358575138953324 -0.025168978123211682 0 0.012308460913847226 -0.026084117235281895 0 0.015169815572288694 -0.024797558079569706 0 0.015358575138953324 -0.025168978123211682 0 0.012208627543131715 -0.026189646067937732 0 0.012308460913847226 -0.026084117235281895 0 0.01235734509660019 -0.026295570734748579 0 0.011721000245921615 -0.026393643853416939 0 0.012308460913847226 -0.026084117235281895 0 0.015358575138953324 -0.025168978123211682 0 0.013878833351203499 -0.025594113066182592 0 0.01527668534328362 -0.025153034793164573 0 0.012441308030020734 -0.026126767477777074 0 0.013685150772026627 -0.025569926415783394 0 0.015576819197943086 -0.025031181539714713 0 0.015676501646781221 -0.024966134473283171 0 0.015879282051840079 -0.02490584210265679 0 0.015576819197943086 -0.025031181539714713 0 0.01553226280769548 -0.025052975892608482 0 0.015475374641588716 -0.025087979745260218 0 0.015600000979593994 -0.025010910166439079 0 0.015626732059583731 -0.024989307348180837 0 0.01553226280769548 -0.025052975892608482 0 0.015576819197943086 -0.025031181539714713 0 0.015600000979593994 -0.025010910166439079 0 0.01553226280769548 -0.025052975892608482 0 0.015576819197943086 -0.025031181539714713 0 0.015600000979593994 -0.025010910166439079 0 0.015676501646781221 -0.024966134473283171 0 0.015709218342632204 -0.02492844910673828 0 0.015626732059583731 -0.024989307348180837 0 0.015676501646781221 -0.024966134473283171 0 0.015600000979593994 -0.025010910166439079 0 0.015626732059583731 -0.024989307348180837 0 0.015676501646781221 -0.024966134473283171 0 0.015774358017081418 -0.024887940763849911 0 0.015676501646781221 -0.024966134473283171 0 0.015879282051840079 -0.02490584210265679 0 0.012653178214563729 -0.025452133011128013 0 0.011721000245921615 -0.026393643853416939 0 0.011820652636705984 -0.026379236632180423 0 0.011721000245921615 -0.026393643853416939 0 0.012308460913847226 -0.026084117235281895 0 0.011820652636705984 -0.026379236632180423 0 0.012308460913847226 -0.026084117235281895 0 0.012051186769939944 -0.026196899925274054 0 0.011820652636705984 -0.026379236632180423 0 0.012208627543131715 -0.026189646067937732 0 0.012308460913847226 -0.026084117235281895 0 0.012051186769939944 -0.026196899925274054 0 0.011693435360859426 -0.026209303743298506 0 0.012051186769939944 -0.026196899925274054 0 0.011820652636705984 -0.026379236632180423 0 0.012653178214563729 -0.025452133011128013 0 0.011820652636705984 -0.026379236632180423 0 0.01257985729948 -0.026119750635278955 0 0.011737979791880454 -0.026345012493273062 0 0.011875706822750812 -0.026262553252840628 0 0.011693435360859426 -0.026209303743298506 0 0.011820652636705984 -0.026379236632180423 0 0.010992156028578514 -0.026460623640507389 0 0.013055922378710555 -0.025572075746648024 0 0.01257985729948 -0.026119750635278955 0 0.01295472772571573 -0.025699142126267546 0 0.010993115163186889 -0.026149604719017942 0 0.011875706822750812 -0.026262553252840628 0 0.012653178214563729 -0.025452133011128013 0 0.01257985729948 -0.026119750635278955 0 0.01295472772571573 -0.025699142126267546 0 0.013092111562700817 -0.025615095983119663 0 0.012988384646509782 -0.025601499976879289 0 0.01295472772571573 -0.025699142126267546 0 0.012988384646509782 -0.025601499976879289 0 0.01308192243938051 -0.025489610101204877 0 0.01295472772571573 -0.025699142126267546 0 0.01308192243938051 -0.025489610101204877 0 0.013055922378710555 -0.025572075746648024 0 0.01295472772571573 -0.025699142126267546 0 0.010993115163186889 -0.026149604719017942 0 0.0099291642300312014 -0.025787425067447318 0 0.010379400680160009 -0.02636676009573713 0 0.010992156028578514 -0.026460623640507389 0 0.010868031660902196 -0.026050332865657715 0 0.010379400680160009 -0.02636676009573713 0 0.010868031660902196 -0.026050332865657715 0 0.010577856802132656 -0.025703389704211235 0 0.011693435360859426 -0.026209303743298506 0 0.011430003898501207 -0.026022933348515628 0 0.010992156028578514 -0.026460623640507389 0 0.011430003898501207 -0.026022933348515628 0 0.010992156028578514 -0.026460623640507389 0 0.010868031660902196 -0.026050332865657715 0 0.011430003898501207 -0.026022933348515628 0 0.010868031660902196 -0.026050332865657715 0 0.010999135062286773 -0.02570780411218292 0 0.010868031660902196 -0.026050332865657715 0 0.010999135062286773 -0.02570780411218292 0 0.010577856802132656 -0.025703389704211235 0 0.0099291642300312014 -0.025787425067447318 0 0.010321207622959691 -0.024999813092653058 0 0.0091051487623857712 -0.024999780780078969 0 0.00959367281172732 -0.02576330388325684 0 0.0103206082524072 -0.024999915082625203 0 0.010322267623031386 -0.024999935978760376 0 0.011060051809940411 -0.025344890074598996 0 0.011525720684777974 -0.024999835991437014 0 0.010999135062286773 -0.02570780411218292 0 0.010577856802132656 -0.025703389704211235 0 0.010322267623031386 -0.024999935978760376 0 0.010999135062286773 -0.02570780411218292 0 0.010322267623031386 -0.024999935978760376 0 0.011060051809940411 -0.025344890074598996 0 0.011060051809940411 -0.025344890074598996 0 0.011525720684777974 -0.024999835991437014 0 0.01153205011582888 -0.025694819483238634 0 0.011525720684777974 -0.024999835991437014 0 0.01153205011582888 -0.025694819483238634 0 0.012233972445816759 -0.025705624470625611 0 0.010999135062286773 -0.02570780411218292 0 0.011060051809940411 -0.025344890074598996 0 0.01153205011582888 -0.025694819483238634 0 0.011430003898501207 -0.026022933348515628 0 0.010999135062286773 -0.02570780411218292 0 0.01153205011582888 -0.025694819483238634 0 0.011430003898501207 -0.026022933348515628 0 0.01153205011582888 -0.025694819483238634 0 0.011887334593249175 -0.025940860551612589 0 0.01153205011582888 -0.025694819483238634 0 0.011887334593249175 -0.025940860551612589 0 0.012233972445816759 -0.025705624470625611 0 0.012218320567664103 -0.026040395204642054 0 0.012233972445816759 -0.025705624470625611 0 0.012662253425058433 -0.025938089315690388 0 0.012218320567664103 -0.026040395204642054 0 0.011887334593249175 -0.025940860551612589 0 0.012233972445816759 -0.025705624470625611 0 0.011525720684777974 -0.024999835991437014 0 0.012233972445816759 -0.025705624470625611 0 0.01273049823520812 -0.024999898165986949 0 0.012233972445816759 -0.025705624470625611 0 0.01273049823520812 -0.024999898165986949 0 0.013214638660602709 -0.025466528539560156 0 0.01393470598555189 -0.024999847875659807 0 0.013214638660602709 -0.025466528539560156 0 0.014224820462402038 -0.02543881528674307 0 0.01273049823520812 -0.024999898165986949 0 0.01393470598555189 -0.024999847875659807 0 0.013214638660602709 -0.025466528539560156 0 0.015597285814164608 -0.02472321770879159 0 0.015764727305431166 -0.024757959450999473 0 0.015775917300059238 -0.024598732687899368 0 0.013214638660602709 -0.025466528539560156 0 0.013293419526710107 -0.026001438705012543 0 0.014224820462402038 -0.02543881528674307 0 0.014486178331621155 -0.025294574421023525 0 0.014866928604439437 -0.025229455883028502 0 0.013293419526710107 -0.026001438705012543 0 0.012662253425058433 -0.025938089315690388 0 0.01235734509660019 -0.026295570734748579 0 0.012233972445816759 -0.025705624470625611 0 0.013214638660602709 -0.025466528539560156 0 0.012662253425058433 -0.025938089315690388 0 0.013214638660602709 -0.025466528539560156 0 0.013293419526710107 -0.026001438705012543 0 0.012662253425058433 -0.025938089315690388 0 0.015597285814164608 -0.02472321770879159 0 0.015169815572288694 -0.024797558079569706 0 0.015596403179772433 -0.024948651537892698 0 0.015169815572288694 -0.024797558079569706 0 0.015358575138953324 -0.025168978123211682 0 0.015596403179772433 -0.024948651537892698 0 0.014486178331621155 -0.025294574421023525 0 0.013685150772026627 -0.025569926415783394 0 0.015358575138953324 -0.025168978123211682 0 0.015596403179772433 -0.024948651537892698 0 0.015494459847276362 -0.025099298878292493 0 0.015597285814164608 -0.02472321770879159 0 0.015596403179772433 -0.024948651537892698 0 0.015764727305431166 -0.024757959450999473 0 0.015596403179772433 -0.024948651537892698 0 0.015747178392965629 -0.024995544995661874 0 0.015764727305431166 -0.024757959450999473 0 0.015596403179772433 -0.024948651537892698 0 0.015625637126993396 -0.025060265940415796 0 0.015494459847276362 -0.025099298878292493 0 0.015596403179772433 -0.024948651537892698 0 0.015625637126993396 -0.025060265940415796 0 0.015747178392965629 -0.024995544995661874 0 0.015625637126993396 -0.025060265940415796 0 0.015687894249963186 -0.025110200431286863 0 0.015747178392965629 -0.024995544995661874 0 0.015625637126993396 -0.025060265940415796 0 0.015637094102331439 -0.025089709111842908 0 0.015575444130010907 -0.025079100872264719 0 0.015625637126993396 -0.025060265940415796 0 0.015687894249963186 -0.025110200431286863 0 0.015637094102331439 -0.025089709111842908 0 0.015637094102331439 -0.025089709111842908 0 0.015575444130010907 -0.025079100872264719 0 0.015624531084841138 -0.025071979335423985 0 0.015575444130010907 -0.025079100872264719 0 0.015624531084841138 -0.025071979335423985 0 0.015604307763797476 -0.025041906131055298 0 0.015575444130010907 -0.025079100872264719 0 0.015555903476407949 -0.02506246490134157 0 0.015494459847276362 -0.025099298878292493 0 0.015575444130010907 -0.025079100872264719 0 0.015555903476407949 -0.02506246490134157 0 0.015604307763797476 -0.025041906131055298 0 0.015593783308087408 -0.025021217970086322 0 0.015555903476407949 -0.02506246490134157 0 0.015604307763797476 -0.025041906131055298 0 0.015626732059583731 -0.024989307348180837 0 0.015593783308087408 -0.025021217970086322 0 0.01553226280769548 -0.025052975892608482 0 0.015593783308087408 -0.025021217970086322 0 0.01553226280769548 -0.025052975892608482 0 0.015555903476407949 -0.02506246490134157 0 0.01553226280769548 -0.025052975892608482 0 0.015555903476407949 -0.02506246490134157 0 0.015494459847276362 -0.025099298878292493 0 0.015576819197943086 -0.025031181539714713 0 0.015358575138953324 -0.025168978123211682 0 0.015475374641588716 -0.025087979745260218 0 0.01553226280769548 -0.025052975892608482 0 0.015475374641588716 -0.025087979745260218 0 0.015494459847276362 -0.025099298878292493 0 0.015358575138953324 -0.025168978123211682 0 0.015475374641588716 -0.025087979745260218 0 0.015494459847276362 -0.025099298878292493 0 0.015625637126993396 -0.025060265940415796 0 0.015575444130010907 -0.025079100872264719 0 0.015494459847276362 -0.025099298878292493 0 0.015900020848348077 -0.025085316048875459 0 0.016156656474193256 -0.025011794129352772 0 0.016050555748770481 -0.025351342062254641 0 0.015900020848348077 -0.025085316048875459 0 0.015875787311780968 -0.025256546745193294 0 0.016050555748770481 -0.025351342062254641 0 0.015900020848348077 -0.025085316048875459 0 0.015782290209220243 -0.025148697592005841 0 0.015875787311780968 -0.025256546745193294 0 0.015687894249963186 -0.025110200431286863 0 0.015782290209220243 -0.025148697592005841 0 0.015747178392965629 -0.024995544995661874 0 0.015900020848348077 -0.025085316048875459 0 0.015782290209220243 -0.025148697592005841 0 0.015747178392965629 -0.024995544995661874 0 0.015747178392965629 -0.024995544995661874 0 0.015935562493209009 -0.024784626477712991 0 0.015764727305431166 -0.024757959450999473 0 0.015900020848348077 -0.025085316048875459 0 0.015747178392965629 -0.024995544995661874 0 0.015935562493209009 -0.024784626477712991 0 0.015900020848348077 -0.025085316048875459 0 0.015935562493209009 -0.024784626477712991 0 0.016156656474193256 -0.025011794129352772 0 0.015754088587799683 -0.025285861631033836 0 0.016191588935900243 -0.025563458680183147 0 0.015489392347989997 -0.025877642004665531 0 0.015261250695162105 -0.025424439621136441 0 0.015818494398786402 -0.025448892494579153 0 0.015754088587799683 -0.025285861631033836 0 0.014866928604439437 -0.025229455883028502 0 0.015489392347989997 -0.025877642004665531 0 0.014788366469116453 -0.025328808960056501 0 0.015261250695162105 -0.025424439621136441 0 0.015935562493209009 -0.024784626477712991 0 0.015764727305431166 -0.024757959450999473 0 0.015775917300059238 -0.024598732687899368 0 0.013935193535186293 -0.02499999745195804 0 0.014341296202536585 -0.025531760430472835 0 0.014976888079516099 -0.024999998367141958 0 0.014788366469116453 -0.025328808960056501 0 0.015261250695162105 -0.025424439621136441 0 0.014978112539419126 -0.024999724164068819 0 0.014866928604439437 -0.025229455883028502 0 0.014976584470109336 -0.025000310457267413 0 0.013935405711513232 -0.025000003320652497 0 0.014866928604439437 -0.025229455883028502 0 0.015261250695162105 -0.025424439621136441 0 0.014978112539419126 -0.024999724164068819 0 0.015818494398786402 -0.025448892494579153 0 0.014978112539419126 -0.024999724164068819 0 0.015818494398786402 -0.025448892494579153 0 0.016449113967026335 -0.024999904018180186 0 0.015818494398786402 -0.025448892494579153 0 0.016449113967026335 -0.024999904018180186 0 0.016469081543268448 -0.025876016117663037 0 0.016449113967026335 -0.024999904018180186 0 0.016469081543268448 -0.025876016117663037 0 0.017205845221934975 -0.025652706342480919 0 0.015489392347989997 -0.025877642004665531 0 0.015818494398786402 -0.025448892494579153 0 0.016469081543268448 -0.025876016117663037 0 0.017921287258870076 -0.024999544074702059 0 0.01804027531618687 -0.025717062805590218 0 0.018759052541567876 -0.025330835731213367 0 0.016449113967026335 -0.024999904018180186 0 0.017921287258870076 -0.024999544074702059 0 0.017205845221934975 -0.025652706342480919 0 0.017205845221934975 -0.025652706342480919 0 0.01804027531618687 -0.025717062805590218 0 0.017392025084554782 -0.025910304584725999 0 0.017921287258870076 -0.024999544074702059 0 0.017205845221934975 -0.025652706342480919 0 0.01804027531618687 -0.025717062805590218 0 0.017679929730302135 -0.026086239175254166 0 0.018220226011750714 -0.026010775501291487 0 0.017874337643818829 -0.026303136991670036 0 0.017679929730302135 -0.026086239175254166 0 0.017343718093732675 -0.026238433210542506 0 0.017874337643818829 -0.026303136991670036 0 0.01804027531618687 -0.025717062805590218 0 0.017679929730302135 -0.026086239175254166 0 0.018220226011750714 -0.026010775501291487 0 0.01804027531618687 -0.025717062805590218 0 0.017679929730302135 -0.026086239175254166 0 0.017392025084554782 -0.025910304584725999 0 0.017679929730302135 -0.026086239175254166 0 0.017320374923647183 -0.026092820610760018 0 0.017343718093732675 -0.026238433210542506 0 0.017679929730302135 -0.026086239175254166 0 0.017320374923647183 -0.026092820610760018 0 0.017392025084554782 -0.025910304584725999 0 0.017205845221934975 -0.025652706342480919 0 0.017392025084554782 -0.025910304584725999 0 0.016967260238720538 -0.026048172028958021 0 0.017320374923647183 -0.026092820610760018 0 0.017392025084554782 -0.025910304584725999 0 0.016967260238720538 -0.026048172028958021 0 0.016967260238720538 -0.026048172028958021 0 0.016817854024359351 -0.025999097776581291 0 0.017134280307582031 -0.026138649129742546 0 0.016817854024359351 -0.025999097776581291 0 0.017017981666624479 -0.026050849734345887 0 0.017134280307582031 -0.026138649129742546 0 0.017320374923647183 -0.026092820610760018 0 0.016967260238720538 -0.026048172028958021 0 0.017134280307582031 -0.026138649129742546 0 0.017134280307582031 -0.026138649129742546 0 0.017343718093732675 -0.026238433210542506 0 0.01716520330720786 -0.02619822528959179 0 0.017320374923647183 -0.026092820610760018 0 0.017134280307582031 -0.026138649129742546 0 0.017343718093732675 -0.026238433210542506 0 0.017017981666624479 -0.026050849734345887 0 0.017134280307582031 -0.026138649129742546 0 0.01716520330720786 -0.02619822528959179 0 0.017017981666624479 -0.026050849734345887 0 0.01716520330720786 -0.02619822528959179 0 0.017057024861563921 -0.02598940372884059 0 0.017343718093732675 -0.026238433210542506 0 0.01716520330720786 -0.02619822528959179 0 0.017091411404329307 -0.026388718872129392 0 0.01716520330720786 -0.02619822528959179 0 0.017057024861563921 -0.02598940372884059 0 0.017091411404329307 -0.026388718872129392 0 0.017343718093732675 -0.026238433210542506 0 0.017091411404329307 -0.026388718872129392 0 0.017874337643818829 -0.026303136991670036 0 0.016469081543268448 -0.025876016117663037 0 0.016597996934802167 -0.026028253632909549 0 0.01628243930423692 -0.026150770920437761 0 0.015489392347989997 -0.025877642004665531 0 0.016469081543268448 -0.025876016117663037 0 0.01628243930423692 -0.026150770920437761 0 0.016469081543268448 -0.025876016117663037 0 0.016967260238720538 -0.026048172028958021 0 0.016597996934802167 -0.026028253632909549 0 0.016469081543268448 -0.025876016117663037 0 0.017205845221934975 -0.025652706342480919 0 0.016967260238720538 -0.026048172028958021 0 0.016967260238720538 -0.026048172028958021 0 0.016817854024359351 -0.025999097776581291 0 0.016597996934802167 -0.026028253632909549 0 0.016817854024359351 -0.025999097776581291 0 0.016597996934802167 -0.026028253632909549 0 0.016541860062112147 -0.025729437717571021 0 0.016156656474193256 -0.025011794129352772 0 0.016541860062112147 -0.025729437717571021 0 0.016050555748770481 -0.025351342062254641 0 0.016597996934802167 -0.026028253632909549 0 0.01628243930423692 -0.026150770920437761 0 0.016541860062112147 -0.025729437717571021 0 0.016191588935900243 -0.025563458680183147 0 0.016485266505668533 -0.025709328012159777 0 0.016153462772556811 -0.025526411093626258 0 0.016541860062112147 -0.025729437717571021 0 0.016050555748770481 -0.025351342062254641 0 0.016153462772556811 -0.025526411093626258 0 0.016541860062112147 -0.025729437717571021 0 0.016405724381316291 -0.025697842689156532 0 0.016541860062112147 -0.025729437717571021 0 0.016405724381316291 -0.025697842689156532 0 0.016794051160632983 -0.025943892611352229 0 0.016817854024359351 -0.025999097776581291 0 0.016541860062112147 -0.025729437717571021 0 0.016794051160632983 -0.025943892611352229 0 0.016290663601138781 -0.024716693215604553 0 0.016722307631824439 -0.025189075539462428 0 0.016256649990782909 -0.025664052581714829 0 0.016405724381316291 -0.025697842689156532 0 0.016794051160632983 -0.025943892611352229 0 0.016471237873972595 -0.023981383687746289 0 0.016265509416582998 -0.023731784958555695 0 0.016697846586921413 -0.024308314391275846 0 0.016471237873972595 -0.023981383687746289 0 0.016265509416582998 -0.023731784958555695 0 0.016322942015243938 -0.023730437823898495 0 0.016256649990782909 -0.025664052581714829 0 0.016149396123439307 -0.02555655460916896 0 0.015960950799008711 -0.025428470914637208 0 0.016153462772556811 -0.025526411093626258 0 0.016149396123439307 -0.02555655460916896 0 0.016001570359945087 -0.02544365242350825 0 0.016256649990782909 -0.025664052581714829 0 0.016149396123439307 -0.02555655460916896 0 0.016405724381316291 -0.025697842689156532 0 0.016153462772556811 -0.025526411093626258 0 0.016149396123439307 -0.02555655460916896 0 0.016405724381316291 -0.025697842689156532 0 0.017057024861563921 -0.02598940372884059 0 0.016764446413135643 -0.025012253158196402 0 0.016697846586921413 -0.024308314391275846 0 0.017057024861563921 -0.02598940372884059 0 0.017091411404329307 -0.026388718872129392 0 0.016050027119648581 -0.025270974065720379 0 0.017057024861563921 -0.02598940372884059 0 0.016472048780308789 -0.025040321676121958 0 0.016764446413135643 -0.025012253158196402 0 0.016472048780308789 -0.025040321676121958 0 0.016764446413135643 -0.025012253158196402 0 0.016607071427217842 -0.024644523947764722 0 0.016913069107634199 -0.025882699993344846 0 0.016722307631824439 -0.025189075539462428 0 0.016764446413135643 -0.025012253158196402 0 0.016697846586921413 -0.024308314391275846 0 0.016607071427217842 -0.024644523947764722 0 0.017017981666624479 -0.026050849734345887 0 0.017057024861563921 -0.02598940372884059 0 0.016794051160632983 -0.025943892611352229 0 0.016817854024359351 -0.025999097776581291 0 0.017017981666624479 -0.026050849734345887 0 0.016794051160632983 -0.025943892611352229 0 0.016697846586921413 -0.024308314391275846 0 0.016488248952155244 -0.024170067608175506 0 0.016607071427217842 -0.024644523947764722 0 0.016471237873972595 -0.023981383687746289 0 0.016697846586921413 -0.024308314391275846 0 0.016488248952155244 -0.024170067608175506 0 0.016471237873972595 -0.023981383687746289 0 0.016488248952155244 -0.024170067608175506 0 0.016362566274577554 -0.023868940412008804 0 0.016472048780308789 -0.025040321676121958 0 0.016607071427217842 -0.024644523947764722 0 0.016233413089344732 -0.024223489327194401 0 0.016488248952155244 -0.024170067608175506 0 0.016607071427217842 -0.024644523947764722 0 0.016233413089344732 -0.024223489327194401 0 0.016237171272979588 -0.023738878237488506 0 0.015863120592473329 -0.023967320710325053 0 0.015944222878018763 -0.023461481387244378 0 0.016233413089344732 -0.024223489327194401 0 0.016237171272979588 -0.023738878237488506 0 0.015863120592473329 -0.023967320710325053 0 0.016488248952155244 -0.024170067608175506 0 0.016233413089344732 -0.024223489327194401 0 0.016237171272979588 -0.023738878237488506 0 0.016237171272979588 -0.023738878237488506 0 0.016362566274577554 -0.023868940412008804 0 0.016173449777121589 -0.023473507948287148 0 0.016488248952155244 -0.024170067608175506 0 0.016237171272979588 -0.023738878237488506 0 0.016362566274577554 -0.023868940412008804 0 0.016362566274577554 -0.023868940412008804 0 0.016335093450571374 -0.023765687380849009 0 0.016173449777121589 -0.023473507948287148 0 0.016471237873972595 -0.023981383687746289 0 0.016362566274577554 -0.023868940412008804 0 0.016335093450571374 -0.023765687380849009 0 0.016237171272979588 -0.023738878237488506 0 0.016140929623032065 -0.023347129705230958 0 0.016173449777121589 -0.023473507948287148 0 0.016237171272979588 -0.023738878237488506 0 0.016140929623032065 -0.023347129705230958 0 0.015944222878018763 -0.023461481387244378 0 0.015267791074178635 -0.022803979717955381 0 0.015167748622699994 -0.022742566512687697 0 0.016240076240496074 -0.023722727388536223 0 0.016019740524611425 -0.023677199227903688 0 0.016265509416582998 -0.023731784958555695 0 0.016001469972006261 -0.024206701921867361 0 0.01583784180122557 -0.024214789872614734 0 0.016290663601138781 -0.024716693215604553 0 0.015820831939198247 -0.0246926910864032 0 0.016265509416582998 -0.023731784958555695 0 0.016322942015243938 -0.023730437823898495 0 0.016001469972006261 -0.024206701921867361 0 0.016322942015243938 -0.023730437823898495 0 0.01603834552383766 -0.023189937244959703 0 0.016073606237366839 -0.023087546712899511 0 0.016322942015243938 -0.023730437823898495 0 0.016173449777121589 -0.023473507948287148 0 0.01603834552383766 -0.023189937244959703 0 0.016322942015243938 -0.023730437823898495 0 0.016335093450571374 -0.023765687380849009 0 0.016173449777121589 -0.023473507948287148 0 0.016471237873972595 -0.023981383687746289 0 0.016322942015243938 -0.023730437823898495 0 0.016335093450571374 -0.023765687380849009 0 0.016140929623032065 -0.023347129705230958 0 0.016173449777121589 -0.023473507948287148 0 0.015596021060474851 -0.022626592508850334 0 0.016173449777121589 -0.023473507948287148 0 0.01603834552383766 -0.023189937244959703 0 0.015596021060474851 -0.022626592508850334 0 0.01603834552383766 -0.023189937244959703 0 0.015976162198258762 -0.022921152003468025 0 0.015596021060474851 -0.022626592508850334 0 0.01603834552383766 -0.023189937244959703 0 0.015976162198258762 -0.022921152003468025 0 0.016073606237366839 -0.023087546712899511 0 0.016047734268948195 -0.022836933379658222 0 0.016136286792255802 -0.022722987050505739 0 0.016006701823465634 -0.022575816324127286 0 0.016019740524611425 -0.023677199227903688 0 0.015934310452868236 -0.023583123825185535 0 0.015976162198258762 -0.022921152003468025 0 0.016047734268948195 -0.022836933379658222 0 0.016006701823465634 -0.022575816324127286 0 0.016001469972006261 -0.024206701921867361 0 0.01583784180122557 -0.024214789872614734 0 0.015658314498702107 -0.024535162634295539 0 0.016136286792255802 -0.022722987050505739 0 0.016073606237366839 -0.023087546712899511 0 0.016242533860940479 -0.022657507803112226 0 0.015976162198258762 -0.022921152003468025 0 0.016047734268948195 -0.022836933379658222 0 0.016073606237366839 -0.023087546712899511 0 0.016047734268948195 -0.022836933379658222 0 0.016136286792255802 -0.022722987050505739 0 0.016073606237366839 -0.023087546712899511 0 0.016256649990782909 -0.025664052581714829 0 0.015729799802095643 -0.025252383764192969 0 0.015960950799008711 -0.025428470914637208 0 0.015729799802095643 -0.025252383764192969 0 0.015808163402968749 -0.025297814688270803 0 0.015741787049049924 -0.025204004380913362 0 0.015808163402968749 -0.025297814688270803 0 0.015741787049049924 -0.025204004380913362 0 0.015770926428284305 -0.025241239312513722 0 0.015729799802095643 -0.025252383764192969 0 0.015808163402968749 -0.025297814688270803 0 0.015960950799008711 -0.025428470914637208 0 0.015729799802095643 -0.025252383764192969 0 0.015699366637889539 -0.02509062228294617 0 0.015659230794238983 -0.024906378013187583 0 0.015713761382021012 -0.025128639341977139 0 0.015681070731227199 -0.024990597696861627 0 0.01569940928725061 -0.025058358555438448 0 0.015713761382021012 -0.025128639341977139 0 0.015699366637889539 -0.02509062228294617 0 0.015681070731227199 -0.024990597696861627 0 0.015713761382021012 -0.025128639341977139 0 0.015741787049049924 -0.025204004380913362 0 0.015770926428284305 -0.025241239312513722 0 0.015713761382021012 -0.025128639341977139 0 0.015741787049049924 -0.025204004380913362 0 0.015699366637889539 -0.02509062228294617 0 0.015729799802095643 -0.025252383764192969 0 0.015741787049049924 -0.025204004380913362 0 0.015699366637889539 -0.02509062228294617 0 0.015681070731227199 -0.024990597696861627 0 0.015659230794238983 -0.024906378013187583 0 0.015661513841638549 -0.024825072477342863 0 0.015699366637889539 -0.02509062228294617 0 0.015681070731227199 -0.024990597696861627 0 0.015659230794238983 -0.024906378013187583 0 0.015820831939198247 -0.0246926910864032 0 0.015643796688099589 -0.024556092005696084 0 0.01583784180122557 -0.024214789872614734 0 0.015658314498702107 -0.024535162634295539 0 0.015585748520251266 -0.024531089773434375 0 0.015659230794238983 -0.024906378013187583 0 0.015585748520251266 -0.024531089773434375 0 0.015635947294128514 -0.024719343761095639 0 0.015729799802095643 -0.025252383764192969 0 0.015659230794238983 -0.024906378013187583 0 0.015585748520251266 -0.024531089773434375 0 0.016136286792255802 -0.022722987050505739 0 0.016242533860940479 -0.022657507803112226 0 0.016157305959142599 -0.022485182773006984 0 0.015934310452868236 -0.023583123825185535 0 0.016006034280171857 -0.023339243958713122 0 0.015658314498702107 -0.024535162634295539 0 0.015585748520251266 -0.024531089773434375 0 0.015504384059851356 -0.024234111912407968 0 0.015585748520251266 -0.024531089773434375 0 0.015637550629140906 -0.024615240392423614 0 0.015504384059851356 -0.024234111912407968 0 0.015637550629140906 -0.024615240392423614 0 0.015766955305370822 -0.024740994199525926 0 0.015681362519145158 -0.024788767822065703 0 0.015585748520251266 -0.024531089773434375 0 0.015637550629140906 -0.024615240392423614 0 0.015635947294128514 -0.024719343761095639 0 0.015637550629140906 -0.024615240392423614 0 0.015635947294128514 -0.024719343761095639 0 0.015661513841638549 -0.024825072477342863 0 0.015659230794238983 -0.024906378013187583 0 0.015635947294128514 -0.024719343761095639 0 0.015661513841638549 -0.024825072477342863 0 0.015637550629140906 -0.024615240392423614 0 0.015661513841638549 -0.024825072477342863 0 0.015681362519145158 -0.024788767822065703 0 0.015637550629140906 -0.024615240392423614 0 0.015809198777647492 -0.024442765329540032 0 0.015504384059851356 -0.024234111912407968 0 0.015637550629140906 -0.024615240392423614 0 0.015809198777647492 -0.024442765329540032 0 0.015766955305370822 -0.024740994199525926 0 0.01591330398203444 -0.024677348445108691 0 0.015809198777647492 -0.024442765329540032 0 0.015766955305370822 -0.024740994199525926 0 0.01591330398203444 -0.024677348445108691 0 0.015766955305370822 -0.024740994199525926 0 0.015780960265869105 -0.024890049890455804 0 0.015766955305370822 -0.024740994199525926 0 0.015780960265869105 -0.024890049890455804 0 0.015725882125834454 -0.024858529994629456 0 0.015780960265869105 -0.024890049890455804 0 0.015725882125834454 -0.024858529994629456 0 0.015720756738280429 -0.024951137058861924 0 0.015780960265869105 -0.024890049890455804 0 0.015720756738280429 -0.024951137058861924 0 0.015734498257026813 -0.024966722332682722 0 0.01591330398203444 -0.024677348445108691 0 0.015872971306169804 -0.024828310741454352 0 0.015780960265869105 -0.024890049890455804 0 0.015872971306169804 -0.024828310741454352 0 0.015780960265869105 -0.024890049890455804 0 0.015799966007874748 -0.024909254840378009 0 0.015681070731227199 -0.024990597696861627 0 0.015661513841638549 -0.024825072477342863 0 0.015691109879855666 -0.0249202489755566 0 0.015661513841638549 -0.024825072477342863 0 0.015681362519145158 -0.024788767822065703 0 0.015691109879855666 -0.0249202489755566 0 0.015766955305370822 -0.024740994199525926 0 0.015681362519145158 -0.024788767822065703 0 0.015725882125834454 -0.024858529994629456 0 0.015681362519145158 -0.024788767822065703 0 0.015725882125834454 -0.024858529994629456 0 0.015691109879855666 -0.0249202489755566 0 0.015725882125834454 -0.024858529994629456 0 0.015720756738280429 -0.024951137058861924 0 0.015691109879855666 -0.0249202489755566 0 0.015720756738280429 -0.024951137058861924 0 0.015691109879855666 -0.0249202489755566 0 0.015703379787651711 -0.02502006228436425 0 0.015681070731227199 -0.024990597696861627 0 0.015691109879855666 -0.0249202489755566 0 0.01569940928725061 -0.025058358555438448 0 0.015691109879855666 -0.0249202489755566 0 0.01569940928725061 -0.025058358555438448 0 0.015703379787651711 -0.02502006228436425 0 0.01569940928725061 -0.025058358555438448 0 0.01570556361207142 -0.025098368947163656 0 0.015703379787651711 -0.02502006228436425 0 0.01570556361207142 -0.025098368947163656 0 0.015703379787651711 -0.02502006228436425 0 0.015705227524738873 -0.02503925492429989 0 0.015720756738280429 -0.024951137058861924 0 0.015705227524738873 -0.02503925492429989 0 0.015734498257026813 -0.024966722332682722 0 0.015720756738280429 -0.024951137058861924 0 0.015703379787651711 -0.02502006228436425 0 0.015705227524738873 -0.02503925492429989 0 0.015705227524738873 -0.02503925492429989 0 0.015694425386620119 -0.025108245564379204 0 0.015692366887947531 -0.025044593575099753 0 0.01570556361207142 -0.025098368947163656 0 0.015705227524738873 -0.02503925492429989 0 0.015694425386620119 -0.025108245564379204 0 0.01570556361207142 -0.025098368947163656 0 0.015694425386620119 -0.025108245564379204 0 0.015731048691688589 -0.025175819489827847 0 0.015780960265869105 -0.024890049890455804 0 0.015799966007874748 -0.024909254840378009 0 0.015732873227471713 -0.024978412498322073 0 0.015780960265869105 -0.024890049890455804 0 0.015734498257026813 -0.024966722332682722 0 0.015732873227471713 -0.024978412498322073 0 0.015705227524738873 -0.02503925492429989 0 0.015734498257026813 -0.024966722332682722 0 0.015732873227471713 -0.024978412498322073 0 0.015705227524738873 -0.02503925492429989 0 0.015692366887947531 -0.025044593575099753 0 0.015732873227471713 -0.024978412498322073 0 0.015692366887947531 -0.025044593575099753 0 0.01570612056849369 -0.025000022173677271 0 0.015732873227471713 -0.024978412498322073 0 0.015799966007874748 -0.024909254840378009 0 0.015732873227471713 -0.024978412498322073 0 0.015745219937228341 -0.024955970438499262 0 0.01570612056849369 -0.025000022173677271 0 0.015732873227471713 -0.024978412498322073 0 0.015745219937228341 -0.024955970438499262 0 0.01570612056849369 -0.025000022173677271 0 0.015745219937228341 -0.024955970438499262 0 0.015705237233279209 -0.024971813018267997 0 0.015783778337671878 -0.024912691769729624 0 0.015745219937228341 -0.024955970438499262 0 0.015705237233279209 -0.024971813018267997 0 0.015783778337671878 -0.024912691769729624 0 0.015799966007874748 -0.024909254840378009 0 0.015745219937228341 -0.024955970438499262 0 0.01570612056849369 -0.025000022173677271 0 0.015705237233279209 -0.024971813018267997 0 0.015659091071678198 -0.025039903999381784 0 0.015705237233279209 -0.024971813018267997 0 0.015659091071678198 -0.025039903999381784 0 0.015654187898302689 -0.025004081231947514 0 0.015692366887947531 -0.025044593575099753 0 0.01570612056849369 -0.025000022173677271 0 0.015659091071678198 -0.025039903999381784 0 0.015659091071678198 -0.025039903999381784 0 0.015624531084841138 -0.025071979335423985 0 0.015604307763797476 -0.025041906131055298 0 0.015659091071678198 -0.025039903999381784 0 0.015624531084841138 -0.025071979335423985 0 0.015662018198588149 -0.025096984628818309 0 0.015659091071678198 -0.025039903999381784 0 0.015654187898302689 -0.025004081231947514 0 0.015604307763797476 -0.025041906131055298 0 0.015593783308087408 -0.025021217970086322 0 0.015654187898302689 -0.025004081231947514 0 0.015604307763797476 -0.025041906131055298 0 0.015667607533020447 -0.024971057802785829 0 0.015593783308087408 -0.025021217970086322 0 0.015654187898302689 -0.025004081231947514 0 0.015667607533020447 -0.024971057802785829 0 0.015705237233279209 -0.024971813018267997 0 0.015654187898302689 -0.025004081231947514 0 0.015694425386620119 -0.025108245564379204 0 0.015714313991006628 -0.025152956331321207 0 0.015731048691688589 -0.025175819489827847 0 0.015694425386620119 -0.025108245564379204 0 0.015662018198588149 -0.025096984628818309 0 0.015714313991006628 -0.025152956331321207 0 0.015694425386620119 -0.025108245564379204 0 0.015692366887947531 -0.025044593575099753 0 0.015662018198588149 -0.025096984628818309 0 0.015692366887947531 -0.025044593575099753 0 0.015659091071678198 -0.025039903999381784 0 0.015662018198588149 -0.025096984628818309 0 0.015687894249963186 -0.025110200431286863 0 0.015637094102331439 -0.025089709111842908 0 0.015662018198588149 -0.025096984628818309 0 0.015637094102331439 -0.025089709111842908 0 0.015624531084841138 -0.025071979335423985 0 0.015662018198588149 -0.025096984628818309 0 0.015687894249963186 -0.025110200431286863 0 0.015662018198588149 -0.025096984628818309 0 0.015714313991006628 -0.025152956331321207 0 0.015782290209220243 -0.025148697592005841 0 0.015714313991006628 -0.025152956331321207 0 0.015790589927830379 -0.025229067345472499 0 0.015687894249963186 -0.025110200431286863 0 0.015782290209220243 -0.025148697592005841 0 0.015714313991006628 -0.025152956331321207 0 0.015714313991006628 -0.025152956331321207 0 0.015790589927830379 -0.025229067345472499 0 0.015731048691688589 -0.025175819489827847 0 0.015790589927830379 -0.025229067345472499 0 0.015907005146515604 -0.025346398733489862 0 0.015792082435308479 -0.025256404880204517 0 0.015782290209220243 -0.025148697592005841 0 0.015790589927830379 -0.025229067345472499 0 0.015875787311780968 -0.025256546745193294 0 0.015875787311780968 -0.025256546745193294 0 0.016050555748770481 -0.025351342062254641 0 0.015907005146515604 -0.025346398733489862 0 0.016153462772556811 -0.025526411093626258 0 0.016050555748770481 -0.025351342062254641 0 0.015907005146515604 -0.025346398733489862 0 0.015790589927830379 -0.025229067345472499 0 0.015875787311780968 -0.025256546745193294 0 0.015907005146515604 -0.025346398733489862 0 0.015907005146515604 -0.025346398733489862 0 0.015866859736401707 -0.025342628737203648 0 0.015792082435308479 -0.025256404880204517 0 0.016153462772556811 -0.025526411093626258 0 0.015907005146515604 -0.025346398733489862 0 0.016001570359945087 -0.02544365242350825 0 0.015907005146515604 -0.025346398733489862 0 0.016001570359945087 -0.02544365242350825 0 0.015866859736401707 -0.025342628737203648 0 0.016149396123439307 -0.02555655460916896 0 0.016001570359945087 -0.02544365242350825 0 0.015960950799008711 -0.025428470914637208 0 0.016001570359945087 -0.02544365242350825 0 0.015960950799008711 -0.025428470914637208 0 0.015866859736401707 -0.025342628737203648 0 0.015808163402968749 -0.025297814688270803 0 0.015866859736401707 -0.025342628737203648 0 0.015770926428284305 -0.025241239312513722 0 0.015866859736401707 -0.025342628737203648 0 0.015770926428284305 -0.025241239312513722 0 0.015792082435308479 -0.025256404880204517 0 0.015808163402968749 -0.025297814688270803 0 0.015960950799008711 -0.025428470914637208 0 0.015866859736401707 -0.025342628737203648 0 0.015770926428284305 -0.025241239312513722 0 0.015729244818254166 -0.025166327285029693 0 0.015792082435308479 -0.025256404880204517 0 0.015713761382021012 -0.025128639341977139 0 0.015770926428284305 -0.025241239312513722 0 0.015729244818254166 -0.025166327285029693 0 0.015713761382021012 -0.025128639341977139 0 0.01569940928725061 -0.025058358555438448 0 0.015729244818254166 -0.025166327285029693 0 0.01569940928725061 -0.025058358555438448 0 0.01570556361207142 -0.025098368947163656 0 0.015729244818254166 -0.025166327285029693 0 0.01570556361207142 -0.025098368947163656 0 0.015729244818254166 -0.025166327285029693 0 0.015731048691688589 -0.025175819489827847 0 0.015729244818254166 -0.025166327285029693 0 0.015731048691688589 -0.025175819489827847 0 0.015792082435308479 -0.025256404880204517 0 0.015790589927830379 -0.025229067345472499 0 0.015731048691688589 -0.025175819489827847 0 0.015792082435308479 -0.025256404880204517 0 0.024999602732164464 -0.022449666779457016 0 0.025033799718123344 -0.022385919515124694 0 0.024999651333301811 -0.021713732143184585 0 0.024999678510566309 -0.022452397606903724 0 0.024650453936119626 -0.023024985453914064 0 0.025033799718123344 -0.022385919515124694 0 0.02487360829796792 -0.022079770967229993 0 0.024999651333301811 -0.021713732143184585 0 0.025033799718123344 -0.022385919515124694 0 0.025008814753171883 -0.02248426621430474 0 0.02487360829796792 -0.022079770967229993 0 0.024426686069965783 -0.023731668259749882 0 0.024293644538199818 -0.024323617209833236 0 0.023918707539109591 -0.024284783114449537 0 0.024998181262922716 -0.022457681660028886 0 0.024426686069965783 -0.023731668259749882 0 0.024293644538199818 -0.024323617209833236 0 0.024998928737127033 -0.024997894406576061 0 0.024293644538199818 -0.024323617209833236 0 0.022595146187853857 -0.024999392133361217 0 0.024998181262922716 -0.022457681660028886 0 0.024998928737127033 -0.024997894406576061 0 0.024293644538199818 -0.024323617209833236 0 0.024293644538199818 -0.024323617209833236 0 0.023747836912381248 -0.024261427053460027 0 0.023918707539109591 -0.024284783114449537 0 0.024114791146580133 -0.024421502333103771 0 0.023373694136688231 -0.024609227966095638 0 0.024293644538199818 -0.024323617209833236 0 0.023054069015584884 -0.024999289550987978 0 0.022595146187853857 -0.024999392133361217 0 0.023747836912381248 -0.024261427053460027 0 0.023620487467691201 -0.024408849695829894 0 0.023918707539109591 -0.024284783114449537 0 0.023373694136688231 -0.024609227966095638 0 0.02239098513829766 -0.02492611903887967 0 0.023054069015584884 -0.024999289550987978 0 0.022595146187853857 -0.024999392133361217 0 0.021936534401361167 -0.025325177905413089 0 0.023747836912381248 -0.024261427053460027 0 0.02327895777478917 -0.024579039364708347 0 0.02280351586554483 -0.024493112073946364 0 0.023747836912381248 -0.024261427053460027 0 0.02327895777478917 -0.024579039364708347 0 0.023620487467691201 -0.024408849695829894 0 0.02327895777478917 -0.024579039364708347 0 0.023620487467691201 -0.024408849695829894 0 0.02348963412551924 -0.024473331800267468 0 0.023775479923923242 -0.024177043103113378 0 0.023788545760355849 -0.024156457787482922 0 0.024311356017234113 -0.023457215298677156 0 0.02348963412551924 -0.024473331800267468 0 0.023775479923923242 -0.024177043103113378 0 0.023774333329040703 -0.024205836786338964 0 0.023775479923923242 -0.024177043103113378 0 0.024311356017234113 -0.023457215298677156 0 0.023774333329040703 -0.024205836786338964 0 0.023620487467691201 -0.024408849695829894 0 0.02348963412551924 -0.024473331800267468 0 0.023775479923923242 -0.024177043103113378 0 0.023620487467691201 -0.024408849695829894 0 0.023775479923923242 -0.024177043103113378 0 0.023918707539109591 -0.024284783114449537 0 0.024426686069965783 -0.023731668259749882 0 0.023918707539109591 -0.024284783114449537 0 0.023788545760355849 -0.024156457787482922 0 0.023775479923923242 -0.024177043103113378 0 0.023918707539109591 -0.024284783114449537 0 0.023788545760355849 -0.024156457787482922 0 0.025033799718123344 -0.022385919515124694 0 0.024886347991817128 -0.022640661777898162 0 0.025008814753171883 -0.02248426621430474 0 0.024650453936119626 -0.023024985453914064 0 0.02440398610710437 -0.023367102876972756 0 0.024886347991817128 -0.022640661777898162 0 0.024755432867471259 -0.022893159862550035 0 0.025008814753171883 -0.02248426621430474 0 0.02440398610710437 -0.023367102876972756 0 0.024415975151426322 -0.023451606859822043 0 0.024886347991817128 -0.022640661777898162 0 0.024755432867471259 -0.022893159862550035 0 0.024311356017234113 -0.023457215298677156 0 0.023342377157188919 -0.025423310460290234 0 0.021538937617314364 -0.024304739689338554 0 0.021215143306164433 -0.027376551257360424 0 0.021964207746700541 -0.026782461155965508 0 0.02192409662818004 -0.028342388008283398 0 0.024755432867471259 -0.022893159862550035 0 0.024311356017234113 -0.023457215298677156 0 0.024825323927182941 -0.022799972946905882 0 0.024311356017234113 -0.023457215298677156 0 0.024523992914719125 -0.023644396012350272 0 0.024825323927182941 -0.022799972946905882 0 0.021215143306164433 -0.027376551257360424 0 0.021176760188713412 -0.026614727958394341 0 0.021964207746700541 -0.026782461155965508 0 0.021215143306164433 -0.027376551257360424 0 0.02045070130977784 -0.026919161184359934 0 0.019773049808132905 -0.027949748143798702 0 0.021215143306164433 -0.027376551257360424 0 0.02045070130977784 -0.026919161184359934 0 0.021176760188713412 -0.026614727958394341 0 0.02045070130977784 -0.026919161184359934 0 0.021176760188713412 -0.026614727958394341 0 0.020071371234941505 -0.026043547852733547 0 0.021176760188713412 -0.026614727958394341 0 0.021295222403877063 -0.025933615047604146 0 0.020071371234941505 -0.026043547852733547 0 0.023342377157188919 -0.025423310460290234 0 0.022654468874692094 -0.024769405363439634 0 0.021295222403877063 -0.025933615047604146 0 0.021964207746700541 -0.026782461155965508 0 0.022521817912619813 -0.025031065754582117 0 0.024523992914719125 -0.023644396012350272 0 0.023774333329040703 -0.024205836786338964 0 0.022521817912619813 -0.025031065754582117 0 0.021176760188713412 -0.026614727958394341 0 0.021295222403877063 -0.025933615047604146 0 0.021964207746700541 -0.026782461155965508 0 0.024311356017234113 -0.023457215298677156 0 0.024523992914719125 -0.023644396012350272 0 0.023774333329040703 -0.024205836786338964 0 0.022595146187853857 -0.024999392133361217 0 0.021936534401361167 -0.025325177905413089 0 0.020865847304843751 -0.025000113280675189 0 0.02327895777478917 -0.024579039364708347 0 0.02348963412551924 -0.024473331800267468 0 0.022521817912619813 -0.025031065754582117 0 0.02348963412551924 -0.024473331800267468 0 0.023774333329040703 -0.024205836786338964 0 0.022521817912619813 -0.025031065754582117 0 0.02327895777478917 -0.024579039364708347 0 0.022521817912619813 -0.025031065754582117 0 0.02280351586554483 -0.024493112073946364 0 0.022521817912619813 -0.025031065754582117 0 0.02280351586554483 -0.024493112073946364 0 0.020867458361910621 -0.024997051489971112 0 0.02239098513829766 -0.02492611903887967 0 0.02086695072171604 -0.024999930506425662 0 0.020867458361910621 -0.024997051489971112 0 0.020878769849762911 -0.025375930176582028 0 0.019833350659422364 -0.025306187777416372 0 0.022521817912619813 -0.025031065754582117 0 0.020867458361910621 -0.024997051489971112 0 0.020878769849762911 -0.025375930176582028 0 0.021295222403877063 -0.025933615047604146 0 0.022521817912619813 -0.025031065754582117 0 0.020878769849762911 -0.025375930176582028 0 0.021295222403877063 -0.025933615047604146 0 0.020878769849762911 -0.025375930176582028 0 0.020071371234941505 -0.026043547852733547 0 0.020878769849762911 -0.025375930176582028 0 0.019833350659422364 -0.025306187777416372 0 0.020071371234941505 -0.026043547852733547 0 0.019833350659422364 -0.025306187777416372 0 0.018947556887537687 -0.025722381829359195 0 0.020071371234941505 -0.026043547852733547 0 0.020867458361910621 -0.024997051489971112 0 0.019833350659422364 -0.025306187777416372 0 0.019393328246652457 -0.025000168509574341 0 0.019833350659422364 -0.025306187777416372 0 0.018759052541567876 -0.025330835731213367 0 0.019393328246652457 -0.025000168509574341 0 0.017921287258870076 -0.024999544074702059 0 0.018759052541567876 -0.025330835731213367 0 0.019393328246652457 -0.025000168509574341 0 0.01804027531618687 -0.025717062805590218 0 0.018947556887537687 -0.025722381829359195 0 0.018220226011750714 -0.026010775501291487 0 0.019833350659422364 -0.025306187777416372 0 0.018759052541567876 -0.025330835731213367 0 0.018947556887537687 -0.025722381829359195 0 0.01804027531618687 -0.025717062805590218 0 0.018759052541567876 -0.025330835731213367 0 0.018947556887537687 -0.025722381829359195 0 0.018220226011750714 -0.026010775501291487 0 0.018655514558147495 -0.026237844810324026 0 0.017874337643818829 -0.026303136991670036 0 0.018947556887537687 -0.025722381829359195 0 0.018220226011750714 -0.026010775501291487 0 0.018655514558147495 -0.026237844810324026 0 0.018947556887537687 -0.025722381829359195 0 0.018655514558147495 -0.026237844810324026 0 0.020071371234941505 -0.026043547852733547 0 0.018655514558147495 -0.026237844810324026 0 0.020071371234941505 -0.026043547852733547 0 0.019537477385080423 -0.026664459299304367 0 0.02045070130977784 -0.026919161184359934 0 0.020071371234941505 -0.026043547852733547 0 0.019537477385080423 -0.026664459299304367 0 0.02045070130977784 -0.026919161184359934 0 0.019537477385080423 -0.026664459299304367 0 0.019773049808132905 -0.027949748143798702 0 0.019537477385080423 -0.026664459299304367 0 0.018618671485033492 -0.026721967241337352 0 0.019773049808132905 -0.027949748143798702 0 0.017091411404329307 -0.026388718872129392 0 0.017874337643818829 -0.026303136991670036 0 0.018618671485033492 -0.026721967241337352 0 0.017091411404329307 -0.026388718872129392 0 0.018618671485033492 -0.026721967241337352 0 0.019773049808132905 -0.027949748143798702 0 0.017506909810317797 -0.026389093068396138 0 0.016680876137926997 -0.02699863192933219 0 0.018655514558147495 -0.026237844810324026 0 0.017874337643818829 -0.026303136991670036 0 0.018618671485033492 -0.026721967241337352 0 0.018655514558147495 -0.026237844810324026 0 0.019537477385080423 -0.026664459299304367 0 0.018618671485033492 -0.026721967241337352 0 0.017091411404329307 -0.026388718872129392 0 0.016050027119648581 -0.025270974065720379 0 0.015088302932375463 -0.025495035836204917 0 0.016472048780308789 -0.025040321676121958 0 0.016050027119648581 -0.025270974065720379 0 0.01597984772390261 -0.024532557858195317 0 0.017057024861563921 -0.02598940372884059 0 0.016472048780308789 -0.025040321676121958 0 0.016050027119648581 -0.025270974065720379 0 0.015088302932375463 -0.025495035836204917 0 0.015314417563784325 -0.024469560689692488 0 0.014670478430891741 -0.024760675422823706 0 0.016050027119648581 -0.025270974065720379 0 0.015088302932375463 -0.025495035836204917 0 0.015314417563784325 -0.024469560689692488 0 0.016050027119648581 -0.025270974065720379 0 0.015314417563784325 -0.024469560689692488 0 0.01597984772390261 -0.024532557858195317 0 0.015314417563784325 -0.024469560689692488 0 0.01597984772390261 -0.024532557858195317 0 0.015863120592473329 -0.023967320710325053 0 0.016472048780308789 -0.025040321676121958 0 0.016233413089344732 -0.024223489327194401 0 0.01597984772390261 -0.024532557858195317 0 0.016233413089344732 -0.024223489327194401 0 0.01597984772390261 -0.024532557858195317 0 0.015863120592473329 -0.023967320710325053 0 0.015863120592473329 -0.023967320710325053 0 0.015944222878018763 -0.023461481387244378 0 0.015108557121017675 -0.023573924307543584 0 0.015167748622699994 -0.022742566512687697 0 0.013115684030674844 -0.023106275680697633 0 0.013454608094849036 -0.022109867227812264 0 0.013357703761928989 -0.021805608987583124 0 0.013605866951201723 -0.021769179112633 0 0.013879965186739611 -0.022136907993941655 0 0.013454608094849036 -0.022109867227812264 0 0.013605866951201723 -0.021769179112633 0 0.015314417563784325 -0.024469560689692488 0 0.015108557121017675 -0.023573924307543584 0 0.014689122940447443 -0.024225873695883891 0 0.015314417563784325 -0.024469560689692488 0 0.015863120592473329 -0.023967320710325053 0 0.015108557121017675 -0.023573924307543584 0 0.015108557121017675 -0.023573924307543584 0 0.014184258642398544 -0.023798342217439299 0 0.014689122940447443 -0.024225873695883891 0 0.013115684030674844 -0.023106275680697633 0 0.018946834349582407 -0.021939832044304927 0 0.013454608094849036 -0.022109867227812264 0 0.013226254947782502 -0.021978081665328136 0 0.013357703761928989 -0.021805608987583124 0 0.013454608094849036 -0.022109867227812264 0 0.013226254947782502 -0.021978081665328136 0 0.013100896053240338 -0.022176892446864563 0 0.018946834349582407 -0.021939832044304927 0 0.019927668462733989 -0.020635146857121572 0 0.026455992479514752 -0.01994826620022001 0 0.026546375927096758 -0.020227779960504587 0 0.02660145791116568 -0.019743999306427569 0 0.026546375927096758 -0.020227779960504587 0 0.026764216432960005 -0.02056747649128737 0 0.02660145791116568 -0.019743999306427569 0 0.013226254947782502 -0.021978081665328136 0 0.013100896053240338 -0.022176892446864563 0 0.013036183396629117 -0.021744841584639657 0 0.026871363383704674 -0.020656866580239901 0 0.026838107589641606 -0.021699225374477885 0 0.026411632446503488 -0.020761872626792514 0 0.018946834349582407 -0.021939832044304927 0 0.020509243641391728 -0.023078478524631157 0 0.018946834349582407 -0.021939832044304927 0 0.026811544882251716 -0.020363987556250206 0 0.026546375927096758 -0.020227779960504587 0 0.026764216432960005 -0.02056747649128737 0 0.026411632446503488 -0.020761872626792514 0 0.014184258642398544 -0.023798342217439299 0 0.014170700384128404 -0.024474761475132049 0 0.014689122940447443 -0.024225873695883891 0 0.020509243641391728 -0.023078478524631157 0 0.021538937617314364 -0.024304739689338554 0 0.026838107589641606 -0.021699225374477885 0 0.026781620290792972 -0.022844529776044294 0 0.025964960772265542 -0.021567517547393646 0 0.026838107589641606 -0.021699225374477885 0 0.025964960772265542 -0.021567517547393646 0 0.026411632446503488 -0.020761872626792514 0 0.014170700384128404 -0.024474761475132049 0 0.014670478430891741 -0.024760675422823706 0 0.014183882364272919 -0.025118638766623735 0 0.015314417563784325 -0.024469560689692488 0 0.014689122940447443 -0.024225873695883891 0 0.014670478430891741 -0.024760675422823706 0 0.014170700384128404 -0.024474761475132049 0 0.014689122940447443 -0.024225873695883891 0 0.014670478430891741 -0.024760675422823706 0 0.015088302932375463 -0.025495035836204917 0 0.014670478430891741 -0.024760675422823706 0 0.014183882364272919 -0.025118638766623735 0 0.021215143306164433 -0.027376551257360424 0 0.019773049808132905 -0.027949748143798702 0 0.02192409662818004 -0.028342388008283398 0 0.016680876137926997 -0.02699863192933219 0 0.021538937617314364 -0.024304739689338554 0 0.021538937617314364 -0.024304739689338554 0 0.026787962926060976 -0.02250212722036788 0 0.024755432867471259 -0.022893159862550035 0 0.024825323927182941 -0.022799972946905882 0 0.025182432250934826 -0.022519673587398481 0 0.026781620290792972 -0.022844529776044294 0 0.025182432250934826 -0.022519673587398481 0 0.025964960772265542 -0.021567517547393646 0 0.024755432867471259 -0.022893159862550035 0 0.025182432250934826 -0.022519673587398481 0 0.025008814753171883 -0.02248426621430474 0 0.025182432250934826 -0.022519673587398481 0 0.025008814753171883 -0.02248426621430474 0 0.024924967037392966 -0.021990680183526328 0 0.025182432250934826 -0.022519673587398481 0 0.025370505285854172 -0.021453389590977919 0 0.024924967037392966 -0.021990680183526328 0 0.025182432250934826 -0.022519673587398481 0 0.025370505285854172 -0.021453389590977919 0 0.025964960772265542 -0.021567517547393646 0 0.025964960772265542 -0.021567517547393646 0 0.025826596918764294 -0.02087136322208781 0 0.026411632446503488 -0.020761872626792514 0 0.025370505285854172 -0.021453389590977919 0 0.025964960772265542 -0.021567517547393646 0 0.025826596918764294 -0.02087136322208781 0 0.025826596918764294 -0.02087136322208781 0 0.026411632446503488 -0.020761872626792514 0 0.026390120730253885 -0.020112601929546413 0 0.026546375927096758 -0.020227779960504587 0 0.026411632446503488 -0.020761872626792514 0 0.026390120730253885 -0.020112601929546413 0 0.026455992479514752 -0.01994826620022001 0 0.026546375927096758 -0.020227779960504587 0 0.026390120730253885 -0.020112601929546413 0 0.026390120730253885 -0.020112601929546413 0 0.024776900364911338 -0.020607536269392927 0 0.026022838101842975 -0.018753626010858261 0 0.025425557057832962 -0.020001587489339393 0 0.025983222412150422 -0.018854298414811885 0 0.025826596918764294 -0.02087136322208781 0 0.026390120730253885 -0.020112601929546413 0 0.024776900364911338 -0.020607536269392927 0 0.025370505285854172 -0.021453389590977919 0 0.025826596918764294 -0.02087136322208781 0 0.024776900364911338 -0.020607536269392927 0 0.025370505285854172 -0.021453389590977919 0 0.024776900364911338 -0.020607536269392927 0 0.024924967037392966 -0.021990680183526328 0 0.026018118145136604 -0.019398160249164444 0 0.025451778891331073 -0.019754441726133901 0 0.025631136403830686 -0.020560609481968865 0 0.025425557057832962 -0.020001587489339393 0 0.025108811549118263 -0.021155635426773452 0 0.026018118145136604 -0.019398160249164444 0 0.024999964339375052 -0.018999796735424047 0 0.02566684204222075 -0.018227177091941098 0 0.026018118145136604 -0.019398160249164444 0 0.024999964339375052 -0.018999796735424047 0 0.025451778891331073 -0.019754441726133901 0 0.024999964339375052 -0.018999796735424047 0 0.025451778891331073 -0.019754441726133901 0 0.024999832072929926 -0.02035506269051587 0 0.025451778891331073 -0.019754441726133901 0 0.024999832072929926 -0.02035506269051587 0 0.025631136403830686 -0.020560609481968865 0 0.024999832072929926 -0.02035506269051587 0 0.025631136403830686 -0.020560609481968865 0 0.025000061424111011 -0.021710631413663556 0 0.024594202905937144 -0.021819215390433938 0 0.024924967037392966 -0.021990680183526328 0 0.02487360829796792 -0.022079770967229993 0 0.024776900364911338 -0.020607536269392927 0 0.024594202905937144 -0.021819215390433938 0 0.024924967037392966 -0.021990680183526328 0 0.025008814753171883 -0.02248426621430474 0 0.024924967037392966 -0.021990680183526328 0 0.02487360829796792 -0.022079770967229993 0 0.025108811549118263 -0.021155635426773452 0 0.025000003058443212 -0.021710506237923196 0 0.024594202905937144 -0.021819215390433938 0 0.02487360829796792 -0.022079770967229993 0 0.024999651333301811 -0.021713732143184585 0 0.024981331034966053 -0.016280460663506292 0 0.025202792576153332 -0.01593874290351651 0 0.024999852413830941 -0.015453818899834059 0 0.025202792576153332 -0.01593874290351651 0 0.025861735722724301 -0.015750857541634036 0 0.024999852413830941 -0.015453818899834059 0 0.024981331034966053 -0.016280460663506292 0 0.025202792576153332 -0.01593874290351651 0 0.025861735722724301 -0.015750857541634036 0 0.02460642084568309 -0.016463136230705055 0 0.025545455190620413 -0.015901209279383478 0 0.024043563026169324 -0.016566195232359682 0 0.025156649508081975 -0.016640762941875876 0 0.025250492144636261 -0.016040695936786264 0 0.025156649508081975 -0.016640762941875876 0 0.025250492144636261 -0.016040695936786264 0 0.026059475859100224 -0.016655919645127214 0 0.025156649508081975 -0.016640762941875876 0 0.025280336218641314 -0.017300451922005092 0 0.026059475859100224 -0.016655919645127214 0 0.024043563026169324 -0.016566195232359682 0 0.025156649508081975 -0.016640762941875876 0 0.025280336218641314 -0.017300451922005092 0 0.02460642084568309 -0.016463136230705055 0 0.025524213776792152 -0.017291165091031745 0 0.024981318546453787 -0.016281438885459968 0 0.025831854774740558 -0.017317041408805606 0 0.025286360433996201 -0.017081421739958309 0 0.024981318546453787 -0.016281438885459968 0 0.025286360433996201 -0.017081421739958309 0 0.024999666411120541 -0.017644813952219698 0 0.025286360433996201 -0.017081421739958309 0 0.024999666411120541 -0.017644813952219698 0 0.02566684204222075 -0.018227177091941098 0 0.024999964339375052 -0.018999796735424047 0 0.024999666411120541 -0.017644813952219698 0 0.02566684204222075 -0.018227177091941098 0 0.026018118145136604 -0.019398160249164444 0 0.02566684204222075 -0.018227177091941098 0 0.026022838101842975 -0.018753626010858261 0 0.025831854774740558 -0.017317041408805606 0 0.025286360433996201 -0.017081421739958309 0 0.02566684204222075 -0.018227177091941098 0 0.025831854774740558 -0.017317041408805606 0 0.02566684204222075 -0.018227177091941098 0 0.025985001272462654 -0.018099836165905159 0 0.025524213776792152 -0.017291165091031745 0 0.026461403472269 -0.018011336318071246 0 0.025280336218641314 -0.017300451922005092 0 0.026493578506007868 -0.018063036768386571 0 0.026173017095985258 -0.017324307656615457 0 0.025831854774740558 -0.017317041408805606 0 0.025985001272462654 -0.018099836165905159 0 0.026493578506007868 -0.018063036768386571 0 0.02566684204222075 -0.018227177091941098 0 0.025985001272462654 -0.018099836165905159 0 0.026022838101842975 -0.018753626010858261 0 0.025985001272462654 -0.018099836165905159 0 0.026022838101842975 -0.018753626010858261 0 0.026493578506007868 -0.018063036768386571 0 0.026390120730253885 -0.020112601929546413 0 0.026022838101842975 -0.018753626010858261 0 0.026796420680074342 -0.01845245520605374 0 0.02641450111615844 -0.019990123990156324 0 0.026478126252082991 -0.019024942214599307 0 0.026455992479514752 -0.01994826620022001 0 0.026390120730253885 -0.020112601929546413 0 0.026192854682232557 -0.019575406889385399 0 0.026022838101842975 -0.018753626010858261 0 0.026796420680074342 -0.01845245520605374 0 0.026493578506007868 -0.018063036768386571 0 0.026192854682232557 -0.019575406889385399 0 0.026059383906475716 -0.018986576793478264 0 0.026440086614248803 -0.019113926125613408 0 0.026478126252082991 -0.019024942214599307 0 0.026462124415205051 -0.018082868473597108 0 0.026796420680074342 -0.01845245520605374 0 0.026493578506007868 -0.018063036768386571 0 0.02686891923992665 -0.017274240425224276 0 0.026493578506007868 -0.018063036768386571 0 0.02686891923992665 -0.017274240425224276 0 0.026173017095985258 -0.017324307656615457 0 0.025280336218641314 -0.017300451922005092 0 0.026173017095985258 -0.017324307656615457 0 0.026059475859100224 -0.016655919645127214 0 0.02686891923992665 -0.017274240425224276 0 0.026173017095985258 -0.017324307656615457 0 0.026059475859100224 -0.016655919645127214 0 0.025250492144636261 -0.016040695936786264 0 0.026059475859100224 -0.016655919645127214 0 0.02630743135012786 -0.016082304964586149 0 0.026462124415205051 -0.018082868473597108 0 0.026490308643888114 -0.017372493746507751 0 0.02630743135012786 -0.016082304964586149 0 0.026904778021384794 -0.016046699676345363 0 0.026517084010481799 -0.015507765096936828 0 0.02686891923992665 -0.017274240425224276 0 0.026059475859100224 -0.016655919645127214 0 0.026904778021384794 -0.016046699676345363 0 0.026059383906475716 -0.018986576793478264 0 0.025972233122681179 -0.018375840465378754 0 0.026177199275134254 -0.018701149463601647 0 0.026059475859100224 -0.016655919645127214 0 0.02630743135012786 -0.016082304964586149 0 0.026904778021384794 -0.016046699676345363 0 0.025972233122681179 -0.018375840465378754 0 0.026338644371201921 -0.018435799168641884 0 0.026177199275134254 -0.018701149463601647 0 0.025972233122681179 -0.018375840465378754 0 0.026338644371201921 -0.018435799168641884 0 0.026132325547849264 -0.018081779551526539 0 0.013311496624998049 -0.020643397263531361 0 0.013619817135149025 -0.020417016068995198 0 0.013290664432107179 -0.020408673610362731 0 0.013020334672949592 -0.020597761544617208 0 0.013311496624998049 -0.020643397263531361 0 0.013191560229163251 -0.020900926517641017 0 0.013020334672949592 -0.020597761544617208 0 0.013311496624998049 -0.020643397263531361 0 0.013290664432107179 -0.020408673610362731 0 0.013311496624998049 -0.020643397263531361 0 0.013191560229163251 -0.020900926517641017 0 0.013427897950694184 -0.02088732691100666 0 0.013191560229163251 -0.020900926517641017 0 0.013282534309574321 -0.021164868187264856 0 0.012990875319567387 -0.021188354659450074 0 0.013191560229163251 -0.020900926517641017 0 0.013282534309574321 -0.021164868187264856 0 0.013427897950694184 -0.02088732691100666 0 0.026338644371201921 -0.018435799168641884 0 0.026440086614248803 -0.019113926125613408 0 0.026177199275134254 -0.018701149463601647 0 0.013020334672949592 -0.020597761544617208 0 0.013191560229163251 -0.020900926517641017 0 0.012990875319567387 -0.021188354659450074 0 0.01954497717959832 -0.019695798881633021 0 0.019724570379989426 -0.020144002412288493 0 0.026059383906475716 -0.018986576793478264 0 0.026440086614248803 -0.019113926125613408 0 0.026177199275134254 -0.018701149463601647 0 0.012990875319567387 -0.021188354659450074 0 0.013036183396629117 -0.021744841584639657 0 0.013310086320795615 -0.021490746288967594 0 0.019724570379989426 -0.020144002412288493 0 0.019927668462733989 -0.020635146857121572 0 0.026192854682232557 -0.019575406889385399 0 0.026440086614248803 -0.019113926125613408 0 0.02660145791116568 -0.019743999306427569 0 0.026455992479514752 -0.01994826620022001 0 0.026192854682232557 -0.019575406889385399 0 0.02660145791116568 -0.019743999306427569 0 0.013226254947782502 -0.021978081665328136 0 0.013036183396629117 -0.021744841584639657 0 0.013357703761928989 -0.021805608987583124 0 0.013036183396629117 -0.021744841584639657 0 0.013357703761928989 -0.021805608987583124 0 0.013310086320795615 -0.021490746288967594 0 0.013282534309574321 -0.021164868187264856 0 0.013310086320795615 -0.021490746288967594 0 0.013611443423990259 -0.021275975190639052 0 0.013282534309574321 -0.021164868187264856 0 0.012990875319567387 -0.021188354659450074 0 0.013310086320795615 -0.021490746288967594 0 0.013310086320795615 -0.021490746288967594 0 0.013611443423990259 -0.021275975190639052 0 0.013605866951201723 -0.021769179112633 0 0.013357703761928989 -0.021805608987583124 0 0.013310086320795615 -0.021490746288967594 0 0.013605866951201723 -0.021769179112633 0 0.013879965186739611 -0.022136907993941655 0 0.013605866951201723 -0.021769179112633 0 0.0140036075448291 -0.021595790130657291 0 0.013611443423990259 -0.021275975190639052 0 0.013912314538476389 -0.021076747319012264 0 0.0140036075448291 -0.021595790130657291 0 0.013611443423990259 -0.021275975190639052 0 0.013605866951201723 -0.021769179112633 0 0.0140036075448291 -0.021595790130657291 0 0.013611443423990259 -0.021275975190639052 0 0.013912314538476389 -0.021076747319012264 0 0.01374796894531744 -0.020783421498539335 0 0.013282534309574321 -0.021164868187264856 0 0.013611443423990259 -0.021275975190639052 0 0.013427897950694184 -0.02088732691100666 0 0.013611443423990259 -0.021275975190639052 0 0.013427897950694184 -0.02088732691100666 0 0.01374796894531744 -0.020783421498539335 0 0.013427897950694184 -0.02088732691100666 0 0.01374796894531744 -0.020783421498539335 0 0.013619817135149025 -0.020417016068995198 0 0.013311496624998049 -0.020643397263531361 0 0.013427897950694184 -0.02088732691100666 0 0.013619817135149025 -0.020417016068995198 0 0.01374796894531744 -0.020783421498539335 0 0.013894716499367679 -0.020367777856277882 0 0.013619817135149025 -0.020417016068995198 0 0.013912314538476389 -0.021076747319012264 0 0.01374796894531744 -0.020783421498539335 0 0.014065243655481719 -0.020586591171730558 0 0.01374796894531744 -0.020783421498539335 0 0.013894716499367679 -0.020367777856277882 0 0.014065243655481719 -0.020586591171730558 0 0.013894716499367679 -0.020367777856277882 0 0.013921104440302411 -0.020011304378498861 0 0.014369771270758299 -0.020024805517681286 0 0.013894716499367679 -0.020367777856277882 0 0.013619817135149025 -0.020417016068995198 0 0.013921104440302411 -0.020011304378498861 0 0.012944479965387895 -0.021129243118452077 0 0.016047543381124039 -0.017074721588702067 0 0.013619817135149025 -0.020417016068995198 0 0.013539928956864887 -0.019927102491179415 0 0.013921104440302411 -0.020011304378498861 0 0.013619817135149025 -0.020417016068995198 0 0.013539928956864887 -0.019927102491179415 0 0.013275421330276451 -0.019921601171063688 0 0.020172021672915756 -0.012767555950045263 0 0.018925117005500265 -0.013618609356234188 0 0.024771015510745079 -0.0073977461488633394 0 0.024619196857699376 -0.0076041334418268137 0 0.024268110394923423 -0.0071898179087295641 0 0.024771015510745079 -0.0073977461488633394 0 0.024876548621663799 -0.0074101702296249733 0 0.024268110394923423 -0.0071898179087295641 0 0.021957693994328672 -0.012094719155985638 0 0.020172021672915756 -0.012767555950045263 0 0.024850132713913325 -0.0075759086707197524 0 0.024871605425265019 -0.0077825536522823698 0 0.025111773827687728 -0.0076671189309416091 0 0.024877397648582371 -0.0074054058684575432 0 0.024850132713913325 -0.0075759086707197524 0 0.025111773827687728 -0.0076671189309416091 0 0.024771015510745079 -0.0073977461488633394 0 0.024877397648582371 -0.0074054058684575432 0 0.024850132713913325 -0.0075759086707197524 0 0.024850132713913325 -0.0075759086707197524 0 0.024619196857699376 -0.0076041334418268137 0 0.024871605425265019 -0.0077825536522823698 0 0.024771015510745079 -0.0073977461488633394 0 0.024850132713913325 -0.0075759086707197524 0 0.024619196857699376 -0.0076041334418268137 0 0.024619196857699376 -0.0076041334418268137 0 0.024268110394923423 -0.0071898179087295641 0 0.024353736854813755 -0.0078043272119287209 0 0.024268110394923423 -0.0071898179087295641 0 0.024353736854813755 -0.0078043272119287209 0 0.023747440572057604 -0.0075399569315843162 0 0.024619196857699376 -0.0076041334418268137 0 0.024353736854813755 -0.0078043272119287209 0 0.024701940771851307 -0.0079630854894113569 0 0.024353736854813755 -0.0078043272119287209 0 0.02455364184407046 -0.0082466102430991013 0 0.024701940771851307 -0.0079630854894113569 0 0.024353736854813755 -0.0078043272119287209 0 0.02455364184407046 -0.0082466102430991013 0 0.024110146634417722 -0.008183066162674316 0 0.02455364184407046 -0.0082466102430991013 0 0.024110146634417722 -0.008183066162674316 0 0.02444018664805064 -0.0087061136563882126 0 0.02455364184407046 -0.0082466102430991013 0 0.024817388907099211 -0.0085692671795860615 0 0.02444018664805064 -0.0087061136563882126 0 0.024817388907099211 -0.0085692671795860615 0 0.025214517584546667 -0.0083717814074744865 0 0.025088426749668703 -0.0088412799350898654 0 0.024817388907099211 -0.0085692671795860615 0 0.024879329373459807 -0.0082284250566282691 0 0.025214517584546667 -0.0083717814074744865 0 0.02455364184407046 -0.0082466102430991013 0 0.024817388907099211 -0.0085692671795860615 0 0.024879329373459807 -0.0082284250566282691 0 0.02455364184407046 -0.0082466102430991013 0 0.024879329373459807 -0.0082284250566282691 0 0.024701940771851307 -0.0079630854894113569 0 0.024879329373459807 -0.0082284250566282691 0 0.025010996968136009 -0.008001705281434509 0 0.025214517584546667 -0.0083717814074744865 0 0.025010996968136009 -0.008001705281434509 0 0.024701940771851307 -0.0079630854894113569 0 0.024871605425265019 -0.0077825536522823698 0 0.024879329373459807 -0.0082284250566282691 0 0.025010996968136009 -0.008001705281434509 0 0.024701940771851307 -0.0079630854894113569 0 0.024619196857699376 -0.0076041334418268137 0 0.024701940771851307 -0.0079630854894113569 0 0.024871605425265019 -0.0077825536522823698 0 0.025010996968136009 -0.008001705281434509 0 0.024871605425265019 -0.0077825536522823698 0 0.025111773827687728 -0.0076671189309416091 0 0.025010996968136009 -0.008001705281434509 0 0.025282214642405581 -0.0079803609883834607 0 0.025111773827687728 -0.0076671189309416091 0 0.025417103636875712 -0.0078060686105176609 0 0.025282214642405581 -0.0079803609883834607 0 0.025111773827687728 -0.0076671189309416091 0 0.025466206000525227 -0.0081436785718122899 0 0.025282214642405581 -0.0079803609883834607 0 0.025214517584546667 -0.0083717814074744865 0 0.025417103636875712 -0.0078060686105176609 0 0.025466206000525227 -0.0081436785718122899 0 0.025282214642405581 -0.0079803609883834607 0 0.025010996968136009 -0.008001705281434509 0 0.025282214642405581 -0.0079803609883834607 0 0.025214517584546667 -0.0083717814074744865 0 0.025214517584546667 -0.0083717814074744865 0 0.025674650330935661 -0.0084242355735481295 0 0.02538605451538933 -0.0087530156967271441 0 0.025466206000525227 -0.0081436785718122899 0 0.025214517584546667 -0.0083717814074744865 0 0.025674650330935661 -0.0084242355735481295 0 0.025674221260757007 -0.0097125941720018361 0 0.025589282655049578 -0.0097934757068836448 0 0.025600909228746416 -0.0096371120028341355 0 0.025674221260757007 -0.0097125941720018361 0 0.025589282655049578 -0.0097934757068836448 0 0.025613762929478895 -0.0098989407578337057 0 0.025763967949314504 -0.0086555583297430651 0 0.024249205094367822 -0.010980808293043737 0 0.025613762929478895 -0.0098989407578337057 0 0.025566130722569792 -0.0099289980892760775 0 0.025672693877818606 -0.010033919087560085 0 0.025674221260757007 -0.0097125941720018361 0 0.025613762929478895 -0.0098989407578337057 0 0.025672693877818606 -0.010033919087560085 0 0.025466206000525227 -0.0081436785718122899 0 0.025674650330935661 -0.0084242355735481295 0 0.025672386813949778 -0.0078244325627631062 0 0.025589282655049578 -0.0097934757068836448 0 0.025613762929478895 -0.0098989407578337057 0 0.025574130226002516 -0.0099232131664678848 0 0.025510710517426437 -0.011279539094881781 0 0.025185678988762616 -0.011645224904475535 0 0.025417103636875712 -0.0078060686105176609 0 0.025466206000525227 -0.0081436785718122899 0 0.025672386813949778 -0.0078244325627631062 0 0.023657251930972942 -0.013630298840349579 0 0.024109609016681414 -0.014080284439081037 0 0.023675735011503458 -0.014105528606414725 0 0.025185678988762616 -0.011645224904475535 0 0.024249205094367822 -0.010980808293043737 0 0.024109609016681414 -0.014080284439081037 0 0.023675735011503458 -0.014105528606414725 0 0.024104980482480703 -0.014538859686083261 0 0.022607859723665219 -0.014621485292103659 0 0.023736144475468839 -0.014546638203534525 0 0.023675735011503458 -0.014105528606414725 0 0.024104980482480703 -0.014538859686083261 0 0.023269313120388328 -0.014382022350191929 0 0.023657570554745072 -0.014759034566135315 0 0.024072505917187247 -0.014583769914940443 0 0.023269313120388328 -0.014382022350191929 0 0.023657570554745072 -0.014759034566135315 0 0.024070173283929779 -0.015013636633651899 0 0.024072505917187247 -0.014583769914940443 0 0.023657570554745072 -0.014759034566135315 0 0.024070173283929779 -0.015013636633651899 0 0.02321154810313647 -0.015055960432300388 0 0.02093754397951092 -0.018123813472891975 0 0.025743686485831401 -0.015627493834190872 0 0.02628410687226853 -0.017753023045610744 0 0.026132325547849264 -0.018081779551526539 0 0.025934040917520735 -0.017763736629807115 0 0.02093754397951092 -0.018123813472891975 0 0.016047543381124039 -0.017074721588702067 0 0.013096217952590434 -0.020089521090480969 0 0.013318313623815999 -0.020091258732109867 0 0.013184904556002389 -0.02029299041682885 0 0.0231162301509041 -0.013141852651106503 0 0.023112800465309381 -0.012773796999630266 0 0.022614723829536609 -0.012675099165873461 0 0.022607859723665219 -0.014621485292103659 0 0.021354827741908153 -0.013377682548993044 0 0.021377030610155563 -0.015757031918469104 0 0.02137611189603715 -0.017106858533488475 0 0.019523123702201873 -0.01672513690765199 0 0.024249205094367822 -0.010980808293043737 0 0.021354827741908153 -0.013377682548993044 0 0.025417103636875712 -0.0078060686105176609 0 0.025672386813949778 -0.0078244325627631062 0 0.025395146006338919 -0.0075542317954889384 0 0.02093754397951092 -0.018123813472891975 0 0.022607859723665219 -0.014621485292103659 0 0.024249205094367822 -0.010980808293043737 0 0.022607859723665219 -0.014621485292103659 0 0.024877397648582371 -0.0074054058684575432 0 0.025395146006338919 -0.0075542317954889384 0 0.025111773827687728 -0.0076671189309416091 0 0.025417103636875712 -0.0078060686105176609 0 0.025395146006338919 -0.0075542317954889384 0 0.025111773827687728 -0.0076671189309416091 0 0.020172021672915756 -0.012767555950045263 0 0.021354827741908153 -0.013377682548993044 0 0.019504381730751204 -0.01364696367621656 0 0.019450226930534567 -0.013658551908909461 0 0.019461142688775305 -0.013666686939414469 0 0.020172021672915756 -0.012767555950045263 0 0.016047543381124039 -0.017074721588702067 0 0.021377030610155563 -0.015757031918469104 0 0.019523123702201873 -0.01672513690765199 0 0.018651904283632441 -0.015886642607942234 0 0.021354827741908153 -0.013377682548993044 0 0.016047543381124039 -0.017074721588702067 0 0.013318313623815999 -0.020091258732109867 0 0.013290664432107179 -0.020408673610362731 0 0.013184904556002389 -0.02029299041682885 0 0.013619817135149025 -0.020417016068995198 0 0.013318313623815999 -0.020091258732109867 0 0.013290664432107179 -0.020408673610362731 0 0.01954497717959832 -0.019695798881633021 0 0.02093754397951092 -0.018123813472891975 0 0.013020334672949592 -0.020597761544617208 0 0.013096217952590434 -0.020089521090480969 0 0.013184904556002389 -0.02029299041682885 0 0.026338644371201921 -0.018435799168641884 0 0.02628410687226853 -0.017753023045610744 0 0.026132325547849264 -0.018081779551526539 0 0.013020334672949592 -0.020597761544617208 0 0.013290664432107179 -0.020408673610362731 0 0.013184904556002389 -0.02029299041682885 0 0.026904778021384794 -0.016046699676345363 0 0.026517084010481799 -0.015507765096936828 0 0.026859864714538006 -0.015023921378436356 0 0.025972233122681179 -0.018375840465378754 0 0.026132325547849264 -0.018081779551526539 0 0.025934040917520735 -0.017763736629807115 0 0.026517084010481799 -0.015507765096936828 0 0.026282807433981373 -0.015119581768603627 0 0.026859864714538006 -0.015023921378436356 0 0.026490308643888114 -0.017372493746507751 0 0.025743686485831401 -0.015627493834190872 0 0.025250492144636261 -0.016040695936786264 0 0.02630743135012786 -0.016082304964586149 0 0.026517084010481799 -0.015507765096936828 0 0.025545455190620413 -0.015901209279383478 0 0.02647157187664247 -0.01552269661666956 0 0.025861735722724301 -0.015750857541634036 0 0.026517084010481799 -0.015507765096936828 0 0.026282807433981373 -0.015119581768603627 0 0.026093077336722444 -0.014571332144106591 0 0.026092861797259972 -0.014562111222299735 0 0.026081639598345936 -0.014574485411470602 0 0.026307599335761701 -0.014845459970923529 0 0.026009033695687796 -0.01479459265674864 0 0.02670069593400113 -0.014335127271607734 0 0.026009033695687796 -0.01479459265674864 0 0.026093077336722444 -0.014571332144106591 0 0.026092861797259972 -0.014562111222299735 0 0.026104612596891504 -0.01457227663258186 0 0.02321154810313647 -0.015055960432300388 0 0.023269313120388328 -0.014382022350191929 0 0.023231533508362396 -0.013890954048836444 0 0.025743686485831401 -0.015627493834190872 0 0.025684461123991646 -0.013510807714838504 0 0.026092861797259972 -0.014562111222299735 0 0.026104612596891504 -0.01457227663258186 0 0.026104635344420566 -0.014546662376834297 0 0.026307599335761701 -0.014845459970923529 0 0.025743686485831401 -0.015627493834190872 0 0.023657570554745072 -0.014759034566135315 0 0.02321154810313647 -0.015055960432300388 0 0.023269313120388328 -0.014382022350191929 0 0.023675735011503458 -0.014105528606414725 0 0.023269313120388328 -0.014382022350191929 0 0.023231533508362396 -0.013890954048836444 0 0.02670069593400113 -0.014335127271607734 0 0.025684461123991646 -0.013510807714838504 0 0.023657251930972942 -0.013630298840349579 0 0.023675735011503458 -0.014105528606414725 0 0.023231533508362396 -0.013890954048836444 0 0.027823882661168836 -0.013714723138737592 0 0.027838866152318783 -0.013172939526591236 0 0.027044103095866266 -0.013402518001792561 0 0.025684461123991646 -0.013510807714838504 0 0.026154156312652502 -0.011509572350162554 0 0.026064468708935074 -0.012205956672909213 0 0.0257350292025934 -0.012406043354259729 0 0.025743610396068841 -0.011889785266251085 0 0.025589282655049578 -0.0097934757068836448 0 0.025574130226002516 -0.0099232131664678848 0 0.025494406468504382 -0.0098245018244877119 0 0.025185678988762616 -0.011645224904475535 0 0.025684461123991646 -0.013510807714838504 0 0.025185678988762616 -0.011645224904475535 0 0.026154156312652502 -0.011509572350162554 0 0.026154156312652502 -0.011509572350162554 0 0.025687399682334505 -0.0098268424600284673 0 0.025589282655049578 -0.0097934757068836448 0 0.025494406468504382 -0.0098245018244877119 0 0.025600909228746416 -0.0096371120028341355 0 0.026154156312652502 -0.011509572350162554 0 0.026422700050680679 -0.011641173292954629 0 0.027838866152318783 -0.013172939526591236 0 0.027044103095866266 -0.013402518001792561 0 0.026888370127622574 -0.012183369111006629 0 0.027044103095866266 -0.013402518001792561 0 0.025845409721111722 -0.012673165331275226 0 0.026888370127622574 -0.012183369111006629 0 0.026975694079906198 -0.014224699629826091 0 0.027044103095866266 -0.013402518001792561 0 0.026097315502786846 -0.013718069372016285 0 0.026975694079906198 -0.014224699629826091 0 0.027823882661168836 -0.013714723138737592 0 0.027044103095866266 -0.013402518001792561 0 0.027044103095866266 -0.013402518001792561 0 0.026097315502786846 -0.013718069372016285 0 0.025845409721111722 -0.012673165331275226 0 0.025845409721111722 -0.012673165331275226 0 0.024999993806158596 -0.013496107840595069 0 0.024999700305974419 -0.012196882565139896 0 0.026097315502786846 -0.013718069372016285 0 0.025845409721111722 -0.012673165331275226 0 0.024999993806158596 -0.013496107840595069 0 0.026097315502786846 -0.013718069372016285 0 0.024999993806158596 -0.013496107840595069 0 0.025557276363094166 -0.014198609659876467 0 0.025000460606732239 -0.014794838917340739 0 0.026009033695687796 -0.01479459265674864 0 0.025557276363094166 -0.014198609659876467 0 0.024999951222942577 -0.014794791680874407 0 0.026148719998819934 -0.01471233676151081 0 0.024999993806158596 -0.013496107840595069 0 0.025557276363094166 -0.014198609659876467 0 0.024999951222942577 -0.014794791680874407 0 0.026097315502786846 -0.013718069372016285 0 0.025557276363094166 -0.014198609659876467 0 0.026148719998819934 -0.01471233676151081 0 0.026975694079906198 -0.014224699629826091 0 0.026097315502786846 -0.013718069372016285 0 0.026148719998819934 -0.01471233676151081 0 0.025861735722724301 -0.015750857541634036 0 0.025829875669305054 -0.015106516324968925 0 0.024999852413830941 -0.015453818899834059 0 0.025861735722724301 -0.015750857541634036 0 0.026282807433981373 -0.015119581768603627 0 0.025829875669305054 -0.015106516324968925 0 0.024999993457407117 -0.01479491143985644 0 0.026189384294884516 -0.014738021709440335 0 0.025000001775060055 -0.015453136810993773 0 0.026009033695687796 -0.01479459265674864 0 0.025000095341886321 -0.015453199315807395 0 0.016186409395418596 -0.02094328446205088 0 0.015761010643642676 -0.021056889957906173 0 0.016102187460995666 -0.021757707100112673 0 0.015761010643642676 -0.021056889957906173 0 0.015100486650009166 -0.020301862261940813 0 0.016093394148471336 -0.019993888108151888 0 0.016186409395418596 -0.02094328446205088 0 0.015761010643642676 -0.021056889957906173 0 0.016093394148471336 -0.019993888108151888 0 0.016186409395418596 -0.02094328446205088 0 0.016093394148471336 -0.019993888108151888 0 0.016333723717999713 -0.019944767475557949 0 0.016186409395418596 -0.02094328446205088 0 0.016512369038825785 -0.021008683694705543 0 0.016333723717999713 -0.019944767475557949 0 0.017645462804388574 -0.019400879601900047 0 0.016512369038825785 -0.021008683694705543 0 0.016333723717999713 -0.019944767475557949 0 0.016815985584151327 -0.021864931436290314 0 0.016512369038825785 -0.021008683694705543 0 0.016372980437890629 -0.021840670926135466 0 0.016186409395418596 -0.02094328446205088 0 0.016512369038825785 -0.021008683694705543 0 0.016372980437890629 -0.021840670926135466 0 0.016186409395418596 -0.02094328446205088 0 0.016372980437890629 -0.021840670926135466 0 0.016102187460995666 -0.021757707100112673 0 0.016372980437890629 -0.021840670926135466 0 0.0163410668272847 -0.022284538277507898 0 0.016102187460995666 -0.021757707100112673 0 0.016353410391310722 -0.023146619269765332 0 0.016372980437890629 -0.021840670926135466 0 0.0163410668272847 -0.022284538277507898 0 0.016815985584151327 -0.021864931436290314 0 0.016353410391310722 -0.023146619269765332 0 0.016372980437890629 -0.021840670926135466 0 0.016353410391310722 -0.023146619269765332 0 0.015809198777647492 -0.024442765329540032 0 0.015504384059851356 -0.024234111912407968 0 0.016353410391310722 -0.023146619269765332 0 0.0163410668272847 -0.022284538277507898 0 0.016384860817599201 -0.022445871539705873 0 0.016381275097221794 -0.023122098205811382 0 0.016006034280171857 -0.023339243958713122 0 0.0163410668272847 -0.022284538277507898 0 0.016384860817599201 -0.022445871539705873 0 0.016247076697071008 -0.022299895735755255 0 0.016384860817599201 -0.022445871539705873 0 0.016262417962758551 -0.022473173267946085 0 0.016247076697071008 -0.022299895735755255 0 0.016242533860940479 -0.022657507803112226 0 0.016384860817599201 -0.022445871539705873 0 0.016262417962758551 -0.022473173267946085 0 0.016262417962758551 -0.022473173267946085 0 0.016157305959142599 -0.022485182773006984 0 0.016247076697071008 -0.022299895735755255 0 0.016242533860940479 -0.022657507803112226 0 0.016262417962758551 -0.022473173267946085 0 0.016157305959142599 -0.022485182773006984 0 0.016157305959142599 -0.022485182773006984 0 0.016247076697071008 -0.022299895735755255 0 0.0160787348779418 -0.022200349410518225 0 0.0163410668272847 -0.022284538277507898 0 0.016247076697071008 -0.022299895735755255 0 0.016102187460995666 -0.021757707100112673 0 0.016247076697071008 -0.022299895735755255 0 0.016102187460995666 -0.021757707100112673 0 0.0160787348779418 -0.022200349410518225 0 0.015761010643642676 -0.021056889957906173 0 0.015864942425307147 -0.022010446189557435 0 0.015424718295941718 -0.021426413743842552 0 0.015761010643642676 -0.021056889957906173 0 0.016102187460995666 -0.021757707100112673 0 0.015864942425307147 -0.022010446189557435 0 0.016102187460995666 -0.021757707100112673 0 0.015864942425307147 -0.022010446189557435 0 0.0160787348779418 -0.022200349410518225 0 0.015864942425307147 -0.022010446189557435 0 0.0160787348779418 -0.022200349410518225 0 0.016006701823465634 -0.022575816324127286 0 0.016136286792255802 -0.022722987050505739 0 0.016157305959142599 -0.022485182773006984 0 0.016006701823465634 -0.022575816324127286 0 0.016157305959142599 -0.022485182773006984 0 0.0160787348779418 -0.022200349410518225 0 0.016006701823465634 -0.022575816324127286 0 0.015864942425307147 -0.022010446189557435 0 0.016006701823465634 -0.022575816324127286 0 0.015596021060474851 -0.022626592508850334 0 0.015864942425307147 -0.022010446189557435 0 0.015596021060474851 -0.022626592508850334 0 0.015140115467116683 -0.021741154663762318 0 0.015976162198258762 -0.022921152003468025 0 0.016006701823465634 -0.022575816324127286 0 0.015596021060474851 -0.022626592508850334 0 0.015596021060474851 -0.022626592508850334 0 0.015140115467116683 -0.021741154663762318 0 0.014493752238392055 -0.021732393194559909 0 0.014431698216008875 -0.022302414582910747 0 0.015596021060474851 -0.022626592508850334 0 0.014493752238392055 -0.021732393194559909 0 0.015267791074178635 -0.022803979717955381 0 0.015683837211668172 -0.022632943825626736 0 0.015140115467116683 -0.021741154663762318 0 0.014493752238392055 -0.021732393194559909 0 0.014574648574717667 -0.021202247007485388 0 0.015864942425307147 -0.022010446189557435 0 0.015140115467116683 -0.021741154663762318 0 0.015424718295941718 -0.021426413743842552 0 0.014431698216008875 -0.022302414582910747 0 0.013879965186739611 -0.022136907993941655 0 0.0140036075448291 -0.021595790130657291 0 0.014431698216008875 -0.022302414582910747 0 0.014493752238392055 -0.021732393194559909 0 0.0140036075448291 -0.021595790130657291 0 0.014493752238392055 -0.021732393194559909 0 0.014190515967043968 -0.021022160179051435 0 0.014574648574717667 -0.021202247007485388 0 0.014493752238392055 -0.021732393194559909 0 0.0140036075448291 -0.021595790130657291 0 0.014190515967043968 -0.021022160179051435 0 0.013912314538476389 -0.021076747319012264 0 0.0140036075448291 -0.021595790130657291 0 0.014190515967043968 -0.021022160179051435 0 0.013912314538476389 -0.021076747319012264 0 0.014190515967043968 -0.021022160179051435 0 0.014065243655481719 -0.020586591171730558 0 0.014190515967043968 -0.021022160179051435 0 0.014574648574717667 -0.021202247007485388 0 0.014456610103518272 -0.020702486474378407 0 0.014190515967043968 -0.021022160179051435 0 0.014456610103518272 -0.020702486474378407 0 0.014241869505630758 -0.020518907398963459 0 0.014241869505630758 -0.020518907398963459 0 0.014065243655481719 -0.020586591171730558 0 0.014233562455463715 -0.020064386057007423 0 0.014456610103518272 -0.020702486474378407 0 0.014241869505630758 -0.020518907398963459 0 0.014389799641126818 -0.020288098017367633 0 0.014241869505630758 -0.020518907398963459 0 0.014389799641126818 -0.020288098017367633 0 0.014233562455463715 -0.020064386057007423 0 0.014190515967043968 -0.021022160179051435 0 0.014241869505630758 -0.020518907398963459 0 0.014065243655481719 -0.020586591171730558 0 0.015140115467116683 -0.021741154663762318 0 0.015424718295941718 -0.021426413743842552 0 0.014932136058392619 -0.020896974829393556 0 0.015761010643642676 -0.021056889957906173 0 0.015424718295941718 -0.021426413743842552 0 0.014932136058392619 -0.020896974829393556 0 0.015761010643642676 -0.021056889957906173 0 0.014932136058392619 -0.020896974829393556 0 0.015100486650009166 -0.020301862261940813 0 0.015140115467116683 -0.021741154663762318 0 0.014574648574717667 -0.021202247007485388 0 0.014932136058392619 -0.020896974829393556 0 0.014574648574717667 -0.021202247007485388 0 0.014456610103518272 -0.020702486474378407 0 0.014932136058392619 -0.020896974829393556 0 0.014456610103518272 -0.020702486474378407 0 0.014932136058392619 -0.020896974829393556 0 0.01469985927446639 -0.020470375845244394 0 0.014932136058392619 -0.020896974829393556 0 0.01469985927446639 -0.020470375845244394 0 0.015100486650009166 -0.020301862261940813 0 0.014456610103518272 -0.020702486474378407 0 0.01469985927446639 -0.020470375845244394 0 0.014389799641126818 -0.020288098017367633 0 0.01469985927446639 -0.020470375845244394 0 0.014389799641126818 -0.020288098017367633 0 0.014536671665544284 -0.020001258015563763 0 0.014389799641126818 -0.020288098017367633 0 0.014326327169919821 -0.020045471753969993 0 0.014233562455463715 -0.020064386057007423 0 0.014389799641126818 -0.020288098017367633 0 0.014536671665544284 -0.020001258015563763 0 0.014326327169919821 -0.020045471753969993 0 0.01469985927446639 -0.020470375845244394 0 0.014536671665544284 -0.020001258015563763 0 0.015100486650009166 -0.020301862261940813 0 0.014536671665544284 -0.020001258015563763 0 0.015100486650009166 -0.020301862261940813 0 0.01493601068740733 -0.019350064598399518 0 0.015100486650009166 -0.020301862261940813 0 0.01493601068740733 -0.019350064598399518 0 0.016093394148471336 -0.019993888108151888 0 0.01493601068740733 -0.019350064598399518 0 0.014970817856238949 -0.017877749972777388 0 0.016719118630045989 -0.01779759339303898 0 0.01493601068740733 -0.019350064598399518 0 0.014216509156027261 -0.019649020328999373 0 0.014970817856238949 -0.017877749972777388 0 0.014536671665544284 -0.020001258015563763 0 0.01493601068740733 -0.019350064598399518 0 0.014140659081481138 -0.019789343298935932 0 0.016705456851566582 -0.016312182835540874 0 0.015997957062750576 -0.016654065433079367 0 0.01493601068740733 -0.019350064598399518 0 0.014140659081481138 -0.019789343298935932 0 0.014216509156027261 -0.019649020328999373 0 0.014536671665544284 -0.020001258015563763 0 0.014326327169919821 -0.020045471753969993 0 0.014140659081481138 -0.019789343298935932 0 0.014326327169919821 -0.020045471753969993 0 0.014140659081481138 -0.019789343298935932 0 0.014233562455463715 -0.020064386057007423 0 0.015766931096320522 -0.018059763945900503 0 0.016705456851566582 -0.016312182835540874 0 0.018388604945415592 -0.016255502515533954 0 0.018099441855632278 -0.016836643062650307 0 0.017606102378179743 -0.016642329573506708 0 0.015766931096320522 -0.018059763945900503 0 0.018411317331712244 -0.014815592633907545 0 0.018411317331712244 -0.014815592633907545 0 0.016705456851566582 -0.016312182835540874 0 0.016397288910075403 -0.015554025946124237 0 0.017432585514986842 -0.015046886207052334 0 0.016868431459867578 -0.01431555554237756 0 0.018411317331712244 -0.014815592633907545 0 0.019934579785182167 -0.010116070778137535 0 0.01631730055389348 -0.015520532093400959 0 0.016397288910075403 -0.015554025946124237 0 0.016868431459867578 -0.01431555554237756 0 0.022904290259720204 -0.0068592791201384064 0 0.02313099918417463 -0.0074232324782952082 0 0.022387071972094844 -0.0075497782460884596 0 0.013894716499367679 -0.020367777856277882 0 0.014065243655481719 -0.020586591171730558 0 0.014369771270758299 -0.020024805517681286 0 0.018925117005500265 -0.013618609356234188 0 0.019073074841890834 -0.013459547951394698 0 0.014968862383516173 -0.020182824664551787 0 0.015007547761519472 -0.020106087730337348 0 0.014369771270758299 -0.020024805517681286 0 0.014065243655481719 -0.020586591171730558 0 0.014242284997377749 -0.019957096633352066 0 0.014233562455463715 -0.020064386057007423 0 0.022904290259720204 -0.0068592791201384064 0 0.023578555080530028 -0.0069851561378645698 0 0.023330936480850981 -0.0071930001793719823 0 0.014065243655481719 -0.020586591171730558 0 0.014968862383516173 -0.020182824664551787 0 0.014369771270758299 -0.020024805517681286 0 0.013505779566883834 -0.021239702738860406 0 0.015766931096320522 -0.018059763945900503 0 0.018411317331712244 -0.014815592633907545 0 0.019073074841890834 -0.013459547951394698 0 0.015766931096320522 -0.018059763945900503 0 0.01509783830461235 -0.019185895817686614 0 0.023330936480850981 -0.0071930001793719823 0 0.02313099918417463 -0.0074232324782952082 0 0.023747440572057604 -0.0075399569315843162 0 0.022904290259720204 -0.0068592791201384064 0 0.023330936480850981 -0.0071930001793719823 0 0.02313099918417463 -0.0074232324782952082 0 0.024268110394923423 -0.0071898179087295641 0 0.023578555080530028 -0.0069851561378645698 0 0.023747440572057604 -0.0075399569315843162 0 0.023578555080530028 -0.0069851561378645698 0 0.023330936480850981 -0.0071930001793719823 0 0.023747440572057604 -0.0075399569315843162 0 0.024353736854813755 -0.0078043272119287209 0 0.023747440572057604 -0.0075399569315843162 0 0.024110146634417722 -0.008183066162674316 0 0.023747440572057604 -0.0075399569315843162 0 0.023522727194984258 -0.0080945242743122349 0 0.024110146634417722 -0.008183066162674316 0 0.02313099918417463 -0.0074232324782952082 0 0.022993222212072818 -0.0078844798672918995 0 0.023522727194984258 -0.0080945242743122349 0 0.02313099918417463 -0.0074232324782952082 0 0.023747440572057604 -0.0075399569315843162 0 0.023522727194984258 -0.0080945242743122349 0 0.023522727194984258 -0.0080945242743122349 0 0.022916187671567591 -0.0084931705514030287 0 0.023891933347024517 -0.0086755147854102113 0 0.022993222212072818 -0.0078844798672918995 0 0.023522727194984258 -0.0080945242743122349 0 0.022916187671567591 -0.0084931705514030287 0 0.023522727194984258 -0.0080945242743122349 0 0.024110146634417722 -0.008183066162674316 0 0.023891933347024517 -0.0086755147854102113 0 0.024110146634417722 -0.008183066162674316 0 0.023891933347024517 -0.0086755147854102113 0 0.02444018664805064 -0.0087061136563882126 0 0.016868431459867578 -0.01431555554237756 0 0.017832054686070159 -0.012687716564655288 0 0.017774662324491389 -0.014203472767402208 0 0.017432585514986842 -0.015046886207052334 0 0.016868431459867578 -0.01431555554237756 0 0.017774662324491389 -0.014203472767402208 0 0.022993222212072818 -0.0078844798672918995 0 0.022387071972094844 -0.0075497782460884596 0 0.022916187671567591 -0.0084931705514030287 0 0.02313099918417463 -0.0074232324782952082 0 0.022993222212072818 -0.0078844798672918995 0 0.022387071972094844 -0.0075497782460884596 0 0.022387071972094844 -0.0075497782460884596 0 0.022916187671567591 -0.0084931705514030287 0 0.021419445597121469 -0.008436762405774274 0 0.019934579785182167 -0.010116070778137535 0 0.019555306014093971 -0.010827568886612864 0 0.017832054686070159 -0.012687716564655288 0 0.018843058262081758 -0.013062642926495421 0 0.0183220937213469 -0.013869673615896297 0 0.017832054686070159 -0.012687716564655288 0 0.017774662324491389 -0.014203472767402208 0 0.0183220937213469 -0.013869673615896297 0 0.018843058262081758 -0.013062642926495421 0 0.019653651741659669 -0.012948067059487639 0 0.01941203513959425 -0.012146166583911398 0 0.018843058262081758 -0.013062642926495421 0 0.018781124490016263 -0.014019044600864504 0 0.019653651741659669 -0.012948067059487639 0 0.018781124490016263 -0.014019044600864504 0 0.01907553634679748 -0.016126041448852501 0 0.019653651741659669 -0.012948067059487639 0 0.018781124490016263 -0.014019044600864504 0 0.018488078618248794 -0.014933146836135534 0 0.01907553634679748 -0.016126041448852501 0 0.018843058262081758 -0.013062642926495421 0 0.018781124490016263 -0.014019044600864504 0 0.0183220937213469 -0.013869673615896297 0 0.018781124490016263 -0.014019044600864504 0 0.018488078618248794 -0.014933146836135534 0 0.0183220937213469 -0.013869673615896297 0 0.018488078618248794 -0.014933146836135534 0 0.017774662324491389 -0.014203472767402208 0 0.0183220937213469 -0.013869673615896297 0 0.015997957062750576 -0.016654065433079367 0 0.018580830887894365 -0.014919612873407543 0 0.017432585514986842 -0.015046886207052334 0 0.018488078618248794 -0.014933146836135534 0 0.017774662324491389 -0.014203472767402208 0 0.014970817856238949 -0.017877749972777388 0 0.018488078618248794 -0.014933146836135534 0 0.016719118630045989 -0.01779759339303898 0 0.018488078618248794 -0.014933146836135534 0 0.016719118630045989 -0.01779759339303898 0 0.01907553634679748 -0.016126041448852501 0 0.017276245640465319 -0.017260320407130589 0 0.016203347959927519 -0.019760162298382334 0 0.016719118630045989 -0.01779759339303898 0 0.01907553634679748 -0.016126041448852501 0 0.016093394148471336 -0.019993888108151888 0 0.015574879195263392 -0.018460092173140524 0 0.016093394148471336 -0.019993888108151888 0 0.016178880286931156 -0.019034461910795598 0 0.016093394148471336 -0.019993888108151888 0 0.016333723717999713 -0.019944767475557949 0 0.016178880286931156 -0.019034461910795598 0 0.01493601068740733 -0.019350064598399518 0 0.016719118630045989 -0.01779759339303898 0 0.016093394148471336 -0.019993888108151888 0 0.017645462804388574 -0.019400879601900047 0 0.017618649762543549 -0.018285703539024221 0 0.016333723717999713 -0.019944767475557949 0 0.017618649762543549 -0.018285703539024221 0 0.016333723717999713 -0.019944767475557949 0 0.016805750712138114 -0.018318005864550933 0 0.016333723717999713 -0.019944767475557949 0 0.016178880286931156 -0.019034461910795598 0 0.016805750712138114 -0.018318005864550933 0 0.016178880286931156 -0.019034461910795598 0 0.016348667174531883 -0.01781561037605504 0 0.016805750712138114 -0.018318005864550933 0 0.015574879195263392 -0.018460092173140524 0 0.016178880286931156 -0.019034461910795598 0 0.016348667174531883 -0.01781561037605504 0 0.017618649762543549 -0.018285703539024221 0 0.016805750712138114 -0.018318005864550933 0 0.017260030432360119 -0.01716396136819856 0 0.016348667174531883 -0.01781561037605504 0 0.016805750712138114 -0.018318005864550933 0 0.017260030432360119 -0.01716396136819856 0 0.018175644164298763 -0.016964635601067951 0 0.017260030432360119 -0.01716396136819856 0 0.018000037751307832 -0.015402739874971948 0 0.017276245640465319 -0.017260320407130589 0 0.017860104510740823 -0.014579669021796197 0 0.016348667174531883 -0.01781561037605504 0 0.017260030432360119 -0.01716396136819856 0 0.016028001767684995 -0.016064041184754699 0 0.015574879195263392 -0.018460092173140524 0 0.016348667174531883 -0.01781561037605504 0 0.016028001767684995 -0.016064041184754699 0 0.017860104510740823 -0.014579669021796197 0 0.018307010584205766 -0.013143108351879124 0 0.016028001767684995 -0.016064041184754699 0 0.018000037751307832 -0.015402739874971948 0 0.018357595646668685 -0.012991119533727766 0 0.017260030432360119 -0.01716396136819856 0 0.016028001767684995 -0.016064041184754699 0 0.018000037751307832 -0.015402739874971948 0 0.018357595646668685 -0.012991119533727766 0 0.018601370433193883 -0.014021067149433984 0 0.01861903121795612 -0.012897268953519676 0 0.018000037751307832 -0.015402739874971948 0 0.018357595646668685 -0.012991119533727766 0 0.018601370433193883 -0.014021067149433984 0 0.019653651741659669 -0.012948067059487639 0 0.018357595646668685 -0.012991119533727766 0 0.01941203513959425 -0.012146166583911398 0 0.018357595646668685 -0.012991119533727766 0 0.019060195741440959 -0.012026674434780889 0 0.01941203513959425 -0.012146166583911398 0 0.018357595646668685 -0.012991119533727766 0 0.019060195741440959 -0.012026674434780889 0 0.01861903121795612 -0.012897268953519676 0 0.018805731124786697 -0.012401171540080646 0 0.019060195741440959 -0.012026674434780889 0 0.01861903121795612 -0.012897268953519676 0 0.018805731124786697 -0.012401171540080646 0 0.019060195741440959 -0.012026674434780889 0 0.01897585017597261 -0.01215851386669578 0 0.019060195741440959 -0.012026674434780889 0 0.019339775481244166 -0.011955364417142712 0 0.01897585017597261 -0.01215851386669578 0 0.019339775481244166 -0.011955364417142712 0 0.01897585017597261 -0.01215851386669578 0 0.019514619341675962 -0.012454402921427587 0 0.018805731124786697 -0.012401171540080646 0 0.01897585017597261 -0.01215851386669578 0 0.018912951042370552 -0.012270946149673488 0 0.01897585017597261 -0.01215851386669578 0 0.018943449335591587 -0.012219890106382541 0 0.01895535146933457 -0.012242293941433158 0 0.01897585017597261 -0.01215851386669578 0 0.018943449335591587 -0.012219890106382541 0 0.018912951042370552 -0.012270946149673488 0 0.019985435589827249 -0.01149516250385494 0 0.022277822252891783 -0.010764192844372075 0 0.02126170993940444 -0.012130560658890729 0 0.019339775481244166 -0.011955364417142712 0 0.019985435589827249 -0.01149516250385494 0 0.019514619341675962 -0.012454402921427587 0 0.019060195741440959 -0.012026674434780889 0 0.019985435589827249 -0.01149516250385494 0 0.019821444129220801 -0.010844791939516993 0 0.019060195741440959 -0.012026674434780889 0 0.019339775481244166 -0.011955364417142712 0 0.019985435589827249 -0.01149516250385494 0 0.019985435589827249 -0.01149516250385494 0 0.019821444129220801 -0.010844791939516993 0 0.022277822252891783 -0.010764192844372075 0 0.017832054686070159 -0.012687716564655288 0 0.018843058262081758 -0.013062642926495421 0 0.01941203513959425 -0.012146166583911398 0 0.017832054686070159 -0.012687716564655288 0 0.019821444129220801 -0.010844791939516993 0 0.01941203513959425 -0.012146166583911398 0 0.019060195741440959 -0.012026674434780889 0 0.019821444129220801 -0.010844791939516993 0 0.01941203513959425 -0.012146166583911398 0 0.019555306014093971 -0.010827568886612864 0 0.019788028055678641 -0.010778666493954193 0 0.019821444129220801 -0.010844791939516993 0 0.02273693185727934 -0.0093923334683873143 0 0.022696648754234251 -0.010218799843143819 0 0.021419445597121469 -0.008436762405774274 0 0.019821444129220801 -0.010844791939516993 0 0.02273693185727934 -0.0093923334683873143 0 0.022916187671567591 -0.0084931705514030287 0 0.021419445597121469 -0.008436762405774274 0 0.02273693185727934 -0.0093923334683873143 0 0.022916187671567591 -0.0084931705514030287 0 0.02273693185727934 -0.0093923334683873143 0 0.023583202077465497 -0.0091792761232191399 0 0.02273693185727934 -0.0093923334683873143 0 0.02377678980717229 -0.0097339104010399167 0 0.022696648754234251 -0.010218799843143819 0 0.023891933347024517 -0.0086755147854102113 0 0.023583202077465497 -0.0091792761232191399 0 0.024307507608011921 -0.009303096156458298 0 0.023891933347024517 -0.0086755147854102113 0 0.024307507608011921 -0.009303096156458298 0 0.02444018664805064 -0.0087061136563882126 0 0.022916187671567591 -0.0084931705514030287 0 0.023891933347024517 -0.0086755147854102113 0 0.023583202077465497 -0.0091792761232191399 0 0.02273693185727934 -0.0093923334683873143 0 0.023583202077465497 -0.0091792761232191399 0 0.02377678980717229 -0.0097339104010399167 0 0.023583202077465497 -0.0091792761232191399 0 0.024307507608011921 -0.009303096156458298 0 0.02377678980717229 -0.0097339104010399167 0 0.024307507608011921 -0.009303096156458298 0 0.02377678980717229 -0.0097339104010399167 0 0.02449541764229235 -0.0097790514514145797 0 0.02377678980717229 -0.0097339104010399167 0 0.02385900994503367 -0.010072381211979132 0 0.022696648754234251 -0.010218799843143819 0 0.02377678980717229 -0.0097339104010399167 0 0.02385900994503367 -0.010072381211979132 0 0.02449541764229235 -0.0097790514514145797 0 0.02385900994503367 -0.010072381211979132 0 0.02449541764229235 -0.0097790514514145797 0 0.024785596569420681 -0.0098182957012062713 0 0.019821444129220801 -0.010844791939516993 0 0.022696648754234251 -0.010218799843143819 0 0.022277822252891783 -0.010764192844372075 0 0.02385900994503367 -0.010072381211979132 0 0.022696648754234251 -0.010218799843143819 0 0.022277822252891783 -0.010764192844372075 0 0.02385900994503367 -0.010072381211979132 0 0.022277822252891783 -0.010764192844372075 0 0.023884770246856132 -0.010006427288672931 0 0.023884770246856132 -0.010006427288672931 0 0.025008129590835416 -0.0082191555152441483 0 0.025294225786859682 -0.007868448755042284 0 0.023647447327767135 -0.01003291212321265 0 0.0231283515364278 -0.0099347449502716102 0 0.022277822252891783 -0.010764192844372075 0 0.023884770246856132 -0.010006427288672931 0 0.02126170993940444 -0.012130560658890729 0 0.023884770246856132 -0.010006427288672931 0 0.02454789315647031 -0.0084959237792720764 0 0.02412305060057373 -0.0092140907808890109 0 0.02454789315647031 -0.0084959237792720764 0 0.025008129590835416 -0.0082191555152441483 0 0.025079643058817509 -0.0079836862810461571 0 0.023884770246856132 -0.010006427288672931 0 0.02454789315647031 -0.0084959237792720764 0 0.025008129590835416 -0.0082191555152441483 0 0.025008129590835416 -0.0082191555152441483 0 0.02522510142979462 -0.0079384005897946072 0 0.025146712112445298 -0.0078935189995924786 0 0.025008129590835416 -0.0082191555152441483 0 0.025294225786859682 -0.007868448755042284 0 0.025146712112445298 -0.0078935189995924786 0 0.02385900994503367 -0.010072381211979132 0 0.023884770246856132 -0.010006427288672931 0 0.02412305060057373 -0.0092140907808890109 0 0.023965285711029322 -0.0099646653892241834 0 0.024386150134058194 -0.009461685514000312 0 0.02385900994503367 -0.010072381211979132 0 0.024004960491477888 -0.009095776218974113 0 0.02412305060057373 -0.0092140907808890109 0 0.02454789315647031 -0.0084959237792720764 0 0.02412305060057373 -0.0092140907808890109 0 0.024605225983873335 -0.0081246286583347895 0 0.024004960491477888 -0.009095776218974113 0 0.02412305060057373 -0.0092140907808890109 0 0.024605225983873335 -0.0081246286583347895 0 0.024004960491477888 -0.009095776218974113 0 0.024605225983873335 -0.0081246286583347895 0 0.024398501766024556 -0.0081024997736491595 0 0.024386150134058194 -0.009461685514000312 0 0.024897760909521172 -0.008713904394703112 0 0.024605225983873335 -0.0081246286583347895 0 0.024944000036698829 -0.007652626001455296 0 0.024847184410871501 -0.0075967860219781696 0 0.024605225983873335 -0.0081246286583347895 0 0.024847184410871501 -0.0075967860219781696 0 0.024398501766024556 -0.0081024997736491595 0 0.02454789315647031 -0.0084959237792720764 0 0.024605225983873335 -0.0081246286583347895 0 0.024868108219952195 -0.0079977158775864834 0 0.024605225983873335 -0.0081246286583347895 0 0.02511643005906241 -0.0076434235154674863 0 0.024868108219952195 -0.0079977158775864834 0 0.024605225983873335 -0.0081246286583347895 0 0.02511643005906241 -0.0076434235154674863 0 0.024944000036698829 -0.007652626001455296 0 0.02511643005906241 -0.0076434235154674863 0 0.02539779285376367 -0.0073506154182149102 0 0.025231095799143555 -0.0072691048671476282 0 0.02511643005906241 -0.0076434235154674863 0 0.024944000036698829 -0.007652626001455296 0 0.025231095799143555 -0.0072691048671476282 0 0.024944000036698829 -0.007652626001455296 0 0.024847184410871501 -0.0075967860219781696 0 0.025231095799143555 -0.0072691048671476282 0 0.025008129590835416 -0.0082191555152441483 0 0.02522510142979462 -0.0079384005897946072 0 0.025079643058817509 -0.0079836862810461571 0 0.02522510142979462 -0.0079384005897946072 0 0.025079643058817509 -0.0079836862810461571 0 0.025315735615841811 -0.0077675101971539243 0 0.02454789315647031 -0.0084959237792720764 0 0.025079643058817509 -0.0079836862810461571 0 0.024868108219952195 -0.0079977158775864834 0 0.025079643058817509 -0.0079836862810461571 0 0.024868108219952195 -0.0079977158775864834 0 0.02522871884577927 -0.0076984708789499803 0 0.025079643058817509 -0.0079836862810461571 0 0.02522871884577927 -0.0076984708789499803 0 0.025315735615841811 -0.0077675101971539243 0 0.02511643005906241 -0.0076434235154674863 0 0.024868108219952195 -0.0079977158775864834 0 0.02522871884577927 -0.0076984708789499803 0 0.02511643005906241 -0.0076434235154674863 0 0.02522871884577927 -0.0076984708789499803 0 0.02539779285376367 -0.0073506154182149102 0 0.02522871884577927 -0.0076984708789499803 0 0.02541972775365188 -0.0075433370127601079 0 0.025315735615841811 -0.0077675101971539243 0 0.02522871884577927 -0.0076984708789499803 0 0.02541972775365188 -0.0075433370127601079 0 0.02539779285376367 -0.0073506154182149102 0 0.02541972775365188 -0.0075433370127601079 0 0.025315735615841811 -0.0077675101971539243 0 0.025472181626120513 -0.0075885407293152848 0 0.02522510142979462 -0.0079384005897946072 0 0.025315735615841811 -0.0077675101971539243 0 0.025282034394617493 -0.0078832862507418437 0 0.025315735615841811 -0.0077675101971539243 0 0.025282034394617493 -0.0078832862507418437 0 0.025472181626120513 -0.0075885407293152848 0 0.025324592246836908 -0.0078021058936065301 0 0.025282034394617493 -0.0078832862507418437 0 0.025472181626120513 -0.0075885407293152848 0 0.025324592246836908 -0.0078021058936065301 0 0.025156093461074159 -0.0080235257547577269 0 0.025339529389113023 -0.0078606951799032251 0 0.025324592246836908 -0.0078021058936065301 0 0.025156093461074159 -0.0080235257547577269 0 0.025282034394617493 -0.0078832862507418437 0 0.025156093461074159 -0.0080235257547577269 0 0.025282034394617493 -0.0078832862507418437 0 0.025140250020670017 -0.0080355810260946212 0 0.025140250020670017 -0.0080355810260946212 0 0.024744632761522653 -0.0083093365077370231 0 0.024818515017633942 -0.0076047868184996002 0 0.02522510142979462 -0.0079384005897946072 0 0.025282034394617493 -0.0078832862507418437 0 0.025140250020670017 -0.0080355810260946212 0 0.025156093461074159 -0.0080235257547577269 0 0.025140250020670017 -0.0080355810260946212 0 0.024744632761522653 -0.0083093365077370231 0 0.025140250020670017 -0.0080355810260946212 0 0.025146712112445298 -0.0078935189995924786 0 0.024818515017633942 -0.0076047868184996002 0 0.02522510142979462 -0.0079384005897946072 0 0.025140250020670017 -0.0080355810260946212 0 0.025146712112445298 -0.0078935189995924786 0 0.024744632761522653 -0.0083093365077370231 0 0.024818515017633942 -0.0076047868184996002 0 0.023836675272185574 -0.0074984922728966391 0 0.024744632761522653 -0.0083093365077370231 0 0.023288121411936164 -0.0079668173290274626 0 0.023836675272185574 -0.0074984922728966391 0 0.024744632761522653 -0.0083093365077370231 0 0.023674680224351471 -0.008563863365387862 0 0.024371998331933098 -0.009262399198172273 0 0.024744632761522653 -0.0083093365077370231 0 0.023674680224351471 -0.008563863365387862 0 0.023288121411936164 -0.0079668173290274626 0 0.023674680224351471 -0.008563863365387862 0 0.02423106489620944 -0.0098644108088682247 0 0.022652421875159149 -0.0084798785811136413 0 0.023674680224351471 -0.008563863365387862 0 0.024371998331933098 -0.009262399198172273 0 0.02423106489620944 -0.0098644108088682247 0 0.024893160214399815 -0.0086818411735908683 0 0.024207312568314522 -0.0081623405463722605 0 0.022819878196839755 -0.0086354840317753225 0 0.023335211827304605 -0.0092045078088211843 0 0.024744632761522653 -0.0083093365077370231 0 0.024371998331933098 -0.009262399198172273 0 0.024890822408338786 -0.010393327923590396 0 0.025156093461074159 -0.0080235257547577269 0 0.024744632761522653 -0.0083093365077370231 0 0.025339529389113023 -0.0078606951799032251 0 0.024371998331933098 -0.009262399198172273 0 0.024890822408338786 -0.010393327923590396 0 0.02423106489620944 -0.0098644108088682247 0 0.023131668185578991 -0.0081262634535171699 0 0.023297174577400034 -0.0082548565243106779 0 0.0231256111374426 -0.0080362882016814501 0 0.024207312568314522 -0.0081623405463722605 0 0.022819878196839755 -0.0086354840317753225 0 0.018776768133991883 -0.007240717168214718 0 0.018805218698902317 -0.0069360417502887396 0 0.01847128861387265 -0.006902313301712884 0 0.022819878196839755 -0.0086354840317753225 0 0.023044204693027433 -0.0069672346903768521 0 0.018776768133991883 -0.007240717168214718 0 0.019099541462750485 -0.0071220281118747853 0 0.018805218698902317 -0.0069360417502887396 0 0.018776768133991883 -0.007240717168214718 0 0.019099541462750485 -0.0071220281118747853 0 0.019440050733314972 -0.007408846839261852 0 0.019099541462750485 -0.0071220281118747853 0 0.019389475135553329 -0.0071440169548210673 0 0.019115317568121123 -0.006849161451056956 0 0.024403214510029917 -0.010567163723903039 0 0.022652421875159149 -0.0084798785811136413 0 0.0222298115414396 -0.0090564246463089478 0 0.018776768133991883 -0.007240717168214718 0 0.019440050733314972 -0.007408846839261852 0 0.01959623164203534 -0.0076763205039304585 0 0.022819878196839755 -0.0086354840317753225 0 0.020698686375787194 -0.0082553379510749564 0 0.019099541462750485 -0.0071220281118747853 0 0.019389475135553329 -0.0071440169548210673 0 0.019440050733314972 -0.007408846839261852 0 0.019389475135553329 -0.0071440169548210673 0 0.019440050733314972 -0.007408846839261852 0 0.019713483705318363 -0.0073684909338531789 0 0.019389475135553329 -0.0071440169548210673 0 0.019713483705318363 -0.0073684909338531789 0 0.019779737894251824 -0.0069542567985047682 0 0.019649658435504921 -0.0075340130272052849 0 0.019440050733314972 -0.007408846839261852 0 0.019713483705318363 -0.0073684909338531789 0 0.019649658435504921 -0.0075340130272052849 0 0.019440050733314972 -0.007408846839261852 0 0.01959623164203534 -0.0076763205039304585 0 0.019713483705318363 -0.0073684909338531789 0 0.020106817927135739 -0.007391943293922329 0 0.019779737894251824 -0.0069542567985047682 0 0.019713483705318363 -0.0073684909338531789 0 0.020106817927135739 -0.007391943293922329 0 0.019774346344247268 -0.0076318736575937199 0 0.019649658435504921 -0.0075340130272052849 0 0.019713483705318363 -0.0073684909338531789 0 0.019774346344247268 -0.0076318736575937199 0 0.019965304506368908 -0.0075312156345278686 0 0.020698686375787194 -0.0082553379510749564 0 0.018750581840329902 -0.0076948133266573323 0 0.018262821615108768 -0.0069471759528532606 0 0.021265010100799168 -0.0079624133078347314 0 0.019848950012054261 -0.0073991487236564823 0 0.0222298115414396 -0.0090564246463089478 0 0.019774346344247268 -0.0076318736575937199 0 0.019848950012054261 -0.0073991487236564823 0 0.01959623164203534 -0.0076763205039304585 0 0.018427508171411797 -0.0078024575627414884 0 0.018469546606578235 -0.006950828334552123 0 0.018301991625903555 -0.0068436240739533716 0 0.019774346344247268 -0.0076318736575937199 0 0.019778670661281278 -0.0077923244475390386 0 0.019848950012054261 -0.0073991487236564823 0 0.018750581840329902 -0.0076948133266573323 0 0.019175908490650723 -0.0071847953475201272 0 0.020106817927135739 -0.007391943293922329 0 0.019774346344247268 -0.0076318736575937199 0 0.019778670661281278 -0.0077923244475390386 0 0.021265010100799168 -0.0079624133078347314 0 0.019848950012054261 -0.0073991487236564823 0 0.0208747614234869 -0.0070318897949959349 0 0.021265010100799168 -0.0079624133078347314 0 0.021655415726567342 -0.007444305737288103 0 0.0208747614234869 -0.0070318897949959349 0 0.019778670661281278 -0.0077923244475390386 0 0.019848950012054261 -0.0073991487236564823 0 0.019380586228434908 -0.0061484786741284429 0 0.018469546606578235 -0.006950828334552123 0 0.019380586228434908 -0.0061484786741284429 0 0.018301991625903555 -0.0068436240739533716 0 0.023674680224351471 -0.008563863365387862 0 0.022652421875159149 -0.0084798785811136413 0 0.023288121411936164 -0.0079668173290274626 0 0.019649658435504921 -0.0075340130272052849 0 0.019774346344247268 -0.0076318736575937199 0 0.01959623164203534 -0.0076763205039304585 0 0.021265010100799168 -0.0079624133078347314 0 0.0222298115414396 -0.0090564246463089478 0 0.022092776424276216 -0.008312330138154524 0 0.022652421875159149 -0.0084798785811136413 0 0.0222298115414396 -0.0090564246463089478 0 0.022092776424276216 -0.008312330138154524 0 0.021655415726567342 -0.007444305737288103 0 0.022198291854689824 -0.0077950462661709394 0 0.022259648219206514 -0.0069977440515430114 0 0.022652421875159149 -0.0084798785811136413 0 0.022092776424276216 -0.008312330138154524 0 0.022198291854689824 -0.0077950462661709394 0 0.021265010100799168 -0.0079624133078347314 0 0.022092776424276216 -0.008312330138154524 0 0.022198291854689824 -0.0077950462661709394 0 0.021265010100799168 -0.0079624133078347314 0 0.021655415726567342 -0.007444305737288103 0 0.022198291854689824 -0.0077950462661709394 0 0.022198291854689824 -0.0077950462661709394 0 0.023288121411936164 -0.0079668173290274626 0 0.022259648219206514 -0.0069977440515430114 0 0.022652421875159149 -0.0084798785811136413 0 0.022198291854689824 -0.0077950462661709394 0 0.023288121411936164 -0.0079668173290274626 0 0.022259648219206514 -0.0069977440515430114 0 0.021408822247554377 -0.0061298255740265357 0 0.023835988525190765 -0.0060152484840794466 0 0.022259648219206514 -0.0069977440515430114 0 0.023835988525190765 -0.0060152484840794466 0 0.023836675272185574 -0.0074984922728966391 0 0.023288121411936164 -0.0079668173290274626 0 0.022259648219206514 -0.0069977440515430114 0 0.023836675272185574 -0.0074984922728966391 0 0.021655415726567342 -0.007444305737288103 0 0.022259648219206514 -0.0069977440515430114 0 0.0208747614234869 -0.0070318897949959349 0 0.022259648219206514 -0.0069977440515430114 0 0.021408822247554377 -0.0061298255740265357 0 0.0208747614234869 -0.0070318897949959349 0 0.019848950012054261 -0.0073991487236564823 0 0.0208747614234869 -0.0070318897949959349 0 0.019380586228434908 -0.0061484786741284429 0 0.019175908490650723 -0.0071847953475201272 0 0.019305852516420974 -0.0062282706618203374 0 0.019380586228434908 -0.0061484786741284429 0 0.018343754097714143 -0.0064464827971722587 0 0.018301991625903555 -0.0068436240739533716 0 0.021408822247554377 -0.0061298255740265357 0 0.0208747614234869 -0.0070318897949959349 0 0.019380586228434908 -0.0061484786741284429 0 0.021408822247554377 -0.0061298255740265357 0 0.019380586228434908 -0.0061484786741284429 0 0.020229494197179423 -0.0048097221370165776 0 0.01897585017597261 -0.01215851386669578 0 0.01898047893953925 -0.012331658829179091 0 0.01895535146933457 -0.012242293941433158 0 0.021408822247554377 -0.0061298255740265357 0 0.020229494197179423 -0.0048097221370165776 0 0.023835988525190765 -0.0060152484840794466 0 0.01897585017597261 -0.01215851386669578 0 0.01898047893953925 -0.012331658829179091 0 0.019514619341675962 -0.012454402921427587 0 0.019973602898701735 -0.0086581169673928936 0 0.021499593117331343 -0.0092499868796792253 0 0.023835988525190765 -0.0060152484840794466 0 0.025294225786859682 -0.007868448755042284 0 0.024818515017633942 -0.0076047868184996002 0 0.019985435589827249 -0.01149516250385494 0 0.019514619341675962 -0.012454402921427587 0 0.02126170993940444 -0.012130560658890729 0 0.021499593117331343 -0.0092499868796792253 0 0.0231283515364278 -0.0099347449502716102 0 0.025294225786859682 -0.007868448755042284 0 0.025146712112445298 -0.0078935189995924786 0 0.024818515017633942 -0.0076047868184996002 0 0.023835988525190765 -0.0060152484840794466 0 0.024818515017633942 -0.0076047868184996002 0 0.023836675272185574 -0.0074984922728966391 0 0.024999619418545012 -0.0095990981780903571 0 0.025234381877648589 -0.0094896647668886291 0 0.025421836545109947 -0.010066691804207129 0 0.025234381877648589 -0.0094896647668886291 0 0.025421836545109947 -0.010066691804207129 0 0.025334728654477154 -0.009347783143246375 0 0.025421836545109947 -0.010066691804207129 0 0.02560727539306374 -0.010987541882850239 0 0.025638598977161701 -0.01034389685134921 0 0.025421836545109947 -0.010066691804207129 0 0.024999806253523462 -0.010897964710518657 0 0.02560727539306374 -0.010987541882850239 0 0.024999619418545012 -0.0095990981780903571 0 0.025421836545109947 -0.010066691804207129 0 0.024999806253523462 -0.010897964710518657 0 0.024999806253523462 -0.010897964710518657 0 0.024999700305974419 -0.012196882565139896 0 0.02560727539306374 -0.010987541882850239 0 0.025845409721111722 -0.012673165331275226 0 0.024999700305974419 -0.012196882565139896 0 0.02560727539306374 -0.010987541882850239 0 0.025582417137810204 -0.01093484866794609 0 0.026422700050680679 -0.011641173292954629 0 0.025845409721111722 -0.012673165331275226 0 0.02560727539306374 -0.010987541882850239 0 0.026888370127622574 -0.012183369111006629 0 0.02560727539306374 -0.010987541882850239 0 0.025638598977161701 -0.01034389685134921 0 0.025662278690819471 -0.0106912513730783 0 0.025638598977161701 -0.01034389685134921 0 0.025662278690819471 -0.0106912513730783 0 0.025947223426436624 -0.010670521324213205 0 0.02560727539306374 -0.010987541882850239 0 0.025662278690819471 -0.0106912513730783 0 0.025666373627915507 -0.010799641748127123 0 0.025662278690819471 -0.0106912513730783 0 0.025666373627915507 -0.010799641748127123 0 0.025947223426436624 -0.010670521324213205 0 0.025494406468504382 -0.0098245018244877119 0 0.025574719870656178 -0.0094823725367788551 0 0.025600909228746416 -0.0096371120028341355 0 0.025939145350844774 -0.01107479774726767 0 0.025666373627915507 -0.010799641748127123 0 0.025947223426436624 -0.010670521324213205 0 0.025638598977161701 -0.01034389685134921 0 0.025947223426436624 -0.010670521324213205 0 0.025680793850958332 -0.0097189020665752572 0 0.025687399682334505 -0.0098268424600284673 0 0.025712804541025275 -0.00986662219868145 0 0.025574719870656178 -0.0094823725367788551 0 0.025680793850958332 -0.0097189020665752572 0 0.02558166202002353 -0.0095395467723945731 0 0.025421836545109947 -0.010066691804207129 0 0.025638598977161701 -0.01034389685134921 0 0.025534340386796014 -0.0098230078610730669 0 0.025638598977161701 -0.01034389685134921 0 0.025680793850958332 -0.0097189020665752572 0 0.025534340386796014 -0.0098230078610730669 0 0.025534340386796014 -0.0098230078610730669 0 0.025507166445112073 -0.0095246589596743054 0 0.025334728654477154 -0.009347783143246375 0 0.025421836545109947 -0.010066691804207129 0 0.025534340386796014 -0.0098230078610730669 0 0.025334728654477154 -0.009347783143246375 0 0.025680793850958332 -0.0097189020665752572 0 0.025534340386796014 -0.0098230078610730669 0 0.025507166445112073 -0.0095246589596743054 0 0.025680793850958332 -0.0097189020665752572 0 0.025507166445112073 -0.0095246589596743054 0 0.025487792410941512 -0.0095806121822140412 0 0.025507166445112073 -0.0095246589596743054 0 0.025487792410941512 -0.0095806121822140412 0 0.025401096328548534 -0.0093908347103450682 0 0.025487792410941512 -0.0095806121822140412 0 0.025326093949310607 -0.0094782348789719754 0 0.025401096328548534 -0.0093908347103450682 0 0.025289282534149644 -0.0095444966060049524 0 0.025155468010730164 -0.0095803411252374151 0 0.025326093949310607 -0.0094782348789719754 0 0.025487792410941512 -0.0095806121822140412 0 0.025289282534149644 -0.0095444966060049524 0 0.025326093949310607 -0.0094782348789719754 0 0.025289282534149644 -0.0095444966060049524 0 0.025540849397264073 -0.0095295622675376727 0 0.025366526374975832 -0.009324956486077977 0 0.025289282534149644 -0.0095444966060049524 0 0.025366526374975832 -0.009324956486077977 0 0.02513738328902999 -0.0093014757048294327 0 0.025487792410941512 -0.0095806121822140412 0 0.025289282534149644 -0.0095444966060049524 0 0.025540849397264073 -0.0095295622675376727 0 0.025680793850958332 -0.0097189020665752572 0 0.025540849397264073 -0.0095295622675376727 0 0.02558166202002353 -0.0095395467723945731 0 0.025680793850958332 -0.0097189020665752572 0 0.025487792410941512 -0.0095806121822140412 0 0.025540849397264073 -0.0095295622675376727 0 0.025540849397264073 -0.0095295622675376727 0 0.02558166202002353 -0.0095395467723945731 0 0.025619056156664329 -0.0095119669641008306 0 0.025564454618109366 -0.0094708975946257157 0 0.025617013719704412 -0.0093524388054750524 0 0.025540849397264073 -0.0095295622675376727 0 0.025641226801238856 -0.0090038829359231874 0 0.025366526374975832 -0.009324956486077977 0 0.025574719870656178 -0.0094823725367788551 0 0.02558166202002353 -0.0095395467723945731 0 0.025619056156664329 -0.0095119669641008306 0 0.025763967949314504 -0.0086555583297430651 0 0.025617013719704412 -0.0093524388054750524 0 0.025574719870656178 -0.0094823725367788551 0 0.025619056156664329 -0.0095119669641008306 0 0.025600909228746416 -0.0096371120028341355 0 0.025674650330935661 -0.0084242355735481295 0 0.025641226801238856 -0.0090038829359231874 0 0.02538605451538933 -0.0087530156967271441 0 0.025674221260757007 -0.0097125941720018361 0 0.025619056156664329 -0.0095119669641008306 0 0.025600909228746416 -0.0096371120028341355 0 0.025214517584546667 -0.0083717814074744865 0 0.02538605451538933 -0.0087530156967271441 0 0.025088426749668703 -0.0088412799350898654 0 0.025641226801238856 -0.0090038829359231874 0 0.02538605451538933 -0.0087530156967271441 0 0.025318820224560008 -0.0090769834723349457 0 0.02538605451538933 -0.0087530156967271441 0 0.025318820224560008 -0.0090769834723349457 0 0.025088426749668703 -0.0088412799350898654 0 0.025318820224560008 -0.0090769834723349457 0 0.02513738328902999 -0.0093014757048294327 0 0.025088426749668703 -0.0088412799350898654 0 0.025641226801238856 -0.0090038829359231874 0 0.025318820224560008 -0.0090769834723349457 0 0.025366526374975832 -0.009324956486077977 0 0.025318820224560008 -0.0090769834723349457 0 0.025366526374975832 -0.009324956486077977 0 0.02513738328902999 -0.0093014757048294327 0 0.02513738328902999 -0.0093014757048294327 0 0.024785082874694501 -0.0090824513450108845 0 0.025088426749668703 -0.0088412799350898654 0 0.02513738328902999 -0.0093014757048294327 0 0.024785082874694501 -0.0090824513450108845 0 0.024891152199605159 -0.009561838624541092 0 0.024817388907099211 -0.0085692671795860615 0 0.024785082874694501 -0.0090824513450108845 0 0.025088426749668703 -0.0088412799350898654 0 0.024817388907099211 -0.0085692671795860615 0 0.024785082874694501 -0.0090824513450108845 0 0.02444018664805064 -0.0087061136563882126 0 0.024307507608011921 -0.009303096156458298 0 0.024785082874694501 -0.0090824513450108845 0 0.02444018664805064 -0.0087061136563882126 0 0.024307507608011921 -0.009303096156458298 0 0.024785082874694501 -0.0090824513450108845 0 0.024891152199605159 -0.009561838624541092 0 0.024307507608011921 -0.009303096156458298 0 0.02449541764229235 -0.0097790514514145797 0 0.024891152199605159 -0.009561838624541092 0 0.025289282534149644 -0.0095444966060049524 0 0.02513738328902999 -0.0093014757048294327 0 0.024891152199605159 -0.009561838624541092 0 0.024891152199605159 -0.009561838624541092 0 0.025155468010730164 -0.0095803411252374151 0 0.025089752886632261 -0.0096472521510745646 0 0.025289282534149644 -0.0095444966060049524 0 0.024891152199605159 -0.009561838624541092 0 0.025155468010730164 -0.0095803411252374151 0 0.02449541764229235 -0.0097790514514145797 0 0.024891152199605159 -0.009561838624541092 0 0.025089752886632261 -0.0096472521510745646 0 0.02449541764229235 -0.0097790514514145797 0 0.024785596569420681 -0.0098182957012062713 0 0.025089752886632261 -0.0096472521510745646 0 0.024785596569420681 -0.0098182957012062713 0 0.025089752886632261 -0.0096472521510745646 0 0.025404479164300709 -0.0093054775983065826 0 0.025155468010730164 -0.0095803411252374151 0 0.025089752886632261 -0.0096472521510745646 0 0.025326093949310607 -0.0094782348789719754 0 0.025089752886632261 -0.0096472521510745646 0 0.025364943243965102 -0.00925443598619018 0 0.025326093949310607 -0.0094782348789719754 0 0.025089752886632261 -0.0096472521510745646 0 0.025364943243965102 -0.00925443598619018 0 0.025404479164300709 -0.0093054775983065826 0 0.024847184410871501 -0.0075967860219781696 0 0.024398501766024556 -0.0081024997736491595 0 0.024825859971163888 -0.0074684550445825015 0 0.024847184410871501 -0.0075967860219781696 0 0.024825859971163888 -0.0074684550445825015 0 0.025202737006094093 -0.0070210272232961116 0 0.025364943243965102 -0.00925443598619018 0 0.025674069674699151 -0.0084565268438598351 0 0.025291670758666857 -0.0089234872723697213 0 0.025364943243965102 -0.00925443598619018 0 0.025404479164300709 -0.0093054775983065826 0 0.025674069674699151 -0.0084565268438598351 0 0.024897760909521172 -0.008713904394703112 0 0.025226699926825982 -0.0079595455752610039 0 0.025674069674699151 -0.0084565268438598351 0 0.025291670758666857 -0.0089234872723697213 0 0.025201475636685008 -0.0081508905859716714 0 0.025226699926825982 -0.0079595455752610039 0 0.025166014598144059 -0.0072619200653052281 0 0.025674069674699151 -0.0084565268438598351 0 0.025201475636685008 -0.0081508905859716714 0 0.025200044667863544 -0.0071774440299006721 0 0.025201475636685008 -0.0081508905859716714 0 0.025115435702764831 -0.0086384859482799576 0 0.024913178181679409 -0.0079722550215352295 0 0.025201475636685008 -0.0081508905859716714 0 0.024913178181679409 -0.0079722550215352295 0 0.02491812985607831 -0.0070876188475607121 0 0.025291670758666857 -0.0089234872723697213 0 0.025201475636685008 -0.0081508905859716714 0 0.025115435702764831 -0.0086384859482799576 0 0.025291670758666857 -0.0089234872723697213 0 0.025115435702764831 -0.0086384859482799576 0 0.025294601550189689 -0.0091600905550672344 0 0.025115435702764831 -0.0086384859482799576 0 0.025294601550189689 -0.0091600905550672344 0 0.025158395225485821 -0.0089268025581329836 0 0.025364943243965102 -0.00925443598619018 0 0.025291670758666857 -0.0089234872723697213 0 0.025326093949310607 -0.0094782348789719754 0 0.025291670758666857 -0.0089234872723697213 0 0.025294601550189689 -0.0091600905550672344 0 0.025326093949310607 -0.0094782348789719754 0 0.025294601550189689 -0.0091600905550672344 0 0.025401096328548534 -0.0093908347103450682 0 0.025158395225485821 -0.0089268025581329836 0 0.025294601550189689 -0.0091600905550672344 0 0.025326093949310607 -0.0094782348789719754 0 0.025401096328548534 -0.0093908347103450682 0 0.025401096328548534 -0.0093908347103450682 0 0.025289803873257879 -0.0091898057923617237 0 0.025158395225485821 -0.0089268025581329836 0 0.025507166445112073 -0.0095246589596743054 0 0.025401096328548534 -0.0093908347103450682 0 0.025289803873257879 -0.0091898057923617237 0 0.025507166445112073 -0.0095246589596743054 0 0.025289803873257879 -0.0091898057923617237 0 0.025334728654477154 -0.009347783143246375 0 0.025289803873257879 -0.0091898057923617237 0 0.025334728654477154 -0.009347783143246375 0 0.025052500310915524 -0.0088356861538057482 0 0.025052500310915524 -0.0088356861538057482 0 0.025158395225485821 -0.0089268025581329836 0 0.024845250592343767 -0.0084477249325323276 0 0.025289803873257879 -0.0091898057923617237 0 0.025052500310915524 -0.0088356861538057482 0 0.025158395225485821 -0.0089268025581329836 0 0.025115435702764831 -0.0086384859482799576 0 0.025158395225485821 -0.0089268025581329836 0 0.024845250592343767 -0.0084477249325323276 0 0.025115435702764831 -0.0086384859482799576 0 0.024913178181679409 -0.0079722550215352295 0 0.024845250592343767 -0.0084477249325323276 0 0.024913178181679409 -0.0079722550215352295 0 0.024447805313466863 -0.0078955509290506293 0 0.024845250592343767 -0.0084477249325323276 0 0.025052500310915524 -0.0088356861538057482 0 0.024845250592343767 -0.0084477249325323276 0 0.024743706970255533 -0.0084459172775181827 0 0.02507685820700158 -0.0062683025356223771 0 0.025423938185121092 -0.0070921351728143282 0 0.025151605754865369 -0.0062459906282406443 0 0.024447805313466863 -0.0078955509290506293 0 0.024845250592343767 -0.0084477249325323276 0 0.024743706970255533 -0.0084459172775181827 0 0.024783921587126126 -0.0070877262210702766 0 0.025035535169979885 -0.0077624923409110617 0 0.025423938185121092 -0.0070921351728143282 0 0.024999543615809722 -0.0069296154864553205 0 0.025151605754865369 -0.0062459906282406443 0 0.025423938185121092 -0.0070921351728143282 0 0.024999543615809722 -0.0069296154864553205 0 0.02500007839391713 -0.0083008801600226931 0 0.024743706970255533 -0.0084459172775181827 0 0.024999345187208716 -0.0083028607683147265 0 0.025126447691711438 -0.0088417793166721444 0 0.025035535169979885 -0.0077624923409110617 0 0.024999954416291603 -0.0083007387326744318 0 0.025052500310915524 -0.0088356861538057482 0 0.024743706970255533 -0.0084459172775181827 0 0.025126447691711438 -0.0088417793166721444 0 0.025334728654477154 -0.009347783143246375 0 0.025052500310915524 -0.0088356861538057482 0 0.025126447691711438 -0.0088417793166721444 0 0.025234381877648589 -0.0094896647668886291 0 0.025334728654477154 -0.009347783143246375 0 0.025126447691711438 -0.0088417793166721444 0 0.024999619418545012 -0.0095990981780903571 0 0.024999345187208716 -0.0083028607683147265 0 0.025126447691711438 -0.0088417793166721444 0 0.024999619418545012 -0.0095990981780903571 0 0.025234381877648589 -0.0094896647668886291 0 0.025126447691711438 -0.0088417793166721444 0 0.024999971263180504 -0.0033836147007194582 0 0.025835597507760148 -0.0035096903947628264 0 0.025556310820998244 -0.0026428332753366825 0 0.024999971263180504 -0.0033836147007194582 0 0.025835597507760148 -0.0035096903947628264 0 0.025330916503362989 -0.0040114291108231288 0 0.026136215896229952 -0.0032776681243846823 0 0.026217225142911724 -0.0038615667913309017 0 0.025681315166925952 -0.003595663974517473 0 0.026136215896229952 -0.0032776681243846823 0 0.026217225142911724 -0.0038615667913309017 0 0.026473057884029864 -0.0031231765044282059 0 0.024396109047977704 -0.0060067928583377068 0 0.024575026506600726 -0.0060906397901020906 0 0.024814695679138046 -0.0061301489811149499 0 0.026217225142911724 -0.0038615667913309017 0 0.025681315166925952 -0.003595663974517473 0 0.025207075761893755 -0.0047069542732192955 0 0.024396109047977704 -0.0060067928583377068 0 0.024575026506600726 -0.0060906397901020906 0 0.024391796491742918 -0.0060224070598128027 0 0.025440936115434711 -0.0049132843038220565 0 0.025131674601136435 -0.0050090653586818117 0 0.024999971263180504 -0.0033836147007194582 0 0.025330916503362989 -0.0040114291108231288 0 0.024999995502605586 -0.0048703370080541509 0 0.025330916503362989 -0.0040114291108231288 0 0.025446814251123415 -0.0044948794001235413 0 0.024999995502605586 -0.0048703370080541509 0 0.025835597507760148 -0.0035096903947628264 0 0.025330916503362989 -0.0040114291108231288 0 0.025446814251123415 -0.0044948794001235413 0 0.02580161327653226 -0.003456431971080648 0 0.025131674601136435 -0.0050090653586818117 0 0.025131674601136435 -0.0050090653586818117 0 0.025000401077665019 -0.0048701252959353616 0 0.025448331670234619 -0.0045008984538519895 0 0.024999988020534915 -0.0048703654017582029 0 0.025000006663266336 -0.0055604996030068346 0 0.024814695679138046 -0.0061301489811149499 0 0.024836293899629956 -0.0059723995949007109 0 0.024999610327127851 -0.0055629505878532978 0 0.025131674601136435 -0.0050090653586818117 0 0.024999918115585801 -0.0055608394015093082 0 0.024836293899629956 -0.0059723995949007109 0 0.024999610327127851 -0.0055629505878532978 0 0.025151605754865369 -0.0062459906282406443 0 0.024999543615809722 -0.0069296154864553205 0 0.024999610327127851 -0.0055629505878532978 0 0.025151605754865369 -0.0062459906282406443 0 0.024836293899629956 -0.0059723995949007109 0 0.025151605754865369 -0.0062459906282406443 0 0.024792435215484958 -0.006286363549758099 0 0.02507685820700158 -0.0062683025356223771 0 0.025151605754865369 -0.0062459906282406443 0 0.024792435215484958 -0.006286363549758099 0 0.024575026506600726 -0.0060906397901020906 0 0.024814695679138046 -0.0061301489811149499 0 0.024836293899629956 -0.0059723995949007109 0 0.024575026506600726 -0.0060906397901020906 0 0.024836293899629956 -0.0059723995949007109 0 0.024792435215484958 -0.006286363549758099 0 0.024575026506600726 -0.0060906397901020906 0 0.024792435215484958 -0.006286363549758099 0 0.024426784011481038 -0.0061673550009915977 0 0.024792435215484958 -0.006286363549758099 0 0.024560358929897108 -0.0066475260184026917 0 0.024426784011481038 -0.0061673550009915977 0 0.02507685820700158 -0.0062683025356223771 0 0.024792435215484958 -0.006286363549758099 0 0.024560358929897108 -0.0066475260184026917 0 0.024783921587126126 -0.0070877262210702766 0 0.024636361505912297 -0.006679202649650366 0 0.024913178181679409 -0.0079722550215352295 0 0.024447805313466863 -0.0078955509290506293 0 0.024560358929897108 -0.0066475260184026917 0 0.024913178181679409 -0.0079722550215352295 0 0.024560358929897108 -0.0066475260184026917 0 0.02491812985607831 -0.0070876188475607121 0 0.024560358929897108 -0.0066475260184026917 0 0.024597753899645764 -0.006307273449945059 0 0.024426784011481038 -0.0061673550009915977 0 0.024560358929897108 -0.0066475260184026917 0 0.024597753899645764 -0.006307273449945059 0 0.02491812985607831 -0.0070876188475607121 0 0.024597753899645764 -0.006307273449945059 0 0.024353720077874313 -0.005850212127041828 0 0.024426784011481038 -0.0061673550009915977 0 0.024597753899645764 -0.006307273449945059 0 0.024353720077874313 -0.005850212127041828 0 0.024598269768678651 -0.0058387909109916033 0 0.024575026506600726 -0.0060906397901020906 0 0.024426784011481038 -0.0061673550009915977 0 0.024391796491742918 -0.0060224070598128027 0 0.024396109047977704 -0.0060067928583377068 0 0.024391796491742918 -0.0060224070598128027 0 0.024270936952075734 -0.0058291610758216868 0 0.024426784011481038 -0.0061673550009915977 0 0.024391796491742918 -0.0060224070598128027 0 0.024270936952075734 -0.0058291610758216868 0 0.024353720077874313 -0.005850212127041828 0 0.024426784011481038 -0.0061673550009915977 0 0.024270936952075734 -0.0058291610758216868 0 0.024396109047977704 -0.0060067928583377068 0 0.024270936952075734 -0.0058291610758216868 0 0.024090716222036089 -0.0055032010374752418 0 0.026217225142911724 -0.0038615667913309017 0 0.027150051963231642 -0.0030515898177520232 0 0.026473057884029864 -0.0031231765044282059 0 0.024353720077874313 -0.005850212127041828 0 0.024270936952075734 -0.0058291610758216868 0 0.024084921725853536 -0.005528953707270955 0 0.025440936115434711 -0.0049132843038220565 0 0.024588417117583673 -0.004196986808923526 0 0.024270936952075734 -0.0058291610758216868 0 0.024084921725853536 -0.005528953707270955 0 0.024090716222036089 -0.0055032010374752418 0 0.024529024566766745 -0.0050653583888695883 0 0.024588417117583673 -0.004196986808923526 0 0.024084921725853536 -0.005528953707270955 0 0.024379870291948894 -0.0055166560697052043 0 0.024298755216131646 -0.0049241243696561713 0 0.024084921725853536 -0.005528953707270955 0 0.024298755216131646 -0.0049241243696561713 0 0.023835930270270374 -0.0050976180805156167 0 0.024379870291948894 -0.0055166560697052043 0 0.024666710480248703 -0.0053287968844455205 0 0.024298755216131646 -0.0049241243696561713 0 0.024353720077874313 -0.005850212127041828 0 0.024379870291948894 -0.0055166560697052043 0 0.024598269768678651 -0.0058387909109916033 0 0.024379870291948894 -0.0055166560697052043 0 0.024666710480248703 -0.0053287968844455205 0 0.024598269768678651 -0.0058387909109916033 0 0.024353720077874313 -0.005850212127041828 0 0.024084921725853536 -0.005528953707270955 0 0.024379870291948894 -0.0055166560697052043 0 0.024666710480248703 -0.0053287968844455205 0 0.025039551076564442 -0.0057520220366640406 0 0.024598269768678651 -0.0058387909109916033 0 0.024666710480248703 -0.0053287968844455205 0 0.025039551076564442 -0.0057520220366640406 0 0.024972695234316129 -0.0047218226259713785 0 0.024666710480248703 -0.0053287968844455205 0 0.024972695234316129 -0.0047218226259713785 0 0.024298755216131646 -0.0049241243696561713 0 0.025039551076564442 -0.0057520220366640406 0 0.025516893205519933 -0.0053898510021370642 0 0.024972695234316129 -0.0047218226259713785 0 0.025039551076564442 -0.0057520220366640406 0 0.025304283374335674 -0.0064130477354960068 0 0.025516893205519933 -0.0053898510021370642 0 0.025039551076564442 -0.0057520220366640406 0 0.024954034132617764 -0.0064499193542471682 0 0.025304283374335674 -0.0064130477354960068 0 0.025039551076564442 -0.0057520220366640406 0 0.024598269768678651 -0.0058387909109916033 0 0.024954034132617764 -0.0064499193542471682 0 0.024597753899645764 -0.006307273449945059 0 0.024598269768678651 -0.0058387909109916033 0 0.024954034132617764 -0.0064499193542471682 0 0.024597753899645764 -0.006307273449945059 0 0.024954034132617764 -0.0064499193542471682 0 0.02491812985607831 -0.0070876188475607121 0 0.024954034132617764 -0.0064499193542471682 0 0.02491812985607831 -0.0070876188475607121 0 0.025200044667863544 -0.0071774440299006721 0 0.025201475636685008 -0.0081508905859716714 0 0.02491812985607831 -0.0070876188475607121 0 0.025200044667863544 -0.0071774440299006721 0 0.024954034132617764 -0.0064499193542471682 0 0.025200044667863544 -0.0071774440299006721 0 0.025304283374335674 -0.0064130477354960068 0 0.025200044667863544 -0.0071774440299006721 0 0.025304283374335674 -0.0064130477354960068 0 0.025202737006094093 -0.0070210272232961116 0 0.024825859971163888 -0.0074684550445825015 0 0.025200044667863544 -0.0071774440299006721 0 0.025202737006094093 -0.0070210272232961116 0 0.025202737006094093 -0.0070210272232961116 0 0.025718581934754875 -0.0060922276880427863 0 0.025595754569106146 -0.0066682015936738188 0 0.025304283374335674 -0.0064130477354960068 0 0.025202737006094093 -0.0070210272232961116 0 0.025718581934754875 -0.0060922276880427863 0 0.025304283374335674 -0.0064130477354960068 0 0.025718581934754875 -0.0060922276880427863 0 0.025516893205519933 -0.0053898510021370642 0 0.025718581934754875 -0.0060922276880427863 0 0.025516893205519933 -0.0053898510021370642 0 0.026162574740972448 -0.0048102719694975695 0 0.025516893205519933 -0.0053898510021370642 0 0.026162574740972448 -0.0048102719694975695 0 0.025586142795938533 -0.0041212513143980608 0 0.026162574740972448 -0.0048102719694975695 0 0.026118591010537866 -0.0038585038276072172 0 0.025586142795938533 -0.0041212513143980608 0 0.026118591010537866 -0.0038585038276072172 0 0.026003797629019686 -0.0026886763195082676 0 0.025586142795938533 -0.0041212513143980608 0 0.026118591010537866 -0.0038585038276072172 0 0.026003797629019686 -0.0026886763195082676 0 0.026969332599110971 -0.003377830472284969 0 0.026162574740972448 -0.0048102719694975695 0 0.026118591010537866 -0.0038585038276072172 0 0.026969332599110971 -0.003377830472284969 0 0.025399125840439688 0.001440278256073425 0 0.024592453680850453 0.0011279800696769242 0 0.026883741294374701 -0.0013988841144737039 0 0.026003797629019686 -0.0026886763195082676 0 0.026969332599110971 -0.003377830472284969 0 0.024062253146660318 0.0042988857419468457 0 0.02223607124614425 0.0055518823447022123 0 0.022685682194825158 0.0041717536022662129 0 0.022341363556281215 0.0031298109454586625 0 0.023493108887001291 0.0030379261638070446 0 0.022685682194825158 0.0041717536022662129 0 0.023493108887001291 0.0030379261638070446 0 0.024062253146660318 0.0042988857419468457 0 0.022685682194825158 0.0041717536022662129 0 0.02583401305069492 0.0012851081476881192 0 0.026883741294374701 -0.0013988841144737039 0 0.025929080823616207 -0.00040795426416560972 0 0.026883741294374701 -0.0013988841144737039 0 0.025929080823616207 -0.00040795426416560972 0 0.025832372665309706 -0.0013238323910698068 0 0.025757822560002721 0.0013543877862847793 0 0.025399125840439688 0.001440278256073425 0 0.026883741294374701 -0.0013988841144737039 0 0.026003797629019686 -0.0026886763195082676 0 0.025832372665309706 -0.0013238323910698068 0 0.026003797629019686 -0.0026886763195082676 0 0.025832372665309706 -0.0013238323910698068 0 0.025007022830016816 -0.0013205478399097974 0 0.026003797629019686 -0.0026886763195082676 0 0.025007022830016816 -0.0013205478399097974 0 0.025006602678349654 -0.0031657912334752047 0 0.025832372665309706 -0.0013238323910698068 0 0.025271027152590192 -0.00017355265970718555 0 0.025007022830016816 -0.0013205478399097974 0 0.025929080823616207 -0.00040795426416560972 0 0.025832372665309706 -0.0013238323910698068 0 0.025271027152590192 -0.00017355265970718555 0 0.024792922539402452 0.00012371273877529682 0 0.025007022830016816 -0.0013205478399097974 0 0.024184248379692741 -0.0002772094242348005 0 0.025271027152590192 -0.00017355265970718555 0 0.024792922539402452 0.00012371273877529682 0 0.025007022830016816 -0.0013205478399097974 0 0.025007022830016816 -0.0013205478399097974 0 0.025006602678349654 -0.0031657912334752047 0 0.024030928439552533 -0.0019822963139247071 0 0.025007022830016816 -0.0013205478399097974 0 0.024030928439552533 -0.0019822963139247071 0 0.024184248379692741 -0.0002772094242348005 0 0.025006602678349654 -0.0031657912334752047 0 0.024233277523995209 -0.003884902838402488 0 0.024030928439552533 -0.0019822963139247071 0 0.026003797629019686 -0.0026886763195082676 0 0.025006602678349654 -0.0031657912334752047 0 0.025586142795938533 -0.0041212513143980608 0 0.025516893205519933 -0.0053898510021370642 0 0.025586142795938533 -0.0041212513143980608 0 0.024972695234316129 -0.0047218226259713785 0 0.025006602678349654 -0.0031657912334752047 0 0.025586142795938533 -0.0041212513143980608 0 0.024972695234316129 -0.0047218226259713785 0 0.024972695234316129 -0.0047218226259713785 0 0.024233277523995209 -0.003884902838402488 0 0.024298755216131646 -0.0049241243696561713 0 0.025006602678349654 -0.0031657912334752047 0 0.024972695234316129 -0.0047218226259713785 0 0.024233277523995209 -0.003884902838402488 0 0.024233277523995209 -0.003884902838402488 0 0.023118909130560625 -0.0047550340237618397 0 0.022739332503863237 -0.0027973106555079759 0 0.023868181885979282 -0.0042837233755334434 0 0.024588417117583673 -0.004196986808923526 0 0.024233277523995209 -0.003884902838402488 0 0.024298755216131646 -0.0049241243696561713 0 0.023835930270270374 -0.0050976180805156167 0 0.024588417117583673 -0.004196986808923526 0 0.024853297961036403 -0.0022743238800761287 0 0.027150051963231642 -0.0030515898177520232 0 0.026656622215607308 -0.0026311911808706901 0 0.02682098174012042 -0.0018239921225991862 0 0.027150051963231642 -0.0030515898177520232 0 0.026473057884029864 -0.0031231765044282059 0 0.026656622215607308 -0.0026311911808706901 0 0.026656622215607308 -0.0026311911808706901 0 0.02682098174012042 -0.0018239921225991862 0 0.026181089621472899 -0.0025425679001400718 0 0.024233277523995209 -0.003884902838402488 0 0.022739332503863237 -0.0027973106555079759 0 0.024030928439552533 -0.0019822963139247071 0 0.024030928439552533 -0.0019822963139247071 0 0.024184248379692741 -0.0002772094242348005 0 0.022813588784251493 -0.00062245136171928115 0 0.023908151978878172 0.000754550923419761 0 0.024184248379692741 -0.0002772094242348005 0 0.022813588784251493 -0.00062245136171928115 0 0.022739332503863237 -0.0027973106555079759 0 0.024030928439552533 -0.0019822963139247071 0 0.022813588784251493 -0.00062245136171928115 0 0.024853297961036403 -0.0022743238800761287 0 0.024662668962546135 -0.0006810154448762426 0 0.02682098174012042 -0.0018239921225991862 0 0.026442200316134978 -0.00061946364152833382 0 0.025851661737793137 -0.0015953640677631106 0 0.026442200316134978 -0.00061946364152833382 0 0.024999973973978549 -0.00041021193798315312 0 0.025851661737793137 -0.0015953640677631106 0 0.025950192463748269 0.00063736490328394142 0 0.026442200316134978 -0.00061946364152833382 0 0.024999973973978549 -0.00041021193798315312 0 0.024801725864888637 0.00081048216591833035 0 0.024662668962546135 -0.0006810154448762426 0 0.024999973973978549 -0.00041021193798315312 0 0.024999914816209511 -0.0018969237572185424 0 0.025851661737793137 -0.0015953640677631106 0 0.024999914816209511 -0.0018969237572185424 0 0.025851661737793137 -0.0015953640677631106 0 0.025556310820998244 -0.0026428332753366825 0 0.025851661737793137 -0.0015953640677631106 0 0.026181089621472899 -0.0025425679001400718 0 0.025556310820998244 -0.0026428332753366825 0 0.02682098174012042 -0.0018239921225991862 0 0.025851661737793137 -0.0015953640677631106 0 0.026181089621472899 -0.0025425679001400718 0 0.02580161327653226 -0.003456431971080648 0 0.026130044695584172 -0.0026663308488902556 0 0.026136215896229952 -0.0032776681243846823 0 0.025681315166925952 -0.003595663974517473 0 0.026181089621472899 -0.0025425679001400718 0 0.025835597507760148 -0.0035096903947628264 0 0.026181089621472899 -0.0025425679001400718 0 0.025556310820998244 -0.0026428332753366825 0 0.026136215896229952 -0.0032776681243846823 0 0.026473057884029864 -0.0031231765044282059 0 0.026181089621472899 -0.0025425679001400718 0 0.026473057884029864 -0.0031231765044282059 0 0.026656622215607308 -0.0026311911808706901 0 0.026181089621472899 -0.0025425679001400718 0 0.024999971263180504 -0.0033836147007194582 0 0.024999914816209511 -0.0018969237572185424 0 0.025556310820998244 -0.0026428332753366825 0 0.01828073186727356 -0.0051843620761479973 0 0.01917682226880188 -0.0049083015731267643 0 0.019014244662876607 -0.005926766975868184 0 0.020040152499923997 0.0012175050981638857 0 0.019651298915003348 0.00033184703701737015 0 0.019739790293420306 0.0053510990471377215 0 0.019942103894284802 0.0057232890028104059 0 0.020054887158177964 0.0054585026770521119 0 0.019844131242669025 0.0064639377386069867 0 0.019974242024802646 0.0061664925915766011 0 0.020127501329357374 0.006262061852307611 0 0.02302950729733438 -0.002211061672173901 0 0.022146958368951031 -0.0035731058684075156 0 0.020376068595483868 -0.003046533816847048 0 0.019844131242669025 0.0064639377386069867 0 0.020273023849486746 0.0065585660296484738 0 0.020127501329357374 0.006262061852307611 0 0.020040152499923997 0.0012175050981638857 0 0.022724153483968078 -0.0022942274862935599 0 0.019844131242669025 0.0064639377386069867 0 0.019974242024802646 0.0061664925915766011 0 0.019793615816287736 0.00592770228190523 0 0.020040152499923997 0.0012175050981638857 0 0.019660109743475759 0.0079122514042599054 0 0.019974242024802646 0.0061664925915766011 0 0.020127501329357374 0.006262061852307611 0 0.020126139409342575 0.0060264447290085243 0 0.019974242024802646 0.0061664925915766011 0 0.020126139409342575 0.0060264447290085243 0 0.019793615816287736 0.00592770228190523 0 0.019942103894284802 0.0057232890028104059 0 0.019865663162215469 0.0058649720251466109 0 0.019793615816287736 0.00592770228190523 0 0.019739790293420306 0.0053510990471377215 0 0.019942103894284802 0.0057232890028104059 0 0.019793615816287736 0.00592770228190523 0 0.020124837421153386 0.0057059867751244947 0 0.020327081753299902 0.0055191221705912586 0 0.020054887158177964 0.0054585026770521119 0 0.019942103894284802 0.0057232890028104059 0 0.020124837421153386 0.0057059867751244947 0 0.020054887158177964 0.0054585026770521119 0 0.020124837421153386 0.0057059867751244947 0 0.020327081753299902 0.0055191221705912586 0 0.020276898472144922 0.0058805886198320901 0 0.016777304590153318 -0.0039373481993383568 0 0.016911279041411601 -0.0049412742991258845 0 0.016186823923323514 -0.0041476450907626753 0 0.019216428189550515 -0.001643315859054509 0 0.017938746441218175 0.0032796866498727216 0 0.019216428189550515 -0.001643315859054509 0 0.015549074311039654 -0.0040143929530292609 0 0.016759731219113463 -0.0039662802268594644 0 0.016631708945981531 -0.0030457934483068892 0 0.016301492067830842 -0.0034480346145876464 0 0.020115342999975677 -0.0045900453852072282 0 0.01977678988985767 -0.0052148343522544754 0 0.020258132163801353 -0.0056909466918334288 0 0.016759731219113463 -0.0039662802268594644 0 0.016186823923323514 -0.0041476450907626753 0 0.016301492067830842 -0.0034480346145876464 0 0.019216428189550515 -0.001643315859054509 0 0.01859600139636516 -0.0055979724197930568 0 0.019216428189550515 -0.001643315859054509 0 0.019651298915003348 0.00033184703701737015 0 0.01917682226880188 -0.0049083015731267643 0 0.019566484476053563 -0.0056802919024651318 0 0.019014244662876607 -0.005926766975868184 0 0.020115342999975677 -0.0045900453852072282 0 0.01917682226880188 -0.0049083015731267643 0 0.01977678988985767 -0.0052148343522544754 0 0.01917682226880188 -0.0049083015731267643 0 0.01977678988985767 -0.0052148343522544754 0 0.019566484476053563 -0.0056802919024651318 0 0.019204404080029006 -0.0064829231957061759 0 0.019633376754557223 -0.0063226099617927113 0 0.019014244662876607 -0.005926766975868184 0 0.019566484476053563 -0.0056802919024651318 0 0.019633376754557223 -0.0063226099617927113 0 0.019014244662876607 -0.005926766975868184 0 0.018190953630011528 -0.0062306514862710037 0 0.018334309463882759 -0.0072507542878223917 0 0.018565053006876293 -0.0062453394541712283 0 0.020148200038992703 -0.005739599042851133 0 0.020197467283735723 -0.0066067990377582497 0 0.019633376754557223 -0.0063226099617927113 0 0.01859600139636516 -0.0055979724197930568 0 0.019292362976424574 -0.0070214175573428059 0 0.018238644706524521 -0.0086232103782876643 0 0.017019560889318115 -0.0061125168124547416 0 0.016631708945981531 -0.0030457934483068892 0 0.016301492067830842 -0.0034480346145876464 0 0.016336757634328049 -0.0030409634726637222 0 0.01859600139636516 -0.0055979724197930568 0 0.017019560889318115 -0.0061125168124547416 0 0.020064399013475082 -0.0056925650751404539 0 0.01859600139636516 -0.0055979724197930568 0 0.01977678988985767 -0.0052148343522544754 0 0.019566484476053563 -0.0056802919024651318 0 0.020258132163801353 -0.0056909466918334288 0 0.019566484476053563 -0.0056802919024651318 0 0.020148200038992703 -0.005739599042851133 0 0.019633376754557223 -0.0063226099617927113 0 0.018481943231031348 -0.0082159633568625635 0 0.018517635026052005 -0.0072577125102917086 0 0.018334309463882759 -0.0072507542878223917 0 0.018517635026052005 -0.0072577125102917086 0 0.018334309463882759 -0.0072507542878223917 0 0.018565053006876293 -0.0062453394541712283 0 0.018750581840329902 -0.0076948133266573323 0 0.018238644706524521 -0.0086232103782876643 0 0.020106817927135739 -0.007391943293922329 0 0.020197467283735723 -0.0066067990377582497 0 0.019779737894251824 -0.0069542567985047682 0 0.018750581840329902 -0.0076948133266573323 0 0.019292362976424574 -0.0070214175573428059 0 0.020197467283735723 -0.0066067990377582497 0 0.019779737894251824 -0.0069542567985047682 0 0.019633376754557223 -0.0063226099617927113 0 0.019204404080029006 -0.0064829231957061759 0 0.019633376754557223 -0.0063226099617927113 0 0.019426975349650499 -0.0067564687611172984 0 0.019389475135553329 -0.0071440169548210673 0 0.019779737894251824 -0.0069542567985047682 0 0.019426975349650499 -0.0067564687611172984 0 0.019779737894251824 -0.0069542567985047682 0 0.019633376754557223 -0.0063226099617927113 0 0.019426975349650499 -0.0067564687611172984 0 0.019204404080029006 -0.0064829231957061759 0 0.019426975349650499 -0.0067564687611172984 0 0.019115317568121123 -0.006849161451056956 0 0.019389475135553329 -0.0071440169548210673 0 0.019426975349650499 -0.0067564687611172984 0 0.019115317568121123 -0.006849161451056956 0 0.023044204693027433 -0.0069672346903768521 0 0.020857176989990758 -0.0060273849560269046 0 0.019115317568121123 -0.006849161451056956 0 0.018805218698902317 -0.0069360417502887396 0 0.018771564569970593 -0.0064983633607411948 0 0.019099541462750485 -0.0071220281118747853 0 0.019115317568121123 -0.006849161451056956 0 0.018805218698902317 -0.0069360417502887396 0 0.01847128861387265 -0.006902313301712884 0 0.018771564569970593 -0.0064983633607411948 0 0.018363779583553071 -0.0060657814403624706 0 0.018805218698902317 -0.0069360417502887396 0 0.01847128861387265 -0.006902313301712884 0 0.018771564569970593 -0.0064983633607411948 0 0.024207312568314522 -0.0081623405463722605 0 0.023044204693027433 -0.0069672346903768521 0 0.019204404080029006 -0.0064829231957061759 0 0.019115317568121123 -0.006849161451056956 0 0.018771564569970593 -0.0064983633607411948 0 0.019204404080029006 -0.0064829231957061759 0 0.018771564569970593 -0.0064983633607411948 0 0.019014244662876607 -0.005926766975868184 0 0.018771564569970593 -0.0064983633607411948 0 0.019014244662876607 -0.005926766975868184 0 0.018363779583553071 -0.0060657814403624706 0 0.01828073186727356 -0.0051843620761479973 0 0.019014244662876607 -0.005926766975868184 0 0.018363779583553071 -0.0060657814403624706 0 0.020040152499923997 0.0012175050981638857 0 0.020857176989990758 -0.0060273849560269046 0 0.02302950729733438 -0.002211061672173901 0 0.023235614415409295 -0.0044435276655170304 0 0.022146958368951031 -0.0035731058684075156 0 0.022146958368951031 -0.0035731058684075156 0 0.021894158739181744 -0.0048577829166113751 0 0.020376068595483868 -0.003046533816847048 0 0.023235614415409295 -0.0044435276655170304 0 0.022146958368951031 -0.0035731058684075156 0 0.021894158739181744 -0.0048577829166113751 0 0.025958863682235284 -0.0070933885885759483 0 0.025943352335391759 -0.0071541994719492548 0 0.025784503669865861 -0.0070960437995477724 0 0.023429374802206443 -0.0066826589522276849 0 0.023235614415409295 -0.0044435276655170304 0 0.021894158739181744 -0.0048577829166113751 0 0.023044204693027433 -0.0069672346903768521 0 0.024303502950546275 -0.0064049580976121481 0 0.025955683946778097 -0.0071853852570872827 0 0.025958863682235284 -0.0070933885885759483 0 0.025943352335391759 -0.0071541994719492548 0 0.025324592246836908 -0.0078021058936065301 0 0.025339529389113023 -0.0078606951799032251 0 0.025477610139554692 -0.0075779240313066749 0 0.024207312568314522 -0.0081623405463722605 0 0.025753422539481732 -0.0074432797685448924 0 0.025952902407296034 -0.0071948755182831819 0 0.025955683946778097 -0.0071853852570872827 0 0.025943352335391759 -0.0071541994719492548 0 0.025324592246836908 -0.0078021058936065301 0 0.025477610139554692 -0.0075779240313066749 0 0.025472181626120513 -0.0075885407293152848 0 0.025472181626120513 -0.0075885407293152848 0 0.025588022694647786 -0.0072643066169098209 0 0.025784503669865861 -0.0070960437995477724 0 0.025477610139554692 -0.0075779240313066749 0 0.025472181626120513 -0.0075885407293152848 0 0.025784503669865861 -0.0070960437995477724 0 0.025753422539481732 -0.0074432797685448924 0 0.025662979457322953 -0.0071370846083551754 0 0.025588022694647786 -0.0072643066169098209 0 0.025778331142870183 -0.0069453469427663986 0 0.025784503669865861 -0.0070960437995477724 0 0.02541972775365188 -0.0075433370127601079 0 0.025472181626120513 -0.0075885407293152848 0 0.025588022694647786 -0.0072643066169098209 0 0.02541972775365188 -0.0075433370127601079 0 0.02539779285376367 -0.0073506154182149102 0 0.025588022694647786 -0.0072643066169098209 0 0.02539779285376367 -0.0073506154182149102 0 0.025588022694647786 -0.0072643066169098209 0 0.025651572212570545 -0.0069856877062917178 0 0.025588022694647786 -0.0072643066169098209 0 0.025778331142870183 -0.0069453469427663986 0 0.025651572212570545 -0.0069856877062917178 0 0.025778331142870183 -0.0069453469427663986 0 0.025651572212570545 -0.0069856877062917178 0 0.025877594373942266 -0.0066615348976028143 0 0.025651572212570545 -0.0069856877062917178 0 0.025877594373942266 -0.0066615348976028143 0 0.025863071401880072 -0.0064849616835850792 0 0.025778331142870183 -0.0069453469427663986 0 0.025877594373942266 -0.0066615348976028143 0 0.025960412216018979 -0.0067082454859934866 0 0.025960412216018979 -0.0067082454859934866 0 0.02592006457216138 -0.0067435848021396251 0 0.025784503669865861 -0.0070960437995477724 0 0.024736958998567361 -0.0036554581265756886 0 0.022724153483968078 -0.0022942274862935599 0 0.024303502950546275 -0.0064049580976121481 0 0.022724153483968078 -0.0022942274862935599 0 0.025958863682235284 -0.0070933885885759483 0 0.02592006457216138 -0.0067435848021396251 0 0.025784503669865861 -0.0070960437995477724 0 0.025778331142870183 -0.0069453469427663986 0 0.025960412216018979 -0.0067082454859934866 0 0.025784503669865861 -0.0070960437995477724 0 0.024847184410871501 -0.0075967860219781696 0 0.025202737006094093 -0.0070210272232961116 0 0.025231095799143555 -0.0072691048671476282 0 0.025202737006094093 -0.0070210272232961116 0 0.025231095799143555 -0.0072691048671476282 0 0.025595754569106146 -0.0066682015936738188 0 0.025231095799143555 -0.0072691048671476282 0 0.025537681323388964 -0.0069545358889365645 0 0.025595754569106146 -0.0066682015936738188 0 0.02539779285376367 -0.0073506154182149102 0 0.025231095799143555 -0.0072691048671476282 0 0.025537681323388964 -0.0069545358889365645 0 0.02539779285376367 -0.0073506154182149102 0 0.025651572212570545 -0.0069856877062917178 0 0.025537681323388964 -0.0069545358889365645 0 0.025537681323388964 -0.0069545358889365645 0 0.025863071401880072 -0.0064849616835850792 0 0.025595754569106146 -0.0066682015936738188 0 0.025651572212570545 -0.0069856877062917178 0 0.025537681323388964 -0.0069545358889365645 0 0.025863071401880072 -0.0064849616835850792 0 0.025718581934754875 -0.0060922276880427863 0 0.025595754569106146 -0.0066682015936738188 0 0.026123130499099749 -0.0058048351738926888 0 0.025863071401880072 -0.0064849616835850792 0 0.026123130499099749 -0.0058048351738926888 0 0.026307287712898718 -0.0058698373504975669 0 0.025863071401880072 -0.0064849616835850792 0 0.025595754569106146 -0.0066682015936738188 0 0.026123130499099749 -0.0058048351738926888 0 0.026123130499099749 -0.0058048351738926888 0 0.026307287712898718 -0.0058698373504975669 0 0.026696998611555913 -0.0048228660125305472 0 0.023440667883375607 0.00062659618764371577 0 0.023982322429115348 0.00056247667000166332 0 0.025718581934754875 -0.0060922276880427863 0 0.026162574740972448 -0.0048102719694975695 0 0.026123130499099749 -0.0058048351738926888 0 0.022724153483968078 -0.0022942274862935599 0 0.023440667883375607 0.00062659618764371577 0 0.025960412216018979 -0.0067082454859934866 0 0.026078174714328717 -0.0066586465651291846 0 0.026307287712898718 -0.0058698373504975669 0 0.020273023849486746 0.0065585660296484738 0 0.020660046375798078 0.0062712628753937225 0 0.020339121301199293 0.0062324968813766007 0 0.020273023849486746 0.0065585660296484738 0 0.020339121301199293 0.0062324968813766007 0 0.020127501329357374 0.006262061852307611 0 0.025877594373942266 -0.0066615348976028143 0 0.025960412216018979 -0.0067082454859934866 0 0.026307287712898718 -0.0058698373504975669 0 0.025877594373942266 -0.0066615348976028143 0 0.025863071401880072 -0.0064849616835850792 0 0.026307287712898718 -0.0058698373504975669 0 0.020660046375798078 0.0062712628753937225 0 0.020339121301199293 0.0062324968813766007 0 0.020497154236646397 0.0060162812570543891 0 0.020339121301199293 0.0062324968813766007 0 0.020126139409342575 0.0060264447290085243 0 0.020497154236646397 0.0060162812570543891 0 0.020339121301199293 0.0062324968813766007 0 0.020127501329357374 0.006262061852307611 0 0.020126139409342575 0.0060264447290085243 0 0.020126139409342575 0.0060264447290085243 0 0.020215570176385242 0.0058070187950011055 0 0.019931252070462778 0.0058942115007806131 0 0.020215570176385242 0.0058070187950011055 0 0.020497154236646397 0.0060162812570543891 0 0.020529691940969045 0.0056714710662957952 0 0.020126139409342575 0.0060264447290085243 0 0.020215570176385242 0.0058070187950011055 0 0.020497154236646397 0.0060162812570543891 0 0.020660046375798078 0.0062712628753937225 0 0.020497154236646397 0.0060162812570543891 0 0.02124626748801298 0.0060304210068084629 0 0.020497154236646397 0.0060162812570543891 0 0.020529691940969045 0.0056714710662957952 0 0.02124626748801298 0.0060304210068084629 0 0.020529691940969045 0.0056714710662957952 0 0.020792394562108858 0.005391325908091037 0 0.02124626748801298 0.0060304210068084629 0 0.020529691940969045 0.0056714710662957952 0 0.020792394562108858 0.005391325908091037 0 0.020438293006880996 0.0052959805876484686 0 0.020529691940969045 0.0056714710662957952 0 0.020153207034180311 0.0055114426313047395 0 0.020438293006880996 0.0052959805876484686 0 0.020215570176385242 0.0058070187950011055 0 0.020153207034180311 0.0055114426313047395 0 0.019894093372407842 0.0057164360095358392 0 0.020215570176385242 0.0058070187950011055 0 0.020529691940969045 0.0056714710662957952 0 0.020153207034180311 0.0055114426313047395 0 0.026162574740972448 -0.0048102719694975695 0 0.026696998611555913 -0.0048228660125305472 0 0.026969332599110971 -0.003377830472284969 0 0.026162574740972448 -0.0048102719694975695 0 0.026123130499099749 -0.0058048351738926888 0 0.026696998611555913 -0.0048228660125305472 0 0.020792394562108858 0.005391325908091037 0 0.02124626748801298 0.0060304210068084629 0 0.021189196683107182 0.0050940145450452928 0 0.023982322429115348 0.00056247667000166332 0 0.024592453680850453 0.0011279800696769242 0 0.02124626748801298 0.0060304210068084629 0 0.02223607124614425 0.0055518823447022123 0 0.021189196683107182 0.0050940145450452928 0 0.02223607124614425 0.0055518823447022123 0 0.021189196683107182 0.0050940145450452928 0 0.021606632256357835 0.0044319075061932459 0 0.02223607124614425 0.0055518823447022123 0 0.021606632256357835 0.0044319075061932459 0 0.022685682194825158 0.0041717536022662129 0 0.020756472847425152 0.0040528542320664839 0 0.021189196683107182 0.0050940145450452928 0 0.020582712218503087 0.0048542911261106464 0 0.020756472847425152 0.0040528542320664839 0 0.021189196683107182 0.0050940145450452928 0 0.021606632256357835 0.0044319075061932459 0 0.020756472847425152 0.0040528542320664839 0 0.022341363556281215 0.0031298109454586625 0 0.021606632256357835 0.0044319075061932459 0 0.022341363556281215 0.0031298109454586625 0 0.021606632256357835 0.0044319075061932459 0 0.022685682194825158 0.0041717536022662129 0 0.020153207034180311 0.0055114426313047395 0 0.020438293006880996 0.0052959805876484686 0 0.020107192167174083 0.0050967258751764902 0 0.020438293006880996 0.0052959805876484686 0 0.020582712218503087 0.0048542911261106464 0 0.020107192167174083 0.0050967258751764902 0 0.020792394562108858 0.005391325908091037 0 0.021189196683107182 0.0050940145450452928 0 0.020582712218503087 0.0048542911261106464 0 0.020792394562108858 0.005391325908091037 0 0.020438293006880996 0.0052959805876484686 0 0.020582712218503087 0.0048542911261106464 0 0.020720920036038287 0.0045235638685076811 0 0.020756472847425152 0.0040528542320664839 0 0.020582712218503087 0.0048542911261106464 0 0.020720920036038287 0.0045235638685076811 0 0.020582712218503087 0.0048542911261106464 0 0.020407076887965302 0.0048304958415563495 0 0.020582712218503087 0.0048542911261106464 0 0.020407076887965302 0.0048304958415563495 0 0.020107192167174083 0.0050967258751764902 0 0.020262806288605495 0.0048127730579621362 0 0.020407076887965302 0.0048304958415563495 0 0.020107192167174083 0.0050967258751764902 0 0.020262806288605495 0.0048127730579621362 0 0.020107192167174083 0.0050967258751764902 0 0.019814652162090121 0.0049966259053233833 0 0.020107192167174083 0.0050967258751764902 0 0.019814652162090121 0.0049966259053233833 0 0.01959222899380653 0.0052489934346946574 0 0.019814652162090121 0.0049966259053233833 0 0.019378620644938272 0.0049960698439739833 0 0.01959222899380653 0.0052489934346946574 0 0.019378620644938272 0.0049960698439739833 0 0.01959222899380653 0.0052489934346946574 0 0.019079472724765081 0.0051860637680063186 0 0.01959222899380653 0.0052489934346946574 0 0.019828407938804402 0.0054556352824205274 0 0.019428536210502962 0.0056280846035104241 0 0.01959222899380653 0.0052489934346946574 0 0.019428536210502962 0.0056280846035104241 0 0.019079472724765081 0.0051860637680063186 0 0.020107192167174083 0.0050967258751764902 0 0.01959222899380653 0.0052489934346946574 0 0.019828407938804402 0.0054556352824205274 0 0.020153207034180311 0.0055114426313047395 0 0.020107192167174083 0.0050967258751764902 0 0.019828407938804402 0.0054556352824205274 0 0.019828407938804402 0.0054556352824205274 0 0.019894093372407842 0.0057164360095358392 0 0.019428536210502962 0.0056280846035104241 0 0.020153207034180311 0.0055114426313047395 0 0.019828407938804402 0.0054556352824205274 0 0.019894093372407842 0.0057164360095358392 0 0.019894093372407842 0.0057164360095358392 0 0.019428536210502962 0.0056280846035104241 0 0.01975276281674055 0.0059387494162486286 0 0.01964575845326617 0.0059602028921527557 0 0.019859607248671179 0.005968682675275342 0 0.01975276281674055 0.0059387494162486286 0 0.019865663162215469 0.0058649720251466109 0 0.02002530028637528 0.0059296273414724456 0 0.019428536210502962 0.0056280846035104241 0 0.01975276281674055 0.0059387494162486286 0 0.019195723978580697 0.0060590865958812818 0 0.019942103894284802 0.0057232890028104059 0 0.019865663162215469 0.0058649720251466109 0 0.02002530028637528 0.0059296273414724456 0 0.01975276281674055 0.0059387494162486286 0 0.019865663162215469 0.0058649720251466109 0 0.019793615816287736 0.00592770228190523 0 0.01975276281674055 0.0059387494162486286 0 0.019793615816287736 0.00592770228190523 0 0.019931252070462778 0.0058942115007806131 0 0.020126139409342575 0.0060264447290085243 0 0.019793615816287736 0.00592770228190523 0 0.019931252070462778 0.0058942115007806131 0 0.020215570176385242 0.0058070187950011055 0 0.019894093372407842 0.0057164360095358392 0 0.019931252070462778 0.0058942115007806131 0 0.019894093372407842 0.0057164360095358392 0 0.01975276281674055 0.0059387494162486286 0 0.019931252070462778 0.0058942115007806131 0 0.017938746441218175 0.0032796866498727216 0 0.016800086759114527 0.00046043836288349677 0 0.01852411946279307 0.0062475860713892706 0 0.018075210861155683 0.0058566940758744152 0 0.017762665557288875 0.0062584575227515645 0 0.017938746441218175 0.0032796866498727216 0 0.019859607248671179 0.005968682675275342 0 0.020124837421153386 0.0057059867751244947 0 0.020276898472144922 0.0058805886198320901 0 0.02002530028637528 0.0059296273414724456 0 0.019942103894284802 0.0057232890028104059 0 0.020124837421153386 0.0057059867751244947 0 0.02002530028637528 0.0059296273414724456 0 0.018710636191332942 0.0060821907059153855 0 0.019195723978580697 0.0060590865958812818 0 0.018730740537641326 0.0054693235505683955 0 0.019428536210502962 0.0056280846035104241 0 0.019195723978580697 0.0060590865958812818 0 0.018730740537641326 0.0054693235505683955 0 0.018730740537641326 0.0054693235505683955 0 0.017748591581874359 0.0053851907726153994 0 0.018075210861155683 0.0058566940758744152 0 0.01852411946279307 0.0062475860713892706 0 0.018730740537641326 0.0054693235505683955 0 0.018075210861155683 0.0058566940758744152 0 0.017938746441218175 0.0032796866498727216 0 0.018797059540837165 0.0066721907641040506 0 0.018730740537641326 0.0054693235505683955 0 0.018195502695427131 0.0050102740946122576 0 0.017748591581874359 0.0053851907726153994 0 0.018730740537641326 0.0054693235505683955 0 0.019079472724765081 0.0051860637680063186 0 0.018718788550738674 0.0049255324501547978 0 0.019428536210502962 0.0056280846035104241 0 0.018730740537641326 0.0054693235505683955 0 0.019079472724765081 0.0051860637680063186 0 0.019000021541574763 0.0048776829500805138 0 0.019079472724765081 0.0051860637680063186 0 0.018718788550738674 0.0049255324501547978 0 0.019000021541574763 0.0048776829500805138 0 0.019378620644938272 0.0049960698439739833 0 0.019079472724765081 0.0051860637680063186 0 0.018376613089060058 0.0045718019068019125 0 0.018195502695427131 0.0050102740946122576 0 0.018718788550738674 0.0049255324501547978 0 0.018730740537641326 0.0054693235505683955 0 0.018195502695427131 0.0050102740946122576 0 0.018718788550738674 0.0049255324501547978 0 0.018376613089060058 0.0045718019068019125 0 0.017806992442735484 0.0045830440616955849 0 0.018195502695427131 0.0050102740946122576 0 0.017806992442735484 0.0045830440616955849 0 0.018195502695427131 0.0050102740946122576 0 0.017620636508300674 0.0049569291981856672 0 0.017806992442735484 0.0045830440616955849 0 0.017213669821190668 0.0044975737115420852 0 0.017620636508300674 0.0049569291981856672 0 0.017213669821190668 0.0044975737115420852 0 0.017620636508300674 0.0049569291981856672 0 0.017078608121305208 0.0050204851842227923 0 0.017213669821190668 0.0044975737115420852 0 0.017078608121305208 0.0050204851842227923 0 0.01679440658373452 0.0046887814889357646 0 0.017620636508300674 0.0049569291981856672 0 0.017078608121305208 0.0050204851842227923 0 0.017748591581874359 0.0053851907726153994 0 0.017078608121305208 0.0050204851842227923 0 0.017748591581874359 0.0053851907726153994 0 0.01696715538582793 0.0055046198573988816 0 0.018195502695427131 0.0050102740946122576 0 0.017620636508300674 0.0049569291981856672 0 0.017748591581874359 0.0053851907726153994 0 0.016454826593152318 0.0043589295624460178 0 0.016288023676608268 0.0048471992940451293 0 0.015877593560392075 0.0045314438638007293 0 0.016288023676608268 0.0048471992940451293 0 0.015781441576724335 0.0048771257259953302 0 0.015877593560392075 0.0045314438638007293 0 0.016454826593152318 0.0043589295624460178 0 0.016288023676608268 0.0048471992940451293 0 0.01679440658373452 0.0046887814889357646 0 0.016288023676608268 0.0048471992940451293 0 0.01679440658373452 0.0046887814889357646 0 0.016671302557552319 0.0051068086472262422 0 0.017078608121305208 0.0050204851842227923 0 0.01679440658373452 0.0046887814889357646 0 0.016671302557552319 0.0051068086472262422 0 0.017213669821190668 0.0044975737115420852 0 0.016454826593152318 0.0043589295624460178 0 0.01679440658373452 0.0046887814889357646 0 0.017078608121305208 0.0050204851842227923 0 0.016671302557552319 0.0051068086472262422 0 0.01696715538582793 0.0055046198573988816 0 0.016288023676608268 0.0048471992940451293 0 0.016671302557552319 0.0051068086472262422 0 0.016397822994563712 0.0053381032110695848 0 0.016671302557552319 0.0051068086472262422 0 0.016397822994563712 0.0053381032110695848 0 0.01696715538582793 0.0055046198573988816 0 0.016288023676608268 0.0048471992940451293 0 0.016009012946629955 0.0051455909751896229 0 0.015781441576724335 0.0048771257259953302 0 0.016288023676608268 0.0048471992940451293 0 0.016009012946629955 0.0051455909751896229 0 0.016397822994563712 0.0053381032110695848 0 0.014888871197293711 -0.001465073655965836 0 0.014039907352621978 0.00037208020014734873 0 0.016009012946629955 0.0051455909751896229 0 0.016084447612231805 0.0055121765056989624 0 0.015496831800282069 0.0051880631344421221 0 0.016084447612231805 0.0055121765056989624 0 0.016495919018021721 0.0057431526854041645 0 0.016111846758867548 0.0060910158990016665 0 0.016084447612231805 0.0055121765056989624 0 0.016111846758867548 0.0060910158990016665 0 0.015496831800282069 0.0051880631344421221 0 0.016009012946629955 0.0051455909751896229 0 0.016084447612231805 0.0055121765056989624 0 0.016397822994563712 0.0053381032110695848 0 0.016084447612231805 0.0055121765056989624 0 0.016495919018021721 0.0057431526854041645 0 0.016397822994563712 0.0053381032110695848 0 0.016495919018021721 0.0057431526854041645 0 0.01696715538582793 0.0055046198573988816 0 0.016948301471885457 0.0061986899199256386 0 0.016495919018021721 0.0057431526854041645 0 0.016397822994563712 0.0053381032110695848 0 0.01696715538582793 0.0055046198573988816 0 0.013769353168800418 -0.0049344354104236474 0 0.014821544846958901 -0.0050025712452132116 0 0.014527472734758967 -0.0045034135971658744 0 0.014888871197293711 -0.001465073655965836 0 0.015881347355181149 0.00073896304982101529 0 0.013769353168800418 -0.0049344354104236474 0 0.013692972013427352 -0.0050245276954475736 0 0.014821544846958901 -0.0050025712452132116 0 0.016495919018021721 0.0057431526854041645 0 0.016111846758867548 0.0060910158990016665 0 0.016948301471885457 0.0061986899199256386 0 0.014888871197293711 -0.001465073655965836 0 0.012444255527270496 -0.0047861413969850939 0 0.013686434165309441 -0.0050320338389338443 0 0.013313663578906291 -0.004601060999052011 0 0.012772857402265716 -0.0050121936384102091 0 0.013769353168800418 -0.0049344354104236474 0 0.013686434165309441 -0.0050320338389338443 0 0.013313663578906291 -0.004601060999052011 0 0.014542471156406809 -0.0019760923080901749 0 0.014888871197293711 -0.001465073655965836 0 0.018075210861155683 0.0058566940758744152 0 0.017472873697503295 0.0058115322255576874 0 0.017762665557288875 0.0062584575227515645 0 0.017748591581874359 0.0053851907726153994 0 0.018075210861155683 0.0058566940758744152 0 0.017472873697503295 0.0058115322255576874 0 0.017472873697503295 0.0058115322255576874 0 0.01696715538582793 0.0055046198573988816 0 0.016948301471885457 0.0061986899199256386 0 0.017748591581874359 0.0053851907726153994 0 0.017472873697503295 0.0058115322255576874 0 0.01696715538582793 0.0055046198573988816 0 0.014821544846958901 -0.0050025712452132116 0 0.015894782226441469 -0.0049661039881384247 0 0.015377620618942116 -0.0042705618841990395 0 0.015881347355181149 0.00073896304982101529 0 0.016800086759114527 0.00046043836288349677 0 0.017472873697503295 0.0058115322255576874 0 0.016948301471885457 0.0061986899199256386 0 0.017762665557288875 0.0062584575227515645 0 0.016911279041411601 -0.0049412742991258845 0 0.015894782226441469 -0.0049661039881384247 0 0.016186823923323514 -0.0041476450907626753 0 0.016186823923323514 -0.0041476450907626753 0 0.015859714346239208 -0.0038642009084202526 0 0.015377620618942116 -0.0042705618841990395 0 0.015894782226441469 -0.0049661039881384247 0 0.016186823923323514 -0.0041476450907626753 0 0.015377620618942116 -0.0042705618841990395 0 0.015859714346239208 -0.0038642009084202526 0 0.015560892229122353 -0.0036040762742718551 0 0.015377620618942116 -0.0042705618841990395 0 0.016186823923323514 -0.0041476450907626753 0 0.015859714346239208 -0.0038642009084202526 0 0.016301492067830842 -0.0034480346145876464 0 0.015560892229122353 -0.0036040762742718551 0 0.01633209277287721 -0.0029795167842997308 0 0.014950414607809904 -0.0029101630760175962 0 0.015859714346239208 -0.0038642009084202526 0 0.016301492067830842 -0.0034480346145876464 0 0.015560892229122353 -0.0036040762742718551 0 0.016301492067830842 -0.0034480346145876464 0 0.015560892229122353 -0.0036040762742718551 0 0.01633209277287721 -0.0029795167842997308 0 0.016682843894046256 -0.0031091375089822974 0 0.017019560889318115 -0.0061125168124547416 0 0.015560892229122353 -0.0036040762742718551 0 0.014658760865258474 -0.0039150437022136258 0 0.014950414607809904 -0.0029101630760175962 0 0.015560892229122353 -0.0036040762742718551 0 0.015377620618942116 -0.0042705618841990395 0 0.014658760865258474 -0.0039150437022136258 0 0.015377620618942116 -0.0042705618841990395 0 0.014527472734758967 -0.0045034135971658744 0 0.014658760865258474 -0.0039150437022136258 0 0.014821544846958901 -0.0050025712452132116 0 0.015377620618942116 -0.0042705618841990395 0 0.014527472734758967 -0.0045034135971658744 0 0.013769353168800418 -0.0049344354104236474 0 0.014527472734758967 -0.0045034135971658744 0 0.013861521851052909 -0.0042628802147208827 0 0.014527472734758967 -0.0045034135971658744 0 0.014658760865258474 -0.0039150437022136258 0 0.013861521851052909 -0.0042628802147208827 0 0.013769353168800418 -0.0049344354104236474 0 0.013313663578906291 -0.004601060999052011 0 0.013861521851052909 -0.0042628802147208827 0 0.013313663578906291 -0.004601060999052011 0 0.013861521851052909 -0.0042628802147208827 0 0.013216059405082749 -0.0039660926578000376 0 0.013216059405082749 -0.0039660926578000376 0 0.013838379188135519 -0.0035695443667271192 0 0.012819841999172448 -0.003515985112389645 0 0.013838379188135519 -0.0035695443667271192 0 0.013485981164704985 -0.0028652823838090421 0 0.012819841999172448 -0.003515985112389645 0 0.013861521851052909 -0.0042628802147208827 0 0.013216059405082749 -0.0039660926578000376 0 0.013838379188135519 -0.0035695443667271192 0 0.014658760865258474 -0.0039150437022136258 0 0.013838379188135519 -0.0035695443667271192 0 0.014950414607809904 -0.0029101630760175962 0 0.014658760865258474 -0.0039150437022136258 0 0.013861521851052909 -0.0042628802147208827 0 0.013838379188135519 -0.0035695443667271192 0 0.013838379188135519 -0.0035695443667271192 0 0.013485981164704985 -0.0028652823838090421 0 0.014950414607809904 -0.0029101630760175962 0 0.013104578700765606 -0.010371740739774048 0 0.014485969934995803 -0.0090847311964615818 0 0.015686709285138298 -0.010452666317842824 0 0.01326616942544508 -0.0065601339284234641 0 0.01533953022563575 -0.0067670611181353821 0 0.013104578700765606 -0.010371740739774048 0 0.012915543613126171 -0.0079297559137487591 0 0.011639384989139875 -0.0090926867529683101 0 0.013104578700765606 -0.010371740739774048 0 0.012915543613126171 -0.0079297559137487591 0 0.014485969934995803 -0.0090847311964615818 0 0.012915543613126171 -0.0079297559137487591 0 0.014485969934995803 -0.0090847311964615818 0 0.014680621470842018 -0.0078372387645705144 0 0.014485969934995803 -0.0090847311964615818 0 0.015835529345044098 -0.0087488738635196784 0 0.014680621470842018 -0.0078372387645705144 0 0.014485969934995803 -0.0090847311964615818 0 0.015835529345044098 -0.0087488738635196784 0 0.015686709285138298 -0.010452666317842824 0 0.015835529345044098 -0.0087488738635196784 0 0.016900282827005855 -0.0093963035063086304 0 0.015686709285138298 -0.010452666317842824 0 0.015835529345044098 -0.0087488738635196784 0 0.016900282827005855 -0.0093963035063086304 0 0.01702964259828408 -0.0082620992663505997 0 0.017964543758683744 -0.0091022258534044602 0 0.016900282827005855 -0.0093963035063086304 0 0.01702964259828408 -0.0082620992663505997 0 0.017019560889318115 -0.0061125168124547416 0 0.01533953022563575 -0.0067670611181353821 0 0.016900282827005855 -0.0093963035063086304 0 0.017896378688204456 -0.010478371949636613 0 0.015686709285138298 -0.010452666317842824 0 0.017964543758683744 -0.0091022258534044602 0 0.016900282827005855 -0.0093963035063086304 0 0.017896378688204456 -0.010478371949636613 0 0.010481011062019926 -0.0068936271131082392 0 0.010086657168729252 -0.0068935209497959322 0 0.010215356094362436 -0.0062183319915488679 0 0.010355479201666681 -0.0064725398038029168 0 0.010481011062019926 -0.0068936271131082392 0 0.010407345896226218 -0.0065577996047886632 0 0.010481011062019926 -0.0068936271131082392 0 0.010407345896226218 -0.0065577996047886632 0 0.010625226914464355 -0.0068227012901176378 0 0.010481011062019926 -0.0068936271131082392 0 0.010625226914464355 -0.0068227012901176378 0 0.01110116677744763 -0.007134368509142344 0 0.010355479201666681 -0.0064725398038029168 0 0.010407345896226218 -0.0065577996047886632 0 0.010254039154856702 -0.006068513660851647 0 0.010407345896226218 -0.0065577996047886632 0 0.010254039154856702 -0.006068513660851647 0 0.010334251469623267 -0.0062924151982944199 0 0.010407345896226218 -0.0065577996047886632 0 0.010407995121128277 -0.0065002987230456978 0 0.010334251469623267 -0.0062924151982944199 0 0.010407345896226218 -0.0065577996047886632 0 0.010407995121128277 -0.0065002987230456978 0 0.01053456287235955 -0.0066398456372552365 0 0.010407345896226218 -0.0065577996047886632 0 0.01053456287235955 -0.0066398456372552365 0 0.010625226914464355 -0.0068227012901176378 0 0.010407995121128277 -0.0065002987230456978 0 0.01053456287235955 -0.0066398456372552365 0 0.010468376742423497 -0.0065421914638318212 0 0.01053456287235955 -0.0066398456372552365 0 0.010625226914464355 -0.0068227012901176378 0 0.01073614108657904 -0.0067082223611221936 0 0.010625226914464355 -0.0068227012901176378 0 0.011016828472324639 -0.0068818843207773383 0 0.01110116677744763 -0.007134368509142344 0 0.010625226914464355 -0.0068227012901176378 0 0.011016828472324639 -0.0068818843207773383 0 0.01073614108657904 -0.0067082223611221936 0 0.01110116677744763 -0.007134368509142344 0 0.011652196834892018 -0.0071891792119475138 0 0.011928252515644501 -0.0076052973540867543 0 0.011016828472324639 -0.0068818843207773383 0 0.01110116677744763 -0.007134368509142344 0 0.011652196834892018 -0.0071891792119475138 0 0.012915543613126171 -0.0079297559137487591 0 0.011652196834892018 -0.0071891792119475138 0 0.011928252515644501 -0.0076052973540867543 0 0.012847535430632578 -0.0077980771447215763 0 0.011641642636810692 -0.0085090345560482356 0 0.013104578700765606 -0.010371740739774048 0 0.011639384989139875 -0.0090926867529683101 0 0.010353097909794103 -0.010201960102161164 0 0.01326616942544508 -0.0065601339284234641 0 0.011276020285397013 -0.0068665887278424823 0 0.013485981164704985 -0.0028652823838090421 0 0.011976346325002883 -0.0028360054907241691 0 0.012819841999172448 -0.003515985112389645 0 0.011641642636810692 -0.0085090345560482356 0 0.011276020285397013 -0.0068665887278424823 0 0.01110116677744763 -0.007134368509142344 0 0.011928252515644501 -0.0076052973540867543 0 0.011216719222012591 -0.0074660315752170647 0 0.010481011062019926 -0.0068936271131082392 0 0.01110116677744763 -0.007134368509142344 0 0.011216719222012591 -0.0074660315752170647 0 0.010405306888225675 -0.0069632851480033071 0 0.011276020285397013 -0.0068665887278424823 0 0.011276020285397013 -0.0068665887278424823 0 0.010683397088668552 -0.0046720477776476185 0 0.011976346325002883 -0.0028360054907241691 0 0.012037225056969081 -0.0039774242780587594 0 0.010936760814651893 -0.0037691930915309873 0 0.013216059405082749 -0.0039660926578000376 0 0.012819841999172448 -0.003515985112389645 0 0.012661276913528132 -0.0043401533475795114 0 0.012037225056969081 -0.0039774242780587594 0 0.012819841999172448 -0.003515985112389645 0 0.012661276913528132 -0.0043401533475795114 0 0.011976346325002883 -0.0028360054907241691 0 0.012037225056969081 -0.0039774242780587594 0 0.012819841999172448 -0.003515985112389645 0 0.013313663578906291 -0.004601060999052011 0 0.013216059405082749 -0.0039660926578000376 0 0.012661276913528132 -0.0043401533475795114 0 0.013313663578906291 -0.004601060999052011 0 0.012661276913528132 -0.0043401533475795114 0 0.012772857402265716 -0.0050121936384102091 0 0.012037225056969081 -0.0039774242780587594 0 0.011408048107252865 -0.0045247505912108053 0 0.011888691992576285 -0.0049182960825591244 0 0.012037225056969081 -0.0039774242780587594 0 0.011408048107252865 -0.0045247505912108053 0 0.010936760814651893 -0.0037691930915309873 0 0.012037225056969081 -0.0039774242780587594 0 0.012661276913528132 -0.0043401533475795114 0 0.011888691992576285 -0.0049182960825591244 0 0.011408048107252865 -0.0045247505912108053 0 0.010548222298081134 -0.0049807779181553014 0 0.010936760814651893 -0.0037691930915309873 0 0.011408048107252865 -0.0045247505912108053 0 0.010548222298081134 -0.0049807779181553014 0 0.011485028336129993 -0.0050743279816057056 0 0.010355479201666681 -0.0064725398038029168 0 0.010481011062019926 -0.0068936271131082392 0 0.010215356094362436 -0.0062183319915488679 0 0.010215356094362436 -0.0062183319915488679 0 0.010254039154856702 -0.006068513660851647 0 0.010035552576036263 -0.0052277724944212525 0 0.010355479201666681 -0.0064725398038029168 0 0.010215356094362436 -0.0062183319915488679 0 0.010254039154856702 -0.006068513660851647 0 0.010683397088668552 -0.0046720477776476185 0 0.010089989895924295 -0.0052736816107008958 0 0.010548222298081134 -0.0049807779181553014 0 0.010936760814651893 -0.0037691930915309873 0 0.010035552576036263 -0.0052277724944212525 0 0.010254039154856702 -0.006068513660851647 0 0.010035552576036263 -0.0052277724944212525 0 0.010181645306633158 -0.0056517800906867215 0 0.010035552576036263 -0.0052277724944212525 0 0.010080299615270061 -0.0051892230587537135 0 0.0099363642354208959 -0.0052183798812181371 0 0.010080299615270061 -0.0051892230587537135 0 0.009960376195735008 -0.0051594940504955198 0 0.0099363642354208959 -0.0052183798812181371 0 0.010548222298081134 -0.0049807779181553014 0 0.010035552576036263 -0.0052277724944212525 0 0.010080299615270061 -0.0051892230587537135 0 0.010548222298081134 -0.0049807779181553014 0 0.011485028336129993 -0.0050743279816057056 0 0.011581327986050058 -0.0053958693701340633 0 0.010541356095621556 -0.0047942196195508895 0 0.010625736182861499 -0.0055390033808918708 0 0.010548222298081134 -0.0049807779181553014 0 0.010080299615270061 -0.0051892230587537135 0 0.0098281273256369556 -0.0051789492072196351 0 0.010080299615270061 -0.0051892230587537135 0 0.0098281273256369556 -0.0051789492072196351 0 0.009960376195735008 -0.0051594940504955198 0 0.0098281273256369556 -0.0051789492072196351 0 0.009960376195735008 -0.0051594940504955198 0 0.010108960564836095 -0.0046844344652557527 0 0.012444255527270496 -0.0047861413969850939 0 0.01208213756986961 -0.0048860642973365285 0 0.013213662614863982 -0.0045842306325566554 0 0.012533013224284016 -0.0046710065626918438 0 0.012435258214430336 -0.005374618169330039 0 0.012661276913528132 -0.0043401533475795114 0 0.012772857402265716 -0.0050121936384102091 0 0.011888691992576285 -0.0049182960825591244 0 0.012533013224284016 -0.0046710065626918438 0 0.011888691992576285 -0.0049182960825591244 0 0.011939579035130104 -0.0052064048929927869 0 0.011408048107252865 -0.0045247505912108053 0 0.011485028336129993 -0.0050743279816057056 0 0.011888691992576285 -0.0049182960825591244 0 0.011485028336129993 -0.0050743279816057056 0 0.011888691992576285 -0.0049182960825591244 0 0.011939579035130104 -0.0052064048929927869 0 0.011485028336129993 -0.0050743279816057056 0 0.011581327986050058 -0.0053958693701340633 0 0.011939579035130104 -0.0052064048929927869 0 0.011581327986050058 -0.0053958693701340633 0 0.0119550083407321 -0.0054540218237736212 0 0.011939579035130104 -0.0052064048929927869 0 0.0119550083407321 -0.0054540218237736212 0 0.011939579035130104 -0.0052064048929927869 0 0.012435258214430336 -0.005374618169330039 0 0.012533013224284016 -0.0046710065626918438 0 0.011939579035130104 -0.0052064048929927869 0 0.012435258214430336 -0.005374618169330039 0 0.015496831800282069 0.0051880631344421221 0 0.015781441576724335 0.0048771257259953302 0 0.015535618772381693 0.0047884155436634015 0 0.015496831800282069 0.0051880631344421221 0 0.015535618772381693 0.0047884155436634015 0 0.015298354465076075 0.0047454015109845748 0 0.016009012946629955 0.0051455909751896229 0 0.015496831800282069 0.0051880631344421221 0 0.015781441576724335 0.0048771257259953302 0 0.014039907352621978 0.00037208020014734873 0 0.013556013242382906 -0.00014307261479044354 0 0.011581327986050058 -0.0053958693701340633 0 0.0119550083407321 -0.0054540218237736212 0 0.011946714530379833 -0.0057660637204271156 0 0.0119550083407321 -0.0054540218237736212 0 0.012057754603641635 -0.0056361161014269441 0 0.011946714530379833 -0.0057660637204271156 0 0.0119550083407321 -0.0054540218237736212 0 0.012435258214430336 -0.005374618169330039 0 0.012057754603641635 -0.0056361161014269441 0 0.013063595096725292 -0.00089534413448493606 0 0.012853548405998274 -0.0011271325278831305 0 0.012907634547827385 -0.0013073388078370328 0 0.013556013242382906 -0.00014307261479044354 0 0.013297350094262259 0.00068978413191728497 0 0.013556013242382906 -0.00014307261479044354 0 0.011394734504774561 -0.0037300329463284118 0 0.011394734504774561 -0.0037300329463284118 0 0.013297350094262259 0.00068978413191728497 0 0.0094996950399322821 -0.0044116619410889905 0 0.0094579771006342885 -0.0043027910642434702 0 0.0096747370839955025 -0.0042197758149980936 0 0.015575532366075501 0.004401971899307835 0 0.015312033171710688 0.0045018474356863592 0 0.015548714447654214 0.0045859472272226998 0 0.015298354465076075 0.0047454015109845748 0 0.015312033171710688 0.0045018474356863592 0 0.015548714447654214 0.0045859472272226998 0 0.015535618772381693 0.0047884155436634015 0 0.015298354465076075 0.0047454015109845748 0 0.015548714447654214 0.0045859472272226998 0 0.015781441576724335 0.0048771257259953302 0 0.015535618772381693 0.0047884155436634015 0 0.015548714447654214 0.0045859472272226998 0 0.015575532366075501 0.004401971899307835 0 0.015548714447654214 0.0045859472272226998 0 0.015877593560392075 0.0045314438638007293 0 0.015781441576724335 0.0048771257259953302 0 0.015548714447654214 0.0045859472272226998 0 0.015877593560392075 0.0045314438638007293 0 0.0099412408744584142 -0.0051197727213170771 0 0.0098650292125457978 -0.0048964439754923868 0 0.0098281273256369556 -0.0051789492072196351 0 0.010108960564836095 -0.0046844344652557527 0 0.0098270230930707757 -0.0045458356372844594 0 0.0098281273256369556 -0.0051789492072196351 0 0.009479434617141581 -0.0045373089628055968 0 0.0098270230930707757 -0.0045458356372844594 0 0.010625736182861499 -0.0055390033808918708 0 0.011394734504774561 -0.0037300329463284118 0 0.010096958654550368 -0.0039917711048577586 0 0.0098270230930707757 -0.0045458356372844594 0 0.0096747370839955025 -0.0042197758149980936 0 0.011394734504774561 -0.0037300329463284118 0 0.0094180741032330161 -0.0047092142141108417 0 0.009479434617141581 -0.0045373089628055968 0 0.0098270230930707757 -0.0045458356372844594 0 0.0096747370839955025 -0.0042197758149980936 0 0.0097752128386201786 -0.0044316568732709373 0 0.0098650292125457978 -0.0048964439754923868 0 0.010096958654550368 -0.0039917711048577586 0 0.010108960564836095 -0.0046844344652557527 0 0.0098270230930707757 -0.0045458356372844594 0 0.0096713175287986997 -0.0050145568749693512 0 0.0094529137225753835 -0.0048814576011145579 0 0.0096150272206213735 -0.0051493588710067482 0 0.0096713175287986997 -0.0050145568749693512 0 0.0096150272206213735 -0.0051493588710067482 0 0.0092991072836321794 -0.0050587484631699261 0 0.0096150272206213735 -0.0051493588710067482 0 0.0092991072836321794 -0.0050587484631699261 0 0.009665296386708877 -0.0051498170950296258 0 0.0092991072836321794 -0.0050587484631699261 0 0.009520258812261196 -0.0051674284061454887 0 0.009665296386708877 -0.0051498170950296258 0 0.0089377110867912037 -0.004667170779354397 0 0.0092188566084539184 -0.0049807510309938345 0 0.0088013794931004613 -0.0043945517551698182 0 0.0081862265186043032 -0.0043990179450238889 0 0.0092991072836321794 -0.0050587484631699261 0 0.0088013794931004613 -0.0043945517551698182 0 0.0092023869748004885 -0.0045342752040629965 0 0.0092981330073250434 -0.0049541927839935936 0 0.0088013794931004613 -0.0043945517551698182 0 0.0092991072836321794 -0.0050587484631699261 0 0.0092981330073250434 -0.0049541927839935936 0 0.0092023869748004885 -0.0045342752040629965 0 0.0094283725442977431 -0.0050482613157377823 0 0.0092981330073250434 -0.0049541927839935936 0 0.0092023869748004885 -0.0045342752040629965 0 0.0094283725442977431 -0.0050482613157377823 0 0.009470421813122137 -0.0047942767010592888 0 0.0092991072836321794 -0.0050587484631699261 0 0.0092981330073250434 -0.0049541927839935936 0 0.009520258812261196 -0.0051674284061454887 0 0.0094283725442977431 -0.0050482613157377823 0 0.0092981330073250434 -0.0049541927839935936 0 0.009520258812261196 -0.0051674284061454887 0 0.0094283725442977431 -0.0050482613157377823 0 0.009520258812261196 -0.0051674284061454887 0 0.009682644964596596 -0.0053597956579443827 0 0.0094283725442977431 -0.0050482613157377823 0 0.009682644964596596 -0.0053597956579443827 0 0.0095332569874815396 -0.0052775186969561778 0 0.009682644964596596 -0.0053597956579443827 0 0.0095332569874815396 -0.0052775186969561778 0 0.0095935963533520189 -0.0053938007491742762 0 0.009682644964596596 -0.0053597956579443827 0 0.0098605712316800088 -0.0052902153671011351 0 0.010042263055329499 -0.005496171957007895 0 0.009520258812261196 -0.0051674284061454887 0 0.009682644964596596 -0.0053597956579443827 0 0.0098605712316800088 -0.0052902153671011351 0 0.0098605712316800088 -0.0052902153671011351 0 0.0099363642354208959 -0.0052183798812181371 0 0.009665296386708877 -0.0051498170950296258 0 0.0098605712316800088 -0.0052902153671011351 0 0.0099363642354208959 -0.0052183798812181371 0 0.010046200864404713 -0.0053612244705722838 0 0.009960376195735008 -0.0051594940504955198 0 0.0099363642354208959 -0.0052183798812181371 0 0.009665296386708877 -0.0051498170950296258 0 0.009960376195735008 -0.0051594940504955198 0 0.0096150272206213735 -0.0051493588710067482 0 0.009665296386708877 -0.0051498170950296258 0 0.009520258812261196 -0.0051674284061454887 0 0.0098605712316800088 -0.0052902153671011351 0 0.009665296386708877 -0.0051498170950296258 0 0.0096381971155386006 -0.00520353440724721 0 0.009611773993534722 -0.0052616862786135253 0 0.0096513575427353265 -0.0052200705163355865 0 0.0078147934344548649 -0.0088673323014956604 0 0.0075443453595439858 -0.0092687436840166934 0 0.0076036126400438669 -0.0083960421999108147 0 0.0080906009181624088 -0.0094541819843478696 0 0.0078147934344548649 -0.0088673323014956604 0 0.0075443453595439858 -0.0092687436840166934 0 0.0085336684747199104 -0.0075408871377187648 0 0.0090921362719087219 -0.0054408485184657502 0 0.0078147934344548649 -0.0088673323014956604 0 0.0076798071768584058 -0.0083194644643400095 0 0.0076036126400438669 -0.0083960421999108147 0 0.010483255922370562 -0.0040778517964280229 0 0.010460840139596823 -0.0042238408763239513 0 0.010020781252472875 -0.0041120265303731798 0 0.0093846583647939977 -0.0047231463507900308 0 0.0093439769964827404 -0.0046813546991270058 0 0.0093347168067292718 -0.0047751734613256328 0 0.0092629649357643395 -0.0043002185278895651 0 0.0090921362719087219 -0.0054408485184657502 0 0.0096150682510861441 -0.0031314223876263004 0 0.0095969267267232636 -0.0030837217062050296 0 0.0096177622611995587 -0.0031060320894036762 0 0.0089945171996920602 -0.0045519325072748548 0 0.0092629649357643395 -0.0043002185278895651 0 0.0089945171996920602 -0.0045519325072748548 0 0.0090921362719087219 -0.0054408485184657502 0 0.0090921362719087219 -0.0054408485184657502 0 0.010004455156592125 -0.0048062135988863027 0 0.010460840139596823 -0.0042238408763239513 0 0.010020781252472875 -0.0041120265303731798 0 0.010027638656675584 -0.0047100175479337361 0 0.010020781252472875 -0.0041120265303731798 0 0.0098451052116542703 -0.0043807643326010939 0 0.010027638656675584 -0.0047100175479337361 0 0.0097006695654432134 -0.0040208666737440776 0 0.010020781252472875 -0.0041120265303731798 0 0.0098451052116542703 -0.0043807643326010939 0 0.0096381971155386006 -0.00520353440724721 0 0.0096513575427353265 -0.0052200705163355865 0 0.0096462158918690592 -0.0051928280914156095 0 0.0096513575427353265 -0.0052200705163355865 0 0.0096524902499579464 -0.0051440487415537212 0 0.0096462158918690592 -0.0051928280914156095 0 0.010004455156592125 -0.0048062135988863027 0 0.0096027676746679048 -0.0051969271391582843 0 0.0096433460044582867 -0.004634371732071812 0 0.009470421813122137 -0.0047942767010592888 0 0.0096524902499579464 -0.0051440487415537212 0 0.010027638656675584 -0.0047100175479337361 0 0.0096433460044582867 -0.004634371732071812 0 0.0096524902499579464 -0.0051440487415537212 0 0.0097006695654432134 -0.0040208666737440776 0 0.0094469238869862183 -0.0042766524598720325 0 0.0096433460044582867 -0.004634371732071812 0 0.0097006695654432134 -0.0040208666737440776 0 0.0098451052116542703 -0.0043807643326010939 0 0.0096433460044582867 -0.004634371732071812 0 0.0098451052116542703 -0.0043807643326010939 0 0.010027638656675584 -0.0047100175479337361 0 0.0096433460044582867 -0.004634371732071812 0 0.0094469238869862183 -0.0042766524598720325 0 0.0092023869748004885 -0.0045342752040629965 0 0.009470421813122137 -0.0047942767010592888 0 0.0094469238869862183 -0.0042766524598720325 0 0.0096433460044582867 -0.004634371732071812 0 0.009470421813122137 -0.0047942767010592888 0 0.0094283725442977431 -0.0050482613157377823 0 0.009470421813122137 -0.0047942767010592888 0 0.0095332569874815396 -0.0052775186969561778 0 0.009470421813122137 -0.0047942767010592888 0 0.0095332569874815396 -0.0052775186969561778 0 0.0096524902499579464 -0.0051440487415537212 0 0.0095332569874815396 -0.0052775186969561778 0 0.0095187922416701751 -0.0054583030703190495 0 0.0095935963533520189 -0.0053938007491742762 0 0.0095332569874815396 -0.0052775186969561778 0 0.0095187922416701751 -0.0054583030703190495 0 0.0095357491826570922 -0.0053884058647006789 0 0.0095357491826570922 -0.0053884058647006789 0 0.0094713796266588587 -0.0054697952535196215 0 0.0094571494588527802 -0.0056285716594080114 0 0.0095187922416701751 -0.0054583030703190495 0 0.0095357491826570922 -0.0053884058647006789 0 0.0094571494588527802 -0.0056285716594080114 0 0.0095332569874815396 -0.0052775186969561778 0 0.0095357491826570922 -0.0053884058647006789 0 0.0096524902499579464 -0.0051440487415537212 0 0.0095357491826570922 -0.0053884058647006789 0 0.0096524902499579464 -0.0051440487415537212 0 0.0096456642153454619 -0.0052237020193868222 0 0.0096381971155386006 -0.00520353440724721 0 0.0096456642153454619 -0.0052237020193868222 0 0.0097968888045213576 -0.005224157314784825 0 0.0096524902499579464 -0.0051440487415537212 0 0.0096462158918690592 -0.0051928280914156095 0 0.0096456642153454619 -0.0052237020193868222 0 0.0096381971155386006 -0.00520353440724721 0 0.0096462158918690592 -0.0051928280914156095 0 0.0096456642153454619 -0.0052237020193868222 0 0.0095357491826570922 -0.0053884058647006789 0 0.0096456642153454619 -0.0052237020193868222 0 0.0094713796266588587 -0.0054697952535196215 0 0.0094713796266588587 -0.0054697952535196215 0 0.0093289424190600261 -0.0059684973968165524 0 0.0094571494588527802 -0.0056285716594080114 0 0.0094713796266588587 -0.0054697952535196215 0 0.0097968888045213576 -0.005224157314784825 0 0.0093289424190600261 -0.0059684973968165524 0 0.0096456642153454619 -0.0052237020193868222 0 0.0094713796266588587 -0.0054697952535196215 0 0.0097968888045213576 -0.005224157314784825 0 0.0075752602685579123 -0.010061797597557598 0 0.0079271101319838295 -0.010132937954802928 0 0.0078671315657708359 -0.010437390005682083 0 0.0075752602685579123 -0.010061797597557598 0 0.0079271101319838295 -0.010132937954802928 0 0.0078273269830749972 -0.0097471648149927825 0 0.0075443453595439858 -0.0092687436840166934 0 0.0075752602685579123 -0.010061797597557598 0 0.0078273269830749972 -0.0097471648149927825 0 0.0080906009181624088 -0.0094541819843478696 0 0.0075443453595439858 -0.0092687436840166934 0 0.0078273269830749972 -0.0097471648149927825 0 0.0085336684747199104 -0.0075408871377187648 0 0.0086894797323276724 -0.0076040588022110956 0 0.008044809010864894 -0.010971167177117233 0 0.0079639834210254896 -0.010716185060237434 0 0.0079902606112385102 -0.010891056898155109 0 0.0079639834210254896 -0.010716185060237434 0 0.0077782245614463185 -0.010750471403197246 0 0.0079902606112385102 -0.010891056898155109 0 0.0086894797323276724 -0.0076040588022110956 0 0.0085584494582311727 -0.0092695166968641274 0 0.0075752602685579123 -0.010061797597557598 0 0.0078671315657708359 -0.010437390005682083 0 0.0077782245614463185 -0.010750471403197246 0 0.0080831336117630111 -0.010448794040010936 0 0.0079639834210254896 -0.010716185060237434 0 0.0078671315657708359 -0.010437390005682083 0 0.0080831336117630111 -0.010448794040010936 0 0.0079271101319838295 -0.010132937954802928 0 0.0078671315657708359 -0.010437390005682083 0 0.0079639834210254896 -0.010716185060237434 0 0.0078671315657708359 -0.010437390005682083 0 0.0077782245614463185 -0.010750471403197246 0 0.0093289424190600261 -0.0059684973968165524 0 0.009482230863767439 -0.005385779566640693 0 0.0094571494588527802 -0.0056285716594080114 0 0.0093289424190600261 -0.0059684973968165524 0 0.0085560830026632818 -0.0073146749915621832 0 0.0093976273465784296 -0.0078359213886647645 0 0.0097968888045213576 -0.005224157314784825 0 0.0093289424190600261 -0.0059684973968165524 0 0.0093976273465784296 -0.0078359213886647645 0 0.0093289424190600261 -0.0059684973968165524 0 0.0085560830026632818 -0.0073146749915621832 0 0.006591132066741375 -0.0083901757574330899 0 0.009320846450725704 -0.0057675334373532257 0 0.0079376668900159927 -0.0074898739884930463 0 0.0085560830026632818 -0.0073146749915621832 0 0.0079182246327781976 -0.0090486604837123098 0 0.0069169604008674718 -0.008601366082965637 0 0.0079542041405188616 -0.007706869382351351 0 0.0079376668900159927 -0.0074898739884930463 0 0.0093976273465784296 -0.0078359213886647645 0 0.0079182246327781976 -0.0090486604837123098 0 0.0082197231721191505 -0.010799639444039902 0 0.0085560830026632818 -0.0073146749915621832 0 0.0093976273465784296 -0.0078359213886647645 0 0.0079182246327781976 -0.0090486604837123098 0 0.0079182246327781976 -0.0090486604837123098 0 0.0069169604008674718 -0.008601366082965637 0 0.0069097634046884071 -0.010191656045411362 0 0.009482230863767439 -0.005385779566640693 0 0.0095512472459388115 -0.0054648087899142632 0 0.0095662866191381403 -0.0054006304781400475 0 0.009482230863767439 -0.005385779566640693 0 0.0094571494588527802 -0.0056285716594080114 0 0.0095512472459388115 -0.0054648087899142632 0 0.0095187922416701751 -0.0054583030703190495 0 0.0094571494588527802 -0.0056285716594080114 0 0.0095512472459388115 -0.0054648087899142632 0 0.0095187922416701751 -0.0054583030703190495 0 0.0095512472459388115 -0.0054648087899142632 0 0.0095935963533520189 -0.0053938007491742762 0 0.0095512472459388115 -0.0054648087899142632 0 0.0095935963533520189 -0.0053938007491742762 0 0.0095865889088597323 -0.005419808637978845 0 0.0079376668900159927 -0.0074898739884930463 0 0.0097862992869112014 -0.006356927001683099 0 0.0095865889088597323 -0.005419808637978845 0 0.0095662866191381403 -0.0054006304781400475 0 0.0096022588783919137 -0.0053936695529663023 0 0.009482230863767439 -0.005385779566640693 0 0.0095662866191381403 -0.0054006304781400475 0 0.0095914804132660163 -0.0053760695996192577 0 0.0095512472459388115 -0.0054648087899142632 0 0.0095865889088597323 -0.005419808637978845 0 0.0095662866191381403 -0.0054006304781400475 0 0.0095662866191381403 -0.0054006304781400475 0 0.0095914804132660163 -0.0053760695996192577 0 0.0096022588783919137 -0.0053936695529663023 0 0.0079376668900159927 -0.0074898739884930463 0 0.010528582331844807 -0.010421235295492843 0 0.0089143954885877227 -0.0080172686557567867 0 0.0094716628321313973 -0.0076741219897721522 0 0.0094603759404707586 -0.0074608184652340589 0 0.0094716628321313973 -0.0076741219897721522 0 0.0094603759404707586 -0.0074608184652340589 0 0.0095563601657070868 -0.0075297918027024194 0 0.010528582331844807 -0.010421235295492843 0 0.0096227934053291064 -0.0094148744950837884 0 0.015395612028374363 -0.015666711661828928 0 0.015437753069592771 -0.014783581924258556 0 0.014296743732711361 -0.015093274607934883 0 0.005624619311349408 -0.010470729503900133 0 0.0073046281954785791 -0.01132411981422706 0 0.0069097634046884071 -0.010191656045411362 0 0.010528582331844807 -0.010421235295492843 0 0.01091338523280257 -0.013543406249356597 0 0.0073046281954785791 -0.01132411981422706 0 0.0069097634046884071 -0.010191656045411362 0 0.0082197231721191505 -0.010799639444039902 0 0.0069169604008674718 -0.008601366082965637 0 0.005624619311349408 -0.010470729503900133 0 0.0069097634046884071 -0.010191656045411362 0 0.0079182246327781976 -0.0090486604837123098 0 0.0069097634046884071 -0.010191656045411362 0 0.0082197231721191505 -0.010799639444039902 0 0.0085584494582311727 -0.0092695166968641274 0 0.0082838876646722411 -0.010638442332227197 0 0.0073046281954785791 -0.01132411981422706 0 0.0079815206933319463 -0.011197315580490658 0 0.0081736626897017956 -0.011373104202873489 0 0.0073046281954785791 -0.01132411981422706 0 0.0082197231721191505 -0.010799639444039902 0 0.0079815206933319463 -0.011197315580490658 0 0.0079815206933319463 -0.011197315580490658 0 0.0081217194036633956 -0.011196935963925363 0 0.0081736626897017956 -0.011373104202873489 0 0.0082197231721191505 -0.010799639444039902 0 0.0079815206933319463 -0.011197315580490658 0 0.0081217194036633956 -0.011196935963925363 0 0.0082197231721191505 -0.010799639444039902 0 0.0081217194036633956 -0.011196935963925363 0 0.0080752295810472049 -0.011143702372189234 0 0.0080821325030118792 -0.011327601915534981 0 0.0081217194036633956 -0.011196935963925363 0 0.0080752295810472049 -0.011143702372189234 0 0.0077782245614463185 -0.010750471403197246 0 0.0082197231721191505 -0.010799639444039902 0 0.0079902606112385102 -0.010891056898155109 0 0.0082197231721191505 -0.010799639444039902 0 0.0080752295810472049 -0.011143702372189234 0 0.0079902606112385102 -0.010891056898155109 0 0.008044809010864894 -0.010971167177117233 0 0.0080752295810472049 -0.011143702372189234 0 0.0079902606112385102 -0.010891056898155109 0 0.010258580436603115 -0.0058623606829328097 0 0.010257708896353308 -0.005953662747799824 0 0.010353522314219479 -0.0062217660340756157 0 0.010258580436603115 -0.0058623606829328097 0 0.010257708896353308 -0.005953662747799824 0 0.010127276126891162 -0.0055782597876912225 0 0.010254039154856702 -0.006068513660851647 0 0.010257708896353308 -0.005953662747799824 0 0.010334251469623267 -0.0062924151982944199 0 0.010254039154856702 -0.006068513660851647 0 0.010257708896353308 -0.005953662747799824 0 0.010181645306633158 -0.0056517800906867215 0 0.010257708896353308 -0.005953662747799824 0 0.010181645306633158 -0.0056517800906867215 0 0.010127276126891162 -0.0055782597876912225 0 0.010181645306633158 -0.0056517800906867215 0 0.010046200864404713 -0.0053612244705722838 0 0.010127276126891162 -0.0055782597876912225 0 0.0098605712316800088 -0.0052902153671011351 0 0.010046200864404713 -0.0053612244705722838 0 0.010127276126891162 -0.0055782597876912225 0 0.010035552576036263 -0.0052277724944212525 0 0.010181645306633158 -0.0056517800906867215 0 0.010046200864404713 -0.0053612244705722838 0 0.010035552576036263 -0.0052277724944212525 0 0.0099363642354208959 -0.0052183798812181371 0 0.010046200864404713 -0.0053612244705722838 0 0.010258580436603115 -0.0058623606829328097 0 0.010042263055329499 -0.005496171957007895 0 0.010127276126891162 -0.0055782597876912225 0 0.0098605712316800088 -0.0052902153671011351 0 0.010042263055329499 -0.005496171957007895 0 0.010127276126891162 -0.0055782597876912225 0 0.0097304234286876169 -0.0054074365472286988 0 0.0098892663352056365 -0.005546587320903254 0 0.009682644964596596 -0.0053597956579443827 0 0.010042263055329499 -0.005496171957007895 0 0.0101994855526073 -0.0056171843172621904 0 0.0095935963533520189 -0.0053938007491742762 0 0.0095865889088597323 -0.005419808637978845 0 0.0096272879741476428 -0.0053899693152836192 0 0.009682644964596596 -0.0053597956579443827 0 0.0095935963533520189 -0.0053938007491742762 0 0.0096272879741476428 -0.0053899693152836192 0 0.0095865889088597323 -0.005419808637978845 0 0.0096022588783919137 -0.0053936695529663023 0 0.0096272879741476428 -0.0053899693152836192 0 0.0096022588783919137 -0.0053936695529663023 0 0.0096272879741476428 -0.0053899693152836192 0 0.0096141444432162864 -0.0053903406577503893 0 0.010258580436603115 -0.0058623606829328097 0 0.0101994855526073 -0.0056171843172621904 0 0.01045455266959564 -0.0061059731330939558 0 0.0098892663352056365 -0.005546587320903254 0 0.010017163476915614 -0.0056850070082280248 0 0.010258580436603115 -0.0058623606829328097 0 0.010042263055329499 -0.005496171957007895 0 0.0101994855526073 -0.0056171843172621904 0 0.0096272879741476428 -0.0053899693152836192 0 0.0096097058535089801 -0.005395540368129041 0 0.0096141444432162864 -0.0053903406577503893 0 0.0096097058535089801 -0.005395540368129041 0 0.0096141444432162864 -0.0053903406577503893 0 0.0096187780482239159 -0.0054032323468322678 0 0.0094617335246014612 -0.0074706707973941919 0 0.0095563601657070868 -0.0075297918027024194 0 0.0099431163750438884 -0.007321379777769867 0 0.0096074512635863415 -0.0053882275955966803 0 0.0096141444432162864 -0.0053903406577503893 0 0.0096187780482239159 -0.0054032323468322678 0 0.0097862992869112014 -0.006356927001683099 0 0.0097032442417830465 -0.006393777970952458 0 0.0095914804132660163 -0.0053760695996192577 0 0.0096074512635863415 -0.0053882275955966803 0 0.0096187780482239159 -0.0054032323468322678 0 0.0094716628321313973 -0.0076741219897721522 0 0.0095563601657070868 -0.0075297918027024194 0 0.0099431163750438884 -0.007321379777769867 0 0.0096022588783919137 -0.0053936695529663023 0 0.0096074512635863415 -0.0053882275955966803 0 0.0096141444432162864 -0.0053903406577503893 0 0.0095914804132660163 -0.0053760695996192577 0 0.0096022588783919137 -0.0053936695529663023 0 0.0096074512635863415 -0.0053882275955966803 0 0.0094617335246014612 -0.0074706707973941919 0 0.0099431163750438884 -0.007321379777769867 0 0.0099093182484262434 -0.0069394416556398724 0 0.010528582331844807 -0.010421235295492843 0 0.013399449454059647 -0.010882127513909099 0 0.015395612028374363 -0.015666711661828928 0 0.015437753069592771 -0.014783581924258556 0 0.016278019089061468 -0.01463935295320134 0 0.0097032442417830465 -0.006393777970952458 0 0.010144601199722542 -0.00630970274593084 0 0.010017163476915614 -0.0056850070082280248 0 0.010144601199722542 -0.00630970274593084 0 0.0096097058535089801 -0.005395540368129041 0 0.0096187780482239159 -0.0054032323468322678 0 0.009604058164563424 -0.005433725255575758 0 0.0099431163750438884 -0.007321379777769867 0 0.010367861436547304 -0.0069714481494419969 0 0.0099093182484262434 -0.0069394416556398724 0 0.010449654665724145 -0.0064253459114927318 0 0.010353522314219479 -0.0062217660340756157 0 0.01038624806455319 -0.0064498816104139704 0 0.01045455266959564 -0.0061059731330939558 0 0.010449654665724145 -0.0064253459114927318 0 0.010353522314219479 -0.0062217660340756157 0 0.010258580436603115 -0.0058623606829328097 0 0.01045455266959564 -0.0061059731330939558 0 0.010353522314219479 -0.0062217660340756157 0 0.010407995121128277 -0.0065002987230456978 0 0.010334251469623267 -0.0062924151982944199 0 0.01038624806455319 -0.0064498816104139704 0 0.010257708896353308 -0.005953662747799824 0 0.010353522314219479 -0.0062217660340756157 0 0.010334251469623267 -0.0062924151982944199 0 0.010353522314219479 -0.0062217660340756157 0 0.010334251469623267 -0.0062924151982944199 0 0.01038624806455319 -0.0064498816104139704 0 0.010407995121128277 -0.0065002987230456978 0 0.01038624806455319 -0.0064498816104139704 0 0.010468376742423497 -0.0065421914638318212 0 0.01038624806455319 -0.0064498816104139704 0 0.010468376742423497 -0.0065421914638318212 0 0.010402023484984365 -0.0064881755093050943 0 0.010468376742423497 -0.0065421914638318212 0 0.010402023484984365 -0.0064881755093050943 0 0.010656432536020194 -0.0065499962040487933 0 0.010538688752911645 -0.0064953379327080127 0 0.010550092174841052 -0.0063452751600013482 0 0.010713047780716781 -0.0063365091149177235 0 0.010513580526345184 -0.006493172812381905 0 0.0106769519539563 -0.0063543467546681243 0 0.010550092174841052 -0.0063452751600013482 0 0.010514229655953158 -0.0061217544146467276 0 0.010713047780716781 -0.0063365091149177235 0 0.010538688752911645 -0.0064953379327080127 0 0.010550092174841052 -0.0063452751600013482 0 0.010433555793989602 -0.0064485216749127355 0 0.010550092174841052 -0.0063452751600013482 0 0.010433555793989602 -0.0064485216749127355 0 0.010514229655953158 -0.0061217544146467276 0 0.010433555793989602 -0.0064485216749127355 0 0.01030362057102034 -0.006426006062323947 0 0.010514229655953158 -0.0061217544146467276 0 0.01324516206614555 -0.010127199171625455 0 0.015906080157472007 -0.010079028524997298 0 0.010367861436547304 -0.0069714481494419969 0 0.010433555793989602 -0.0064485216749127355 0 0.01030362057102034 -0.006426006062323947 0 0.010144601199722542 -0.00630970274593084 0 0.010437387138561785 -0.0066399553580456403 0 0.010144601199722542 -0.00630970274593084 0 0.010513580526345184 -0.006493172812381905 0 0.010388433785453524 -0.0065953445382537501 0 0.010538688752911645 -0.0064953379327080127 0 0.010433555793989602 -0.0064485216749127355 0 0.010449654665724145 -0.0064253459114927318 0 0.01038624806455319 -0.0064498816104139704 0 0.010402023484984365 -0.0064881755093050943 0 0.016278019089061468 -0.01463935295320134 0 0.016258699422752224 -0.013930282706817024 0 0.016886389334694381 -0.013787121426516665 0 0.013399449454059647 -0.010882127513909099 0 0.01324516206614555 -0.010127199171625455 0 0.010367861436547304 -0.0069714481494419969 0 0.0099093182484262434 -0.0069394416556398724 0 0.01030362057102034 -0.006426006062323947 0 0.015852044565770291 -0.014371606928045616 0 0.016258699422752224 -0.013930282706817024 0 0.015585212069148284 -0.013981424397664978 0 0.015437753069592771 -0.014783581924258556 0 0.015852044565770291 -0.014371606928045616 0 0.016278019089061468 -0.01463935295320134 0 0.015852044565770291 -0.014371606928045616 0 0.016278019089061468 -0.01463935295320134 0 0.016258699422752224 -0.013930282706817024 0 0.016258699422752224 -0.013930282706817024 0 0.016183545033524257 -0.013387151685400299 0 0.015585212069148284 -0.013981424397664978 0 0.016258699422752224 -0.013930282706817024 0 0.016620946865919573 -0.013483859857351231 0 0.016183545033524257 -0.013387151685400299 0 0.016886389334694381 -0.013787121426516665 0 0.016620946865919573 -0.013483859857351231 0 0.016895071885029662 -0.013279965720495758 0 0.016258699422752224 -0.013930282706817024 0 0.016886389334694381 -0.013787121426516665 0 0.016620946865919573 -0.013483859857351231 0 0.016620946865919573 -0.013483859857351231 0 0.016183545033524257 -0.013387151685400299 0 0.016616635703321326 -0.013034680795680386 0 0.016620946865919573 -0.013483859857351231 0 0.016616635703321326 -0.013034680795680386 0 0.016895071885029662 -0.013279965720495758 0 0.016616635703321326 -0.013034680795680386 0 0.016997315952036608 -0.013063361743643651 0 0.016895071885029662 -0.013279965720495758 0 0.016183545033524257 -0.013387151685400299 0 0.016097309294601268 -0.012970234097691076 0 0.016616635703321326 -0.013034680795680386 0 0.016183545033524257 -0.013387151685400299 0 0.016097309294601268 -0.012970234097691076 0 0.015636754637125962 -0.013170544274410318 0 0.016097309294601268 -0.012970234097691076 0 0.016301080870157896 -0.012746786833092176 0 0.016616635703321326 -0.013034680795680386 0 0.016097309294601268 -0.012970234097691076 0 0.016301080870157896 -0.012746786833092176 0 0.015630884065776302 -0.012627484246536957 0 0.016301080870157896 -0.012746786833092176 0 0.016616635703321326 -0.013034680795680386 0 0.016716021768695584 -0.012753416834672016 0 0.016616635703321326 -0.013034680795680386 0 0.016972871164652556 -0.012887620783125976 0 0.016716021768695584 -0.012753416834672016 0 0.016616635703321326 -0.013034680795680386 0 0.016972871164652556 -0.012887620783125976 0 0.016997315952036608 -0.013063361743643651 0 0.016972871164652556 -0.012887620783125976 0 0.016997315952036608 -0.013063361743643651 0 0.017186800515589681 -0.012952354670685834 0 0.016997315952036608 -0.013063361743643651 0 0.017186800515589681 -0.012952354670685834 0 0.01722121729171756 -0.013171159125738798 0 0.016972871164652556 -0.012887620783125976 0 0.017186800515589681 -0.012952354670685834 0 0.017252253092855128 -0.012823635442578125 0 0.017186800515589681 -0.012952354670685834 0 0.01722121729171756 -0.013171159125738798 0 0.01741958648010683 -0.012842405539313199 0 0.015906080157472007 -0.010079028524997298 0 0.018344866624077718 -0.010574904790562055 0 0.017186800515589681 -0.012952354670685834 0 0.017252253092855128 -0.012823635442578125 0 0.01741958648010683 -0.012842405539313199 0 0.015906080157472007 -0.010079028524997298 0 0.014210809393974878 -0.0063054022586250865 0 0.016997315952036608 -0.013063361743643651 0 0.01722121729171756 -0.013171159125738798 0 0.016895071885029662 -0.013279965720495758 0 0.016886389334694381 -0.013787121426516665 0 0.017362128023524964 -0.013152380443077117 0 0.016895071885029662 -0.013279965720495758 0 0.015906080157472007 -0.010079028524997298 0 0.017185080989367017 -0.013177342262328884 0 0.011448008924163137 -0.01339726536991726 0 0.012941176808973536 -0.014317076772295496 0 0.012948963943723938 -0.013510373615965207 0 0.010044587251846367 -0.013806788642656073 0 0.011287375061040956 -0.013120402598822399 0 0.012446153998201034 -0.014236325070692212 0 0.0097061728228286931 -0.01279686153149449 0 0.012910620070845683 -0.013906974937323797 0 0.011287375061040956 -0.013120402598822399 0 0.012446153998201034 -0.014236325070692212 0 0.012966639256049042 -0.012901669828200657 0 0.0080621672970139311 -0.011005533214002041 0 0.0080821325030118792 -0.011327601915534981 0 0.0081736626897017956 -0.011373104202873489 0 0.0097061728228286931 -0.01279686153149449 0 0.010457712687831626 -0.012698790200164114 0 0.0080821325030118792 -0.011327601915534981 0 0.0081217194036633956 -0.011196935963925363 0 0.0081736626897017956 -0.011373104202873489 0 0.012941176808973536 -0.014317076772295496 0 0.012948963943723938 -0.013510373615965207 0 0.014330455540423276 -0.013688251820571569 0 0.014296743732711361 -0.015093274607934883 0 0.012941176808973536 -0.014317076772295496 0 0.014330455540423276 -0.013688251820571569 0 0.01091338523280257 -0.013543406249356597 0 0.010457712687831626 -0.012698790200164114 0 0.012910620070845683 -0.013906974937323797 0 0.01437947321232444 -0.013938057158596787 0 0.012446153998201034 -0.014236325070692212 0 0.014584575896682316 -0.014199277525689993 0 0.012966639256049042 -0.012901669828200657 0 0.014296743732711361 -0.015093274607934883 0 0.014330455540423276 -0.013688251820571569 0 0.014933558357480206 -0.014388326514353757 0 0.015437753069592771 -0.014783581924258556 0 0.014296743732711361 -0.015093274607934883 0 0.014933558357480206 -0.014388326514353757 0 0.014330455540423276 -0.013688251820571569 0 0.014933558357480206 -0.014388326514353757 0 0.015585212069148284 -0.013981424397664978 0 0.015437753069592771 -0.014783581924258556 0 0.014933558357480206 -0.014388326514353757 0 0.015585212069148284 -0.013981424397664978 0 0.015437753069592771 -0.014783581924258556 0 0.015852044565770291 -0.014371606928045616 0 0.015585212069148284 -0.013981424397664978 0 0.016183545033524257 -0.013387151685400299 0 0.015585212069148284 -0.013981424397664978 0 0.015636754637125962 -0.013170544274410318 0 0.01437947321232444 -0.013938057158596787 0 0.015484963507108519 -0.013984707051279627 0 0.014584575896682316 -0.014199277525689993 0 0.015585212069148284 -0.013981424397664978 0 0.015636754637125962 -0.013170544274410318 0 0.015636754637125962 -0.013170544274410318 0 0.015630884065776302 -0.012627484246536957 0 0.014767708787315337 -0.012494029481774286 0 0.016097309294601268 -0.012970234097691076 0 0.015636754637125962 -0.013170544274410318 0 0.015630884065776302 -0.012627484246536957 0 0.015630884065776302 -0.012627484246536957 0 0.014767708787315337 -0.012494029481774286 0 0.015137389730141046 -0.012492010213176148 0 0.014584575896682316 -0.014199277525689993 0 0.015636754637125962 -0.013170544274410318 0 0.014767708787315337 -0.012494029481774286 0 0.014584575896682316 -0.014199277525689993 0 0.014767708787315337 -0.012494029481774286 0 0.012966639256049042 -0.012901669828200657 0 0.014767708787315337 -0.012494029481774286 0 0.012966639256049042 -0.012901669828200657 0 0.011839481718234192 -0.011117023480394398 0 0.014767708787315337 -0.012494029481774286 0 0.011839481718234192 -0.011117023480394398 0 0.012578462819973204 -0.0092391546049224414 0 0.014655902692756361 -0.012405584547752996 0 0.014024480752611682 -0.010853139328724877 0 0.014767708787315337 -0.012494029481774286 0 0.014962048582651037 -0.012483582794144321 0 0.015137389730141046 -0.012492010213176148 0 0.010097670301209677 -0.0095067143861379093 0 0.0098202799658969886 -0.010742317824022858 0 0.011839481718234192 -0.011117023480394398 0 0.0098202799658969886 -0.010742317824022858 0 0.011839481718234192 -0.011117023480394398 0 0.010990983794215007 -0.011936591441691772 0 0.010097670301209677 -0.0095067143861379093 0 0.011839481718234192 -0.011117023480394398 0 0.012578462819973204 -0.0092391546049224414 0 0.011287375061040956 -0.013120402598822399 0 0.012966639256049042 -0.012901669828200657 0 0.010990983794215007 -0.011936591441691772 0 0.012966639256049042 -0.012901669828200657 0 0.011839481718234192 -0.011117023480394398 0 0.010990983794215007 -0.011936591441691772 0 0.010169121314283684 -0.012729293882633606 0 0.011287375061040956 -0.013120402598822399 0 0.010990983794215007 -0.011936591441691772 0 0.010872107956113536 -0.0097041241559080692 0 0.014024480752611682 -0.010853139328724877 0 0.014453972140372737 -0.011968064944528341 0 0.014962048582651037 -0.012483582794144321 0 0.014869965907927715 -0.012114938133679039 0 0.014453972140372737 -0.011968064944528341 0 0.014869965907927715 -0.012114938133679039 0 0.014456877832916295 -0.01192341600158975 0 0.014592257012987345 -0.012181630515684704 0 0.014581509753746568 -0.011745589685630308 0 0.014003361522597128 -0.011919795517243799 0 0.0088650816311515029 -0.0099288704949067243 0 0.010872107956113536 -0.0097041241559080692 0 0.010181598690688935 -0.010569847727793413 0 0.010437998441679745 -0.010915733390373508 0 0.010459181315977825 -0.010705921671689411 0 0.010872107956113536 -0.0097041241559080692 0 0.011211266059286185 -0.010869874663644495 0 0.015226384078551937 -0.012399575649285613 0 0.011211266059286185 -0.010869874663644495 0 0.010097670301209677 -0.0095067143861379093 0 0.010459239895663124 -0.0064512966340759025 0 0.012578462819973204 -0.0092391546049224414 0 0.014962048582651037 -0.012483582794144321 0 0.014869965907927715 -0.012114938133679039 0 0.015138254183255389 -0.012348533921684821 0 0.014962048582651037 -0.012483582794144321 0 0.015138254183255389 -0.012348533921684821 0 0.015137389730141046 -0.012492010213176148 0 0.015226384078551937 -0.012399575649285613 0 0.01491135641647931 -0.012236168280490376 0 0.014592257012987345 -0.012181630515684704 0 0.015118243064277677 -0.01198963448865519 0 0.015138254183255389 -0.012348533921684821 0 0.014592257012987345 -0.012181630515684704 0 0.015118243064277677 -0.01198963448865519 0 0.014581509753746568 -0.011745589685630308 0 0.015118243064277677 -0.01198963448865519 0 0.01549082668214513 -0.012207319131154535 0 0.015432913089910036 -0.011929337940471607 0 0.01549082668214513 -0.012207319131154535 0 0.015642378492391883 -0.012061387225003871 0 0.015432913089910036 -0.011929337940471607 0 0.01549082668214513 -0.012207319131154535 0 0.015138254183255389 -0.012348533921684821 0 0.015475889255224615 -0.012421411525324806 0 0.015118243064277677 -0.01198963448865519 0 0.01549082668214513 -0.012207319131154535 0 0.015138254183255389 -0.012348533921684821 0 0.015138254183255389 -0.012348533921684821 0 0.015137389730141046 -0.012492010213176148 0 0.015475889255224615 -0.012421411525324806 0 0.015630884065776302 -0.012627484246536957 0 0.015137389730141046 -0.012492010213176148 0 0.015475889255224615 -0.012421411525324806 0 0.015630884065776302 -0.012627484246536957 0 0.015475889255224615 -0.012421411525324806 0 0.015910427992106253 -0.012474125914962393 0 0.015630884065776302 -0.012627484246536957 0 0.015910427992106253 -0.012474125914962393 0 0.016193697877933382 -0.012589611201154078 0 0.015475889255224615 -0.012421411525324806 0 0.015910427992106253 -0.012474125914962393 0 0.015746364264087931 -0.012323874888969357 0 0.015910427992106253 -0.012474125914962393 0 0.016062370758524906 -0.012315099910486467 0 0.016343215394884331 -0.012453748401035778 0 0.015910427992106253 -0.012474125914962393 0 0.015746364264087931 -0.012323874888969357 0 0.016062370758524906 -0.012315099910486467 0 0.01549082668214513 -0.012207319131154535 0 0.015475889255224615 -0.012421411525324806 0 0.015746364264087931 -0.012323874888969357 0 0.01549082668214513 -0.012207319131154535 0 0.015746364264087931 -0.012323874888969357 0 0.015809334900731265 -0.012172773664660934 0 0.015746364264087931 -0.012323874888969357 0 0.015809334900731265 -0.012172773664660934 0 0.016062370758524906 -0.012315099910486467 0 0.01549082668214513 -0.012207319131154535 0 0.015809334900731265 -0.012172773664660934 0 0.015642378492391883 -0.012061387225003871 0 0.015809334900731265 -0.012172773664660934 0 0.015642378492391883 -0.012061387225003871 0 0.015850697423065059 -0.01192577184079697 0 0.015809334900731265 -0.012172773664660934 0 0.016019687636251612 -0.012136559501945756 0 0.015850697423065059 -0.01192577184079697 0 0.016019687636251612 -0.012136559501945756 0 0.016062370758524906 -0.012315099910486467 0 0.01649938751706263 -0.012310260260294551 0 0.015809334900731265 -0.012172773664660934 0 0.016019687636251612 -0.012136559501945756 0 0.016062370758524906 -0.012315099910486467 0 0.014281358080396904 -0.014229072183394748 0 0.014087704036630557 -0.013151598270061045 0 0.015102787027840958 -0.013692389579585629 0 0.015425397308834635 -0.012583986862410624 0 0.016428907483751632 -0.012471002818359505 0 0.016019687636251612 -0.012136559501945756 0 0.015966679765746426 -0.011864736504657808 0 0.01649938751706263 -0.012310260260294551 0 0.016019687636251612 -0.012136559501945756 0 0.015966679765746426 -0.011864736504657808 0 0.015850697423065059 -0.01192577184079697 0 0.015425397308834635 -0.012583986862410624 0 0.015576926929915734 -0.012456188570739494 0 0.015642378492391883 -0.012061387225003871 0 0.015850697423065059 -0.01192577184079697 0 0.015432913089910036 -0.011929337940471607 0 0.013062993298112243 -0.012607941316777027 0 0.014087704036630557 -0.013151598270061045 0 0.012975857371164724 -0.013797767041353744 0 0.014281358080396904 -0.014229072183394748 0 0.014087704036630557 -0.013151598270061045 0 0.012975857371164724 -0.013797767041353744 0 0.015425397308834635 -0.012583986862410624 0 0.014286844647367179 -0.012801351501824754 0 0.015931942375893186 -0.011875923696614587 0 0.015850697423065059 -0.01192577184079697 0 0.015030247250343395 -0.011491745467956156 0 0.015850697423065059 -0.01192577184079697 0 0.015432913089910036 -0.011929337940471607 0 0.015030247250343395 -0.011491745467956156 0 0.015118243064277677 -0.01198963448865519 0 0.015432913089910036 -0.011929337940471607 0 0.015030247250343395 -0.011491745467956156 0 0.014581509753746568 -0.011745589685630308 0 0.015030247250343395 -0.011491745467956156 0 0.01407603295400483 -0.01115659113938396 0 0.015118243064277677 -0.01198963448865519 0 0.014581509753746568 -0.011745589685630308 0 0.015030247250343395 -0.011491745467956156 0 0.012184185750271727 -0.012808096056271675 0 0.012975857371164724 -0.013797767041353744 0 0.011663323584632056 -0.013356234986774787 0 0.013062993298112243 -0.012607941316777027 0 0.012184185750271727 -0.012808096056271675 0 0.012975857371164724 -0.013797767041353744 0 0.014286844647367179 -0.012801351501824754 0 0.011268515083290333 -0.011834042647506647 0 0.011268515083290333 -0.011834042647506647 0 0.011211266059286185 -0.010869874663644495 0 0.0088102982406175149 -0.011895410807816878 0 0.0091771526213932121 -0.010278371783942045 0 0.0089892231999720105 -0.011983219942111966 0 0.014581509753746568 -0.011745589685630308 0 0.01407603295400483 -0.01115659113938396 0 0.014003361522597128 -0.011919795517243799 0 0.0088650816311515029 -0.0099288704949067243 0 0.011211266059286185 -0.010869874663644495 0 0.017133586564589347 -0.012752517461211518 0 0.017377244854993947 -0.012863449416885902 0 0.017303230359110321 -0.012789338078567254 0 0.017133586564589347 -0.012752517461211518 0 0.017113064442046071 -0.012739411154269036 0 0.017377244854993947 -0.012863449416885902 0 0.017133586564589347 -0.012752517461211518 0 0.017113064442046071 -0.012739411154269036 0 0.016992603588033301 -0.012690465955106322 0 0.017481622199611045 -0.012849174176806845 0 0.017303230359110321 -0.012789338078567254 0 0.017397099053675268 -0.012763378024334226 0 0.017377244854993947 -0.012863449416885902 0 0.017481622199611045 -0.012849174176806845 0 0.017303230359110321 -0.012789338078567254 0 0.017397099053675268 -0.012763378024334226 0 0.017252253092855128 -0.012823635442578125 0 0.01741958648010683 -0.012842405539313199 0 0.017303230359110321 -0.012789338078567254 0 0.017397099053675268 -0.012763378024334226 0 0.017252253092855128 -0.012823635442578125 0 0.016972871164652556 -0.012887620783125976 0 0.017252253092855128 -0.012823635442578125 0 0.017057957289218183 -0.012774128200030198 0 0.017303230359110321 -0.012789338078567254 0 0.017252253092855128 -0.012823635442578125 0 0.017057957289218183 -0.012774128200030198 0 0.017133586564589347 -0.012752517461211518 0 0.017303230359110321 -0.012789338078567254 0 0.017057957289218183 -0.012774128200030198 0 0.017133586564589347 -0.012752517461211518 0 0.017057957289218183 -0.012774128200030198 0 0.016845415043690901 -0.012668410439747424 0 0.016972871164652556 -0.012887620783125976 0 0.017057957289218183 -0.012774128200030198 0 0.016716021768695584 -0.012753416834672016 0 0.016716021768695584 -0.012753416834672016 0 0.016523382347415523 -0.012604426275614653 0 0.016845415043690901 -0.012668410439747424 0 0.017057957289218183 -0.012774128200030198 0 0.016716021768695584 -0.012753416834672016 0 0.016845415043690901 -0.012668410439747424 0 0.016301080870157896 -0.012746786833092176 0 0.015630884065776302 -0.012627484246536957 0 0.016193697877933382 -0.012589611201154078 0 0.016301080870157896 -0.012746786833092176 0 0.016523382347415523 -0.012604426275614653 0 0.016193697877933382 -0.012589611201154078 0 0.016301080870157896 -0.012746786833092176 0 0.016716021768695584 -0.012753416834672016 0 0.016523382347415523 -0.012604426275614653 0 0.015910427992106253 -0.012474125914962393 0 0.016193697877933382 -0.012589611201154078 0 0.016343215394884331 -0.012453748401035778 0 0.016523382347415523 -0.012604426275614653 0 0.016193697877933382 -0.012589611201154078 0 0.016343215394884331 -0.012453748401035778 0 0.016523382347415523 -0.012604426275614653 0 0.016343215394884331 -0.012453748401035778 0 0.016647211399590849 -0.012513472385113666 0 0.016647211399590849 -0.012513472385113666 0 0.01649938751706263 -0.012310260260294551 0 0.016721700557595205 -0.012501113510090426 0 0.016062370758524906 -0.012315099910486467 0 0.016343215394884331 -0.012453748401035778 0 0.01649938751706263 -0.012310260260294551 0 0.016343215394884331 -0.012453748401035778 0 0.016647211399590849 -0.012513472385113666 0 0.01649938751706263 -0.012310260260294551 0 0.016845415043690901 -0.012668410439747424 0 0.016992603588033301 -0.012690465955106322 0 0.01687550479955096 -0.012614587145367723 0 0.017133586564589347 -0.012752517461211518 0 0.016845415043690901 -0.012668410439747424 0 0.016992603588033301 -0.012690465955106322 0 0.016647211399590849 -0.012513472385113666 0 0.016845415043690901 -0.012668410439747424 0 0.01687550479955096 -0.012614587145367723 0 0.016523382347415523 -0.012604426275614653 0 0.016647211399590849 -0.012513472385113666 0 0.016845415043690901 -0.012668410439747424 0 0.016647211399590849 -0.012513472385113666 0 0.01687550479955096 -0.012614587145367723 0 0.016721700557595205 -0.012501113510090426 0 0.017113064442046071 -0.012739411154269036 0 0.016992603588033301 -0.012690465955106322 0 0.01687550479955096 -0.012614587145367723 0 0.017113064442046071 -0.012739411154269036 0 0.016929137300697505 -0.012632737758336387 0 0.017028218383651289 -0.012705514456778788 0 0.017113064442046071 -0.012739411154269036 0 0.01687550479955096 -0.012614587145367723 0 0.016929137300697505 -0.012632737758336387 0 0.016929137300697505 -0.012632737758336387 0 0.016848368204708513 -0.012578154963041266 0 0.017028218383651289 -0.012705514456778788 0 0.01687550479955096 -0.012614587145367723 0 0.016929137300697505 -0.012632737758336387 0 0.016721700557595205 -0.012501113510090426 0 0.016929137300697505 -0.012632737758336387 0 0.016848368204708513 -0.012578154963041266 0 0.016721700557595205 -0.012501113510090426 0 0.016848368204708513 -0.012578154963041266 0 0.017028218383651289 -0.012705514456778788 0 0.016770056411531571 -0.012517957227865355 0 0.015425397308834635 -0.012583986862410624 0 0.015160452544371204 -0.01384219966779451 0 0.016539565258598711 -0.01236334067868286 0 0.016613699375096606 -0.01243340194046051 0 0.016683569991433743 -0.012470931220982142 0 0.016539565258598711 -0.01236334067868286 0 0.01649938751706263 -0.012310260260294551 0 0.016613699375096606 -0.01243340194046051 0 0.01649938751706263 -0.012310260260294551 0 0.016613699375096606 -0.01243340194046051 0 0.016721700557595205 -0.012501113510090426 0 0.016613699375096606 -0.01243340194046051 0 0.016721700557595205 -0.012501113510090426 0 0.016736485500856921 -0.012507386694547045 0 0.016848368204708513 -0.012578154963041266 0 0.016721700557595205 -0.012501113510090426 0 0.016736485500856921 -0.012507386694547045 0 0.016613699375096606 -0.01243340194046051 0 0.016770056411531571 -0.012517957227865355 0 0.016683569991433743 -0.012470931220982142 0 0.016848368204708513 -0.012578154963041266 0 0.016736485500856921 -0.012507386694547045 0 0.016770056411531571 -0.012517957227865355 0 0.015449606362164003 -0.013800429389921825 0 0.015160452544371204 -0.01384219966779451 0 0.016613699375096606 -0.01243340194046051 0 0.016736485500856921 -0.012507386694547045 0 0.016770056411531571 -0.012517957227865355 0 0.013476719854366317 -0.015397622369006082 0 0.012797476127907768 -0.01578519142017152 0 0.013534131600216295 -0.016157786383363803 0 0.013311884898563215 -0.014545848238704679 0 0.015160452544371204 -0.01384219966779451 0 0.016770056411531571 -0.012517957227865355 0 0.016739671235362359 -0.012494266621844724 0 0.017181424689674048 -0.012823770234042004 0 0.013476719854366317 -0.015397622369006082 0 0.013534131600216295 -0.016157786383363803 0 0.01430305497332607 -0.015662486316312969 0 0.015160452544371204 -0.01384219966779451 0 0.015582212915283878 -0.01417803231087598 0 0.017028218383651289 -0.012705514456778788 0 0.016770056411531571 -0.012517957227865355 0 0.017181424689674048 -0.012823770234042004 0 0.017028218383651289 -0.012705514456778788 0 0.017181424689674048 -0.012823770234042004 0 0.017352986357296343 -0.012922224028243074 0 0.017181424689674048 -0.012823770234042004 0 0.017352986357296343 -0.012922224028243074 0 0.0176131900877066 -0.013172971781344529 0 0.017113064442046071 -0.012739411154269036 0 0.017377244854993947 -0.012863449416885902 0 0.017352986357296343 -0.012922224028243074 0 0.017113064442046071 -0.012739411154269036 0 0.017028218383651289 -0.012705514456778788 0 0.017352986357296343 -0.012922224028243074 0 0.017377244854993947 -0.012863449416885902 0 0.017481622199611045 -0.012849174176806845 0 0.017671777235545909 -0.01310935605256645 0 0.017377244854993947 -0.012863449416885902 0 0.017352986357296343 -0.012922224028243074 0 0.017671777235545909 -0.01310935605256645 0 0.017352986357296343 -0.012922224028243074 0 0.017671777235545909 -0.01310935605256645 0 0.0176131900877066 -0.013172971781344529 0 0.017756250795249468 -0.012686749975030947 0 0.0176131900877066 -0.013172971781344529 0 0.018205876944772145 -0.013706277094985311 0 0.017671777235545909 -0.01310935605256645 0 0.0176131900877066 -0.013172971781344529 0 0.018205876944772145 -0.013706277094985311 0 0.018205876944772145 -0.013706277094985311 0 0.017020007387621768 -0.013750673838559725 0 0.017467272246299795 -0.013040184759871553 0 0.017737712342329296 -0.016016062941691927 0 0.018205876944772145 -0.013706277094985311 0 0.017020007387621768 -0.013750673838559725 0 0.017737712342329296 -0.016016062941691927 0 0.017020007387621768 -0.013750673838559725 0 0.015565495818600717 -0.014480389593205382 0 0.017020007387621768 -0.013750673838559725 0 0.017467272246299795 -0.013040184759871553 0 0.016553122440841273 -0.012785248111830847 0 0.017671777235545909 -0.01310935605256645 0 0.018205876944772145 -0.013706277094985311 0 0.017467272246299795 -0.013040184759871553 0 0.017481622199611045 -0.012849174176806845 0 0.017671777235545909 -0.01310935605256645 0 0.017467272246299795 -0.013040184759871553 0 0.017481622199611045 -0.012849174176806845 0 0.017467272246299795 -0.013040184759871553 0 0.01729033357863179 -0.012616989984269663 0 0.017481622199611045 -0.012849174176806845 0 0.017397099053675268 -0.012763378024334226 0 0.01729033357863179 -0.012616989984269663 0 0.017467272246299795 -0.013040184759871553 0 0.01729033357863179 -0.012616989984269663 0 0.016553122440841273 -0.012785248111830847 0 0.017365190748853801 -0.011313056637307643 0 0.016433399825573056 -0.012238295548946097 0 0.017616100157880319 -0.0098899718685108266 0 0.015997583296938896 -0.0101808383587489 0 0.016432659847863906 -0.011597380762221377 0 0.017616100157880319 -0.0098899718685108266 0 0.017730262805584235 -0.008640217389773993 0 0.016887114225576965 -0.0086307718559300185 0 0.017616100157880319 -0.0098899718685108266 0 0.015997583296938896 -0.0101808383587489 0 0.016887114225576965 -0.0086307718559300185 0 0.017397099053675268 -0.012763378024334226 0 0.01729033357863179 -0.012616989984269663 0 0.01741958648010683 -0.012842405539313199 0 0.017365190748853801 -0.011313056637307643 0 0.018344866624077718 -0.010574904790562055 0 0.017616100157880319 -0.0098899718685108266 0 0.017730262805584235 -0.008640217389773993 0 0.018586691933346583 -0.0084793950050736037 0 0.014554531749819645 -0.0098726424709241582 0 0.014442968926391228 -0.0087744349792552682 0 0.013329591498831202 -0.0092712203936215383 0 0.014554531749819645 -0.0098726424709241582 0 0.014442968926391228 -0.0087744349792552682 0 0.015606688947292974 -0.0089876097530095529 0 0.015606688947292974 -0.0089876097530095529 0 0.015997583296938896 -0.0101808383587489 0 0.016887114225576965 -0.0086307718559300185 0 0.014554531749819645 -0.0098726424709241582 0 0.015606688947292974 -0.0089876097530095529 0 0.015997583296938896 -0.0101808383587489 0 0.015997583296938896 -0.0101808383587489 0 0.014423062710631686 -0.01165932404890066 0 0.016432659847863906 -0.011597380762221377 0 0.014554531749819645 -0.0098726424709241582 0 0.015997583296938896 -0.0101808383587489 0 0.014423062710631686 -0.01165932404890066 0 0.014554531749819645 -0.0098726424709241582 0 0.014423062710631686 -0.01165932404890066 0 0.013196983063456203 -0.010701159775042671 0 0.014423062710631686 -0.01165932404890066 0 0.016432659847863906 -0.011597380762221377 0 0.014992548463272925 -0.013563957234713382 0 0.014423062710631686 -0.01165932404890066 0 0.014992548463272925 -0.013563957234713382 0 0.013155179829755552 -0.013020560202551573 0 0.016433399825573056 -0.012238295548946097 0 0.015081886742528507 -0.013527029936660995 0 0.017020007387621768 -0.013750673838559725 0 0.016553122440841273 -0.012785248111830847 0 0.016198410271721791 -0.013546342470815719 0 0.016553122440841273 -0.012785248111830847 0 0.016198410271721791 -0.013546342470815719 0 0.014992548463272925 -0.013563957234713382 0 0.017020007387621768 -0.013750673838559725 0 0.016198410271721791 -0.013546342470815719 0 0.015565495818600717 -0.014480389593205382 0 0.016198410271721791 -0.013546342470815719 0 0.015565495818600717 -0.014480389593205382 0 0.014992548463272925 -0.013563957234713382 0 0.017034341680340494 -0.015736047717512067 0 0.015676421501406003 -0.015229877084985603 0 0.015565495818600717 -0.014480389593205382 0 0.014992548463272925 -0.013563957234713382 0 0.013155179829755552 -0.013020560202551573 0 0.01858723454964192 -0.016934193362902049 0 0.018327371214878051 -0.017037689578828469 0 0.018796979819835646 -0.017168044902701563 0 0.018832058230354439 -0.01681035442719914 0 0.01858723454964192 -0.016934193362902049 0 0.018796979819835646 -0.017168044902701563 0 0.018832058230354439 -0.01681035442719914 0 0.019231202784432345 -0.017039150532767569 0 0.018796979819835646 -0.017168044902701563 0 0.019279059896351314 -0.016079035172648599 0 0.019726737986243095 -0.016150038382608936 0 0.019726737986243095 -0.016150038382608936 0 0.016475370613727735 -0.013318468737774262 0 0.012215277799234455 -0.011628003085701744 0 0.013155179829755552 -0.013020560202551573 0 0.010539570508819061 -0.011611559765311452 0 0.015676421501406003 -0.015229877084985603 0 0.016475370613727735 -0.013318468737774262 0 0.019231202784432345 -0.017039150532767569 0 0.018796979819835646 -0.017168044902701563 0 0.019274267757962638 -0.01734268651296781 0 0.012215277799234455 -0.011628003085701744 0 0.013252693681846834 -0.011750823308518522 0 0.013155179829755552 -0.013020560202551573 0 0.014423062710631686 -0.01165932404890066 0 0.013252693681846834 -0.011750823308518522 0 0.013155179829755552 -0.013020560202551573 0 0.018863650698875131 -0.015474155838649679 0 0.018601370433193883 -0.014021067149433984 0 0.019152042630551671 -0.013636965631567306 0 0.018863650698875131 -0.015474155838649679 0 0.019814960790270869 -0.014391087297227967 0 0.019152042630551671 -0.013636965631567306 0 0.019814960790270869 -0.014391087297227967 0 0.0196288970918423 -0.012863926169999731 0 0.019152042630551671 -0.013636965631567306 0 0.0196288970918423 -0.012863926169999731 0 0.019152042630551671 -0.013636965631567306 0 0.019452691379607111 -0.012764036274385259 0 0.019152042630551671 -0.013636965631567306 0 0.018990624646490484 -0.012893022963984905 0 0.019452691379607111 -0.012764036274385259 0 0.019152042630551671 -0.013636965631567306 0 0.01861903121795612 -0.012897268953519676 0 0.018990624646490484 -0.012893022963984905 0 0.018601370433193883 -0.014021067149433984 0 0.019152042630551671 -0.013636965631567306 0 0.01861903121795612 -0.012897268953519676 0 0.018805731124786697 -0.012401171540080646 0 0.01861903121795612 -0.012897268953519676 0 0.018990624646490484 -0.012893022963984905 0 0.018805731124786697 -0.012401171540080646 0 0.018990624646490484 -0.012893022963984905 0 0.019036855799515324 -0.012470571800287903 0 0.018805731124786697 -0.012401171540080646 0 0.019036855799515324 -0.012470571800287903 0 0.018912951042370552 -0.012270946149673488 0 0.018990624646490484 -0.012893022963984905 0 0.019036855799515324 -0.012470571800287903 0 0.019174384184723132 -0.012667204120540855 0 0.016475370613727735 -0.013318468737774262 0 0.014234828410441238 -0.010644826986467626 0 0.010539570508819061 -0.011611559765311452 0 0.0098913106290276307 -0.0090132475029447174 0 0.010830684553107804 -0.010675017799982769 0 0.019540297610416039 -0.012790470272440832 0 0.019246713512663289 -0.012454567978294822 0 0.019154320039874797 -0.012228529696992138 0 0.019036855799515324 -0.012470571800287903 0 0.019246713512663289 -0.012454567978294822 0 0.019110679179934528 -0.012350914987177178 0 0.019036855799515324 -0.012470571800287903 0 0.019246713512663289 -0.012454567978294822 0 0.019174384184723132 -0.012667204120540855 0 0.018990624646490484 -0.012893022963984905 0 0.019174384184723132 -0.012667204120540855 0 0.019452691379607111 -0.012764036274385259 0 0.019246713512663289 -0.012454567978294822 0 0.019174384184723132 -0.012667204120540855 0 0.019351325566855867 -0.012651452447784265 0 0.019174384184723132 -0.012667204120540855 0 0.019351325566855867 -0.012651452447784265 0 0.019452691379607111 -0.012764036274385259 0 0.019540297610416039 -0.012790470272440832 0 0.019246713512663289 -0.012454567978294822 0 0.019351325566855867 -0.012651452447784265 0 0.019540297610416039 -0.012790470272440832 0 0.019351325566855867 -0.012651452447784265 0 0.019452691379607111 -0.012764036274385259 0 0.016475370613727735 -0.013318468737774262 0 0.017234005765887392 -0.013524432343531243 0 0.0098913106290276307 -0.0090132475029447174 0 0.010830684553107804 -0.010675017799982769 0 0.010798326919235244 -0.0099776044882810191 0 0.010756934930509407 -0.0092691606129575946 0 0.0098913106290276307 -0.0090132475029447174 0 0.010798326919235244 -0.0099776044882810191 0 0.010756934930509407 -0.0092691606129575946 0 0.010487563070952324 -0.0088256965664020529 0 0.0098913106290276307 -0.0090132475029447174 0 0.010487563070952324 -0.0088256965664020529 0 0.01007681613602727 -0.0080980287146166906 0 0.0098913106290276307 -0.0090132475029447174 0 0.010487563070952324 -0.0088256965664020529 0 0.01007681613602727 -0.0080980287146166906 0 0.011213990361520387 -0.0089257034043922472 0 0.019154320039874797 -0.012228529696992138 0 0.01901842454669685 -0.012272587048335795 0 0.019008011838079382 -0.012201637648002334 0 0.019154320039874797 -0.012228529696992138 0 0.019110679179934528 -0.012350914987177178 0 0.01901842454669685 -0.012272587048335795 0 0.019246713512663289 -0.012454567978294822 0 0.019154320039874797 -0.012228529696992138 0 0.019110679179934528 -0.012350914987177178 0 0.019036855799515324 -0.012470571800287903 0 0.01901842454669685 -0.012272587048335795 0 0.018912951042370552 -0.012270946149673488 0 0.019036855799515324 -0.012470571800287903 0 0.019110679179934528 -0.012350914987177178 0 0.01901842454669685 -0.012272587048335795 0 0.01901842454669685 -0.012272587048335795 0 0.018943449335591587 -0.012219890106382541 0 0.019008011838079382 -0.012201637648002334 0 0.01901842454669685 -0.012272587048335795 0 0.018943449335591587 -0.012219890106382541 0 0.018912951042370552 -0.012270946149673488 0 0.013196983063456203 -0.010701159775042671 0 0.01210729782277695 -0.010712870833298286 0 0.012197236312231364 -0.0098178514227853907 0 0.014423062710631686 -0.01165932404890066 0 0.013252693681846834 -0.011750823308518522 0 0.013196983063456203 -0.010701159775042671 0 0.012215277799234455 -0.011628003085701744 0 0.013252693681846834 -0.011750823308518522 0 0.013196983063456203 -0.010701159775042671 0 0.012215277799234455 -0.011628003085701744 0 0.013196983063456203 -0.010701159775042671 0 0.01210729782277695 -0.010712870833298286 0 0.012215277799234455 -0.011628003085701744 0 0.010539570508819061 -0.011611559765311452 0 0.011277491483664165 -0.011239876167942434 0 0.012215277799234455 -0.011628003085701744 0 0.011277491483664165 -0.011239876167942434 0 0.011512110470463367 -0.011024282587381072 0 0.012215277799234455 -0.011628003085701744 0 0.011512110470463367 -0.011024282587381072 0 0.01210729782277695 -0.010712870833298286 0 0.010539570508819061 -0.011611559765311452 0 0.011277491483664165 -0.011239876167942434 0 0.010830684553107804 -0.010675017799982769 0 0.011277491483664165 -0.011239876167942434 0 0.011512110470463367 -0.011024282587381072 0 0.010830684553107804 -0.010675017799982769 0 0.010830684553107804 -0.010675017799982769 0 0.011388421509853523 -0.010390626974990701 0 0.010798326919235244 -0.0099776044882810191 0 0.011512110470463367 -0.011024282587381072 0 0.010830684553107804 -0.010675017799982769 0 0.011388421509853523 -0.010390626974990701 0 0.011388421509853523 -0.010390626974990701 0 0.010798326919235244 -0.0099776044882810191 0 0.011375399264418549 -0.0097274732554835288 0 0.011388421509853523 -0.010390626974990701 0 0.012197236312231364 -0.0098178514227853907 0 0.011375399264418549 -0.0097274732554835288 0 0.011388421509853523 -0.010390626974990701 0 0.01210729782277695 -0.010712870833298286 0 0.012197236312231364 -0.0098178514227853907 0 0.011512110470463367 -0.011024282587381072 0 0.011388421509853523 -0.010390626974990701 0 0.01210729782277695 -0.010712870833298286 0 0.012197236312231364 -0.0098178514227853907 0 0.011213990361520387 -0.0089257034043922472 0 0.012449531107842114 -0.0089958563971504653 0 0.01007681613602727 -0.0080980287146166906 0 0.011213990361520387 -0.0089257034043922472 0 0.013028550917608231 -0.0079835614888217783 0 0.012197236312231364 -0.0098178514227853907 0 0.011375399264418549 -0.0097274732554835288 0 0.011213990361520387 -0.0089257034043922472 0 0.011213990361520387 -0.0089257034043922472 0 0.012449531107842114 -0.0089958563971504653 0 0.013028550917608231 -0.0079835614888217783 0 0.010756934930509407 -0.0092691606129575946 0 0.010798326919235244 -0.0099776044882810191 0 0.011375399264418549 -0.0097274732554835288 0 0.010756934930509407 -0.0092691606129575946 0 0.011375399264418549 -0.0097274732554835288 0 0.011213990361520387 -0.0089257034043922472 0 0.010756934930509407 -0.0092691606129575946 0 0.010487563070952324 -0.0088256965664020529 0 0.011213990361520387 -0.0089257034043922472 0 0.012449531107842114 -0.0089958563971504653 0 0.013329591498831202 -0.0092712203936215383 0 0.013028550917608231 -0.0079835614888217783 0 0.012197236312231364 -0.0098178514227853907 0 0.012449531107842114 -0.0089958563971504653 0 0.013329591498831202 -0.0092712203936215383 0 0.013196983063456203 -0.010701159775042671 0 0.012197236312231364 -0.0098178514227853907 0 0.013329591498831202 -0.0092712203936215383 0 0.014554531749819645 -0.0098726424709241582 0 0.013196983063456203 -0.010701159775042671 0 0.013329591498831202 -0.0092712203936215383 0 0.014442968926391228 -0.0087744349792552682 0 0.013329591498831202 -0.0092712203936215383 0 0.013028550917608231 -0.0079835614888217783 0 0.011689783405690973 -0.0067982528577954331 0 0.011008448874792241 -0.0065368974301315552 0 0.011746904094809111 -0.0063275356303853589 0 0.01007681613602727 -0.0080980287146166906 0 0.011689783405690973 -0.0067982528577954331 0 0.011008448874792241 -0.0065368974301315552 0 0.010130872500343259 -0.0080506453151642978 0 0.01224695435693245 -0.0073985218667636339 0 0.014633324785170857 -0.0047777965022605083 0 0.01434483208755399 -0.0059210303785434048 0 0.01574722290294904 -0.0056235506669580554 0 0.01434483208755399 -0.0059210303785434048 0 0.01574722290294904 -0.0056235506669580554 0 0.015564005028789765 -0.0063911899327927894 0 0.014633324785170857 -0.0047777965022605083 0 0.01434483208755399 -0.0059210303785434048 0 0.01284520195300309 -0.0050983846319266292 0 0.01434483208755399 -0.0059210303785434048 0 0.01284520195300309 -0.0050983846319266292 0 0.013061434083310227 -0.0060225168498475208 0 0.012254724894512117 -0.0055498248849010952 0 0.012443604845744126 -0.0057178821675158567 0 0.01284520195300309 -0.0050983846319266292 0 0.013061434083310227 -0.0060225168498475208 0 0.012388771088836415 -0.0057566155950093192 0 0.01898047893953925 -0.012331658829179091 0 0.01895535146933457 -0.012242293941433158 0 0.018961933062512214 -0.012130695200624935 0 0.019973602898701735 -0.0086581169673928936 0 0.015976079591465252 -0.007886898041680572 0 0.01895535146933457 -0.012242293941433158 0 0.018966669468232167 -0.012199591007228193 0 0.018961933062512214 -0.012130695200624935 0 0.018943449335591587 -0.012219890106382541 0 0.01895535146933457 -0.012242293941433158 0 0.018966669468232167 -0.012199591007228193 0 0.018943449335591587 -0.012219890106382541 0 0.018966669468232167 -0.012199591007228193 0 0.019008011838079382 -0.012201637648002334 0 0.018966669468232167 -0.012199591007228193 0 0.019008011838079382 -0.012201637648002334 0 0.018961933062512214 -0.012130695200624935 0 0.01007681613602727 -0.0080980287146166906 0 0.0098913106290276307 -0.0090132475029447174 0 0.0093968350117591328 -0.0067051890775005132 0 0.019154320039874797 -0.012228529696992138 0 0.019008011838079382 -0.012201637648002334 0 0.018961933062512214 -0.012130695200624935 0 0.012254724894512117 -0.0055498248849010952 0 0.015976079591465252 -0.007886898041680572 0 0.014234828410441238 -0.010644826986467626 0 0.015976079591465252 -0.007886898041680572 0 0.01007681613602727 -0.0080980287146166906 0 0.011008448874792241 -0.0065368974301315552 0 0.0093968350117591328 -0.0067051890775005132 0 0.014633324785170857 -0.0047777965022605083 0 0.016688827231220695 -0.0046326814202038132 0 0.01574722290294904 -0.0056235506669580554 0 0.01574722290294904 -0.0056235506669580554 0 0.016407401306299866 -0.006271519047466507 0 0.015564005028789765 -0.0063911899327927894 0 0.01574722290294904 -0.0056235506669580554 0 0.017004957742581723 -0.0057884555800142247 0 0.016407401306299866 -0.006271519047466507 0 0.015976079591465252 -0.007886898041680572 0 0.016333251441755105 -0.0051994256973579402 0 0.016688827231220695 -0.0046326814202038132 0 0.01574722290294904 -0.0056235506669580554 0 0.017004957742581723 -0.0057884555800142247 0 0.019380586228434908 -0.0061484786741284429 0 0.020229494197179423 -0.0048097221370165776 0 0.016611033238197764 -0.0046239185566836994 0 0.019380586228434908 -0.0061484786741284429 0 0.016611033238197764 -0.0046239185566836994 0 0.017918242567098348 -0.0061125080041296766 0 0.016611033238197764 -0.0046239185566836994 0 0.017004957742581723 -0.0057884555800142247 0 0.017918242567098348 -0.0061125080041296766 0 0.017004957742581723 -0.0057884555800142247 0 0.017918242567098348 -0.0061125080041296766 0 0.017793493880712184 -0.0066065463063382165 0 0.019380586228434908 -0.0061484786741284429 0 0.017918242567098348 -0.0061125080041296766 0 0.018343754097714143 -0.0064464827971722587 0 0.017918242567098348 -0.0061125080041296766 0 0.018343754097714143 -0.0064464827971722587 0 0.017793493880712184 -0.0066065463063382165 0 0.018098563422474543 -0.0078398362382853769 0 0.017662098443159913 -0.0073742966416519475 0 0.018301991625903555 -0.0068436240739533716 0 0.017662098443159913 -0.0073742966416519475 0 0.01709647817086149 -0.0068032795387475958 0 0.016166453095884249 -0.0073517619700931482 0 0.017662098443159913 -0.0073742966416519475 0 0.018301991625903555 -0.0068436240739533716 0 0.017723355439708013 -0.0069038909020782925 0 0.018343754097714143 -0.0064464827971722587 0 0.018301991625903555 -0.0068436240739533716 0 0.017793493880712184 -0.0066065463063382165 0 0.018301991625903555 -0.0068436240739533716 0 0.017793493880712184 -0.0066065463063382165 0 0.017723355439708013 -0.0069038909020782925 0 0.017004957742581723 -0.0057884555800142247 0 0.017793493880712184 -0.0066065463063382165 0 0.01709647817086149 -0.0068032795387475958 0 0.017793493880712184 -0.0066065463063382165 0 0.017723355439708013 -0.0069038909020782925 0 0.01709647817086149 -0.0068032795387475958 0 0.017662098443159913 -0.0073742966416519475 0 0.017723355439708013 -0.0069038909020782925 0 0.01709647817086149 -0.0068032795387475958 0 0.01709647817086149 -0.0068032795387475958 0 0.016407401306299866 -0.006271519047466507 0 0.016166453095884249 -0.0073517619700931482 0 0.016407401306299866 -0.006271519047466507 0 0.015564005028789765 -0.0063911899327927894 0 0.016166453095884249 -0.0073517619700931482 0 0.017004957742581723 -0.0057884555800142247 0 0.01709647817086149 -0.0068032795387475958 0 0.016407401306299866 -0.006271519047466507 0 0.015564005028789765 -0.0063911899327927894 0 0.016166453095884249 -0.0073517619700931482 0 0.015062788089189056 -0.0070456740398529257 0 0.015835529345044098 -0.0087488738635196784 0 0.016166453095884249 -0.0073517619700931482 0 0.01702964259828408 -0.0082620992663505997 0 0.015835529345044098 -0.0087488738635196784 0 0.016166453095884249 -0.0073517619700931482 0 0.014680621470842018 -0.0078372387645705144 0 0.017662098443159913 -0.0073742966416519475 0 0.016166453095884249 -0.0073517619700931482 0 0.01702964259828408 -0.0082620992663505997 0 0.018098563422474543 -0.0078398362382853769 0 0.017964543758683744 -0.0091022258534044602 0 0.01702964259828408 -0.0082620992663505997 0 0.018098563422474543 -0.0078398362382853769 0 0.017662098443159913 -0.0073742966416519475 0 0.01702964259828408 -0.0082620992663505997 0 0.013870646143840714 -0.0065708612442955247 0 0.012934363110514973 -0.0066046040563686233 0 0.013346275234313549 -0.0072255480353801043 0 0.013870646143840714 -0.0065708612442955247 0 0.012934363110514973 -0.0066046040563686233 0 0.013061434083310227 -0.0060225168498475208 0 0.012934363110514973 -0.0066046040563686233 0 0.013061434083310227 -0.0060225168498475208 0 0.012218384977997975 -0.0062715576635199157 0 0.01434483208755399 -0.0059210303785434048 0 0.013870646143840714 -0.0065708612442955247 0 0.013061434083310227 -0.0060225168498475208 0 0.01434483208755399 -0.0059210303785434048 0 0.013870646143840714 -0.0065708612442955247 0 0.015062788089189056 -0.0070456740398529257 0 0.01434483208755399 -0.0059210303785434048 0 0.015564005028789765 -0.0063911899327927894 0 0.015062788089189056 -0.0070456740398529257 0 0.013870646143840714 -0.0065708612442955247 0 0.015062788089189056 -0.0070456740398529257 0 0.014680621470842018 -0.0078372387645705144 0 0.013870646143840714 -0.0065708612442955247 0 0.014680621470842018 -0.0078372387645705144 0 0.013346275234313549 -0.0072255480353801043 0 0.016166453095884249 -0.0073517619700931482 0 0.015062788089189056 -0.0070456740398529257 0 0.014680621470842018 -0.0078372387645705144 0 0.012915543613126171 -0.0079297559137487591 0 0.014680621470842018 -0.0078372387645705144 0 0.013346275234313549 -0.0072255480353801043 0 0.012934363110514973 -0.0066046040563686233 0 0.013346275234313549 -0.0072255480353801043 0 0.012348610139186159 -0.0069544755839535356 0 0.012915543613126171 -0.0079297559137487591 0 0.013346275234313549 -0.0072255480353801043 0 0.012348610139186159 -0.0069544755839535356 0 0.012915543613126171 -0.0079297559137487591 0 0.011652196834892018 -0.0071891792119475138 0 0.012348610139186159 -0.0069544755839535356 0 0.011652196834892018 -0.0071891792119475138 0 0.012348610139186159 -0.0069544755839535356 0 0.011505046616644634 -0.0066420719853504404 0 0.012934363110514973 -0.0066046040563686233 0 0.012348610139186159 -0.0069544755839535356 0 0.012218384977997975 -0.0062715576635199157 0 0.012348610139186159 -0.0069544755839535356 0 0.012218384977997975 -0.0062715576635199157 0 0.011505046616644634 -0.0066420719853504404 0 0.012218384977997975 -0.0062715576635199157 0 0.011613588787342241 -0.0061635411054128267 0 0.011972168439927478 -0.0059786505781876517 0 0.011505046616644634 -0.0066420719853504404 0 0.010950017091164501 -0.0065621781712500256 0 0.011183282597835732 -0.0062701547609674869 0 0.011613588787342241 -0.0061635411054128267 0 0.011183282597835732 -0.0062701547609674869 0 0.01146095330693145 -0.0059727675311731041 0 0.012218384977997975 -0.0062715576635199157 0 0.011613588787342241 -0.0061635411054128267 0 0.011505046616644634 -0.0066420719853504404 0 0.011613588787342241 -0.0061635411054128267 0 0.011505046616644634 -0.0066420719853504404 0 0.011183282597835732 -0.0062701547609674869 0 0.011016828472324639 -0.0068818843207773383 0 0.011505046616644634 -0.0066420719853504404 0 0.010950017091164501 -0.0065621781712500256 0 0.011016828472324639 -0.0068818843207773383 0 0.011652196834892018 -0.0071891792119475138 0 0.011505046616644634 -0.0066420719853504404 0 0.011016828472324639 -0.0068818843207773383 0 0.01073614108657904 -0.0067082223611221936 0 0.010950017091164501 -0.0065621781712500256 0 0.01073614108657904 -0.0067082223611221936 0 0.010950017091164501 -0.0065621781712500256 0 0.010656432536020194 -0.0065499962040487933 0 0.010402023484984365 -0.0064881755093050943 0 0.010656432536020194 -0.0065499962040487933 0 0.010713047780716781 -0.0063365091149177235 0 0.010950017091164501 -0.0065621781712500256 0 0.010656432536020194 -0.0065499962040487933 0 0.010713047780716781 -0.0063365091149177235 0 0.01053456287235955 -0.0066398456372552365 0 0.010468376742423497 -0.0065421914638318212 0 0.010656432536020194 -0.0065499962040487933 0 0.01053456287235955 -0.0066398456372552365 0 0.01073614108657904 -0.0067082223611221936 0 0.010656432536020194 -0.0065499962040487933 0 0.010713047780716781 -0.0063365091149177235 0 0.011183282597835732 -0.0062701547609674869 0 0.01115786486888257 -0.0060198274747393418 0 0.010950017091164501 -0.0065621781712500256 0 0.010713047780716781 -0.0063365091149177235 0 0.011183282597835732 -0.0062701547609674869 0 0.01115786486888257 -0.0060198274747393418 0 0.010918780526815941 -0.0058794619808739913 0 0.011704410564844069 -0.0058052536067057592 0 0.011183282597835732 -0.0062701547609674869 0 0.01115786486888257 -0.0060198274747393418 0 0.01146095330693145 -0.0059727675311731041 0 0.010713047780716781 -0.0063365091149177235 0 0.01115786486888257 -0.0060198274747393418 0 0.010918780526815941 -0.0058794619808739913 0 0.010514229655953158 -0.0061217544146467276 0 0.010713047780716781 -0.0063365091149177235 0 0.010918780526815941 -0.0058794619808739913 0 0.019480017111919119 -0.0074361458589611677 0 0.017808730299006356 -0.0076491193580615364 0 0.018586691933346583 -0.0084793950050736037 0 0.017808730299006356 -0.0076491193580615364 0 0.017730262805584235 -0.008640217389773993 0 0.018586691933346583 -0.0084793950050736037 0 0.014210809393974878 -0.0063054022586250865 0 0.013658623768717322 -0.0069066093164805685 0 0.017808730299006356 -0.0076491193580615364 0 0.016887114225576965 -0.0086307718559300185 0 0.015626820433628411 -0.0078026353298246759 0 0.017808730299006356 -0.0076491193580615364 0 0.017730262805584235 -0.008640217389773993 0 0.016887114225576965 -0.0086307718559300185 0 0.015606688947292974 -0.0089876097530095529 0 0.016887114225576965 -0.0086307718559300185 0 0.015626820433628411 -0.0078026353298246759 0 0.011689783405690973 -0.0067982528577954331 0 0.011746904094809111 -0.0063275356303853589 0 0.011704410564844069 -0.0058052536067057592 0 0.014442968926391228 -0.0087744349792552682 0 0.015606688947292974 -0.0089876097530095529 0 0.015626820433628411 -0.0078026353298246759 0 0.01224695435693245 -0.0073985218667636339 0 0.013658623768717322 -0.0069066093164805685 0 0.014442968926391228 -0.0087744349792552682 0 0.013028550917608231 -0.0079835614888217783 0 0.015626820433628411 -0.0078026353298246759 0 0.012443604845744126 -0.0057178821675158567 0 0.01175618486541859 -0.0057996088469013923 0 0.011746904094809111 -0.0063275356303853589 0 0.011704410564844069 -0.0058052536067057592 0 0.0116741230554864 -0.0058233578730482322 0 0.01284520195300309 -0.0050983846319266292 0 0.012388771088836415 -0.0057566155950093192 0 0.0116741230554864 -0.0058233578730482322 0 0.013061434083310227 -0.0060225168498475208 0 0.012218384977997975 -0.0062715576635199157 0 0.012388771088836415 -0.0057566155950093192 0 0.012388771088836415 -0.0057566155950093192 0 0.011972168439927478 -0.0059786505781876517 0 0.0116741230554864 -0.0058233578730482322 0 0.012218384977997975 -0.0062715576635199157 0 0.012388771088836415 -0.0057566155950093192 0 0.011972168439927478 -0.0059786505781876517 0 0.011613588787342241 -0.0061635411054128267 0 0.01146095330693145 -0.0059727675311731041 0 0.0116741230554864 -0.0058233578730482322 0 0.011613588787342241 -0.0061635411054128267 0 0.011972168439927478 -0.0059786505781876517 0 0.0116741230554864 -0.0058233578730482322 0 0.01115786486888257 -0.0060198274747393418 0 0.011704410564844069 -0.0058052536067057592 0 0.01146095330693145 -0.0059727675311731041 0 0.011704410564844069 -0.0058052536067057592 0 0.01146095330693145 -0.0059727675311731041 0 0.0116741230554864 -0.0058233578730482322 0 
</DataArray>
</PointData>
<CellData Scalars="region_id,cross_section_updated," Vectors="" Tensors="stress,">
<DataArray type="Float64" Name="region_id" format="ascii">
6 5 5 5 5 5 5 5 5 6 5 5 5 6 5 5 5 5 5 5 5 5 5 5 5 5 5 5 5 6 5 5 6 5 5 5 6 5 5 5 6 5 5 5 5 5 5 5 5 6 5 5 5 5 5 5 6 5 5 5 5 5 5 5 5 5 6 5 5 6 5 5 5 6 5 6 5 6 6 5 5 5 5 5 5 5 5 5 6 5 6 5 5 6 5 5 5 5 5 5 5 5 5 5 5 5 5 5 5 6 5 5 5 5 6 5 5 6 6 5 5 6 5 5 5 6 6 6 5 6 5 5 5 5 5 5 5 5 5 6 6 5 5 5 5 5 5 6 5 5 5 5 5 6 6 5 5 6 5 5 6 6 5 6 6 5 5 5 5 5 5 5 5 5 5 5 5 6 5 5 6 5 5 5 5 5 5 5 5 5 5 5 5 5 5 5 5 5 5 5 5 6 5 5 5 5 5 5 5 5 5 5 5 5 5 5 5 6 5 5 6 5 5 5 5 6 6 5 5 5 5 5 5 5 5 5 5 5 5 5 5 5 6 5 5 5 6 5 5 5 5 5 5 5 5 6 6 5 5 5 5 5 5 5 5 5 6 5 5 5 5 5 6 5 6 5 5 5 5 5 6 6 5 5 5 6 5 6 5 5 5 6 5 6 5 5 6 5 5 5 6 5 5 5 5 5 6 6 5 5 6 5 6 6 5 5 6 5 6 5 5 5 5 6 5 6 5 5 6 6 6 5 6 5 6 6 5 5 5 5 5 5 5 5 5 6 5 5 5 5 5 5 5 5 5 5 5 5 5 5 5 5 5 5 5 5 5 5 5 5 6 5 6 5 5 5 5 5 6 5 6 5 5 6 5 5 5 5 6 5 6 5 5 5 5 5 5 5 5 5 5 5 5 5 6 5 5 6 5 5 5 5 5 5 5 5 5 5 5 5 5 5 5 5 5 6 5 5 5 5 5 5 5 5 5 5 6 5 5 5 6 6 5 5 5 5 5 5 5 5 5 5 5 5 5 5 5 5 5 5 5 5 5 5 5 6 5 5 6 5 5 6 5 6 5 5 5 6 5 6 6 5 5 5 5 5 5 5 5 5 5 6 5 5 5 5 5 5 5 5 5 5 5 5 5 5 5 5 5 5 5 5 5 5 5 5 5 5 5 5 5 5 5 5 6 5 5 5 5 6 5 5 5 5 5 5 5 6 5 5 5 5 5 5 5 5 5 6 5 6 6 5 5 6 5 6 5 5 5 5 5 5 5 5 6 5 5 5 5 5 6 5 5 5 5 5 5 6 5 5 5 5 5 5 5 5 6 5 6 5 5 5 5 5 6 5 6 5 5 5 5 5 5 6 5 5 5 5 5 5 5 5 5 5 6 6 5 5 5 5 6 5 5 5 5 5 5 5 5 5 5 5 5 6 5 5 6 5 5 5 5 5 5 5 5 5 5 6 6 5 5 5 5 5 5 5 5 5 5 6 5 6 5 5 5 5 5 5 5 5 5 5 5 5 5 5 5 5 5 5 5 5 5 5 5 5 5 5 5 5 5 5 5 5 5 5 5 5 5 5 5 6 5 5 5 6 5 6 5 6 5 5 6 5 6 5 6 5 5 6 5 5 5 5 5 5 5 5 6 5 5 6 5 5 5 5 6 5 5 5 5 5 5 5 5 5 5 6 5 6 5 6 5 6 5 6 5 5 5 6 5 6 5 5 5 5 5 5 5 5 5 5 5 5 6 5 5 6 6 5 5 5 6 5 5 6 5 5 6 5 5 5 6 5 5 5 5 5 6 5 5 6 6 5 5 5 6 6 6 5 5 6 5 5 6 5 5 5 5 5 5 6 5 5 6 5 5 6 5 5 5 5 5 5 5 5 6 5 5 5 5 5 6 6 6 5 5 5 5 5 5 5 5 5 5 5 6 5 5 5 5 6 5 5 5 5 5 5 5 6 5 5 5 6 5 6 5 6 5 6 5 5 5 5 5 5 5 5 5 5 6 5 5 5 5 5 5 5 5 6 5 5 6 5 5 5 5 6 5 5 5 5 5 5 6 5 6 5 5 5 5 5 5 6 6 5 5 5 5 6 5 6 5 5 5 6 5 5 5 5 5 5 5 6 6 5 5 6 5 6 6 6 5 5 5 5 5 5 5 6 5 5 5 5 5 5 5 5 5 5 5 5 5 6 5 5 5 5 5 5 5 5 5 5 6 5 5 6 5 5 5 5 5 6 5 5 5 5 5 5 5 5 6 5 6 5 5 6 5 5 6 5 5 5 5 6 5 5 5 5 5 6 5 5 5 5 5 5 5 5 5 6 5 5 6 6 5 5 5 5 6 5 6 5 5 6 6 5 6 5 6 5 5 5 5 5 6 5 5 5 6 5 5 5 6 5 5 5 5 5 5 5 5 5 5 6 5 5 5 5 5 5 5 5 5 5 5 5 5 5 5 5 5 5 6 5 5 6 5 5 5 5 6 5 5 5 5 5 5 5 5 5 5 5 5 5 5 5 5 5 5 5 5 5 5 5 5 5 5 5 5 5 5 5 5 5 5 5 5 5 5 5 5 5 5 5 5 5 5 5 5 5 5 5 5 5 5 5 5 5 5 6 5 5 5 5 5 5 5 5 5 5 5 5 5 5 5 5 5 5 5 6 5 5 5 5 6 5 5 5 5 5 5 5 5 5 5 5 5 5 5 5 5 5 5 6 5 5 5 5 6 5 5 5 5 5 6 6 5 5 5 5 5 5 5 5 5 5 5 5 5 5 5 5 5 5 6 5 5 5 6 5 6 5 5 5 5 5 5 5 5 5 6 5 5 5 5 6 6 5 5 5 5 5 5 5 5 5 5 5 5 5 5 5 5 5 5 5 6 5 5 5 5 5 5 5 5 5 5 5 5 5 6 5 5 5 5 5 5 5 5 5 5 5 5 5 5 5 5 5 5 5 5 5 5 6 5 5 5 5 5 5 5 6 5 5 5 6 5 5 5 5 5 5 5 5 5 5 5 5 5 5 5 5 5 5 5 5 5 5 5 5 6 5 6 5 5 5 5 6 5 6 5 5 5 5 5 5 5 6 5 5 5 5 6 5 5 5 5 5 5 5 5 5 5 5 6 5 5 5 5 5 5 6 5 6 5 5 5 5 5 6 5 5 6 5 5 6 5 5 5 5 5 5 5 5 5 5 5 5 5 5 5 5 5 5 5 5 5 5 5 5 5 5 5 6 5 5 5 6 5 6 5 5 6 6 5 5 5 6 5 5 5 5 6 5 6 5 5 6 5 5 5 5 5 6 5 5 5 5 5 6 5 5 5 5 5 5 5 5 5 5 5 5 5 5 5 5 5 5 5 5 5 5 5 5 5 5 5 5 5 5 5 5 5 5 5 5 5 5 5 5 5 5 5 6 6 5 5 5 5 5 5 5 5 5 5 5 5 5 5 5 5 5 5 5 5 5 5 5 5 5 5 5 5 6 5 5 5 5 6 5 5 5 5 6 5 5 5 5 5 5 5 6 5 6 5 5 5 5 5 6 5 5 5 5 5 5 5 5 5 5 6 5 5 5 5 5 5 5 5 5 5 5 5 5 5 5 5 5 5 5 5 5 5 5 5 5 6 5 5 5 5 6 5 6 5 5 6 5 6 5 5 5 5 5 5 6 5 5 5 6 5 5 5 5 5 5 5 5 5 5 5 5 5 5 5 5 5 6 5 6 5 5 5 5 5 6 5 6 5 5 5 5 5 5 5 5 6 5 5 5 5 5 5 5 5 5 5 5 5 5 5 5 5 5 5 5 5 5 5 5 6 5 6 5 5 5 5 5 5 5 5 5 5 5 5 6 5 5 5 5 5 5 5 5 5 5 5 5 5 5 5 5 5 5 5 5 5 5 5 5 5 5 5 6 5 5 5 6 5 6 6 5 5 5 5 5 6 5 5 5 5 5 5 5 5 5 5 5 5 5 5 5 5 5 5 5 5 5 5 5 5 6 5 5 6 5 5 5 5 5 5 5 5 6 6 5 5 5 5 5 5 5 5 5 5 6 5 5 6 6 5 6 5 5 5 5 5 6 5 6 6 6 5 5 5 5 5 5 6 5 5 5 5 5 5 5 5 5 6 5 6 5 5 6 5 5 5 5 5 5 5 5 5 5 5 5 5 5 5 5 5 5 5 5 5 5 5 5 5 5 6 6 5 5 5 5 5 5 5 5 5 5 5 5 5 5 5 5 5 5 5 5 5 5 5 5 5 5 5 5 5 5 5 5 5 5 5 5 5 5 5 5 5 5 5 5 5 5 5 5 5 5 5 5 5 5 5 5 6 5 5 5 5 5 5 5 5 5 6 6 5 5 5 6 5 5 5 5 5 5 5 5 5 5 5 5 5 5 5 5 5 5 5 5 5 5 5 5 5 5 5 5 5 5 6 5 5 5 5 5 5 5 6 5 5 5 5 5 5 5 6 5 5 6 5 5 5 5 5 5 5 5 5 6 5 5 6 6 5 5 5 6 5 5 5 5 5 5 5 5 5 5 5 6 5 5 5 5 6 5 6 5 5 6 5 5 6 6 5 5 5 5 5 5 5 5 5 5 6 6 5 5 5 5 5 5 6 5 5 5 5 5 5 6 5 6 5 5 5 5 5 6 6 5 5 5 5 5 5 5 5 5 5 5 5 5 5 5 5 5 5 5 6 6 5 5 6 5 5 5 5 5 5 5 5 5 5 5 6 5 5 5 5 5 5 5 5 5 5 5 5 5 5 5 5 5 5 5 5 5 5 5 5 5 5 5 5 6 5 5 5 5 6 6 5 5 5 5 5 5 5 6 5 6 5 5 5 5 5 5 5 5 5 5 5 5 5 5 5 5 5 5 5 5 6 6 5 6 5 5 5 5 5 6 5 5 5 5 5 5 5 5 5 5 5 5 5 5 5 5 5 6 5 5 5 5 5 5 5 5 5 5 5 6 5 5 5 5 5 5 5 5 5 5 6 5 5 5 5 5 5 5 5 5 6 5 5 5 5 6 5 5 5 6 5 5 5 5 6 5 5 5 5 5 5 5 5 5 6 5 5 5 5 6 5 5 5 5 5 5 5 5 6 5 6 6 5 6 6 5 5 5 6 5 5 5 6 5 6 5 5 5 5 5 6 5 5 5 6 5 5 5 5 5 5 6 6 5 5 5 5 5 5 5 5 5 5 5 6 5 6 6 5 5 5 5 5 6 6 5 5 6 5 5 5 5 6 5 5 5 5 5 6 5 5 5 5 6 6 5 5 6 5 6 6 5 5 5 5 5 5 5 5 5 5 5 5 5 5 5 5 5 5 5 5 5 6 5 5 6 5 6 5 5 5 6 5 5 5 5 5 5 6 6 5 5 5 5 5 5 6 5 5 6 5 5 5 5 5 5 6 5 5 5 6 5 5 5 5 5 5 6 5 5 5 5 5 5 5 5 5 5 5 5 5 6 5 6 5 5 5 5 5 5 5 5 5 6 5 5 5 6 5 5 5 5 5 5 5 5 5 5 6 5 5 5 5 5 5 5 5 5 5 5 5 5 5 5 5 5 5 5 5 5 5 5 5 5 6 5 5 5 6 5 5 6 5 5 5 5 5 6 5 5 5 6 5 5 5 5 5 5 5 6 5 5 5 5 5 5 5 5 5 5 5 5 5 5 5 5 5 6 5 6 5 5 5 5 5 5 5 5 5 6 5 6 5 6 5 6 6 5 5 5 5 6 5 5 5 5 6 5 5 5 5 5 6 5 6 5 5 6 5 5 5 5 5 5 5 5 5 5 5 5 5 5 5 5 5 6 5 5 5 5 5 5 6 5 5 5 5 5 6 5 5 5 5 5 5 5 6 5 5 6 5 5 5 5 5 5 6 5 5 5 6 5 5 5 5 5 5 5 5 5 5 5 5 5 5 5 5 5 6 5 5 5 5 5 6 6 5 5 5 5 5 6 5 6 5 6 5 6 6 5 5 5 6 6 5 5 5 5 5 5 5 5 5 5 5 5 5 5 5 5 5 5 5 5 5 5 5 5 5 5 5 5 5 5 5 5 5 5 5 5 5 5 6 5 5 5 5 5 5 5 6 5 6 5 5 5 5 5 5 6 5 5 5 6 5 5 5 6 6 5 6 5 5 5 5 5 5 6 5 5 6 5 5 5 5 5 5 5 5 5 5 5 5 6 6 6 5 5 5 6 5 5 5 5 5 5 5 5 5 5 5 5 5 5 5 5 5 5 5 5 5 5 6 5 5 5 5 6 5 5 5 5 5 5 5 6 5 5 5 5 5 6 5 5 5 5 5 6 5 5 5 5 5 5 5 5 5 6 5 5 5 5 6 5 5 5 5 5 5 5 5 5 5 6 5 5 6 5 5 5 5 5 5 5 5 5 5 5 5 5 5 5 5 5 5 5 5 6 5 5 5 5 6 5 5 5 5 5 5 5 5 6 5 5 5 5 5 6 5 5 6 5 5 5 5 5 5 5 5 5 5 5 5 6 5 5 5 5 5 5 5 5 5 5 5 5 5 5 5 5 5 5 5 5 5 5 5 5 5 5 5 5 6 5 5 5 5 5 5 5 5 5 5 5 5 5 5 6 5 5 5 5 5 5 5 5 5 5 5 5 5 5 5 5 5 5 5 6 5 5 5 5 5 5 5 6 5 5 5 5 5 5 5 5 5 5 5 5 5 5 5 5 5 5 5 5 5 5 5 5 6 5 5 5 5 5 6 5 5 5 5 5 5 5 5 5 5 6 5 5 6 5 6 5 5 5 5 5 5 5 6 5 6 5 6 5 5 5 5 5 5 5 5 5 5 5 5 5 5 5 5 5 5 5 5 5 5 5 5 5 5 5 5 5 5 5 5 5 5 5 5 6 5 5 5 5 5 5 5 5 5 5 5 5 5 5 5 5 5 5 5 5 5 5 5 5 5 5 5 5 5 5 5 6 5 5 5 5 5 5 6 6 5 5 5 5 5 5 5 5 5 5 5 5 5 6 5 5 5 5 5 5 5 5 5 5 6 6 5 6 5 5 5 6 5 6 6 5 6 5 5 5 5 5 5 5 6 6 5 5 5 5 6 5 5 5 5 6 5 6 5 6 6 5 6 5 5 5 5 5 6 5 6 6 6 6 5 5 5 5 5 6 5 5 6 6 5 5 5 6 5 5 6 5 5 5 5 6 5 5 6 5 5 6 5 5 5 5 5 5 5 5 5 5 5 5 5 5 6 5 6 5 5 5 5 5 6 5 5 6 5 5 5 5 5 6 5 5 5 5 5 5 5 5 5 5 6 5 5 5 5 5 5 5 5 5 5 5 6 5 5 5 5 5 5 6 5 5 5 5 5 5 5 5 5 5 5 5 5 5 6 5 5 5 6 5 5 5 5 5 5 5 6 5 6 5 5 5 5 5 5 5 5 5 5 5 5 5 5 5 5 5 5 5 5 5 5 5 5 5 5 5 5 5 5 5 5 5 5 5 5 6 5 6 5 5 6 5 6 5 5 5 5 5 5 6 5 5 6 6 5 5 5 5 5 5 6 5 5 5 5 5 5 5 6 5 5 5 5 5 5 5 5 5 5 5 5 5 5 5 5 5 5 5 6 5 5 5 6 5 6 5 6 5 5 5 5 6 5 5 5 5 5 5 6 5 5 5 5 5 5 6 5 5 6 5 5 5 5 5 5 6 5 5 5 5 5 5 5 5 5 6 5 6 5 5 5 5 5 6 6 5 5 5 6 6 5 5 5 5 5 5 6 5 5 6 6 5 5 6 5 5 6 5 5 5 5 6 5 5 5 5 5 5 6 5 5 5 5 5 5 5 5 5 5 6 5 5 5 6 6 5 5 5 5 5 5 5 5 5 6 5 5 5 5 5 5 5 5 5 5 5 6 6 5 5 5 5 6 5 5 5 5 6 5 5 5 5 6 5 5 5 6 5 5 5 5 6 5 5 5 5 5 6 5 5 5 5 6 5 5 5 5 5 5 5 5 5 5 5 5 5 5 5 5 5 5 5 5 5 5 5 5 5 5 5 5 5 5 5 5 6 5 5 5 5 6 5 5 5 5 5 5 6 5 5 5 6 5 6 5 5 5 5 5 5 5 5 5 5 5 5 5 5 5 5 5 5 5 5 5 5 5 6 5 6 5 5 5 6 5 5 5 5 5 5 5 5 5 5 5 5 5 6 5 5 6 5 5 6 6 5 6 5 5 5 5 5 5 5 5 5 5 5 5 5 5 5 5 5 6 5 5 5 5 5 6 5 5 5 5 5 5 5 6 5 5 5 5 5 5 5 6 5 5 5 5 5 5 5 5 5 5 5 5 5 5 5 6 5 5 5 6 5 5 5 5 5 5 5 5 5 5 5 6 5 5 5 5 5 5 6 5 5 6 5 6 5 5 5 6 5 5 5 5 5 5 5 5 5 5 5 6 5 5 5 5 5 6 5 5 5 6 5 5 5 6 5 5 5 5 5 6 5 6 5 5 5 5 5 5 5 5 6 5 6 5 5 6 5 6 5 6 5 5 5 5 5 5 5 5 5 5 6 5 6 5 5 5 5 6 5 5 5 6 6 5 5 5 6 5 6 6 5 5 6 6 5 6 6 5 5 6 6 5 5 6 5 5 6 5 6 5 5 6 5 5 6 5 6 5 5 5 6 5 6 5 5 6 6 5 5 5 6 6 5 6 5 5 5 5 5 5 5 5 6 5 5 6 6 5 6 5 6 6 5 5 5 6 5 5 6 5 5 5 5 5 5 6 6 5 5 5 5 5 5 5 6 6 5 5 5 5 6 5 5 5 6 5 5 6 5 5 5 5 5 6 5 5 6 5 5 5 6 6 5 5 6 5 5 5 6 5 5 5 6 6 5 5 6 5 5 5 5 6 6 5 5 6 6 5 6 6 5 5 5 5 5 5 6 5 5 5 5 5 5 5 5 5 5 6 6 5 5 5 5 5 5 5 6 5 5 5 5 5 5 5 5 5 6 5 5 6 5 5 6 5 5 5 5 5 5 5 5 5 5 5 5 5 5 5 5 5 5 6 6 5 5 5 5 6 5 5 6 5 5 5 5 5 5 5 5 5 6 5 5 6 5 5 5 5 5 5 5 5 5 5 5 6 5 6 5 5 5 5 5 5 5 5 5 5 6 5 5 5 5 5 5 5 5 5 5 5 5 5 5 5 5 5 5 5 5 5 5 5 5 5 5 5 5 5 5 5 5 5 5 5 5 5 5 5 6 5 5 5 5 5 5 5 5 5 6 5 5 6 5 5 5 5 5 5 5 5 5 5 5 5 5 5 5 5 6 5 6 5 5 6 5 5 5 6 6 5 6 6 5 6 5 5 6 5 5 6 5 5 5 5 5 5 5 5 5 5 5 5 5 5 5 5 5 5 5 5 5 6 5 5 5 5 5 5 5 5 5 5 5 5 5 5 5 5 5 5 5 6 5 5 5 5 5 6 5 5 5 5 5 5 5 5 5 5 5 5 5 5 5 5 5 5 5 5 5 5 5 5 6 5 5 5 5 5 5 6 5 5 5 5 5 5 5 5 5 5 5 5 5 5 5 6 5 5 5 6 6 5 5 5 6 5 5 5 5 5 5 5 5 6 5 5 5 5 6 5 5 5 5 5 5 5 5 5 5 5 5 5 6 5 5 5 5 5 5 5 5 5 5 5 5 5 5 5 5 5 5 5 5 5 5 5 5 5 5 5 6 5 5 5 5 5 5 5 5 5 5 5 5 5 5 5 6 6 5 5 5 6 5 5 5 5 5 5 5 5 5 5 5 5 5 5 5 5 5 5 5 5 5 5 5 5 5 5 5 5 5 5 6 5 5 5 5 5 5 5 5 5 5 5 5 5 5 5 5 5 5 5 5 5 5 5 5 5 6 5 5 5 5 5 5 5 6 5 5 5 6 5 5 6 5 5 5 5 5 5 5 5 6 6 5 5 5 5 5 6 5 5 5 5 5 5 5 5 5 5 5 5 5 5 5 5 5 5 5 6 5 6 5 6 5 5 5 6 5 6 5 5 5 5 5 5 5 5 5 5 5 5 6 5 5 5 5 6 5 5 6 5 6 5 5 6 5 5 5 6 5 5 5 5 5 5 5 5 5 6 5 5 5 5 6 5 5 5 5 6 5 5 5 5 5 5 6 5 6 5 6 5 5 5 6 5 5 5 5 5 5 6 6 5 5 5 5 5 6 5 5 5 5 5 5 5 5 5 5 5 5 5 5 5 5 5 5 5 6 5 5 5 5 5 5 5 5 5 6 5 6 5 6 5 5 5 5 5 5 5 5 5 5 5 5 6 5 5 6 5 5 5 5 5 5 5 5 5 6 5 6 5 5 5 5 5 5 6 5 5 5 5 5 5 5 5 5 5 5 5 5 5 5 5 5 5 5 5 5 5 5 5 5 5 5 5 5 5 5 5 5 5 5 5 5 5 5 5 5 6 5 5 6 5 6 5 5 5 6 6 5 5 6 5 5 5 5 5 5 5 5 5 5 5 5 6 5 5 5 5 5 5 5 5 5 5 5 5 6 5 5 5 5 5 5 5 5 5 5 5 5 5 5 5 6 5 5 5 5 5 6 5 5 5 5 5 5 5 5 5 6 5 5 5 5 6 5 5 5 5 5 5 5 5 5 5 5 6 5 6 5 6 5 5 5 6 5 5 5 5 5 5 5 5 5 5 5 5 5 5 5 5 5 5 5 5 6 5 5 5 5 5 5 5 5 5 5 5 5 5 5 5 5 5 5 6 5 5 5 5 5 6 5 5 5 5 5 5 5 5 6 5 5 6 5 5 5 5 5 5 5 6 5 5 5 5 5 5 5 5 5 6 5 5 5 5 5 5 5 5 5 5 5 5 5 5 5 5 5 5 5 5 5 5 5 5 6 5 6 5 5 6 5 5 5 5 5 5 5 5 6 5 5 5 5 5 5 6 5 5 5 5 5 5 5 5 5 5 5 5 6 5 5 5 5 5 5 5 5 5 5 5 5 5 5 6 5 5 5 6 5 5 5 5 6 5 5 5 5 5 5 5 5 5 5 5 5 5 5 5 5 5 5 5 5 5 5 5 5 5 5 6 5 5 6 5 5 5 5 5 5 5 5 5 6 5 5 6 5 5 6 5 5 5 5 5 5 5 5 5 5 5 5 5 5 5 5 5 5 5 5 5 5 5 5 5 5 5 5 5 5 5 5 5 5 5 5 5 5 5 5 5 5 5 5 5 5 5 5 5 5 5 5 5 5 5 5 5 5 5 5 5 5 5 6 5 5 5 5 5 5 6 5 5 5 5 5 5 5 5 5 5 5 6 6 5 5 6 5 6 5 5 6 5 5 6 5 5 5 5 5 5 5 5 6 5 5 5 5 5 5 5 5 5 6 5 5 5 5 6 5 5 5 5 5 5 5 5 5 5 5 5 5 5 5 6 5 5 5 5 6 5 6 5 5 5 6 5 5 6 5 5 5 5 5 5 5 5 5 5 5 6 5 5 6 5 5 5 6 5 5 6 6 5 5 6 5 5 5 5 5 5 5 5 6 5 5 5 5 6 5 6 5 6 5 5 5 5 6 5 5 5 6 5 5 5 5 5 5 5 5 5 5 5 5 5 5 5 5 5 5 6 5 5 5 5 5 5 5 5 5 5 5 5 5 5 5 5 5 5 5 5 5 5 5 5 5 5 5 5 5 5 5 5 5 5 5 5 5 5 5 5 6 5 5 5 5 5 6 5 5 5 5 5 5 5 5 5 5 5 5 5 6 5 5 6 5 5 5 6 5 6 5 5 5 5 6 5 5 5 5 5 5 5 5 5 6 5 5 6 6 5 6 5 5 5 5 5 5 5 5 5 5 5 5 5 5 5 5 5 5 5 5 5 5 5 6 5 5 5 6 5 5 5 5 5 5 5 6 5 5 5 5 5 5 5 5 5 5 5 5 5 5 5 5 5 5 5 5 5 5 5 6 5 5 5 5 5 6 5 6 6 5 5 5 6 5 5 6 5 5 5 5 5 5 5 5 5 5 5 6 5 5 5 6 5 6 5 5 5 5 5 6 5 6 5 6 5 5 5 5 5 5 5 5 6 6 6 5 5 6 5 5 5 5 5 5 5 5 5 5 5 5 5 5 5 5 5 5 5 5 5 5 5 5 5 5 5 5 5 5 5 5 5 5 5 5 5 6 5 5 5 5 5 5 5 6 5 5 6 5 5 5 5 5 5 5 5 5 5 5 5 5 5 5 5 5 5 5 5 5 5 5 6 5 5 5 5 5 5 5 5 5 5 6 5 5 5 5 6 5 5 5 5 6 5 6 6 5 5 5 5 6 5 5 6 5 5 6 6 5 5 5 5 5 5 5 6 5 5 5 5 5 5 5 5 5 5 5 5 5 6 5 5 5 5 5 5 5 6 6 5 6 5 6 5 5 5 6 5 5 5 5 5 6 5 5 6 5 5 5 5 5 5 5 6 5 5 5 5 5 5 5 5 6 5 5 5 6 5 5 5 5 5 6 6 5 5 6 5 5 5 5 5 5 5 5 5 5 5 5 5 5 6 5 5 6 5 6 5 5 5 5 6 5 5 5 5 5 6 5 5 6 6 5 5 5 5 6 5 5 5 5 5 5 5 5 6 5 6 5 5 5 5 5 5 5 5 6 5 5 5 5 6 5 5 5 5 5 5 5 5 5 5 5 5 5 5 5 5 5 5 5 5 5 5 5 5 5 5 5 5 5 5 5 5 5 6 5 5 5 5 5 5 5 6 5 5 5 5 5 5 5 5 5 5 5 5 6 5 5 5 5 6 5 5 5 5 5 5 5 5 5 5 5 5 5 6 5 5 6 5 5 5 5 6 5 5 5 5 5 5 5 5 5 5 5 6 5 6 5 5 6 5 5 5 5 6 5 5 5 5 5 5 5 5 5 5 5 5 5 5 5 5 5 5 5 5 5 5 5 5 5 5 5 5 6 5 5 5 5 6 5 5 5 5 5 5 5 5 5 6 5 5 5 6 5 5 5 5 5 5 6 5 6 5 6 5 5 5 5 5 5 5 5 5 5 5 5 5 5 5 5 5 5 5 5 5 5 5 5 5 5 5 5 5 5 5 5 5 5 5 6 5 6 5 5 5 5 5 5 5 5 6 5 5 5 5 5 5 5 5 5 5 5 5 6 5 5 5 5 5 5 5 5 5 5 5 5 5 6 5 5 6 5 5 5 5 6 5 5 5 5 6 5 5 5 5 5 6 6 5 6 5 5 6 5 5 5 5 6 5 6 5 5 5 5 5 5 5 5 6 5 5 5 5 6 5 5 5 5 5 5 5 5 5 5 5 5 5 5 5 5 5 5 5 5 5 5 6 5 5 5 5 5 5 5 5 5 5 5 5 5 5 5 5 5 5 5 5 5 6 5 5 5 5 5 5 5 6 5 6 5 5 5 5 5 5 5 5 5 5 5 5 5 5 5 5 5 5 5 5 5 5 5 5 5 5 6 5 5 5 5 5 6 5 6 5 5 5 5 6 6 6 5 6 5 5 5 6 5 5 5 5 6 5 6 5 5 5 5 6 5 5 5 6 6 6 5 6 5 6 5 5 6 5 5 5 5 5 5 5 5 5 5 6 5 6 5 6 5 5 5 5 6 5 5 5 5 6 5 5 5 5 5 5 5 5 5 5 6 5 6 5 5 6 5 5 6 5 5 5 5 5 6 5 5 5 5 5 5 5 5 5 5 5 5 6 5 5 5 6 5 5 5 5 5 6 5 5 5 5 5 5 5 5 5 5 5 5 5 5 5 5 5 5 5 5 5 6 5 5 5 5 6 5 5 5 6 5 6 5 5 6 5 6 5 5 5 5 5 5 6 5 5 5 5 6 5 6 5 5 5 5 5 5 5 6 5 5 5 5 5 5 5 6 5 5 5 5 5 5 5 5 5 5 5 5 5 5 5 5 5 6 5 5 5 6 5 5 5 5 5 5 5 5 5 5 5 5 5 5 6 5 5 5 5 5 5 5 5 5 5 5 5 5 5 5 5 5 5 5 5 5 5 5 5 5 5 5 6 5 6 5 5 5 6 5 5 5 6 5 5 6 6 5 5 5 5 5 5 5 5 6 5 5 6 5 5 5 5 6 5 6 5 5 5 6 5 5 5 5 5 5 5 5 5 5 6 5 5 6 5 5 6 5 5 5 5 5 5 5 6 5 5 6 6 5 5 5 6 5 5 5 5 5 5 6 5 5 5 5 6 5 5 5 6 5 5 5 5 6 5 5 6 5 5 5 5 5 5 5 5 5 5 5 6 5 5 5 5 6 5 6 5 6 5 6 5 5 5 5 5 5 5 5 5 5 5 6 6 5 5 5 5 5 5 6 5 5 6 5 5 5 5 5 5 6 5 5 5 6 5 6 5 5 5 6 5 5 5 5 5 5 6 5 5 5 5 5 5 6 5 6 5 5 5 6 5 5 5 5 6 5 5 5 5 5 5 5 6 5 6 5 6 5 5 5 6 6 5 5 6 5 5 5 5 5 6 5 6 6 6 6 5 5 5 5 5 6 6 5 5 6 5 5 5 6 5 5 5 5 5 5 5 5 5 6 5 5 5 6 5 5 5 5 5 5 5 6 5 6 5 5 5 5 6 5 6 5 5 5 5 6 5 5 5 5 5 5 5 5 5 6 5 5 5 5 5 5 5 5 5 5 5 5 5 5 5 5 5 5 5 5 5 6 5 5 5 5 6 5 5 5 5 5 6 5 6 5 5 5 5 5 5 5 5 5 5 5 6 5 6 5 6 6 5 6 5 6 5 5 5 6 5 5 5 6 5 5 5 5 6 5 6 5 5 5 5 5 5 5 5 6 5 5 5 5 5 5 5 5 6 5 5 5 5 5 5 5 5 5 6 5 5 6 5 5 5 6 5 5 5 5 5 5 5 5 5 5 5 5 6 5 5 5 5 6 5 5 5 5 5 5 6 5 5 5 5 6 5 6 5 5 5 5 5 5 5 6 5 5 5 6 6 5 5 5 5 6 5 6 5 5 6 5 5 5 5 5 5 5 5 5 5 5 5 5 5 5 5 5 5 5 5 5 5 5 5 5 5 5 5 5 5 5 5 5 5 5 6 5 5 5 6 5 5 5 5 5 5 5 5 5 5 5 5 5 6 5 6 5 5 5 5 5 5 5 5 5 5 5 5 5 6 5 5 6 5 5 5 5 5 6 5 5 5 5 5 5 5 5 5 5 5 5 5 5 5 5 5 5 5 6 6 5 5 6 5 5 6 5 5 5 5 5 5 5 6 5 5 5 5 6 5 5 5 5 5 5 5 5 5 5 5 5 5 5 6 5 5 6 5 5 5 5 5 5 5 6 6 5 5 5 5 5 5 5 5 5 5 5 5 5 5 5 5 6 5 5 5 5 6 5 5 6 5 5 6 5 5 5 5 5 5 5 5 5 5 5 5 6 5 5 5 5 6 5 5 5 5 5 5 5 5 5 6 6 6 5 5 5 6 5 5 6 6 5 6 5 5 5 6 5 5 5 5 5 5 5 5 5 5 5 5 5 5 5 5 5 5 5 5 5 5 5 5 5 5 5 5 5 5 5 5 5 5 5 5 5 5 5 5 5 5 5 5 5 5 5 5 6 5 6 5 5 5 5 5 5 5 5 5 6 5 5 5 5 5 5 6 5 5 5 5 5 6 5 5 5 5 5 5 5 5 5 5 5 5 5 5 5 6 5 5 5 5 5 5 5 6 5 5 5 5 5 6 6 5 5 5 5 6 5 5 5 5 5 5 5 5 5 5 5 5 5 5 5 5 5 5 5 5 5 6 5 5 5 5 5 5 6 5 5 5 6 5 5 5 5 5 5 5 5 5 5 5 5 5 5 5 5 5 5 6 5 6 5 5 5 5 5 6 6 5 5 5 6 5 5 5 5 5 5 6 5 5 5 5 5 6 5 6 5 5 6 5 5 5 5 6 5 5 5 5 6 5 5 5 5 6 5 5 5 5 5 5 5 5 5 5 5 5 5 6 5 5 5 5 5 5 5 5 5 5 5 5 5 5 5 5 6 5 5 5 5 6 5 5 5 5 6 5 5 5 5 5 5 5 5 5 5 6 5 5 5 5 6 5 5 5 5 5 5 5 5 5 5 5 5 5 5 5 6 5 5 5 6 5 5 5 5 5 5 5 5 5 5 5 5 5 5 6 5 5 5 5 5 5 5 5 5 5 5 6 5 5 6 5 5 5 5 5 5 6 6 5 5 5 5 6 5 6 5 5 5 6 5 5 6 5 5 5 5 5 5 5 5 5 5 5 5 5 5 5 5 6 5 5 5 5 5 5 5 5 6 6 5 5 5 6 6 5 6 5 6 5 5 5 5 6 5 5 5 5 5 5 5 5 5 5 5 5 5 6 5 6 5 5 5 5 5 5 5 5 6 6 5 5 6 6 6 5 5 5 5 5 5 6 5 5 6 5 5 6 6 6 6 5 5 5 5 5 5 5 5 5 5 5 5 5 6 5 5 6 5 6 5 5 5 5 5 5 5 6 6 5 5 6 5 5 6 5 5 5 5 6 6 6 6 5 5 5 5 5 5 5 5 5 5 5 5 5 5 6 5 5 6 5 5 5 5 6 5 5 5 6 5 5 6 5 5 6 5 5 6 6 5 6 5 5 5 5 5 5 6 5 5 5 5 6 5 5 5 5 5 6 5 5 6 5 6 6 5 5 5 6 5 5 5 5 5 6 5 5 5 6 5 5 5 6 5 5 5 5 5 5 5 6 5 5 5 5 5 6 5 5 5 5 5 5 5 6 5 6 6 5 5 6 5 5 5 5 5 5 6 5 5 5 5 5 5 6 5 5 5 5 5 5 6 5 6 5 6 5 5 6 5 5 5 5 6 6 6 6 5 5 5 5 5 5 5 5 6 5 5 5 6 5 6 5 5 5 5 5 5 5 5 5 5 5 5 5 5 5 5 6 5 6 5 5 5 5 5 5 5 5 6 5 5 5 5 5 6 5 5 6 5 5 5 5 5 5 6 6 5 5 6 5 5 5 5 5 5 5 5 5 5 5 6 6 5 5 5 5 6 5 5 5 5 5 5 5 5 6 5 5 5 5 6 5 5 5 5 5 5 6 5 6 5 6 5 5 5 5 5 5 5 5 5 5 5 5 5 5 5 5 5 5 6 5 5 5 5 5 5 5 5 5 5 5 5 5 5 5 5 5 6 6 5 5 5 5 5 5 5 5 5 5 5 5 5 5 5 5 5 5 5 5 5 5 5 5 5 5 5 5 5 5 5 5 5 5 5 5 5 5 5 5 5 5 5 5 5 6 5 6 5 5 5 5 5 5 5 6 5 5 5 6 5 6 6 6 5 6 6 5 5 6 6 6 5 5 5 5 5 6 5 6 6 5 5 5 5 5 5 5 6 5 5 6 5 5 6 6 5 5 5 5 5 5 6 5 5 6 6 5 5 6 5 5 5 6 5 5 5 5 6 5 5 5 6 5 5 6 5 5 5 5 5 5 5 5 5 5 5 5 5 5 5 5 5 5 5 6 6 5 5 5 6 5 5 5 5 6 5 5 5 5 5 6 6 5 5 5 5 5 5 5 5 5 6 5 5 5 5 5 5 5 5 5 5 5 5 5 5 5 5 5 5 5 5 5 5 5 5 5 5 5 6 5 6 6 5 5 5 5 5 5 5 5 5 5 5 5 5 5 5 5 5 5 5 5 5 5 5 5 5 5 5 6 5 5 6 5 5 6 5 5 6 5 6 5 5 5 5 5 5 5 6 5 5 5 5 5 5 5 5 5 5 5 5 6 5 6 5 6 5 5 5 5 5 6 5 5 5 5 6 5 5 6 5 5 5 5 5 5 5 5 6 5 5 5 5 5 5 6 5 5 5 5 6 5 5 5 6 5 5 5 5 5 5 5 5 5 5 5 5 5 5 5 5 5 5 6 5 6 5 5 5 6 5 5 5 5 5 5 5 5 5 5 5 5 5 5 5 5 5 5 5 6 5 5 5 6 5 5 5 6 5 5 5 5 5 5 5 5 5 5 5 5 5 5 5 6 5 5 5 5 6 5 5 6 5 5 5 5 5 5 6 5 6 5 6 6 6 5 5 5 6 6 5 5 5 5 5 5 5 6 5 5 5 6 5 6 5 5 5 5 5 5 5 5 5 6 5 5 5 5 5 5 5 5 6 5 5 5 5 6 5 5 5 5 5 5 5 5 5 5 5 5 5 5 5 5 5 5 5 5 5 6 6 5 5 5 5 5 5 5 5 6 5 5 5 5 5 5 5 5 5 5 6 5 5 5 5 5 5 6 5 5 5 5 5 6 5 6 5 5 6 6 5 5 5 5 5 5 5 5 5 5 5 5 5 5 5 5 5 5 5 5 5 5 5 5 5 5 5 5 5 5 5 5 5 5 5 5 5 5 5 5 5 5 5 5 5 5 5 5 6 6 5 5 6 5 5 5 5 5 6 6 5 5 6 6 5 5 5 5 5 5 5 5 5 5 6 5 5 5 5 5 5 5 5 5 5 5 5 5 5 5 6 5 5 5 5 5 5 5 5 5 5 5 5 5 6 5 6 6 6 5 5 5 5 5 5 5 5 6 6 5 5 5 5 6 5 5 5 5 5 5 5 5 6 5 5 5 5 5 5 5 5 5 5 5 5 5 5 5 5 5 6 5 5 5 5 5 5 6 5 5 6 5 5 5 5 5 5 5 5 5 5 5 5 5 5 5 5 5 5 6 5 5 5 6 5 5 6 5 6 6 5 5 6 5 5 5 6 5 5 6 5 6 6 5 5 5 5 6 5 5 5 5 5 5 6 5 6 5 5 5 6 5 5 5 5 6 5 6 6 5 5 5 5 5 6 5 6 5 6 5 6 6 5 5 5 5 5 5 5 6 5 6 5 5 6 5 5 6 5 5 5 5 5 5 5 5 5 5 5 5 5 5 5 5 5 5 5 5 5 5 5 5 5 5 5 5 5 5 5 6 5 5 5 5 5 5 5 5 5 5 5 5 5 5 5 5 5 5 5 5 5 5 5 6 5 5 5 5 5 6 6 5 5 5 5 5 5 5 5 5 5 5 5 5 5 5 5 5 5 5 5 5 6 5 5 5 5 5 5 5 5 5 5 5 5 5 6 5 6 5 5 5 6 5 5 5 5 5 5 5 5 6 5 6 5 5 5 5 5 6 5 5 5 5 5 5 5 5 5 5 5 6 5 5 5 5 5 5 5 5 5 5 5 6 5 5 5 5 5 5 5 5 6 5 5 5 5 5 5 5 5 5 5 5 5 5 5 5 5 5 5 5 5 5 5 5 5 5 5 6 5 5 6 5 5 5 5 5 5 5 5 5 5 5 5 5 5 5 5 5 5 5 5 5 5 5 5 5 5 5 5 6 5 6 5 6 5 5 5 5 5 6 5 5 5 5 6 5 5 5 6 5 5 5 5 5 5 5 5 5 5 5 5 5 5 5 5 5 5 6 6 6 5 5 5 5 5 5 5 5 5 5 5 5 5 6 5 5 5 5 5 5 5 5 5 5 5 5 6 5 5 6 5 5 5 5 5 5 5 5 5 5 5 5 5 5 5 5 5 5 5 5 5 6 6 5 5 5 5 5 5 5 5 5 5 5 5 5 5 6 5 5 6 5 5 5 5 6 5 5 5 5 5 5 6 5 5 5 5 5 5 5 5 5 5 5 5 5 5 5 5 5 5 6 5 5 5 5 5 6 5 5 5 5 5 5 5 5 5 5 5 5 5 5 5 5 5 5 5 5 5 5 5 5 5 5 5 5 6 5 6 5 5 5 5 6 6 5 5 5 5 5 5 5 5 5 5 5 5 5 5 5 5 5 5 5 5 5 5 5 5 5 5 5 5 5 5 5 5 5 5 5 6 5 5 5 5 6 5 5 5 5 5 5 5 5 5 5 5 6 5 5 5 5 5 5 5 5 5 5 5 5 5 5 5 5 5 6 6 5 6 5 5 5 5 5 5 5 5 5 5 6 5 5 5 5 5 5 5 5 5 5 5 5 5 5 5 5 5 6 5 5 5 5 6 5 5 5 5 5 5 5 5 5 5 5 5 5 5 5 5 5 5 5 5 5 5 5 5 5 5 5 5 5 5 5 5 5 5 5 5 5 5 5 5 5 5 5 5 5 5 5 5 5 5 5 5 5 5 5 5 5 5 5 5 5 5 5 5 5 5 5 5 5 5 5 5 5 5 5 5 5 5 5 5 5 6 5 5 5 5 5 5 5 6 5 5 6 5 5 5 5 5 5 5 5 5 5 5 5 6 5 6 5 6 5 5 5 5 5 5 5 5 6 5 5 5 5 5 5 5 5 5 6 5 5 5 5 5 5 5 5 5 5 5 5 5 5 5 5 5 5 5 5 5 6 5 5 5 5 5 5 5 5 5 5 5 5 6 5 5 5 5 5 6 5 5 6 5 5 5 5 6 6 5 5 6 5 5 5 5 5 5 5 6 6 5 5 5 5 5 5 5 5 5 5 5 5 6 5 5 5 5 6 5 5 5 5 5 5 5 5 6 5 5 5 5 6 5 5 5 5 6 5 5 5 5 5 5 5 6 5 5 5 5 5 6 5 5 5 6 5 5 5 5 5 6 5 5 5 5 5 5 5 5 5 5 5 5 5 5 6 5 5 6 5 5 5 5 5 5 5 5 5 5 5 5 5 5 5 5 5 5 5 5 5 6 5 5 6 5 5 6 5 5 5 5 5 5 5 5 5 5 5 5 5 5 5 5 5 5 5 5 5 5 5 5 5 5 5 5 5 5 6 5 5 5 5 6 5 5 6 5 6 5 5 5 5 6 5 6 5 5 6 5 6 5 6 6 5 5 6 5 6 5 6 5 5 6 5 5 5 5 5 5 6 5 6 5 5 6 6 5 5 6 5 6 5 5 6 5 5 6 5 5 6 6 6 5 6 5 5 5 5 5 5 5 5 6 5 5 5 5 5 5 5 6 5 5 5 5 5 5 5 5 5 5 5 5 5 5 6 5 5 5 5 5 5 5 5 5 5 5 5 5 5 5 5 5 5 5 6 5 5 5 5 5 5 5 5 5 5 5 5 5 5 5 5 5 5 5 5 5 5 5 5 5 5 5 5 5 5 5 6 5 5 5 6 5 6 6 5 6 5 5 5 6 5 5 5 5 6 6 6 5 5 5 5 5 5 5 5 5 5 5 5 5 5 5 5 5 6 5 5 5 5 5 5 5 5 5 6 5 5 5 6 5 5 5 5 5 5 5 5 5 5 5 5 6 5 5 6 5 5 5 5 5 5 5 5 5 5 5 5 5 5 5 5 5 5 5 5 5 5 6 5 5 5 5 5 5 5 5 5 5 5 5 5 5 5 5 5 5 6 5 5 5 5 5 5 5 6 5 5 5 5 6 5 5 5 5 5 5 5 5 5 5 5 5 5 5 5 5 5 5 5 5 5 5 5 5 5 5 5 5 5 5 5 5 5 5 5 6 6 5 5 5 5 6 5 6 5 5 5 5 5 6 5 5 5 5 5 5 5 5 6 6 5 5 5 5 6 5 5 5 5 5 5 5 5 5 5 5 5 5 5 5 5 5 5 5 5 5 6 5 5 5 5 5 5 6 5 5 6 5 5 5 5 5 5 5 5 5 6 5 5 5 5 5 5 5 5 6 5 5 5 5 5 5 5 5 5 5 5 5 5 5 5 5 5 6 5 5 6 5 5 5 5 5 5 5 5 5 5 5 5 5 5 5 5 5 5 5 5 5 5 5 5 5 5 5 5 5 6 5 6 5 5 5 5 5 5 5 5 5 5 5 5 5 5 5 5 5 5 5 5 5 5 6 5 5 5 6 5 5 5 5 5 5 5 5 5 5 5 5 6 5 5 5 6 6 5 5 6 5 5 5 5 5 5 5 5 5 6 5 5 5 5 5 5 5 5 5 5 5 5 5 6 5 6 5 5 5 5 5 5 5 5 5 5 5 5 5 5 5 5 5 5 5 5 5 5 5 5 5 5 5 5 5 6 5 5 5 5 5 5 6 5 5 5 5 5 5 5 5 5 5 5 5 5 5 5 5 6 5 6 5 5 5 5 5 5 5 6 5 5 5 6 5 5 5 5 6 5 5 5 5 5 5 6 5 5 5 5 6 5 6 5 5 5 5 5 5 5 5 6 6 5 5 5 6 6 5 5 5 5 5 5 5 6 6 5 6 6 5 5 5 5 6 5 6 5 5 5 5 5 5 6 5 5 5 5 6 5 5 5 5 6 5 5 5 5 5 6 5 5 6 5 5 5 5 6 5 5 5 5 5 5 5 5 5 6 6 5 5 5 5 5 5 5 5 5 5 5 5 5 6 5 6 5 5 5 5 5 5 5 5 5 5 5 5 5 5 5 5 5 5 5 5 5 6 5 5 5 5 5 5 5 5 5 5 5 5 5 5 5 5 5 5 5 5 5 5 5 5 5 5 6 5 5 5 5 5 5 5 5 6 5 6 5 5 5 5 5 5 6 5 5 5 5 5 5 5 5 5 5 5 5 5 5 5 5 5 5 5 5 5 5 5 5 5 5 6 5 5 5 5 5 5 5 5 6 5 5 6 5 5 6 5 5 5 5 5 6 5 5 5 5 5 5 5 5 5 6 5 5 5 5 5 5 5 5 5 5 5 5 5 5 5 6 5 5 5 5 5 5 5 5 6 5 5 5 5 5 5 5 5 5 5 5 5 5 5 5 5 5 5 6 5 6 5 6 5 5 6 6 5 5 5 5 5 5 5 5 5 5 5 5 5 5 6 5 5 5 5 5 5 6 5 5 5 6 5 5 5 5 5 5 5 5 5 5 5 5 6 5 5 5 5 6 6 6 5 5 5 5 5 5 5 6 5 5 6 5 6 5 6 5 5 5 5 5 6 5 5 5 5 5 5 5 5 5 5 5 5 5 5 5 5 5 5 5 5 6 5 5 5 6 5 6 6 6 5 5 5 5 5 6 5 5 5 5 5 5 5 5 5 5 5 5 5 5 5 5 5 5 5 5 5 5 5 5 5 5 6 5 5 6 5 5 5 5 5 5 5 5 6 5 6 5 5 5 5 5 5 5 5 6 5 5 5 5 6 5 5 6 5 5 6 5 5 5 6 5 5 5 5 5 5 5 5 5 5 5 5 5 5 5 5 5 5 5 5 6 5 5 5 5 5 5 6 5 5 5 5 5 6 5 5 5 5 5 6 5 6 6 5 5 5 5 5 5 5 5 5 5 5 5 6 5 5 5 5 6 5 6 6 5 5 5 6 5 5 5 5 5 5 5 5 5 5 5 5 5 5 5 5 5 5 5 5 5 5 6 5 6 5 5 6 5 5 6 5 5 6 5 5 5 6 6 5 5 5 5 5 5 5 6 5 5 5 5 5 5 5 5 6 5 5 5 5 5 5 5 6 5 5 5 6 5 6 6 5 5 5 6 5 5 5 5 5 5 5 5 5 5 5 5 5 5 5 5 5 5 5 5 5 5 6 5 5 6 5 5 5 6 5 5 5 5 5 5 5 6 6 5 5 6 5 5 5 5 5 5 5 5 5 5 5 5 5 5 5 5 5 5 5 5 5 5 5 5 5 5 5 5 5 5 5 5 5 5 5 6 5 5 5 5 5 5 5 6 5 5 6 5 5 6 5 5 5 5 5 5 5 5 5 5 5 5 5 5 5 5 5 5 5 6 5 5 5 5 6 5 5 5 5 5 5 5 5 5 5 6 5 5 5 5 6 5 5 5 5 6 6 5 6 5 5 5 5 5 5 5 5 5 5 5 5 5 5 6 5 5 5 5 5 5 5 5 5 6 5 5 5 5 5 5 5 5 5 5 5 5 5 5 5 5 5 5 5 5 5 5 5 5 5 5 5 5 5 5 5 5 5 5 5 5 5 5 5 5 5 6 5 5 5 5 6 5 5 6 5 5 5 5 5 5 6 6 5 5 5 5 6 5 5 5 5 5 5 5 5 5 5 5 5 5 5 5 5 5 5 5 5 5 5 5 5 5 5 5 5 5 5 5 5 5 5 5 5 5 5 5 5 5 5 5 5 5 5 5 5 5 5 5 5 5 5 5 5 5 5 5 5 5 6 5 5 5 5 5 6 5 6 5 5 5 5 5 5 5 5 5 
</DataArray>
<DataArray type="Float64" Name="stress" NumberOfComponents="9" format="ascii">
9.7722240080439349 -3.8272314554239983 0 -3.8272314554239983 -0.37861859778464413 0 0 0 0 -8.4517259842774752 -2449.4435184899748 0 -2449.4435184899748 1008.4518333733649 0 0 0 0 256.54773341605323 -101.20746857577615 0 -101.20746857577615 2.7071975788203417 0 0 0 0 402.49205914071354 -104.96277165092033 0 -104.96277165092033 -1322.1258787991094 0 0 0 0 -0.56037042873219167 -474.26272496685982 0 -474.26272496685982 -513.40992252818251 0 0 0 0 143.22663426675172 295.88240576302542 0 295.88240576302542 -593.78497516163043 0 0 0 0 -181.07703811558895 125.17202037474635 0 125.17202037474635 287.71321605837147 0 0 0 0 38.684625363195664 -473.85727911643335 0 -473.85727911643335 767.08738122933573 0 0 0 0 0.23970762301178183 -551.74241692447322 0 -551.74241692447322 602.97905281464409 0 0 0 0 -2.7522819261946552 -0.80381652444143015 0 -0.80381652444143015 2.1718436728314714 0 0 0 0 -48.562059530115221 -461.91944235484334 0 -461.91944235484334 1181.9555710760687 0 0 0 0 -272.93059960281244 -402.29535128504176 0 -402.29535128504176 1182.38689590578 0 0 0 0 -281.98833175856271 -553.0856563525449 0 -553.0856563525449 1863.547295483484 0 0 0 0 2.345410915010973 -1.6469648552304079 0 -1.6469648552304079 2.0050412213985567 0 0 0 0 0.99736518399721308 -997.10559561983507 0 -997.10559561983507 1202.9568813102524 0 0 0 0 1031.2392478579277 -1091.173024079646 0 -1091.173024079646 1096.9801978830947 0 0 0 0 1416.7483167144237 -1644.7570791840626 0 -1644.7570791840626 1445.6472667349153 0 0 0 0 403.01398778142175 -296.53424363439262 0 -296.53424363439262 1131.9820502744551 0 0 0 0 654.87533439004619 -1300.6728353971375 0 -1300.6728353971375 1545.3555955736065 0 0 0 0 352.21449656554614 -557.15590057675945 0 -557.15590057675945 -194.5672152229381 0 0 0 0 -28.390564743313007 -393.25711912924089 0 -393.25711912924089 861.17721079189505 0 0 0 0 52.592694792037946 -202.93224806924263 0 -202.93224806924263 1279.1982983174094 0 0 0 0 531.17432143424594 -1221.9171327869408 0 -1221.9171327869408 3197.5474989892973 0 0 0 0 855.73926524916169 -538.85807727039719 0 -538.85807727039719 1077.1981133832378 0 0 0 0 324.85068922847859 -663.62606739936746 0 -663.62606739936746 1345.3212059520447 0 0 0 0 24.96852165836026 -4.9424183843366336 0 -4.9424183843366336 43.59402984361077 0 0 0 0 611.86435173198333 -1041.7730534395996 0 -1041.7730534395996 560.95589908197871 0 0 0 0 851.99103634456696 -430.42530920241552 0 -430.42530920241552 100.38943565191585 0 0 0 0 -232.68029489333276 -47.055538735156006 0 -47.055538735156006 1468.4647492649046 0 0 0 0 -1.8801945167169833 -1.2110256189852464 0 -1.2110256189852464 0.2605436300125632 0 0 0 0 -27.630128399580826 -565.32828152816774 0 -565.32828152816774 27.161907951405738 0 0 0 0 70.898422895843396 197.32096722545248 0 197.32096722545248 660.86694426328722 0 0 0 0 23.944316675616278 -9.1315296881407022 0 -9.1315296881407022 -0.92602733427059869 0 0 0 0 242.81301568860363 296.27011648211919 0 296.27011648211919 -974.4164466304137 0 0 0 0 -348.65681991844031 -250.88025378787279 0 -250.88025378787279 203.64559356624886 0 0 0 0 -177.42266057612142 -10.422820558669628 0 -10.422820558669628 -3.9914094529776776 0 0 0 0 25.433199027895171 -12.308195713589356 0 -12.308195713589356 -0.13553062840121766 0 0 0 0 718.79471515642945 -420.20620961449458 0 -420.20620961449458 -99.237907277711201 0 0 0 0 18.691211542900419 -32.561793459211913 0 -32.561793459211913 -5.5229621356047573 0 0 0 0 562.65753215318182 -671.01652980377185 0 -671.01652980377185 -315.42768695567793 0 0 0 0 11.27183600373607 -8.683243200910141 0 -8.683243200910141 1.6260041416432984 0 0 0 0 715.41805082656356 -2132.0751278364696 0 -2132.0751278364696 3084.7752180075477 0 0 0 0 539.69469666110672 -1584.7116131237235 0 -1584.7116131237235 2321.5268182440122 0 0 0 0 1395.2869313139381 -1776.0816611853807 0 -1776.0816611853807 1161.65026071795 0 0 0 0 279.79758279428643 -851.92279841087293 0 -851.92279841087293 1282.8769084180931 0 0 0 0 426.7258266329236 -369.30386980176036 0 -369.30386980176036 537.733960502228 0 0 0 0 1667.5241401476269 -2343.8564274741366 0 -2343.8564274741366 2108.0556702122849 0 0 0 0 1155.3496414349938 -1159.2014146918227 0 -1159.2014146918227 -589.71082939425833 0 0 0 0 1650.1789138823442 -2413.0443419981239 0 -2413.0443419981239 1997.620880488721 0 0 0 0 3.1760319945740889 -4.3822367873785311 0 -4.3822367873785311 -1.3998803849364805 0 0 0 0 1736.0379309443699 -1234.0793827245154 0 -1234.0793827245154 823.69913706187799 0 0 0 0 93.5771191310414 -45.827783363194612 0 -45.827783363194612 -227.62824206436926 0 0 0 0 -67.470782050120761 -247.26939302940445 0 -247.26939302940445 493.87016898352522 0 0 0 0 1326.5185254453536 -769.34438083840723 0 -769.34438083840723 187.97657697722752 0 0 0 0 117.24653351665756 144.65001413882328 0 144.65001413882328 -13.231844379464746 0 0 0 0 464.64925458104699 -270.49117272191506 0 -270.49117272191506 -305.67559461809287 0 0 0 0 -2.4219537050209965 -27.086524393667787 0 -27.086524393667787 -16.535784831651497 0 0 0 0 2671.6749921237206 -936.98214692893816 0 -936.98214692893816 1215.1671625811305 0 0 0 0 159.17602612008341 -1363.1548001485353 0 -1363.1548001485353 1242.1106027780597 0 0 0 0 1039.5455965252913 -2208.4718126191256 0 -2208.4718126191256 2044.1279979055544 0 0 0 0 -395.11469137875247 -282.31976365541777 0 -282.31976365541777 2159.1905858367395 0 0 0 0 253.55107436203252 -715.92664809734106 0 -715.92664809734106 384.83844623564801 0 0 0 0 384.24168989757891 227.29055404220708 0 227.29055404220708 -286.21873971763853 0 0 0 0 2984.5536290125601 -2333.7869879616264 0 -2333.7869879616264 1731.6251289341017 0 0 0 0 4074.3009293754076 -1509.9589355310491 0 -1509.9589355310491 526.72880488328519 0 0 0 0 -218.0574993403352 151.55040442843529 0 151.55040442843529 614.59703887118667 0 0 0 0 -1.7710389298450373 -8.3512733421012797 0 -8.3512733421012797 29.697892008870866 0 0 0 0 2920.1374458699611 -1431.7289695531326 0 -1431.7289695531326 530.41818309947848 0 0 0 0 2632.937788961739 -273.71425197605822 0 -273.71425197605822 256.11812906176783 0 0 0 0 5.7993466216826732 -9.4208672256830539 0 -9.4208672256830539 3.262136735938725 0 0 0 0 1702.9898981654405 -404.13808327643346 0 -404.13808327643346 -231.94337468701997 0 0 0 0 192.89202183176531 113.80778669625579 0 113.80778669625579 156.6324458666204 0 0 0 0 -125.09158918079629 -23.556875282480178 0 -23.556875282480178 -20.382246426583151 0 0 0 0 0.020332788367227295 -39.598310934186117 0 -39.598310934186117 -3.8598899717642894 0 0 0 0 35.990258311096113 -33.064124816577532 0 -33.064124816577532 1.8323604952311143 0 0 0 0 -1.2989629296109184 -32.647203584005084 0 -32.647203584005084 5.8498534608138755 0 0 0 0 -220.4401297630975 -242.99662202151376 0 -242.99662202151376 -307.68607482418884 0 0 0 0 13.096277975461931 -47.010943966632567 0 -47.010943966632567 -28.286935470923169 0 0 0 0 -24.973826672264892 -39.514693651066381 0 -39.514693651066381 -10.908784088920491 0 0 0 0 -94.618826468882617 110.66360170779808 0 110.66360170779808 -128.49277882341994 0 0 0 0 -274.05607023768243 121.46428178599308 0 121.46428178599308 178.10270995253813 0 0 0 0 -74.220633070566691 -53.907666860890458 0 -53.907666860890458 5.6439330106950365 0 0 0 0 -26.516923670435062 -171.5333589780621 0 -171.5333589780621 130.1183495678124 0 0 0 0 -82.245092630008003 -62.075628242309904 0 -62.075628242309904 -2.3965085818053922 0 0 0 0 18.822178896138212 -100.30130221661238 0 -100.30130221661238 21.456925222708378 0 0 0 0 21.041006083170942 -94.988268237593729 0 -94.988268237593729 12.759591143782018 0 0 0 0 -77.490214446326718 -82.495713850512402 0 -82.495713850512402 44.19572421401972 0 0 0 0 1020.6831112329237 -238.74507151873695 0 -238.74507151873695 152.2328041685978 0 0 0 0 11.529497318910558 -6.3683632996033168 0 -6.3683632996033168 -10.574676861894773 0 0 0 0 122.19704512764292 -77.832810227435402 0 -77.832810227435402 20.743276819164748 0 0 0 0 -6.6227178255466548 -43.193247283776273 0 -43.193247283776273 10.24226595006175 0 0 0 0 -100.39151042286539 -62.11240144851763 0 -62.11240144851763 44.310318546609778 0 0 0 0 -73.367046113533434 -64.205759521799337 0 -64.205759521799337 -0.84915531740989536 0 0 0 0 -1.9559293894293432 -7.2953349249506658 0 -7.2953349249506658 7.2137435945497401 0 0 0 0 128.87276226171525 -59.4851082945097 0 -59.4851082945097 -5.5571251686196774 0 0 0 0 -47.794252852676436 14.209483225662552 0 14.209483225662552 185.08824941132002 0 0 0 0 -60.94600418631444 -47.910642090469423 0 -47.910642090469423 187.10546171724127 0 0 0 0 -19.761106517784356 -7.2940381779098971 0 -7.2940381779098971 103.70929413133126 0 0 0 0 -58.559184789266965 -86.198298445130149 0 -86.198298445130149 81.602385983394925 0 0 0 0 202.75750751937812 -123.52735045243844 0 -123.52735045243844 -0.37719186904723756 0 0 0 0 -321.39510648771829 -175.11378810111637 0 -175.11378810111637 879.87657111635781 0 0 0 0 172.26903773771483 -267.58938213379588 0 -267.58938213379588 78.534555481237476 0 0 0 0 35.505029543142882 -127.71027039021283 0 -127.71027039021283 31.54563463042723 0 0 0 0 153.54052189735376 -58.782937328274784 0 -58.782937328274784 -23.799780649205786 0 0 0 0 105.29759343201295 -127.67802831594599 0 -127.67802831594599 6.4506867078162031 0 0 0 0 64.889991942793131 -126.64663424486207 0 -126.64663424486207 9.5659827459385269 0 0 0 0 83.935775594611187 -85.909081186233379 0 -85.909081186233379 1.017747537989635 0 0 0 0 116.36926602401218 -108.64146033361612 0 -108.64146033361612 -2.7806527646025643 0 0 0 0 99.087591072671785 -108.0153785581133 0 -108.0153785581133 2.553337713208748 0 0 0 0 -7.4893441385059845 -5.1848143588192244 0 -5.1848143588192244 -2.2174992935274815 0 0 0 0 -64.58803879460902 -30.323258812575659 0 -30.323258812575659 -1.5075572254572762 0 0 0 0 -80.194697261613328 -25.991956391109852 0 -25.991956391109852 1.0092125873197801 0 0 0 0 -68.132356644782703 -39.588684805523371 0 -39.588684805523371 6.0103667891235091 0 0 0 0 -42.966299448977225 -37.978984131041216 0 -37.978984131041216 -3.1473257181060035 0 0 0 0 -14.778648115722675 -34.450198471646246 0 -34.450198471646246 -7.5080746253303232 0 0 0 0 -84.651622803590726 -50.966883771267021 0 -50.966883771267021 2.2409718527342193 0 0 0 0 -29.289948059948074 -28.717883964269276 0 -28.717883964269276 -3.5419056110549718 0 0 0 0 -6.7133690103703501 -2.49745553025042 0 -2.49745553025042 0.030187002902096083 0 0 0 0 -20.978063652487478 -36.416737874270126 0 -36.416737874270126 14.129348881963807 0 0 0 0 -88.265268230868969 -10.797650687993155 0 -10.797650687993155 25.109981017943937 0 0 0 0 -67.8992597158649 -49.805201492097694 0 -49.805201492097694 -4.4960623216757085 0 0 0 0 -13.270061887399862 -3.6331726681419383 0 -3.6331726681419383 7.1859523583143528 0 0 0 0 -31.038026070469186 -20.01819091511868 0 -20.01819091511868 -9.3168971910781693 0 0 0 0 -0.017721413591061719 -29.36122261937453 0 -29.36122261937453 -7.2824803072944633 0 0 0 0 -17.954049035000651 -36.648581174188706 0 -36.648581174188706 1.7812108838043059 0 0 0 0 -11.661005145153673 -17.921363335928689 0 -17.921363335928689 -1.2863679813671354 0 0 0 0 -6.8271063008123889 -22.743609388838877 0 -22.743609388838877 -5.654328742580077 0 0 0 0 -22.683030479412395 -22.413736335709487 0 -22.413736335709487 -8.9303442951116949 0 0 0 0 -5.3382296164199943 -32.338117673119996 0 -32.338117673119996 13.022479873041448 0 0 0 0 -12.38427257281505 -18.534898845944525 0 -18.534898845944525 -12.666345018717323 0 0 0 0 58.737487752314337 -92.105963583790071 0 -92.105963583790071 -0.46396250190446153 0 0 0 0 71.639207145286491 -38.217875840877241 0 -38.217875840877241 -22.199845882285445 0 0 0 0 61.369583548497758 -100.01587138768809 0 -100.01587138768809 19.057668897527037 0 0 0 0 62.911373172941239 -97.114963270545559 0 -97.114963270545559 6.3710651476867497 0 0 0 0 37.578312732170161 -120.97828805607787 0 -120.97828805607787 55.501292505388847 0 0 0 0 9.6651073691318743 -68.38539645903802 0 -68.38539645903802 7.6263879802500014 0 0 0 0 150.27372668508906 48.468788955018681 0 48.468788955018681 -108.7011664158199 0 0 0 0 109.80385049013421 64.820423664990813 0 64.820423664990813 -41.705637430190109 0 0 0 0 -13.772525666267029 -76.766945809697063 0 -76.766945809697063 30.584497181436745 0 0 0 0 -2.692282693088373 -7.663158782539405 0 -7.663158782539405 -10.235305160502776 0 0 0 0 -6.6034017160193059 -25.707666429046299 0 -25.707666429046299 -25.25676592713927 0 0 0 0 72.075272245303495 -67.899114423649735 0 -67.899114423649735 -62.343499895738205 0 0 0 0 68.298616013955325 -61.887985442153877 0 -61.887985442153877 -123.74761400451825 0 0 0 0 24.341904712167889 -65.934367520270825 0 -65.934367520270825 -62.797059831558727 0 0 0 0 51.249175790668232 -53.707262538009672 0 -53.707262538009672 -66.52474057636573 0 0 0 0 66.255089251266327 -67.790877777108108 0 -67.790877777108108 -54.98899136367254 0 0 0 0 69.171919164247811 -63.573339825088624 0 -63.573339825088624 -49.03322143421974 0 0 0 0 7.6251408752152372 -2.4701372102680068 0 -2.4701372102680068 -9.1741165395585824 0 0 0 0 24.53756893996615 -56.023923688160721 0 -56.023923688160721 49.633317918458488 0 0 0 0 73.39496700674863 -29.901989232726919 0 -29.901989232726919 -49.195540626125876 0 0 0 0 5.2563437435164815 -23.599871937542048 0 -23.599871937542048 -12.444550943328068 0 0 0 0 9.5673347600495617 -39.632881918823841 0 -39.632881918823841 -16.56757439935609 0 0 0 0 6.1528666709200479 -31.931831956950191 0 -31.931831956950191 -33.222961920444504 0 0 0 0 -16.95958426629187 -28.843437049080961 0 -28.843437049080961 -10.77657045122433 0 0 0 0 -5.2524596040841232 -32.615215414174251 0 -32.615215414174251 -31.363950275538286 0 0 0 0 -2.9964375083509367 -72.950696973479353 0 -72.950696973479353 34.684254292034893 0 0 0 0 -54.308682415925432 -2.7153305063402513 0 -2.7153305063402513 -61.301007426111028 0 0 0 0 -4.325564117105472 -21.715279566137767 0 -21.715279566137767 -20.12596649937025 0 0 0 0 1.1168921415519435 -57.586060251051094 0 -57.586060251051094 -21.529420156875858 0 0 0 0 6.7911764270393178 -50.434249397265376 0 -50.434249397265376 -16.391244517377345 0 0 0 0 6.6202196589354685 -26.665047724443653 0 -26.665047724443653 -30.618563727334546 0 0 0 0 2.2384871954514693 -22.207014958885665 0 -22.207014958885665 -26.259656765452164 0 0 0 0 113.3505314975846 165.71826320648688 0 165.71826320648688 -617.92593049960124 0 0 0 0 -32.671203691648969 -41.621799280426401 0 -41.621799280426401 3.4104487461602844 0 0 0 0 -33.342743973704273 -35.408321273672584 0 -35.408321273672584 8.5743223446743286 0 0 0 0 138.27479930909612 -7.2590077703180214 0 -7.2590077703180214 -13.716121966790524 0 0 0 0 -45.168342920667783 -38.932607661990914 0 -38.932607661990914 11.733585026908258 0 0 0 0 -1.0794405977940187 -89.797698006666906 0 -89.797698006666906 18.502746366861174 0 0 0 0 16.465768959409615 -51.233061653601908 0 -51.233061653601908 101.28212565826834 0 0 0 0 85.534707709171926 -98.599715837444819 0 -98.599715837444819 3.2673755307405372 0 0 0 0 176.92787570343353 -13.181418146545184 0 -13.181418146545184 -208.74682071941788 0 0 0 0 -39.38632394085289 -184.36753900894837 0 -184.36753900894837 54.549890015856363 0 0 0 0 33.510844491585885 -141.9676916947983 0 -141.9676916947983 -155.76875045115594 0 0 0 0 46.448020864656428 -104.60284948800108 0 -104.60284948800108 -126.68448791616538 0 0 0 0 50.469877379058744 -60.057279541935713 0 -60.057279541935713 6.6174955195820075 0 0 0 0 98.131387290537532 -79.583391984731861 0 -79.583391984731861 40.568368703519809 0 0 0 0 -3.0089523578280932 -83.622456269393297 0 -83.622456269393297 5.7171699682658073 0 0 0 0 0.029749615596542434 -40.738756776531034 0 -40.738756776531034 8.4731776780283212 0 0 0 0 62.577722766982333 -47.938858691308269 0 -47.938858691308269 42.447207412114949 0 0 0 0 98.281779824261321 -21.474171616348031 0 -21.474171616348031 12.934592244173473 0 0 0 0 -1.1952564734180982 -2.9955570995464313 0 -2.9955570995464313 -6.1616328547466139 0 0 0 0 798.96947142513818 -415.46459420802421 0 -415.46459420802421 163.5158052026236 0 0 0 0 820.73976489811685 -477.00278276652807 0 -477.00278276652807 230.94702121934097 0 0 0 0 152.77034054911201 -76.894048421855587 0 -76.894048421855587 8.0948241937876446 0 0 0 0 910.58504334244935 -636.18243387054736 0 -636.18243387054736 300.7636452435836 0 0 0 0 962.51973686541896 -463.06585408472165 0 -463.06585408472165 94.010194003953075 0 0 0 0 635.83041345085076 -723.45746497020082 0 -723.45746497020082 458.44053744876146 0 0 0 0 747.75824032303353 -513.31239859748166 0 -513.31239859748166 213.54025876294327 0 0 0 0 538.592099079935 -349.18369392782552 0 -349.18369392782552 181.4880781899119 0 0 0 0 425.29612601727422 -582.32945004777139 0 -582.32945004777139 368.2689799202526 0 0 0 0 265.48420626672851 -426.24094895117787 0 -426.24094895117787 216.18413131010311 0 0 0 0 245.71995632008475 -589.81941643399114 0 -589.81941643399114 449.79116708871516 0 0 0 0 -0.2629959062251146 -638.26917583722025 0 -638.26917583722025 653.66262877434201 0 0 0 0 242.94454980567389 -613.58008890725614 0 -613.58008890725614 447.98274845531114 0 0 0 0 451.77899418571906 -581.96937971593434 0 -581.96937971593434 366.40771631837561 0 0 0 0 311.05111211484473 -697.26808332841028 0 -697.26808332841028 529.9474163390696 0 0 0 0 451.08048730938754 -720.5222126829176 0 -720.5222126829176 531.06360154926188 0 0 0 0 185.96197620053863 -762.34833398095725 0 -762.34833398095725 732.19825113190745 0 0 0 0 0.11059187724458752 -653.14362444374638 0 -653.14362444374638 114.80895189431612 0 0 0 0 -134.04291814059434 -400.92887401333155 0 -400.92887401333155 775.73665381348837 0 0 0 0 130.92004649805313 -986.90039086685101 0 -986.90039086685101 1807.4682350411094 0 0 0 0 2.3904407944845332 -1.6201670049511989 0 -1.6201670049511989 1.3833355076548912 0 0 0 0 1120.8933696638414 -1064.3944737743768 0 -1064.3944737743768 622.70379829067679 0 0 0 0 1502.0436430473928 -1332.4252355217395 0 -1332.4252355217395 939.67670806897877 0 0 0 0 1701.3367890817899 -772.63090981159621 0 -772.63090981159621 229.75298480062338 0 0 0 0 1421.318620441969 -696.8044509701358 0 -696.8044509701358 328.65699349888018 0 0 0 0 1035.2094468914293 -903.27251201311446 0 -903.27251201311446 625.63771329609881 0 0 0 0 995.89720153814415 -640.59306045596168 0 -640.59306045596168 314.47390506812371 0 0 0 0 1017.5583340562735 -510.2433553404519 0 -510.2433553404519 272.57295621233061 0 0 0 0 1380.6301430816529 -884.70067973953701 0 -884.70067973953701 406.64388394428534 0 0 0 0 1338.1287575750321 -537.20956343108992 0 -537.20956343108992 102.07952559116529 0 0 0 0 1106.4957239658397 -594.06763883608073 0 -594.06763883608073 187.22024352056906 0 0 0 0 1039.7723010925038 -680.07313867396078 0 -680.07313867396078 270.46513498316926 0 0 0 0 764.7231153974426 -922.49175471361377 0 -922.49175471361377 662.13332165077009 0 0 0 0 446.95340973379462 -697.02320240606741 0 -697.02320240606741 502.15689946354541 0 0 0 0 37.258349269326573 -64.663532029213457 0 -64.663532029213457 -35.95427752179603 0 0 0 0 0.3537016222908278 -48.648025558628433 0 -48.648025558628433 -26.424685922291246 0 0 0 0 -16.08603918453224 -23.906246349526185 0 -23.906246349526185 -26.929608249743524 0 0 0 0 41.818375779946791 -141.26596806355542 0 -141.26596806355542 34.456798342966067 0 0 0 0 22.064817127160495 -66.368465360632399 0 -66.368465360632399 113.59474957798375 0 0 0 0 -7.953276262634688 -26.403128294128962 0 -26.403128294128962 -27.296020251317273 0 0 0 0 30.682015341546503 21.53875721359509 0 21.53875721359509 -127.5660232516384 0 0 0 0 104.63957046112773 -150.86582400974658 0 -150.86582400974658 36.260376600417658 0 0 0 0 -40.135477072646609 -235.32547772641919 0 -235.32547772641919 301.38673960038432 0 0 0 0 33.494227340583848 -60.865605372370283 0 -60.865605372370283 157.72633412240248 0 0 0 0 -8.0212037998387586 -22.04701520720954 0 -22.04701520720954 -12.717502431786031 0 0 0 0 -0.074777840013155128 -19.485960074397582 0 -19.485960074397582 -34.445769497346504 0 0 0 0 120.31388966214763 -237.14150343597612 0 -237.14150343597612 80.269334196127602 0 0 0 0 138.1915784718949 -174.62451194923051 0 -174.62451194923051 -7.6038113044996862 0 0 0 0 83.514321180093248 -187.87601755260766 0 -187.87601755260766 -7.813007184813614 0 0 0 0 89.996907251355879 -227.52337939095742 0 -227.52337939095742 -0.11262927301140735 0 0 0 0 169.67936289349018 -198.41432859071938 0 -198.41432859071938 -14.208787131719873 0 0 0 0 -63.727924576960504 -120.40440668986776 0 -120.40440668986776 -42.955149256100412 0 0 0 0 54.827759552013958 -230.8535728230072 0 -230.8535728230072 12.061475910275476 0 0 0 0 -7.5547186238545692 -223.75727579032173 0 -223.75727579032173 18.791687267890666 0 0 0 0 -123.9325372349922 -88.231873205084412 0 -88.231873205084412 -97.891074088871392 0 0 0 0 -183.71518470773299 -147.85517263513248 0 -147.85517263513248 29.556944623764139 0 0 0 0 -416.7757016880787 -64.529270004510181 0 -64.529270004510181 -0.061826352168282028 0 0 0 0 -143.61069506034255 -201.41869648242573 0 -201.41869648242573 -60.943267842638306 0 0 0 0 -316.84044012067898 -174.54093335636571 0 -174.54093335636571 24.358340038263123 0 0 0 0 -179.92106486542616 71.985061051840603 0 71.985061051840603 -43.003337070069392 0 0 0 0 -353.59357614619512 -92.611389528101427 0 -92.611389528101427 68.164376699714921 0 0 0 0 -1.0469919637815792 -1.9289318962537436 0 -1.9289318962537436 -1.0760033665169288 0 0 0 0 -167.34957675153419 -89.985105597384972 0 -89.985105597384972 -38.91044692772266 0 0 0 0 -120.99820868105598 -100.59491844990407 0 -100.59491844990407 72.047245799527445 0 0 0 0 -240.75944680639077 -59.878956377753639 0 -59.878956377753639 77.276494350458961 0 0 0 0 -3.4696780679547885 -1.799124777578669 0 -1.799124777578669 -0.75478458075686206 0 0 0 0 416.17041242680716 329.11127816293811 0 329.11127816293811 -177.5243602613773 0 0 0 0 -133.52318408343126 -186.26486444521288 0 -186.26486444521288 396.81223061565834 0 0 0 0 -23.000880154926563 -207.6220241054034 0 -207.6220241054034 232.32698030279425 0 0 0 0 -172.23512292964733 -388.54067783383653 0 -388.54067783383653 41.377104072817019 0 0 0 0 -427.10535237069053 -231.09493472786198 0 -231.09493472786198 433.55550252606918 0 0 0 0 11.876553718786454 55.944517836691375 0 55.944517836691375 225.81907628041517 0 0 0 0 25.542375718488529 -110.10773775189409 0 -110.10773775189409 15.535274847687106 0 0 0 0 -183.34643869769934 -45.943101791686786 0 -45.943101791686786 457.18968320920794 0 0 0 0 -13.494404433540382 -30.850124744189287 0 -30.850124744189287 -27.793373782474461 0 0 0 0 -4.2264101095984348 -8.6811286028048542 0 -8.6811286028048542 6.0092851641129528 0 0 0 0 411.13547890612972 -168.90674269864394 0 -168.90674269864394 63.063344659174618 0 0 0 0 -184.00966138481454 -6.4929757184509072 0 -6.4929757184509072 239.53625919010301 0 0 0 0 -236.87911204987904 -143.82854918987141 0 -143.82854918987141 219.44246061798276 0 0 0 0 24.40202431274156 -63.882454576410964 0 -63.882454576410964 79.386694910426741 0 0 0 0 -57.68121443191194 -119.09159484753036 0 -119.09159484753036 50.527364720197511 0 0 0 0 -6.7365641491251154 1.4527542594378247 0 1.4527542594378247 7.6721535152755678 0 0 0 0 -4.0630652511244989 -8.6655012594128493 0 -8.6655012594128493 13.868812469067052 0 0 0 0 -153.79880110561862 -5.4230882067386119 0 -5.4230882067386119 177.14702652810229 0 0 0 0 -14.62111070699757 0.27356382174184546 0 0.27356382174184546 87.362603561810829 0 0 0 0 -13.66324964588307 -2.5910583702677172 0 -2.5910583702677172 -1.0190439367535049 0 0 0 0 -1.7313889711622323 0.29630693560284271 0 0.29630693560284271 -2.4912917940673651 0 0 0 0 15.154805731173838 17.922083936318813 0 17.922083936318813 -16.551831115764799 0 0 0 0 9.8265378594023787 30.396775552042527 0 30.396775552042527 9.7416900079551851 0 0 0 0 4.6215459185259533 -11.628900064970367 0 -11.628900064970367 -30.193383346897463 0 0 0 0 31.113611956963723 3.6997674478043336 0 3.6997674478043336 -0.10518051154213026 0 0 0 0 -3.6523071211347258 -3.9117011888362754 0 -3.9117011888362754 0.82562038070592791 0 0 0 0 -6.9415001773813856 -2.0125415327056544 0 -2.0125415327056544 21.191661668141023 0 0 0 0 1.6491293806748502 0.064094285477636959 0 0.064094285477636959 -0.095016356340352104 0 0 0 0 -19.046672844167915 -1.3473373535016435 0 -1.3473373535016435 18.135451868743985 0 0 0 0 7.6244754877625383 7.7000138950970722 0 7.7000138950970722 -14.422146082142717 0 0 0 0 -21.556839856955776 7.7346243933170626 0 7.7346243933170626 14.086582523610559 0 0 0 0 157.04800896735469 -264.3225342035621 0 -264.3225342035621 430.10222029688157 0 0 0 0 -15.729402682060027 -32.73264331487735 0 -32.73264331487735 -8.8949378120487381 0 0 0 0 -3.2487052962921581 -1.2386891790548304 0 -1.2386891790548304 6.071330390631573 0 0 0 0 4.5981447636258395 -7.6312040804572803 0 -7.6312040804572803 -1.9895866737516812 0 0 0 0 627.29452909760585 -483.11085460861432 0 -483.11085460861432 2.6334676400724071 0 0 0 0 -28.268761651401292 -70.333583800455017 0 -70.333583800455017 51.30428471173218 0 0 0 0 -92.992041936049645 18.227780297274876 0 18.227780297274876 86.125122362260299 0 0 0 0 -20.015689896270004 -12.173242023549278 0 -12.173242023549278 4.1155598890838689 0 0 0 0 -13.933213253250869 -17.911476419973042 0 -17.911476419973042 47.001086542710254 0 0 0 0 -5.0069908554611828 -7.1825528921172577 0 -7.1825528921172577 5.9483730570088085 0 0 0 0 -5.8020486594432441 -95.682605718588093 0 -95.682605718588093 109.99993296736648 0 0 0 0 11.662693585734814 -59.262956762249814 0 -59.262956762249814 45.427581707743229 0 0 0 0 10.932633314412669 -58.642770286118321 0 -58.642770286118321 52.95938969933195 0 0 0 0 -30.173496301216261 -20.535955510476782 0 -20.535955510476782 40.370343164594516 0 0 0 0 20.173029207449872 -82.680554602804477 0 -82.680554602804477 37.090826753646979 0 0 0 0 15.013354828361685 -29.059972244592089 0 -29.059972244592089 -10.585208133546757 0 0 0 0 95.087823637184556 78.504751339617542 0 78.504751339617542 -112.2741425497079 0 0 0 0 26.817849355753424 -50.480772561189951 0 -50.480772561189951 46.823932442814112 0 0 0 0 -23.541486004947529 -22.525817742532624 0 -22.525817742532624 37.952683449407743 0 0 0 0 10.589527096693928 -50.176172854167817 0 -50.176172854167817 56.439802261174918 0 0 0 0 26.472834862866875 -42.692173877483583 0 -42.692173877483583 40.886540676860022 0 0 0 0 11.078655658842763 -51.000859228472109 0 -51.000859228472109 47.667044474468639 0 0 0 0 -9.324165224148885 -7.6214241629429864 0 -7.6214241629429864 7.0404300387073704 0 0 0 0 8.906270577081159 -31.969360955648881 0 -31.969360955648881 36.608540817062021 0 0 0 0 33.096036740782438 -39.309821512772032 0 -39.309821512772032 59.904599331144709 0 0 0 0 -26.58149449629127 -39.470644867338706 0 -39.470644867338706 10.901639860472642 0 0 0 0 -26.748613213105273 -36.609283405454335 0 -36.609283405454335 1.902416821118095 0 0 0 0 3.6847926171903964 -51.936058099789079 0 -51.936058099789079 47.502149929558072 0 0 0 0 1.9903149899835029 -31.900111316526974 0 -31.900111316526974 24.683236835646241 0 0 0 0 -12.335967475080949 -23.044597064948398 0 -23.044597064948398 9.9318113450833607 0 0 0 0 -5.535304044950351 -54.108267081403469 0 -54.108267081403469 8.5564735596562969 0 0 0 0 -3.952419556415407 -48.444565715893987 0 -48.444565715893987 11.002828437391145 0 0 0 0 -13.732334007854249 -33.521683403028192 0 -33.521683403028192 17.421115857295348 0 0 0 0 -13.243474499875447 -39.522355439439707 0 -39.522355439439707 12.422453870385652 0 0 0 0 -10.532632747627844 -42.874724689090975 0 -42.874724689090975 -11.295311925822972 0 0 0 0 -14.078909370819019 -27.616209842164807 0 -27.616209842164807 -9.3884114211175387 0 0 0 0 -1.1946158842833654 -52.485891720957227 0 -52.485891720957227 9.1609546778345248 0 0 0 0 -167.32168110392377 -67.031265181758499 0 -67.031265181758499 180.58098057188545 0 0 0 0 -5.5495503414255438 -2.4236513489979075 0 -2.4236513489979075 4.6608263343961056 0 0 0 0 -11.808583467776771 -6.3956268905749312 0 -6.3956268905749312 20.713216693497088 0 0 0 0 -26.88984519798646 -38.856192222236047 0 -38.856192222236047 -19.850612465414002 0 0 0 0 30.694211226480547 -39.412783261301229 0 -39.412783261301229 -288.39937067927531 0 0 0 0 -20.533213860728665 -31.932040210429932 0 -31.932040210429932 -94.43304973719205 0 0 0 0 -23.045969298893851 -16.847250526335529 0 -16.847250526335529 -50.854983716235438 0 0 0 0 -2.0889613387771533 -13.237058363727556 0 -13.237058363727556 -29.317867556686906 0 0 0 0 2.6064709984698737 -4.4501392672005142 0 -4.4501392672005142 -5.383790746834606 0 0 0 0 -17.359002352226526 -34.803134575970034 0 -34.803134575970034 -19.705720465444756 0 0 0 0 -12.396929587272098 -29.553068559581249 0 -29.553068559581249 -2.8727605007992736 0 0 0 0 -9.5120740213351382 -35.086204507519142 0 -35.086204507519142 5.4486051281273831 0 0 0 0 -8.3876381842710543 -33.466846320916375 0 -33.466846320916375 5.0149127710683388 0 0 0 0 -6.0532681660447167 -33.341708905490009 0 -33.341708905490009 -4.23508070252511 0 0 0 0 -3.3077472735159148 -37.488625213823795 0 -37.488625213823795 -2.8296121972978483 0 0 0 0 -14.63941581709129 -27.741201339356522 0 -27.741201339356522 10.862661930818888 0 0 0 0 -10.662326779800424 -33.625624824180704 0 -33.625624824180704 13.803297997656045 0 0 0 0 -2.2292403015219833 -36.505728380425253 0 -36.505728380425253 -25.236822095846563 0 0 0 0 -4.1914225820219144 -42.911386252148077 0 -42.911386252148077 -10.617180687899236 0 0 0 0 -12.765157535907051 -24.32010701026671 0 -24.32010701026671 -16.697765872262025 0 0 0 0 5.4906061199096712 -21.93287635507593 0 -21.93287635507593 2.7984245761871449 0 0 0 0 4.4055470044986578 -48.627098055443639 0 -48.627098055443639 -8.9406949586932569 0 0 0 0 3.950662552324502 -46.929901254101424 0 -46.929901254101424 20.003132726804324 0 0 0 0 -2.5318929525237763 -46.095638994011097 0 -46.095638994011097 -8.7312213593759225 0 0 0 0 -18.579972235597324 -47.49883214071474 0 -47.49883214071474 -41.775703141887789 0 0 0 0 4.6334221399920352 -52.493939786825649 0 -52.493939786825649 -89.280938619602239 0 0 0 0 4.7930329646114842 -23.17946876575661 0 -23.17946876575661 -53.599959236355062 0 0 0 0 -1.5462057506083511 -6.8795922131757834 0 -6.8795922131757834 -78.234923713724129 0 0 0 0 -0.90444799661781872 -19.025972543109674 0 -19.025972543109674 -17.673283405776601 0 0 0 0 23.051456428467645 -16.330578930042975 0 -16.330578930042975 -74.692088541356497 0 0 0 0 2.480517696948624 -0.70626911754630051 0 -0.70626911754630051 -7.171145670582483 0 0 0 0 -20.516365230141673 -100.3584167391964 0 -100.3584167391964 -23.237926644011168 0 0 0 0 -28.050875438348157 -95.857711955679406 0 -95.857711955679406 -25.288893656237633 0 0 0 0 8.2097934990306385 -110.97963925320073 0 -110.97963925320073 -19.226191016117809 0 0 0 0 6.9963775014766725 -74.877780992828775 0 -74.877780992828775 -25.374313751328373 0 0 0 0 -20.224270963502931 -53.532364118353144 0 -53.532364118353144 -27.120587746045203 0 0 0 0 1.7506113071103755 -52.928162098156463 0 -52.928162098156463 -31.995892088933033 0 0 0 0 -62.30479156356887 -59.956169104574656 0 -59.956169104574656 -28.290910269257438 0 0 0 0 -61.512111431118683 -22.174249815987423 0 -22.174249815987423 -46.815623399044853 0 0 0 0 -13.969382916060567 -32.26783603788499 0 -32.26783603788499 -18.82844170826138 0 0 0 0 -4.6582963642140385 -27.888726399411098 0 -27.888726399411098 -30.054675166888046 0 0 0 0 -1.1468676045187749 -38.618890038051177 0 -38.618890038051177 -25.955308127216995 0 0 0 0 -3.8711050463316496 -27.506393220388418 0 -27.506393220388418 -37.552146437417832 0 0 0 0 -1.8209592758612416 -31.086182314120379 0 -31.086182314120379 -28.600004807769437 0 0 0 0 0.46958259160965099 -33.879811731119844 0 -33.879811731119844 -21.996629188797669 0 0 0 0 -0.38307672146402183 -34.837315131135256 0 -34.837315131135256 -21.759324349026429 0 0 0 0 -0.73876680000466877 -30.592505419188456 0 -30.592505419188456 -19.422499026462901 0 0 0 0 -6.5689476696934435 -34.765772672864841 0 -34.765772672864841 -14.947621861851076 0 0 0 0 -10.386782115907408 -36.342759190170909 0 -36.342759190170909 -14.82345251791412 0 0 0 0 0.96060800297709648 -39.755928538797889 0 -39.755928538797889 -14.708048359356326 0 0 0 0 11.369095135407406 -38.760393628235761 0 -38.760393628235761 -14.232281988049181 0 0 0 0 5.6144589372743212 -28.212117871535156 0 -28.212117871535156 -12.000643287334242 0 0 0 0 42.176617664532387 -72.373183415846142 0 -72.373183415846142 7.6173289422695234 0 0 0 0 -24.12306344047829 -48.804003883982659 0 -48.804003883982659 51.228014334483305 0 0 0 0 -74.466231876882375 -108.6621168134152 0 -108.6621168134152 146.08098773313395 0 0 0 0 -13.564500332639909 -29.675437830214008 0 -29.675437830214008 -19.102301231136593 0 0 0 0 95.391907548037125 150.42389507377811 0 150.42389507377811 43.029686995594602 0 0 0 0 -2.7550220146664799 -1.2445086950037592 0 -1.2445086950037592 -1.521033567807109 0 0 0 0 3.055584173736861 -67.269581523501984 0 -67.269581523501984 -102.81166177810519 0 0 0 0 24.004669931870012 -27.309385137628851 0 -27.309385137628851 -30.289231204864336 0 0 0 0 -93.364783733151853 -186.27856541151414 0 -186.27856541151414 -75.872456976823742 0 0 0 0 -122.73259724425498 -324.96537742033252 0 -324.96537742033252 39.283577204725589 0 0 0 0 54.077075488883565 35.143567160055682 0 35.143567160055682 20.558913235196087 0 0 0 0 -9.862742016839448 -28.036979519797427 0 -28.036979519797427 -26.402120333526852 0 0 0 0 15.950892857974395 -61.769732709566597 0 -61.769732709566597 19.727587836052408 0 0 0 0 -23.753003481940731 -65.925828544899673 0 -65.925828544899673 6.3199798967586105 0 0 0 0 -2.6447368624540104 33.220939233633544 0 33.220939233633544 -152.15467452675148 0 0 0 0 22.728609281650279 -78.914395042345859 0 -78.914395042345859 41.190048109798227 0 0 0 0 -20.571272761228414 -34.751193790820281 0 -34.751193790820281 -27.76743509047688 0 0 0 0 -250.5264870614883 38.258196039339964 0 38.258196039339964 182.48308968305355 0 0 0 0 -125.25297583402426 -95.579441933441558 0 -95.579441933441558 102.58115304230159 0 0 0 0 67.099566383494675 -41.312639129813761 0 -41.312639129813761 34.437407784600509 0 0 0 0 -8.1010773599482491 -123.87547001762869 0 -123.87547001762869 279.33906169202237 0 0 0 0 -4.0690580654562885 -31.693480452924021 0 -31.693480452924021 -9.4062098472658136 0 0 0 0 8.6293145124036528 -41.690033643064453 0 -41.690033643064453 7.5542493291541177 0 0 0 0 -4.1680814900724954 -19.44340968201081 0 -19.44340968201081 -23.212360863414631 0 0 0 0 -3.5711883764379309 -26.372861718948116 0 -26.372861718948116 -4.3412222471961286 0 0 0 0 -11.013870382721507 -36.922722783589052 0 -36.922722783589052 -16.952298402131419 0 0 0 0 -10.024397709858022 -33.355338630230108 0 -33.355338630230108 -7.297095272140723 0 0 0 0 -4.0193750754115172 -33.722816574649187 0 -33.722816574649187 -14.134793972094485 0 0 0 0 -3.0185546428401722 -32.454468669668131 0 -32.454468669668131 -16.791141303285258 0 0 0 0 -4.7873693712172098 -31.241878406930482 0 -31.241878406930482 -15.286108253640123 0 0 0 0 -5.6743398972321302 -35.522050718122046 0 -35.522050718122046 -18.516451420240628 0 0 0 0 -6.8273147617583163 -33.750347063309164 0 -33.750347063309164 -13.504742997036374 0 0 0 0 -4.0338272499357117 -34.203054288820567 0 -34.203054288820567 -21.129089392983587 0 0 0 0 -2.6925610559846973 -35.972563577219262 0 -35.972563577219262 -22.503227951863664 0 0 0 0 -4.0554096176056191 -40.222304519516911 0 -40.222304519516911 -28.930585436601973 0 0 0 0 -1.3573996975210321 -37.315330120547969 0 -37.315330120547969 -34.025599415428587 0 0 0 0 -9.2450482439708139 -38.84604033019059 0 -38.84604033019059 -23.189392116146337 0 0 0 0 7.8055160653622444 -29.498334399941747 0 -29.498334399941747 -12.827085574390438 0 0 0 0 -0.6032046008767793 -37.823600686264399 0 -37.823600686264399 -33.70107078433648 0 0 0 0 44.841731621389044 -81.414372351122438 0 -81.414372351122438 -63.036407394662092 0 0 0 0 0.13287421062878479 -15.921799492125562 0 -15.921799492125562 13.978817329362201 0 0 0 0 -6.8718383854720742 -39.832990228154813 0 -39.832990228154813 -26.765590875762427 0 0 0 0 -55.928200928079605 -141.73142661028487 0 -141.73142661028487 -98.784327658460825 0 0 0 0 22.431979029206559 44.812442937316519 0 44.812442937316519 44.860867980858529 0 0 0 0 -8.5275902738285367 -77.008664386121382 0 -77.008664386121382 -13.49076331840115 0 0 0 0 29.599190776891191 -91.750508050241478 0 -91.750508050241478 -223.86118404869922 0 0 0 0 78.860416244024236 -40.685204407574929 0 -40.685204407574929 -227.83529884581367 0 0 0 0 100.38637306253077 -36.278560855207616 0 -36.278560855207616 -398.9511325757976 0 0 0 0 97.289537903663586 -202.92530360889941 0 -202.92530360889941 -429.20223191234982 0 0 0 0 29.203927932612714 -148.06686547380377 0 -148.06686547380377 -331.4182642129017 0 0 0 0 48.933305451646447 -253.6856329472721 0 -253.6856329472721 -71.290463493525749 0 0 0 0 27.076659796905005 -273.6362374053133 0 -273.6362374053133 -219.38411723138415 0 0 0 0 201.45003760320833 -243.60384067565246 0 -243.60384067565246 242.13005165754294 0 0 0 0 267.27402066336799 128.99696519931604 0 128.99696519931604 -262.43157595602679 0 0 0 0 60.867758216802031 -411.46366952317476 0 -411.46366952317476 241.03647541016107 0 0 0 0 72.150521255709464 -287.17073605803307 0 -287.17073605803307 359.6862511983345 0 0 0 0 138.57321553055954 -161.92441670206608 0 -161.92441670206608 408.16028011432354 0 0 0 0 13.556965952979226 -195.17096224949273 0 -195.17096224949273 448.78383331520672 0 0 0 0 3.520675892866052 2.3465004639229718 0 2.3465004639229718 -0.39471206602752096 0 0 0 0 171.13954291710979 -70.464682321988221 0 -70.464682321988221 -556.06919217470204 0 0 0 0 78.992932689921872 83.218276886589592 0 83.218276886589592 -415.41912712293924 0 0 0 0 79.867786367436565 -55.346596290111847 0 -55.346596290111847 -291.01527384515794 0 0 0 0 55.325235239753965 17.434457670828124 0 17.434457670828124 -272.47373067506305 0 0 0 0 -40.325333414693887 20.179020429313823 0 20.179020429313823 -12.622600777693151 0 0 0 0 68.230592150626762 -45.556169301311456 0 -45.556169301311456 -67.263021658220168 0 0 0 0 16.252976917916385 -25.330633369119823 0 -25.330633369119823 -72.390287299633201 0 0 0 0 -211.10415758727322 -60.160524428283679 0 -60.160524428283679 18.164668110803177 0 0 0 0 -16.27397050219588 -45.078103986339556 0 -45.078103986339556 15.758020845816645 0 0 0 0 -1.3428565836802591 140.76205397371814 0 140.76205397371814 -356.44800061599017 0 0 0 0 -3.9577194355207368 -2.8733739551881428 0 -2.8733739551881428 1.9361976919995811 0 0 0 0 -203.41922024200903 -18.505357618254493 0 -18.505357618254493 -466.16593488243234 0 0 0 0 -15.038409522283473 79.827713813720038 0 79.827713813720038 29.867215376241802 0 0 0 0 27.539083153140382 -1.1171432492119493 0 -1.1171432492119493 -21.550001701809379 0 0 0 0 2.3004422771341098 1.4199754605676702 0 1.4199754605676702 -0.63962714049502267 0 0 0 0 9.0572201083178214 0.45634944134380362 0 0.45634944134380362 0.37510229188455346 0 0 0 0 23.343040645646397 -24.811903684014396 0 -24.811903684014396 -487.80537971523154 0 0 0 0 6.1612257061915443 -42.770434206855498 0 -42.770434206855498 421.5566021623672 0 0 0 0 21.014042657432583 -5.0173405707719212 0 -5.0173405707719212 141.46451793592132 0 0 0 0 42.718713486303386 -126.86674849570318 0 -126.86674849570318 140.42004790437932 0 0 0 0 76.703870620578527 -54.157979206735035 0 -54.157979206735035 81.732233866652678 0 0 0 0 109.65198922983836 -0.12578610522905365 0 -0.12578610522905365 211.93957376573235 0 0 0 0 11.596630569751142 -103.0887442874955 0 -103.0887442874955 430.01339250464662 0 0 0 0 22.615877867625386 -158.58288001296751 0 -158.58288001296751 208.61934152652975 0 0 0 0 134.02792279291316 -31.389942918685847 0 -31.389942918685847 52.152397838704928 0 0 0 0 131.08857661328511 -161.21299361068668 0 -161.21299361068668 188.82128543096042 0 0 0 0 74.345634138127934 -75.873390813139849 0 -75.873390813139849 -93.761809153009381 0 0 0 0 -29.990425240059267 -42.602724836500784 0 -42.602724836500784 68.966065962456923 0 0 0 0 61.979225404000317 -64.449203926422342 0 -64.449203926422342 -48.225492147354089 0 0 0 0 41.859597263863179 -111.28076760355725 0 -111.28076760355725 43.165615209269163 0 0 0 0 164.27963014330817 -88.20180986125888 0 -88.20180986125888 -163.36201195672766 0 0 0 0 66.629415562390932 -88.261028711085601 0 -88.261028711085601 -71.673289506245055 0 0 0 0 135.82620280225819 -129.05904757862663 0 -129.05904757862663 -140.03622928835102 0 0 0 0 43.607492792194535 -147.10314568049489 0 -147.10314568049489 -133.4802965608942 0 0 0 0 46.751919210117194 -55.324568596435711 0 -55.324568596435711 55.709315703061293 0 0 0 0 87.301924602114013 -103.54620667054587 0 -103.54620667054587 -64.066455928479627 0 0 0 0 102.46391790503458 -175.22349163085391 0 -175.22349163085391 138.74273353520766 0 0 0 0 4.5881896347927977 -39.609537304744663 0 -39.609537304744663 123.89023232598265 0 0 0 0 43.679172520171051 -43.27024555441858 0 -43.27024555441858 55.652474731352413 0 0 0 0 22.217751406276307 -7.1863704974304863 0 -7.1863704974304863 0.33455938041675637 0 0 0 0 -25.061367204616545 -32.238026125723991 0 -32.238026125723991 -1.8696073458559113 0 0 0 0 -18.704524890752509 -62.285204113686632 0 -62.285204113686632 -20.032431086170618 0 0 0 0 2.3506211511275197 -8.2818977939831342 0 -8.2818977939831342 2.2004179030312088 0 0 0 0 26.123012464595377 -29.696299724336313 0 -29.696299724336313 0.92576239699701546 0 0 0 0 -5.6591079731588252 3.2192599657719256 0 3.2192599657719256 53.953107052147971 0 0 0 0 32.237839561715703 -10.390398871706736 0 -10.390398871706736 0.86320460206003702 0 0 0 0 48.411750819832378 -47.098727024182153 0 -47.098727024182153 -29.301034968632848 0 0 0 0 2.8081347066426332 -6.3370415995654383 0 -6.3370415995654383 0.0080710897607758625 0 0 0 0 33.738340988811615 -26.979877345954264 0 -26.979877345954264 45.997114907524519 0 0 0 0 119.55210585681925 -33.427043528766262 0 -33.427043528766262 -9.7636642762681731 0 0 0 0 25.740179515526506 -29.154195178957707 0 -29.154195178957707 10.696487288856588 0 0 0 0 -0.24144516219623302 -1.4487301353765076 0 -1.4487301353765076 0.31608308692949549 0 0 0 0 52.879833334496652 -27.488045036843687 0 -27.488045036843687 -21.781957585199052 0 0 0 0 34.306639080476288 -18.065943562101268 0 -18.065943562101268 0.099623040097668536 0 0 0 0 3.5808209663470141 -8.1115382428502869 0 -8.1115382428502869 0.54623136400459771 0 0 0 0 -107.27413359116326 -53.605398978739686 0 -53.605398978739686 11.549640772595012 0 0 0 0 -52.192964767513331 -76.987972410070142 0 -76.987972410070142 7.6839030197588727 0 0 0 0 -22.209336097323103 -91.313563930860255 0 -91.313563930860255 -26.919655351450274 0 0 0 0 10.123960622258892 -5.261948637857131 0 -5.261948637857131 -39.907259998319205 0 0 0 0 -32.350628860702273 -27.683730595086672 0 -27.683730595086672 -36.469349300821705 0 0 0 0 -198.30866846331992 -57.632333078594456 0 -57.632333078594456 -24.7598621413199 0 0 0 0 -261.50346211745273 -115.30251237809989 0 -115.30251237809989 -4.1433858381315076 0 0 0 0 -51.217610873416561 -59.752034837105384 0 -59.752034837105384 -73.499042602797999 0 0 0 0 -143.97079614649192 -152.49073799163398 0 -152.49073799163398 -84.200180547228229 0 0 0 0 -1.560412001577788 -128.99471032236397 0 -128.99471032236397 -81.757380400371403 0 0 0 0 -2.5369839379548154 -1.5214142162268871 0 -1.5214142162268871 0.39629112565697255 0 0 0 0 -151.39496829643758 -120.75732079044064 0 -120.75732079044064 15.077799769787816 0 0 0 0 65.692778233127683 -58.029591161431654 0 -58.029591161431654 -91.215314838274935 0 0 0 0 25.569310990904341 -108.76485751806831 0 -108.76485751806831 -200.14198266767926 0 0 0 0 -45.60135945381262 -21.378125852067569 0 -21.378125852067569 -173.62138053701347 0 0 0 0 -100.42796589981299 -100.53275727403707 0 -100.53275727403707 -96.235057423287799 0 0 0 0 -11.208032649112283 -50.858251339084745 0 -50.858251339084745 -107.81469134060899 0 0 0 0 -18.579698989989993 -46.503837344209387 0 -46.503837344209387 -74.946342700546666 0 0 0 0 6.6974007163807983 -35.624461455288838 0 -35.624461455288838 -84.085222711587448 0 0 0 0 -37.524991167960252 -63.738082862475494 0 -63.738082862475494 -70.198949181809439 0 0 0 0 -21.998356109310407 -88.1665430133462 0 -88.1665430133462 -128.02385006375698 0 0 0 0 -16.379937255449477 -68.715886790541845 0 -68.715886790541845 -97.432611750504293 0 0 0 0 7.4567817279748851 -40.544389874960871 0 -40.544389874960871 -71.010310354024114 0 0 0 0 20.975705302713322 -20.768662527749257 0 -20.768662527749257 -52.204294236139503 0 0 0 0 10.117393603999517 -59.191242491526282 0 -59.191242491526282 -61.427115028168373 0 0 0 0 23.146733222052717 -16.112821728206654 0 -16.112821728206654 -28.65020769102739 0 0 0 0 6.5156332914211816 -54.999326243176711 0 -54.999326243176711 24.554943570139585 0 0 0 0 8.2472294354483893 -50.804033291566157 0 -50.804033291566157 -24.042446174407814 0 0 0 0 20.505367603085688 -101.61566829180174 0 -101.61566829180174 7.1072415067828842 0 0 0 0 26.604480584317344 -100.38580220156518 0 -100.38580220156518 -47.246943166694109 0 0 0 0 21.671297169472382 -97.637724286798402 0 -97.637724286798402 -48.773487991736147 0 0 0 0 -37.932629000948509 -86.55458243911562 0 -86.55458243911562 -56.904793247294037 0 0 0 0 2.6489848528217408 -47.959115956677124 0 -47.959115956677124 -74.440889163612155 0 0 0 0 22.85275887617172 -58.741694379585169 0 -58.741694379585169 -56.347256646567985 0 0 0 0 52.286930698093784 -26.078863014861781 0 -26.078863014861781 15.150140113662928 0 0 0 0 -55.763288842088514 -103.50698196828534 0 -103.50698196828534 -39.426095858059853 0 0 0 0 -29.891703458430129 -117.93137809714972 0 -117.93137809714972 26.760714384126914 0 0 0 0 99.738379924776382 -65.06294070885906 0 -65.06294070885906 -31.456953623302979 0 0 0 0 36.543766895847511 -121.66683494252538 0 -121.66683494252538 -2.2499682248817408 0 0 0 0 -24.48272723107948 -98.645284761762014 0 -98.645284761762014 -6.4482297134309192 0 0 0 0 -25.25085305475659 -69.251978070704354 0 -69.251978070704354 3.368848519246967 0 0 0 0 -26.688905132823947 -52.363460001116664 0 -52.363460001116664 -56.06290298949898 0 0 0 0 57.945614584183204 18.767546088538438 0 18.767546088538438 -10.187382189886648 0 0 0 0 2.550459706580753 -0.31675293045977782 0 -0.31675293045977782 -1.2721840477651085 0 0 0 0 40.573445750755582 -133.10389756118673 0 -133.10389756118673 -37.862717798718222 0 0 0 0 11.71567455931654 -111.63769927776593 0 -111.63769927776593 -53.819587529382261 0 0 0 0 -28.784114809743187 -105.04149608440275 0 -105.04149608440275 -35.708692825105743 0 0 0 0 -52.582895760888277 -13.615915770225911 0 -13.615915770225911 -5.4111834843788529 0 0 0 0 1.0922422386212673 -0.76441691883100304 0 -0.76441691883100304 -1.6383114679900359 0 0 0 0 -67.706837808385899 -94.34154106470487 0 -94.34154106470487 -61.851199432981957 0 0 0 0 13.731322798286328 -93.900371964356623 0 -93.900371964356623 -80.722809618662723 0 0 0 0 -59.29815207701904 -46.448043073934969 0 -46.448043073934969 -46.147284477758149 0 0 0 0 -87.402821485367895 -79.200745117035694 0 -79.200745117035694 -43.849665651730902 0 0 0 0 -34.154076120474201 -74.027769884363806 0 -74.027769884363806 -43.695521242232644 0 0 0 0 -45.594452822584572 -106.75088403978225 0 -106.75088403978225 -128.73544206677616 0 0 0 0 -41.689026420513983 -62.581168002183404 0 -62.581168002183404 -59.610445508804332 0 0 0 0 13.913443994163281 -14.74877202973714 0 -14.74877202973714 -18.597572756806301 0 0 0 0 44.321989145875705 11.158171169174238 0 11.158171169174238 13.34705468051834 0 0 0 0 -51.299471168360469 -58.78264754171596 0 -58.78264754171596 157.71135030929145 0 0 0 0 -42.74596850056696 -368.30639007104037 0 -368.30639007104037 -80.112087359430006 0 0 0 0 -25.569541443590424 -28.679494333151524 0 -28.679494333151524 34.163407828073105 0 0 0 0 -73.341020633517473 -123.03882808602248 0 -123.03882808602248 -22.038687810942065 0 0 0 0 6.9198512044968084 -6.6161341592596727 0 -6.6161341592596727 -81.048554610506926 0 0 0 0 20.91032850269039 -33.674958563966356 0 -33.674958563966356 -55.669544891279656 0 0 0 0 10.207880342670251 9.1053919509831758 0 9.1053919509831758 -6.563863708077406 0 0 0 0 -1.6435031516302843 -38.033079490043747 0 -38.033079490043747 10.004090481248568 0 0 0 0 1.8475882164907489 -13.852768906595443 0 -13.852768906595443 -17.038215238294356 0 0 0 0 -19.075821254882612 -26.355855562414945 0 -26.355855562414945 -15.986048981998465 0 0 0 0 1.4684948354932601 -12.385253698422972 0 -12.385253698422972 -12.28047091395878 0 0 0 0 -1.1267795149188657 -13.104598277487405 0 -13.104598277487405 -13.167515072026475 0 0 0 0 -6.5511129673832329 -10.12826007536205 0 -10.12826007536205 -9.0909653455455555 0 0 0 0 -17.815566652846428 -30.344167007206579 0 -30.344167007206579 -49.869512177443539 0 0 0 0 -22.464548264620788 -27.277606094845055 0 -27.277606094845055 -11.502840534470081 0 0 0 0 -13.518151717820729 -29.402065308357123 0 -29.402065308357123 -14.392504747065686 0 0 0 0 16.52846322341162 -17.748982473840524 0 -17.748982473840524 -2.8155147868377242 0 0 0 0 -17.465143158444334 -57.881745286719706 0 -57.881745286719706 -65.944824919031817 0 0 0 0 -58.445618338362692 -107.94403245451758 0 -107.94403245451758 -32.948019560477405 0 0 0 0 -86.677920405054465 -91.260248203072479 0 -91.260248203072479 30.498580503419362 0 0 0 0 -32.989104038730147 -45.842593607092567 0 -45.842593607092567 -12.184673294243112 0 0 0 0 4.7369918987824349 -25.274366009078221 0 -25.274366009078221 -18.577872640831629 0 0 0 0 2.1972361579246353 -19.863555118521617 0 -19.863555118521617 -28.658344925803249 0 0 0 0 -34.080927165538014 -41.582256237155889 0 -41.582256237155889 -2.704986181051936 0 0 0 0 -16.780712438208866 -19.62653517841045 0 -19.62653517841045 -12.318274896009825 0 0 0 0 0.41846337325529248 -2.8097491619495933 0 -2.8097491619495933 -3.2061690148632138 0 0 0 0 33.555828701355495 -4.7116164251219743 0 -4.7116164251219743 -11.145554381484544 0 0 0 0 -15.840102784835835 8.299699492709351 0 8.299699492709351 29.070666777708539 0 0 0 0 62.844819952464604 -87.935944866949285 0 -87.935944866949285 -35.319618642975172 0 0 0 0 -56.672690403876913 -17.564636292409887 0 -17.564636292409887 65.707722344777721 0 0 0 0 63.863892418376054 -93.351767523095987 0 -93.351767523095987 -101.28787248262779 0 0 0 0 23.483217546964056 -11.115766275394176 0 -11.115766275394176 1.6674921939893821 0 0 0 0 -88.854153690233943 -61.135151037788091 0 -61.135151037788091 73.005455061764224 0 0 0 0 -6.8839830787474057 -41.162696206250985 0 -41.162696206250985 -54.240858552526333 0 0 0 0 -13.696084029958001 -58.261446707467258 0 -58.261446707467258 -43.7351260381256 0 0 0 0 -9.5750740708899684 -42.953461142337801 0 -42.953461142337801 -22.324626568144595 0 0 0 0 7.3401245245113387 -38.336360652516305 0 -38.336360652516305 -47.117629667451183 0 0 0 0 -20.50087835699378 -40.95904865578359 0 -40.95904865578359 -31.827092490373616 0 0 0 0 0.1149512029301718 -12.161898980708223 0 -12.161898980708223 0.51583381567429853 0 0 0 0 6.3550386260940286 -18.190508077960345 0 -18.190508077960345 -30.1087544356742 0 0 0 0 -2.396359218757425 -22.664801895596611 0 -22.664801895596611 -0.71996869421855081 0 0 0 0 -11.297191070992085 -76.392745124757766 0 -76.392745124757766 -73.62305375305732 0 0 0 0 19.544721798334649 -29.114897574364477 0 -29.114897574364477 -72.541860558223561 0 0 0 0 51.928835613648516 -61.234730582817122 0 -61.234730582817122 -13.019119050997688 0 0 0 0 56.781951744866092 11.159257104613062 0 11.159257104613062 -11.533653053578519 0 0 0 0 -20.351248631930503 -34.429282265718939 0 -34.429282265718939 -13.837588289412452 0 0 0 0 -68.616241730489492 -129.71362633903556 0 -129.71362633903556 -94.779721632732617 0 0 0 0 6.2089800670623987 -3.8388871058702563 0 -3.8388871058702563 2.0327068630476361 0 0 0 0 -75.7402084376522 -70.257559374209904 0 -70.257559374209904 -44.412044602151582 0 0 0 0 28.685374581789844 -17.35740012982556 0 -17.35740012982556 -12.77238691535424 0 0 0 0 -14.551218865519331 -19.497567051847454 0 -19.497567051847454 -51.113655770355763 0 0 0 0 7.9138285196931974 -83.217917834419268 0 -83.217917834419268 -127.36400506952123 0 0 0 0 21.615263387277082 -15.212861165795402 0 -15.212861165795402 -17.964501435986676 0 0 0 0 -109.47644011621014 -153.85590158323294 0 -153.85590158323294 -141.8221766152601 0 0 0 0 -142.31557267337485 -102.1233937484767 0 -102.1233937484767 -61.047638552065109 0 0 0 0 40.207690373599789 -10.470283788148155 0 -10.470283788148155 -11.263305411060983 0 0 0 0 21.299710354214767 -40.063348133490763 0 -40.063348133490763 -41.226765061643164 0 0 0 0 2.2764947969871656 -1.5532560692965944 0 -1.5532560692965944 0.071580120303302408 0 0 0 0 379.95621651619149 174.52784201938812 0 174.52784201938812 -98.69573764694178 0 0 0 0 72.431487563117116 27.204556521930499 0 27.204556521930499 103.86109833717728 0 0 0 0 78.95521295555227 -92.004822911432711 0 -92.004822911432711 -38.380618011389743 0 0 0 0 -134.18868841608491 -242.47130985448621 0 -242.47130985448621 -90.023379395974189 0 0 0 0 -21.061990220281587 -123.84978701727414 0 -123.84978701727414 -43.933109075343964 0 0 0 0 174.46898367247195 -15.892252834320971 0 -15.892252834320971 -117.94987843233321 0 0 0 0 7.9420932481507549 -10.6635177979716 0 -10.6635177979716 2.7058525847147799 0 0 0 0 301.92932127264794 86.292474496789509 0 86.292474496789509 -1.7449663556180894 0 0 0 0 481.32558418260305 -69.328309983504369 0 -69.328309983504369 -357.83928787307741 0 0 0 0 159.39449833951949 -254.22137493089758 0 -254.22137493089758 -182.88505966420598 0 0 0 0 149.58576759126299 -228.4908282791173 0 -228.4908282791173 -340.00288024586189 0 0 0 0 -377.71034645225154 -17.482505906747974 0 -17.482505906747974 -270.90121840244774 0 0 0 0 -75.704493098543026 -132.11894556708467 0 -132.11894556708467 54.126660769878072 0 0 0 0 -83.43146110374073 -98.208271524317752 0 -98.208271524317752 -26.438382975832837 0 0 0 0 -357.25209603912572 -183.44666634522912 0 -183.44666634522912 -23.296130232465657 0 0 0 0 -21.90425866694568 -75.678771361291183 0 -75.678771361291183 -166.25004148395783 0 0 0 0 -49.960365815713885 -26.520599840270961 0 -26.520599840270961 4.7671547258560167 0 0 0 0 -1.00488228297246 -2.853717891316883 0 -2.853717891316883 0.37423636675797312 0 0 0 0 20.135311931379988 -8.7630967042173111 0 -8.7630967042173111 -0.61950873917004401 0 0 0 0 -165.77147896600673 -22.290594601666157 0 -22.290594601666157 5.9488587948562781 0 0 0 0 14.813683737298561 7.4815890916743228 0 7.4815890916743228 -7.7315445197377812 0 0 0 0 -6.3839301618718309 -109.95022184576919 0 -109.95022184576919 -48.770119249100844 0 0 0 0 -67.375574873221922 -57.639586746066016 0 -57.639586746066016 -10.534883916043327 0 0 0 0 21.190627043607151 -10.515450036534439 0 -10.515450036534439 0.60612735831470843 0 0 0 0 24.380681021513738 -23.505378773764278 0 -23.505378773764278 -55.335707538404677 0 0 0 0 25.44687283103849 -14.809151808984097 0 -14.809151808984097 -53.955898763751975 0 0 0 0 7.5771221719332971 -16.13312763067006 0 -16.13312763067006 -52.571496359725643 0 0 0 0 25.482756394183724 -32.144597242934843 0 -32.144597242934843 -40.178706201215391 0 0 0 0 -7.764122860833595 -52.652160106012161 0 -52.652160106012161 -78.154125183551514 0 0 0 0 17.134052384382812 -31.011795966333011 0 -31.011795966333011 -85.915637949884513 0 0 0 0 -14.547330789529951 -100.21841039673927 0 -100.21841039673927 -96.650855755353859 0 0 0 0 -34.213182987892651 -44.860233329174662 0 -44.860233329174662 -78.107559207775921 0 0 0 0 28.641412465629401 -87.457289776682956 0 -87.457289776682956 -110.55849275297805 0 0 0 0 11.482045183345917 -7.4749621560623609 0 -7.4749621560623609 -46.744434151351015 0 0 0 0 13.316377539504856 -38.653104127767733 0 -38.653104127767733 -115.71149571382193 0 0 0 0 11.872465867862047 -24.884235879404514 0 -24.884235879404514 -18.739371202550501 0 0 0 0 12.146392139727169 1.4251389964928975 0 1.4251389964928975 0.62209674189133679 0 0 0 0 214.13964829565157 -13.142199947393237 0 -13.142199947393237 0.83359730657002729 0 0 0 0 6.7115135942503912 -38.436405657556065 0 -38.436405657556065 148.78134326218606 0 0 0 0 3.2344177491329305 -0.63786684129896543 0 -0.63786684129896543 -0.20380481335206468 0 0 0 0 87.897100500689703 -223.3947850352024 0 -223.3947850352024 73.23157105771088 0 0 0 0 5.2770337410911452 -19.811535035015368 0 -19.811535035015368 -62.978603534093054 0 0 0 0 184.58295469965651 -183.67251980495251 0 -183.67251980495251 83.977563860682494 0 0 0 0 225.58844603034595 -235.17112446247756 0 -235.17112446247756 138.96785429451756 0 0 0 0 213.62535654866224 -127.48181148168533 0 -127.48181148168533 122.82425885286375 0 0 0 0 257.42268295114627 -120.25996771223708 0 -120.25996771223708 -68.302952461361201 0 0 0 0 245.7342976250693 -98.892533940594603 0 -98.892533940594603 -107.32196696935171 0 0 0 0 257.62562321213409 -255.70351366360046 0 -255.70351366360046 -15.077358370723232 0 0 0 0 217.87916120775844 -170.64047699574712 0 -170.64047699574712 141.86603209325858 0 0 0 0 412.41746949417575 -507.70732673331531 0 -507.70732673331531 413.51054571261284 0 0 0 0 1.9706987860501499 0.75595647376920283 0 0.75595647376920283 0.62064970817980125 0 0 0 0 6.7162757461471756 1.7264200037212376 0 1.7264200037212376 0.40193403722637555 0 0 0 0 17.057302214263473 -43.390010938370324 0 -43.390010938370324 -140.34362167043037 0 0 0 0 8.3342562991856539 -36.495072381485443 0 -36.495072381485443 -134.86324925973531 0 0 0 0 29.016138234291247 -71.329936015300277 0 -71.329936015300277 -171.23771861915156 0 0 0 0 139.39335443996242 69.503890066650001 0 69.503890066650001 -419.845441551759 0 0 0 0 380.93651628193766 -137.65038974337222 0 -137.65038974337222 -242.80971633267472 0 0 0 0 172.96985194012814 -45.089753879343334 0 -45.089753879343334 -59.566443726012949 0 0 0 0 271.87803313946642 -138.78571912453117 0 -138.78571912453117 -2.4535993976169266 0 0 0 0 140.50294972000302 -182.70875065072596 0 -182.70875065072596 74.46993217918498 0 0 0 0 230.38814581616316 -207.06195457033755 0 -207.06195457033755 39.525748328989721 0 0 0 0 -131.08002457776456 -116.6494871592804 0 -116.6494871592804 100.49050382211863 0 0 0 0 3.7300397701193049 -1.6847346047664473 0 -1.6847346047664473 0.77476200855312527 0 0 0 0 -93.737822651701208 13.01664607812927 0 13.01664607812927 -31.276858301054745 0 0 0 0 -4.615074482993009 -10.948608515773515 0 -10.948608515773515 -1.6036996078003085 0 0 0 0 -57.305487549121608 -30.112605572718167 0 -30.112605572718167 11.420662903539778 0 0 0 0 -56.829229497627239 -48.992066617913224 0 -48.992066617913224 -29.148600207525305 0 0 0 0 66.831206415936322 -116.68583184339332 0 -116.68583184339332 65.206604031620373 0 0 0 0 102.15618366531271 -127.19060543051819 0 -127.19060543051819 18.360473850072594 0 0 0 0 -12.556861342760385 7.6789010129577946 0 7.6789010129577946 5.2195612348223221 0 0 0 0 87.486033797613345 -217.92744660176322 0 -217.92744660176322 136.50105200397957 0 0 0 0 106.24132551714138 -223.34580127687877 0 -223.34580127687877 131.08201192229899 0 0 0 0 105.9116698302023 -214.12597558326888 0 -214.12597558326888 160.21867192806531 0 0 0 0 0.11545295104588149 -157.33108826623356 0 -157.33108826623356 282.07814657865674 0 0 0 0 0.077638449416554067 -284.73892543766669 0 -284.73892543766669 209.41758170609319 0 0 0 0 116.40189014204952 -268.57897999048146 0 -268.57897999048146 188.14996956296454 0 0 0 0 197.07449608392199 -290.90055635158205 0 -290.90055635158205 120.91669244519653 0 0 0 0 169.62862155651237 -258.67020016486094 0 -258.67020016486094 143.70538010192104 0 0 0 0 109.68347362796703 -242.72255258813038 0 -242.72255258813038 97.835192433114571 0 0 0 0 221.02056560845654 -314.42585700129212 0 -314.42585700129212 108.64398624678142 0 0 0 0 269.10044354081037 -273.73828127808156 0 -273.73828127808156 142.8991094326193 0 0 0 0 74.734492100240459 -343.35137083066002 0 -343.35137083066002 225.64385888362449 0 0 0 0 219.89492941614299 -426.88389183818072 0 -426.88389183818072 266.72045669305589 0 0 0 0 0.407845192263323 -403.80979167257863 0 -403.80979167257863 313.12233022333385 0 0 0 0 405.82220157544361 -420.11430705962266 0 -420.11430705962266 168.59329394235101 0 0 0 0 426.23852266548784 -419.62686570296137 0 -419.62686570296137 142.52815925457253 0 0 0 0 435.16084219624463 -340.44952036484028 0 -340.44952036484028 -89.984202033199836 0 0 0 0 261.94984104936884 -188.1330935778351 0 -188.1330935778351 217.98551127272367 0 0 0 0 101.93875163793564 -396.37169480847297 0 -396.37169480847297 123.2896705858584 0 0 0 0 398.12371288714348 -88.612968168854422 0 -88.612968168854422 -58.704899357494469 0 0 0 0 244.6453128837129 -248.88108760621526 0 -248.88108760621526 127.15034155892499 0 0 0 0 -49.69457307778066 -56.055986118175497 0 -56.055986118175497 9.3020060930284671 0 0 0 0 -95.683290393353673 -136.68341283490736 0 -136.68341283490736 73.073767642461462 0 0 0 0 -95.128707276540808 -77.379593497076712 0 -77.379593497076712 37.490901080804178 0 0 0 0 -44.648421194811817 -98.324499267488136 0 -98.324499267488136 42.686894279991975 0 0 0 0 -62.366321319743292 -193.23376430521603 0 -193.23376430521603 169.05855548457475 0 0 0 0 52.627906646754127 -279.33894993918511 0 -279.33894993918511 -108.06730462479754 0 0 0 0 29.815215391106904 -234.33764219979639 0 -234.33764219979639 56.204345034020662 0 0 0 0 3.8163473097665701 -179.71842000367178 0 -179.71842000367178 -37.940088233415736 0 0 0 0 -45.286667141888756 -174.18076578462205 0 -174.18076578462205 95.926259417487017 0 0 0 0 -29.118591422629834 -124.01373037447047 0 -124.01373037447047 27.322035323450109 0 0 0 0 36.086389408679679 -129.13022378989263 0 -129.13022378989263 10.165187068501837 0 0 0 0 88.078622204106068 -126.27871127499384 0 -126.27871127499384 -60.614896927130758 0 0 0 0 147.08898835553555 -68.912267603283908 0 -68.912267603283908 -112.29217677975248 0 0 0 0 -0.61876303681411571 -2.14080733347555 0 -2.14080733347555 -1.4277797147851174 0 0 0 0 94.181894597772043 -177.65810746329953 0 -177.65810746329953 -157.46904720064049 0 0 0 0 64.77026764061884 -36.362984397164837 0 -36.362984397164837 -15.021059936472739 0 0 0 0 75.580835432192544 -53.39536250486708 0 -53.39536250486708 -31.785903401621908 0 0 0 0 -5.733689531064905 -44.188635832544378 0 -44.188635832544378 6.0961526091396081 0 0 0 0 81.785709569536266 -78.066253300270546 0 -78.066253300270546 -18.096078050381038 0 0 0 0 -7.1619521180143693 -19.43079056274297 0 -19.43079056274297 -21.027666575379087 0 0 0 0 58.349333996022324 -35.850582272187239 0 -35.850582272187239 7.9051443427451886 0 0 0 0 1.9735559255547308 -9.0337609991048282 0 -9.0337609991048282 -0.41093865802702112 0 0 0 0 -113.50888475803367 -110.23436964737994 0 -110.23436964737994 -13.594014990339929 0 0 0 0 79.833542148960987 -38.833159783385781 0 -38.833159783385781 -23.944304147131334 0 0 0 0 22.474522154738537 -11.880691219018757 0 -11.880691219018757 -16.650384693241875 0 0 0 0 22.892602750898732 -28.384032893526182 0 -28.384032893526182 -8.9243385024456074 0 0 0 0 1.4581610620227536 -15.828816129823394 0 -15.828816129823394 -27.711577570299056 0 0 0 0 26.224459770357953 -36.865503743291356 0 -36.865503743291356 -17.713967342489923 0 0 0 0 -5.4715227885606623 -23.964997723045499 0 -23.964997723045499 -5.8665620547854473 0 0 0 0 36.194229095824994 -34.002502005892893 0 -34.002502005892893 -22.104417114987882 0 0 0 0 18.123690842854558 -62.123339513684186 0 -62.123339513684186 -3.952095632077544 0 0 0 0 10.922364100235537 -31.450530753994826 0 -31.450530753994826 -24.928053947740779 0 0 0 0 -3.9235769076476572 -63.281550189414702 0 -63.281550189414702 10.026882480131462 0 0 0 0 12.117605203849962 -73.062978451445815 0 -73.062978451445815 2.4575006259838119 0 0 0 0 13.808887855928333 -63.239463616586363 0 -63.239463616586363 1.7516676543164067 0 0 0 0 48.872375706443563 -57.718717252020724 0 -57.718717252020724 -2.103239100164501 0 0 0 0 23.259581499593992 -62.490461542528124 0 -62.490461542528124 0.26794875634368509 0 0 0 0 23.200728434079792 -74.685838880803203 0 -74.685838880803203 2.4915390878991275 0 0 0 0 15.696481659455458 -82.531550525058265 0 -82.531550525058265 -5.2339789955876768 0 0 0 0 -9.2250805055035698 -28.96480777331567 0 -28.96480777331567 -27.41874210628157 0 0 0 0 8.3753313843215516 -16.36522088597593 0 -16.36522088597593 -16.896002453532432 0 0 0 0 -31.987240069378458 -25.996031475406198 0 -25.996031475406198 -12.490740512708726 0 0 0 0 16.428439748786332 -28.607156591730018 0 -28.607156591730018 -29.272304198711936 0 0 0 0 8.4749779134391332 -23.573553862484744 0 -23.573553862484744 -11.625371814462525 0 0 0 0 -0.54080870750476606 -47.16213133072597 0 -47.16213133072597 -25.793671214632923 0 0 0 0 3.7895778168458492 -44.38505112893472 0 -44.38505112893472 -27.076029860145354 0 0 0 0 8.5521027205104474 -40.3465367034878 0 -40.3465367034878 -26.649287890577398 0 0 0 0 -3.0565031839687435 -39.603590041031566 0 -39.603590041031566 -20.911477858171565 0 0 0 0 -1.5340415860790415 -18.370747967055905 0 -18.370747967055905 -22.895550349801994 0 0 0 0 -50.350913714908529 -53.338307044556132 0 -53.338307044556132 -0.057775923138251528 0 0 0 0 70.353416243975516 -61.422154099083855 0 -61.422154099083855 -67.585203457501848 0 0 0 0 12.319480877980823 -49.166910933965482 0 -49.166910933965482 -27.09187408737489 0 0 0 0 22.081127653887961 -32.489676825964125 0 -32.489676825964125 -20.481584893573199 0 0 0 0 8.004676279699197 -43.350349231252039 0 -43.350349231252039 -19.157243282129912 0 0 0 0 7.8405559539144178 -52.930494740526342 0 -52.930494740526342 -32.220815908323857 0 0 0 0 9.6095098775986116 -42.248671715708042 0 -42.248671715708042 -34.890729611002826 0 0 0 0 -14.759864560757705 -44.710610063069907 0 -44.710610063069907 -24.316065190569134 0 0 0 0 -16.450182006927207 -28.318257378372437 0 -28.318257378372437 -19.133581942456658 0 0 0 0 -14.787060284710606 -29.717373725336074 0 -29.717373725336074 -23.635584449213638 0 0 0 0 3.3227092248516699 -26.022662707873593 0 -26.022662707873593 -20.444160872566897 0 0 0 0 -15.649625626509078 -45.723418518990002 0 -45.723418518990002 -22.361068465339486 0 0 0 0 -8.1219814682638685 -13.983519048253321 0 -13.983519048253321 -9.1923968504613853 0 0 0 0 -30.223875247538672 -39.327076101362763 0 -39.327076101362763 -26.526136348293221 0 0 0 0 0.39017439109449015 -29.812527390092924 0 -29.812527390092924 -19.754009020780067 0 0 0 0 -1.9472763224184746 -24.264850183586532 0 -24.264850183586532 -12.67600442191906 0 0 0 0 -6.1550986208171761 -24.617417632420512 0 -24.617417632420512 -23.571330466020157 0 0 0 0 -11.308610043404769 -21.396564690498963 0 -21.396564690498963 -10.338074846862582 0 0 0 0 -16.059447131744435 -32.185323564630792 0 -32.185323564630792 -18.311648184916478 0 0 0 0 -2.6847246048419038 -47.48604989879459 0 -47.48604989879459 -42.030947082341299 0 0 0 0 -0.60539568777312525 -41.903358751733322 0 -41.903358751733322 -30.29544908668322 0 0 0 0 -18.350757476825265 -37.800557999985358 0 -37.800557999985358 -33.564544108958216 0 0 0 0 -11.099417061573661 -7.6059647478359693 0 -7.6059647478359693 -3.606230532645867 0 0 0 0 -0.13847266447555739 -43.386312293776427 0 -43.386312293776427 -34.580784963007318 0 0 0 0 -3.86593935604634 -23.463945074280232 0 -23.463945074280232 -20.487421415364892 0 0 0 0 1.6993619573768228 -33.123258216313843 0 -33.123258216313843 -33.633043880688547 0 0 0 0 17.999514518276555 -33.783118619421657 0 -33.783118619421657 -16.787781284816447 0 0 0 0 1.0791630220774096 -39.881073973418097 0 -39.881073973418097 -20.010561405098997 0 0 0 0 20.515638698634575 -33.292931476044032 0 -33.292931476044032 -33.43492004541622 0 0 0 0 6.263256666919915 -33.791063791984925 0 -33.791063791984925 -29.278124320466304 0 0 0 0 11.2609946638986 -41.262975934943825 0 -41.262975934943825 -35.370755943564291 0 0 0 0 10.657070480687253 -44.936845988569985 0 -44.936845988569985 -28.380597578230663 0 0 0 0 16.483247818898235 -32.522326619622618 0 -32.522326619622618 -23.7990921974706 0 0 0 0 23.782849154667929 -33.675233550340636 0 -33.675233550340636 -28.822187309080618 0 0 0 0 24.08588393867376 -30.204091536327724 0 -30.204091536327724 -4.6980360147717874 0 0 0 0 30.495223310237634 -18.847971007993692 0 -18.847971007993692 -7.0892325508766589 0 0 0 0 86.259884576546028 19.961455168369866 0 19.961455168369866 -234.03896677149896 0 0 0 0 17.005797795192535 -2.2802435208695471 0 -2.2802435208695471 -11.738163346262226 0 0 0 0 -7.2227620575067704 6.4291685115749715 0 6.4291685115749715 -97.449072331750358 0 0 0 0 23.642655911913607 -11.186813669846742 0 -11.186813669846742 -9.8669760985067114 0 0 0 0 5.5051861025867055 -3.1346220190828262 0 -3.1346220190828262 -8.2232531806392757 0 0 0 0 -0.95755610240226008 -23.703550974277945 0 -23.703550974277945 -21.49995719183606 0 0 0 0 -0.71405537494501914 -45.556919083367575 0 -45.556919083367575 -41.279153385781683 0 0 0 0 -2.605449168557243 -25.354813620517234 0 -25.354813620517234 -17.202345974745185 0 0 0 0 -11.914811282615119 -1.4130654575255903 0 -1.4130654575255903 -30.113511972809647 0 0 0 0 5.9701052145053524 -23.804769312233205 0 -23.804769312233205 -16.917758132340239 0 0 0 0 4.6089194113592384 -48.117442456801655 0 -48.117442456801655 6.6907910206900851 0 0 0 0 35.620146545035823 -34.818209807393941 0 -34.818209807393941 -24.325917212838249 0 0 0 0 -3.3505085858290613 -15.275418992636673 0 -15.275418992636673 -23.644351875337406 0 0 0 0 47.267845774811576 -31.689335305738496 0 -31.689335305738496 -25.199920430008206 0 0 0 0 21.468673212444628 -33.592661488902195 0 -33.592661488902195 -2.3441290657356149 0 0 0 0 -5.5546043363389312 -18.464419006950948 0 -18.464419006950948 -6.5817915610675328 0 0 0 0 42.95710232273268 -15.176773608582153 0 -15.176773608582153 -29.639020456274011 0 0 0 0 39.661787748264032 -11.534534346101282 0 -11.534534346101282 -6.1249886311177306 0 0 0 0 -56.886436337917985 -42.90721294611285 0 -42.90721294611285 52.861082647490548 0 0 0 0 0.32166975755279559 -15.984602297113057 0 -15.984602297113057 1.761643542191635 0 0 0 0 -23.149374020125833 -28.720217145830247 0 -28.720217145830247 -12.093905884219566 0 0 0 0 -104.36639428063063 -77.911471179621003 0 -77.911471179621003 -27.687830482667778 0 0 0 0 -31.513442065974232 -91.621106656784832 0 -91.621106656784832 -80.226434746527957 0 0 0 0 169.38771591625118 -150.50169229040694 0 -150.50169229040694 6.4207143767835078 0 0 0 0 -25.05395496284973 -94.295831689292356 0 -94.295831689292356 -9.2862687528686365 0 0 0 0 -8.0306008130134305 -35.698595651254109 0 -35.698595651254109 -23.356866453160563 0 0 0 0 38.706073340727926 -79.374940702940421 0 -79.374940702940421 -28.478255564419669 0 0 0 0 65.208476203923055 -45.050278056303796 0 -45.050278056303796 -16.960620123485569 0 0 0 0 2.0424663815430648 -19.178399171725985 0 -19.178399171725985 -31.786077386230943 0 0 0 0 16.528455580588243 -26.650291206463237 0 -26.650291206463237 -31.394549502469772 0 0 0 0 9.3084280724579003 -33.442994475557498 0 -33.442994475557498 -38.317617646804138 0 0 0 0 38.379986512969481 -16.131217165820999 0 -16.131217165820999 -16.777383898908738 0 0 0 0 -205.64577302608814 5.0313730890084116 0 5.0313730890084116 -55.438261889332352 0 0 0 0 -20.170154163145654 -38.578493448257845 0 -38.578493448257845 -18.534934933129961 0 0 0 0 -11.107958925268676 -26.465209611284791 0 -26.465209611284791 -30.15441069343008 0 0 0 0 7.466889049289116 -31.912760700480405 0 -31.912760700480405 -31.520144968072856 0 0 0 0 -193.67015165694875 -194.46054156788932 0 -194.46054156788932 177.06146382397128 0 0 0 0 -180.21192924335583 67.109616290046461 0 67.109616290046461 -44.763415359469946 0 0 0 0 4.1776407023617015 -3.8253560145079746 0 -3.8253560145079746 -3.3953563612914621 0 0 0 0 -128.15175896525034 -80.294330289414575 0 -80.294330289414575 -37.111321727366885 0 0 0 0 -271.17424637668591 -258.51741819839481 0 -258.51741819839481 644.68180363787178 0 0 0 0 2.2693550612905824 -2.1559093747025315 0 -2.1559093747025315 0.32535352054585331 0 0 0 0 539.45121682468744 -290.08757382046133 0 -290.08757382046133 -373.19224711175048 0 0 0 0 149.82857355939632 384.11771752437016 0 384.11771752437016 -350.82129432597867 0 0 0 0 -128.83830531613785 102.18426915982127 0 102.18426915982127 -409.93032048930763 0 0 0 0 60.348078909017204 -152.04273557153465 0 -152.04273557153465 114.70470085552734 0 0 0 0 198.38703219903982 95.101054500126338 0 95.101054500126338 -592.8014994272562 0 0 0 0 103.23158144546323 -485.11592971593927 0 -485.11592971593927 -354.11233717047617 0 0 0 0 3.8471052379355655 -2.3782872361826577 0 -2.3782872361826577 -1.0236192027172279 0 0 0 0 36.817305589342141 -11.658301649182249 0 -11.658301649182249 -79.088755294214934 0 0 0 0 -87.30946877525048 -59.868534460909189 0 -59.868534460909189 28.222601924244373 0 0 0 0 22.188534443671728 -21.022059534405628 0 -21.022059534405628 -23.080874896577498 0 0 0 0 -39.140468364887056 -78.122661928040543 0 -78.122661928040543 -56.304474502616358 0 0 0 0 53.214237276988229 -28.980301518409306 0 -28.980301518409306 -61.980998555343831 0 0 0 0 7.6235289895187313 -26.59991655835104 0 -26.59991655835104 -42.240017725970624 0 0 0 0 2.7750645207124762 -54.924696542813763 0 -54.924696542813763 -55.06117208237265 0 0 0 0 -17.132090449347743 -23.160690356089617 0 -23.160690356089617 -48.013483768572769 0 0 0 0 -55.485172800297732 -48.582104434804933 0 -48.582104434804933 -32.56343349070994 0 0 0 0 -5.832600565336179 -45.776405044271087 0 -45.776405044271087 -35.725497605490091 0 0 0 0 -6.7646990513894707 -71.515245651251462 0 -71.515245651251462 -91.579377542578641 0 0 0 0 23.268701455424889 -125.46054780314807 0 -125.46054780314807 -15.737177889182931 0 0 0 0 127.17029129806906 344.56002208597783 0 344.56002208597783 -38.963785596693924 0 0 0 0 -32.878774870972848 -92.248936047875759 0 -92.248936047875759 -21.883891404049791 0 0 0 0 4.375152344101366 -1.888486311926389 0 -1.888486311926389 1.3128761193186804 0 0 0 0 85.335112465254497 -40.245870257260322 0 -40.245870257260322 -12.167590418492182 0 0 0 0 191.41723285138505 4.5074659900510596 0 4.5074659900510596 74.444468995628995 0 0 0 0 69.141694543402991 -117.34003333911096 0 -117.34003333911096 1.7696966311286815 0 0 0 0 31.358443546661874 -35.228687831302523 0 -35.228687831302523 -72.544060634877496 0 0 0 0 0.093188760190969333 -60.231220462041165 0 -60.231220462041165 -68.719397405532618 0 0 0 0 10.511747951132218 -27.917527950831342 0 -27.917527950831342 -46.525638842187085 0 0 0 0 4.8563127029999862 -14.286145309268676 0 -14.286145309268676 -3.6708922752362128 0 0 0 0 6.4696276519173166 -14.511013137482152 0 -14.511013137482152 -24.105374706003573 0 0 0 0 44.775751877066796 -0.2220299565960886 0 -0.2220299565960886 -30.42446375964937 0 0 0 0 31.833373131667031 -37.467738214050769 0 -37.467738214050769 -38.250106201350718 0 0 0 0 24.010969720286084 -2.2584207795171096 0 -2.2584207795171096 -2.2269450826206594 0 0 0 0 12.868323874005 12.042797082793186 0 12.042797082793186 -20.29717589597567 0 0 0 0 4.5139075731713092 -50.696753128722776 0 -50.696753128722776 53.889693110609187 0 0 0 0 36.343165429731016 11.463287082173338 0 11.463287082173338 -46.418228233746049 0 0 0 0 -73.251029350867611 36.466890402884019 0 36.466890402884019 30.354439608481698 0 0 0 0 30.900538414920447 -41.804439557962723 0 -41.804439557962723 -40.15095048007538 0 0 0 0 -11.774274653052089 38.824995100286515 0 38.824995100286515 -36.390395093054394 0 0 0 0 -22.555065483201361 -50.160324891538039 0 -50.160324891538039 -11.377830164958141 0 0 0 0 -5.1176259967760416 -32.466664550487621 0 -32.466664550487621 -75.728182150695829 0 0 0 0 27.132229145363098 -12.937675338698753 0 -12.937675338698753 -23.211703615622895 0 0 0 0 -34.043195577876759 -136.73369346254731 0 -136.73369346254731 -32.46679383625451 0 0 0 0 62.486453565550619 25.689320991750719 0 25.689320991750719 3.1403647523447944 0 0 0 0 51.244608380191494 -89.96896936320627 0 -89.96896936320627 -2.2981440198182099 0 0 0 0 119.97858576067665 -132.73661207437544 0 -132.73661207437544 -89.270259185108443 0 0 0 0 2.3979379182042351 -0.050755375296482441 0 -0.050755375296482441 -0.18758059699118945 0 0 0 0 -17.518545958926552 -54.429367160864786 0 -54.429367160864786 10.681688984972425 0 0 0 0 -19.810257875871685 -16.857203199416517 0 -16.857203199416517 -33.439018178585684 0 0 0 0 -16.005159893422388 -28.428471200175409 0 -28.428471200175409 -14.27040570475242 0 0 0 0 15.877403471604339 -41.293953018128377 0 -41.293953018128377 -14.366652713472121 0 0 0 0 -7.8845115189324133 -17.045618361324159 0 -17.045618361324159 -31.093128775304649 0 0 0 0 -12.139444097745582 -16.260221879696473 0 -16.260221879696473 -22.966506673347794 0 0 0 0 -26.789866791616078 -33.155023290394638 0 -33.155023290394638 -21.807316523434565 0 0 0 0 -12.571242212050663 -18.804509399927866 0 -18.804509399927866 -23.458087912438799 0 0 0 0 -26.830357962848211 -19.990872417531136 0 -19.990872417531136 -27.179732347765821 0 0 0 0 -1.5670516778336605 -32.322857446526541 0 -32.322857446526541 -40.099502056247729 0 0 0 0 -15.02842215464625 -37.366182877383835 0 -37.366182877383835 -44.211762985303722 0 0 0 0 -0.45439058020377843 -7.8084003032028129 0 -7.8084003032028129 -7.1536043610582993 0 0 0 0 -22.475591216309112 -27.620505155493447 0 -27.620505155493447 -28.697857981289872 0 0 0 0 -13.321269670121239 -21.918209932498087 0 -21.918209932498087 -26.990315187600913 0 0 0 0 53.692179181045503 -84.778613671238418 0 -84.778613671238418 -97.343062618863769 0 0 0 0 -14.474594058404008 -24.029457043558637 0 -24.029457043558637 -29.812580732061889 0 0 0 0 -24.814564224601781 -21.304154056992047 0 -21.304154056992047 -36.476355969331053 0 0 0 0 1.2692658763818088 -5.9522953791565314 0 -5.9522953791565314 -6.3863350595174779 0 0 0 0 -15.905143631116516 -38.36507858499408 0 -38.36507858499408 -67.872628789067676 0 0 0 0 -26.654118063495844 -30.589413816906017 0 -30.589413816906017 -39.92752101930796 0 0 0 0 10.492355080066773 -12.348667533196021 0 -12.348667533196021 -63.043948703438218 0 0 0 0 -35.031818766743527 -0.5684346903617552 0 -0.5684346903617552 22.092307037308274 0 0 0 0 -12.412276807866874 11.032067379084765 0 11.032067379084765 -14.348560258295038 0 0 0 0 -30.244314052375557 -13.581767458697868 0 -13.581767458697868 -18.359768216701923 0 0 0 0 -29.150210002924723 -10.623137811626293 0 -10.623137811626293 -41.83937589834386 0 0 0 0 133.98132633513887 -156.10600930002147 0 -156.10600930002147 39.432026708556805 0 0 0 0 65.189845626373426 -43.54584419553612 0 -43.54584419553612 -34.59813667297567 0 0 0 0 3.805126563529484 -115.9017848272415 0 -115.9017848272415 151.9402591871326 0 0 0 0 3.7215847045038402 0.36132293349423605 0 0.36132293349423605 -0.71959290462434922 0 0 0 0 -31.569627856533771 -20.917515157321759 0 -20.917515157321759 -41.456509235344129 0 0 0 0 -20.711464622829226 -9.8154220691467344 0 -9.8154220691467344 -35.086564921728836 0 0 0 0 -39.677336235748953 -56.539415040697349 0 -56.539415040697349 -58.047823423725276 0 0 0 0 50.621483046168578 -44.817190821318945 0 -44.817190821318945 -75.189394294182421 0 0 0 0 0.10437604683102109 -43.122006631729164 0 -43.122006631729164 -25.094298209849512 0 0 0 0 11.525046868133359 -58.444816935741983 0 -58.444816935741983 -4.8343415079070837 0 0 0 0 38.079123810053716 -9.5387159114143287 0 -9.5387159114143287 -14.342937987512414 0 0 0 0 -9.1511499458429171 -20.948951609465439 0 -20.948951609465439 -11.622286053075186 0 0 0 0 2.5340782660575201 -0.2186473208656281 0 -0.2186473208656281 -2.0020047781082724 0 0 0 0 -41.436201224321849 -29.281376632305182 0 -29.281376632305182 -32.571606508750847 0 0 0 0 -5.8041549641347956 -16.261075490274379 0 -16.261075490274379 -20.980414058696624 0 0 0 0 -1.6356649438619115 -4.666600510204205 0 -4.666600510204205 -6.8015111222053406 0 0 0 0 10.02407296642923 -7.1469236678240122 0 -7.1469236678240122 -28.026404305142933 0 0 0 0 -14.451010215372662 -11.265986607588275 0 -11.265986607588275 -24.098260328559263 0 0 0 0 -0.010882528920774348 -34.461691650572902 0 -34.461691650572902 -45.82782813879021 0 0 0 0 -1.1358089522982482 -28.172396255606145 0 -28.172396255606145 -49.783812546873378 0 0 0 0 1.1255864933458781 -1.8514271001341456 0 -1.8514271001341456 -1.1908385728285253 0 0 0 0 -57.556042321986752 -43.155632082476586 0 -43.155632082476586 -22.809665150569344 0 0 0 0 24.119544429260714 -11.679545923030673 0 -11.679545923030673 -24.651946090725687 0 0 0 0 -20.223039210788556 -7.6869433906340419 0 -7.6869433906340419 -7.341657653771108 0 0 0 0 7.8366061736160191 -28.198052701653069 0 -28.198052701653069 -32.968071771345421 0 0 0 0 -14.038838039399707 -22.996834516739909 0 -22.996834516739909 -8.1569403001398086 0 0 0 0 10.08944799704841 -22.799844197958009 0 -22.799844197958009 -12.856614203585195 0 0 0 0 -7.4149969220795668 -11.252597586326345 0 -11.252597586326345 -12.604895758405391 0 0 0 0 0.025999088742537424 -5.7160068787816272 0 -5.7160068787816272 1.750281542288576 0 0 0 0 -0.89913887521347391 -3.7760955322058578 0 -3.7760955322058578 -2.502993030558784 0 0 0 0 -0.73822380391357001 -8.7348038517138775 0 -8.7348038517138775 -4.4855269784784468 0 0 0 0 -8.9387142877822043 -24.660171353501937 0 -24.660171353501937 -23.877079310782847 0 0 0 0 -9.0155718845926458 -23.761968237104156 0 -23.761968237104156 -15.59936672844924 0 0 0 0 29.583933039539261 -15.6102094920534 0 -15.6102094920534 -19.465342930012412 0 0 0 0 -14.779933063102362 -30.810590314344154 0 -30.810590314344154 -30.847029243010184 0 0 0 0 -14.913408112908655 -30.058514330281469 0 -30.058514330281469 -13.657789904995298 0 0 0 0 -10.388241107783628 -15.666743936285229 0 -15.666743936285229 -19.860704198177231 0 0 0 0 -3.1606518981346596 -6.452512760166826 0 -6.452512760166826 -4.0816940180236969 0 0 0 0 -13.367870808840962 -27.645067498318895 0 -27.645067498318895 -6.5132340434975049 0 0 0 0 6.0959603236842668 -13.455207227674691 0 -13.455207227674691 -14.31770921218947 0 0 0 0 -35.628377731423825 -17.673440614908031 0 -17.673440614908031 -7.7124914919768344 0 0 0 0 132.87352129252395 -105.11419698114332 0 -105.11419698114332 -15.496101945818737 0 0 0 0 0.62911409445675304 -1.2299799552741257 0 -1.2299799552741257 -11.480041810203439 0 0 0 0 -40.84120500116569 -51.940498067767976 0 -51.940498067767976 -25.459979355102405 0 0 0 0 0.97025256080797817 -0.40117652237985624 0 -0.40117652237985624 0.23461012136753823 0 0 0 0 97.032443691714434 -7.9578241808176244 0 -7.9578241808176244 -24.711292312575097 0 0 0 0 18.420033680828055 -13.430340320032428 0 -13.430340320032428 -51.812053817247943 0 0 0 0 -55.177124350848317 -149.39120788262881 0 -149.39120788262881 37.047784707526262 0 0 0 0 2.1606383895819476 -15.352293371413637 0 -15.352293371413637 -14.190401472613964 0 0 0 0 5.1671797336894087 -25.709208275920901 0 -25.709208275920901 -7.8947413444657286 0 0 0 0 -156.27732641801413 -140.58227418121896 0 -140.58227418121896 209.88074254118965 0 0 0 0 148.09571630083155 67.143714208373694 0 67.143714208373694 -892.60797321875725 0 0 0 0 33.435472315595689 129.10331192693639 0 129.10331192693639 -284.88169080041007 0 0 0 0 0.056808856817951892 -5.8953791064432153 0 -5.8953791064432153 -7.2980429428225762 0 0 0 0 6.7004771676001837 -22.314323635962865 0 -22.314323635962865 -13.435688293546264 0 0 0 0 12.183211406183545 -15.829152663887726 0 -15.829152663887726 -7.163346235991412 0 0 0 0 0.76724660496865482 -10.810236512103458 0 -10.810236512103458 -3.6797755835330719 0 0 0 0 9.6809360955647037 -12.774068247564742 0 -12.774068247564742 -14.74730697748377 0 0 0 0 -0.0069393911908264272 -6.2675142555526691 0 -6.2675142555526691 -3.832419044119888 0 0 0 0 3.157633564707794 -8.0649057714254013 0 -8.0649057714254013 -8.7110098955963622 0 0 0 0 -2.2389516194283487 -5.0846743914831336 0 -5.0846743914831336 -5.5121475871182923 0 0 0 0 -276.28500367869856 -101.18942893939493 0 -101.18942893939493 390.13521371763636 0 0 0 0 1.8415383955511402 1.6832773455262071 0 1.6832773455262071 -7.2940144117178889 0 0 0 0 -1.2554959401948338 1.9238546045320959 0 1.9238546045320959 -1.9930566800631766 0 0 0 0 -2.0278841902943725 -2.0674821921445243 0 -2.0674821921445243 -1.9011755931073822 0 0 0 0 0.016589487422606908 -5.3112627801929193 0 -5.3112627801929193 -7.3202869679626019 0 0 0 0 273.85413686949323 -11.542156569293184 0 -11.542156569293184 -2241.3937373218068 0 0 0 0 358.63423906191019 -371.88355723631685 0 -371.88355723631685 -2388.19916993685 0 0 0 0 0.60594441191642545 -465.90057836649976 0 -465.90057836649976 -1863.7533979987566 0 0 0 0 78.050055887753842 -644.22164329366387 0 -644.22164329366387 -1150.5594951193161 0 0 0 0 -901.5044637213723 148.10994937370742 0 148.10994937370742 -1695.0622375300718 0 0 0 0 -742.66338225669642 -687.1178414171452 0 -687.1178414171452 -1860.8350321134712 0 0 0 0 2.4501582263614807 1.1048585460318918 0 1.1048585460318918 -16.270715693854754 0 0 0 0 -190.60345457806761 503.0581077189745 0 503.0581077189745 -745.88701644925459 0 0 0 0 -408.4082102158718 -664.75592630444498 0 -664.75592630444498 -1604.0471253640462 0 0 0 0 350.31743527008302 -244.62781054285119 0 -244.62781054285119 -2535.0537925623976 0 0 0 0 280.48920182164875 209.19102341548205 0 209.19102341548205 -2342.5368084652546 0 0 0 0 246.00061100098537 137.48270075876098 0 137.48270075876098 -914.27721546845532 0 0 0 0 506.62291937629766 -151.40610638193564 0 -151.40610638193564 -1817.1453311620971 0 0 0 0 499.28051589575534 -493.36720675531456 0 -493.36720675531456 -1546.2326345957717 0 0 0 0 326.18753395676322 -421.77625398514283 0 -421.77625398514283 -1437.8340118996002 0 0 0 0 228.07957909439574 -140.45592071002466 0 -140.45592071002466 -1633.9169127603618 0 0 0 0 -185.0947721717821 -777.52062126753572 0 -777.52062126753572 -1150.5654408469891 0 0 0 0 -51.695052006649348 -317.34146840956873 0 -317.34146840956873 317.03424741080926 0 0 0 0 744.44082226738101 74.646228748906651 0 74.646228748906651 -917.34585175644679 0 0 0 0 1023.3971501619217 -395.0751635742306 0 -395.0751635742306 -1538.8648580094887 0 0 0 0 -6.7656824462889347 -11.081906889655798 0 -11.081906889655798 -11.346328424970579 0 0 0 0 626.36922292038798 -505.04806237411913 0 -505.04806237411913 223.94272658259069 0 0 0 0 473.97748995780421 -1023.1438603477991 0 -1023.1438603477991 329.21519017523394 0 0 0 0 26.350091531312501 -99.180329479281681 0 -99.180329479281681 311.60571976804204 0 0 0 0 -17.260925110967946 -314.73282590576673 0 -314.73282590576673 241.12836313895059 0 0 0 0 85.053138574585319 -103.1141355352047 0 -103.1141355352047 28.565534019333427 0 0 0 0 146.6564008831192 62.785148846627635 0 62.785148846627635 362.14817730671484 0 0 0 0 -0.08879872573467551 -373.0452550636407 0 -373.0452550636407 -613.09124976930616 0 0 0 0 143.06896548262739 64.868162386606855 0 64.868162386606855 -1050.9155337179764 0 0 0 0 -1152.7382132163548 -251.44986664415455 0 -251.44986664415455 134.07687509623611 0 0 0 0 597.22194303656579 -355.82679888580333 0 -355.82679888580333 -1010.2704535081502 0 0 0 0 -2.8265888865255278 -4.4348891997677811 0 -4.4348891997677811 -2.2445056000538841 0 0 0 0 -1626.5637449111439 -1146.1815016212611 0 -1146.1815016212611 -419.03886964652884 0 0 0 0 -151.52757782411936 -623.87529937245927 0 -623.87529937245927 -253.88378800504233 0 0 0 0 -0.29372623832267153 -2.9569329124636283 0 -2.9569329124636283 -11.569632662179082 0 0 0 0 1141.5232767757414 -360.05224752549083 0 -360.05224752549083 -474.07702094921115 0 0 0 0 25.834140460021445 -1021.8965598291625 0 -1021.8965598291625 -1051.1129469587868 0 0 0 0 -257.68215577275987 -543.58076403897394 0 -543.58076403897394 -119.91426083770421 0 0 0 0 521.85291082307231 -163.96259907788863 0 -163.96259907788863 -111.77714152632007 0 0 0 0 -258.91455471402878 -661.37450608165727 0 -661.37450608165727 374.96762868555743 0 0 0 0 -3.1755839283318892 -5.9129269255499963 0 -5.9129269255499963 -7.2184024817868533 0 0 0 0 -215.81341576037812 -847.91913551056223 0 -847.91913551056223 -940.93228511765665 0 0 0 0 -144.55803530071717 -1060.64241599346 0 -1060.64241599346 -611.44754717962587 0 0 0 0 -4.6984811508154962 -263.70640595731766 0 -263.70640595731766 -930.83442737447331 0 0 0 0 -143.37673547265877 -472.01403943409241 0 -472.01403943409241 -920.65585292966534 0 0 0 0 -202.08449018338433 -79.751016171931042 0 -79.751016171931042 -393.60869171882587 0 0 0 0 -151.68889230988498 -227.15060868204728 0 -227.15060868204728 -181.43079280630627 0 0 0 0 110.92703512389562 21.854267806547796 0 21.854267806547796 -265.78223098238414 0 0 0 0 -208.49206994988344 -423.1791956237621 0 -423.1791956237621 -440.6389985753749 0 0 0 0 -0.16498749382423061 -7.0484815650354875 0 -7.0484815650354875 -31.135099620011296 0 0 0 0 98.198611868913076 -22.669861502740702 0 -22.669861502740702 -152.30431489095645 0 0 0 0 1.8921348264007987 -7.103590296577849 0 -7.103590296577849 -45.95749071092547 0 0 0 0 -4.5698964679322671 53.193595834455664 0 53.193595834455664 42.1452868357228 0 0 0 0 -1.8625437000446254 102.96357439061194 0 102.96357439061194 -109.37572778420599 0 0 0 0 3.1937596539564481 -0.41756979093775648 0 -0.41756979093775648 -11.092422356528616 0 0 0 0 3.7266788747226656 -22.929121257027596 0 -22.929121257027596 -60.416477696644506 0 0 0 0 7.9738080723909661 -10.173797545628986 0 -10.173797545628986 -53.083961103578076 0 0 0 0 1.5070533366381844 -5.4544933773944564 0 -5.4544933773944564 -45.585029618977295 0 0 0 0 0.8368503307191304 0.7724345822811145 0 0.7724345822811145 -22.791231359287622 0 0 0 0 -5.0701564072660403 -1.6293807379446434 0 -1.6293807379446434 -21.804654203367591 0 0 0 0 -29.417953354859492 -175.2141239194807 0 -175.2141239194807 -340.9353382165782 0 0 0 0 -9.9190460686950246 -14.040605912613501 0 -14.040605912613501 -63.959164102973773 0 0 0 0 0.98343743937641648 2.5115747679509788 0 2.5115747679509788 -8.5344032782022268 0 0 0 0 -104.2254839602756 109.47406755899738 0 109.47406755899738 82.316632984626267 0 0 0 0 -9.7322002976070507 17.709343274382263 0 17.709343274382263 -67.647234025560465 0 0 0 0 79.957072983539547 -74.51704423875708 0 -74.51704423875708 -19.047013393348607 0 0 0 0 -105.40753826899163 -71.407895903626923 0 -71.407895903626923 89.27494914284398 0 0 0 0 27.726041063113371 -41.154823607728758 0 -41.154823607728758 -49.174974994411969 0 0 0 0 -3.7434947061809964 -20.218710145673555 0 -20.218710145673555 -16.528592611351449 0 0 0 0 -20.137391736803693 3.3957783537352952 0 3.3957783537352952 -50.673306686363503 0 0 0 0 87.723160817611642 -15.913524688213329 0 -15.913524688213329 -53.099027028329147 0 0 0 0 2.4218086836335715 -46.210988606151659 0 -46.210988606151659 -24.174847943351779 0 0 0 0 10.464280405809404 -57.944840535819822 0 -57.944840535819822 -27.097278689208906 0 0 0 0 9.0801399161573499 -50.101826830708887 0 -50.101826830708887 -25.573798145749606 0 0 0 0 6.280033930848731 -60.466371715512651 0 -60.466371715512651 -13.915953775307571 0 0 0 0 46.91500366202672 -52.70923248104009 0 -52.70923248104009 -27.431129160988348 0 0 0 0 29.394831751848415 -8.8763317062569111 0 -8.8763317062569111 -133.23197199073945 0 0 0 0 20.910034812196727 -15.819237988923462 0 -15.819237988923462 -51.747334712599695 0 0 0 0 3.3527955732709387 -7.7451785167624365 0 -7.7451785167624365 -49.092559509004822 0 0 0 0 15.278839838691056 -11.118669402228988 0 -11.118669402228988 -41.708825816858734 0 0 0 0 2.2878433047008002 2.0821482587214177 0 2.0821482587214177 -72.68749338619682 0 0 0 0 3.9334708236868465 -9.8849808985115004 0 -9.8849808985115004 -14.155086664289106 0 0 0 0 -6.4533049207943236 -26.124339843678058 0 -26.124339843678058 -21.097453196118011 0 0 0 0 9.4923429605114507 -16.783618091269091 0 -16.783618091269091 -45.347328698826914 0 0 0 0 -9.7259506200152828 -16.070271486907927 0 -16.070271486907927 -45.002054864849924 0 0 0 0 -26.832344945742079 -10.163919056029954 0 -10.163919056029954 -76.528175139887026 0 0 0 0 -98.902204326837818 -55.937200056492429 0 -55.937200056492429 -32.723324311977194 0 0 0 0 24.056008120408308 -14.435756841497721 0 -14.435756841497721 -30.787040947785549 0 0 0 0 38.459796616305539 -12.60701092801537 0 -12.60701092801537 -32.69633255507506 0 0 0 0 4.5827230037953512 -17.866799483567149 0 -17.866799483567149 -17.36539446325034 0 0 0 0 51.542383988614631 -24.178169102857581 0 -24.178169102857581 -22.718595429547349 0 0 0 0 35.774929943989264 -31.332650677315542 0 -31.332650677315542 -34.315488419902977 0 0 0 0 5.0135086017907611 -39.679006285988649 0 -39.679006285988649 -37.691260507465351 0 0 0 0 33.808205886539042 -20.466445474770381 0 -20.466445474770381 -57.607289675667616 0 0 0 0 6.8150295515075641 -16.7694419018929 0 -16.7694419018929 -76.375842659782165 0 0 0 0 30.968098639527216 -16.543635230653734 0 -16.543635230653734 -53.262143389739897 0 0 0 0 44.27842126926771 -17.187512161459097 0 -17.187512161459097 -89.150626551728919 0 0 0 0 34.091768663250377 -17.393900517432073 0 -17.393900517432073 -33.617789841350479 0 0 0 0 51.797288672285504 -9.4346365598726152 0 -9.4346365598726152 -88.615745640980549 0 0 0 0 47.866061210253974 16.33154074704369 0 16.33154074704369 -112.98130945215834 0 0 0 0 104.30639071602491 -30.236407537291711 0 -30.236407537291711 -95.540041417404154 0 0 0 0 38.545090662810253 -36.349343200561293 0 -36.349343200561293 -106.25136299779184 0 0 0 0 85.131043507615686 -41.989555457655683 0 -41.989555457655683 -97.651232602809586 0 0 0 0 31.707244028752626 -30.770050643810094 0 -30.770050643810094 -16.670082085480232 0 0 0 0 73.206992374762194 -53.86568224886355 0 -53.86568224886355 -52.711718312039693 0 0 0 0 -79.414931259125296 -102.02366951048316 0 -102.02366951048316 15.606913539188099 0 0 0 0 54.94900286142547 -90.078255054142573 0 -90.078255054142573 -95.859127815422084 0 0 0 0 52.330389940589285 -41.5535093063204 0 -41.5535093063204 24.198595987517436 0 0 0 0 -72.67329643798621 -125.764698006054 0 -125.764698006054 14.932265335573902 0 0 0 0 -33.790934462882433 -108.99737513913578 0 -108.99737513913578 -36.984157529332151 0 0 0 0 13.275994228840318 -173.99112359518884 0 -173.99112359518884 -93.418202768826433 0 0 0 0 43.285062335950073 -33.517074565451438 0 -33.517074565451438 26.272370224389057 0 0 0 0 104.78230813397386 -76.743105203469653 0 -76.743105203469653 -96.838002273083816 0 0 0 0 31.517030972448993 -80.069253888721335 0 -80.069253888721335 -67.601812966744205 0 0 0 0 162.13509139971575 -129.47566749870907 0 -129.47566749870907 -49.830370619059067 0 0 0 0 13.27546149407317 -74.632381751522757 0 -74.632381751522757 -36.243604803511687 0 0 0 0 11.820715548888984 -91.860757851037818 0 -91.860757851037818 105.51194428671488 0 0 0 0 85.418503867935215 -121.02363382666613 0 -121.02363382666613 116.59342718697394 0 0 0 0 301.85630207882059 -167.85839713493704 0 -167.85839713493704 9.5223933759176589 0 0 0 0 81.033459663914982 -99.58879911830968 0 -99.58879911830968 228.28157782700055 0 0 0 0 165.52719575259835 45.348048221519775 0 45.348048221519775 -25.769075840180562 0 0 0 0 60.883096057585078 -125.25299054973338 0 -125.25299054973338 128.8623502081291 0 0 0 0 0.5282185097354386 -5.5124937124670481 0 -5.5124937124670481 -8.6944972414688557 0 0 0 0 16.223755336250179 11.440967033000334 0 11.440967033000334 -27.582504571131608 0 0 0 0 128.40837027191628 27.529266580620316 0 27.529266580620316 -63.309829624213535 0 0 0 0 159.98525704363419 -66.776713161694943 0 -66.776713161694943 -91.871204356043506 0 0 0 0 127.86717212609801 -58.261970759656435 0 -58.261970759656435 -55.089238803276658 0 0 0 0 319.54106330273407 -8.0368017076365277 0 -8.0368017076365277 -216.24368229260926 0 0 0 0 260.64272060971052 -85.376779144339025 0 -85.376779144339025 -192.63425238090713 0 0 0 0 271.68752333735029 -46.343821277069765 0 -46.343821277069765 -58.690967354499662 0 0 0 0 257.40851993788237 -3.6177128387089397 0 -3.6177128387089397 -138.91349594750409 0 0 0 0 304.05629404889623 19.553469501329346 0 19.553469501329346 -128.4812759115116 0 0 0 0 189.66541138337197 -103.81621452826084 0 -103.81621452826084 -64.803903729341982 0 0 0 0 310.93556490215633 -51.050959411964868 0 -51.050959411964868 -44.768136292465897 0 0 0 0 50.402160611840372 -159.23405856753288 0 -159.23405856753288 -7.1409780176963977 0 0 0 0 48.050361550012894 -36.319960203981282 0 -36.319960203981282 -75.337415994314142 0 0 0 0 7.682105858635623 -209.12157747198944 0 -209.12157747198944 -80.920486606550412 0 0 0 0 -27.803500937938225 -117.86188655842534 0 -117.86188655842534 -50.124987196169513 0 0 0 0 -48.022987689255388 -71.670122378831138 0 -71.670122378831138 127.65719965090693 0 0 0 0 -40.822583675366332 -18.980515920344828 0 -18.980515920344828 167.49245558239363 0 0 0 0 142.94175110376818 -78.972635584062573 0 -78.972635584062573 -122.85684342022068 0 0 0 0 34.429518467681106 -26.067055152406759 0 -26.067055152406759 19.141299845557757 0 0 0 0 127.32255442770929 14.10141011597841 0 14.10141011597841 -49.438978408683397 0 0 0 0 302.17894049449023 111.3710100290441 0 111.3710100290441 2.7635838467363101 0 0 0 0 22.694694749014317 -16.882285439540965 0 -16.882285439540965 13.015817104129511 0 0 0 0 -29.020255970928702 -108.18596701771457 0 -108.18596701771457 183.51069296630749 0 0 0 0 302.14262627634508 53.285651743892693 0 53.285651743892693 -48.776137934815779 0 0 0 0 201.74606074583789 -424.5333951669636 0 -424.5333951669636 1112.1510133632628 0 0 0 0 35.502739674338955 -4.6214683213283934 0 -4.6214683213283934 487.20930795786353 0 0 0 0 7.9667905962490408 -5.8291760661785617 0 -5.8291760661785617 5.6780178802202563 0 0 0 0 36.839617801462737 -74.339205696786848 0 -74.339205696786848 198.09952451895788 0 0 0 0 -31.352358242989794 -17.509307692180187 0 -17.509307692180187 378.37241357951643 0 0 0 0 -53.134307947366324 -105.84339652318295 0 -105.84339652318295 237.7778428012366 0 0 0 0 -51.356844348595246 -54.691086774716695 0 -54.691086774716695 238.09246969666674 0 0 0 0 -47.589862010903744 -191.31296626694939 0 -191.31296626694939 249.49691339585661 0 0 0 0 30.847170231761993 -348.77530185225987 0 -348.77530185225987 202.43837075062902 0 0 0 0 -53.874374794981122 -197.06854619500132 0 -197.06854619500132 346.59729348820656 0 0 0 0 -17.394048775247938 -257.44797519245185 0 -257.44797519245185 445.23220389151129 0 0 0 0 24.976986697678512 -239.47739333855679 0 -239.47739333855679 377.30291713785846 0 0 0 0 33.659373631860944 -379.51597259390292 0 -379.51597259390292 482.9046539338924 0 0 0 0 404.42730816583207 -547.96479235875722 0 -547.96479235875722 401.72087798281245 0 0 0 0 398.62519747321858 -295.34044121629722 0 -295.34044121629722 443.25383008983408 0 0 0 0 155.55328099593316 -481.92036974125858 0 -481.92036974125858 803.53135305244177 0 0 0 0 377.26894893517704 -267.59503593593041 0 -267.59503593593041 52.584453268091238 0 0 0 0 217.25970192275418 -191.66517560320881 0 -191.66517560320881 17.120427457967708 0 0 0 0 217.40516522040409 -94.672524682547362 0 -94.672524682547362 123.7112487713166 0 0 0 0 -24.00408048848476 -98.34623578116998 0 -98.34623578116998 191.85289380363884 0 0 0 0 -24.182388533969061 -101.73012680863212 0 -101.73012680863212 139.88825679105344 0 0 0 0 105.62276886514155 -141.32870072963715 0 -141.32870072963715 162.05608267776051 0 0 0 0 -8.2135313219259842 -184.29825194627983 0 -184.29825194627983 120.34980502824874 0 0 0 0 -66.746770392033795 -305.37381931896243 0 -305.37381931896243 164.6616223370138 0 0 0 0 -28.582053463956981 -193.60418385479215 0 -193.60418385479215 155.81981226602534 0 0 0 0 -188.38172400396434 -422.75696328730191 0 -422.75696328730191 -26.62888781663662 0 0 0 0 157.07471390987848 -264.62444596976411 0 -264.62444596976411 -7.3027746001434934 0 0 0 0 177.31374014478934 -216.67198441670325 0 -216.67198441670325 105.74713854449237 0 0 0 0 -215.32096600731893 -1245.0892269081105 0 -1245.0892269081105 -960.65138226301133 0 0 0 0 161.08583063540209 -644.09013637152066 0 -644.09013637152066 -151.63973524227549 0 0 0 0 -745.32510598655062 -924.02077651227137 0 -924.02077651227137 -196.39439085243976 0 0 0 0 -570.06658088224503 -1229.3427135193192 0 -1229.3427135193192 330.92292668035225 0 0 0 0 -1502.0452965723744 -975.35787318776647 0 -975.35787318776647 349.8841267439584 0 0 0 0 -895.58031012811989 -527.36031151640145 0 -527.36031151640145 -142.55488212688579 0 0 0 0 -286.24062758831133 -568.56717306712471 0 -568.56717306712471 -29.211431300431173 0 0 0 0 -437.77429292319721 -396.09084185448228 0 -396.09084185448228 -32.580629248834157 0 0 0 0 -808.30972666906018 -646.2083300490649 0 -646.2083300490649 -16.186549348214612 0 0 0 0 -366.21412873296504 -397.27319142806141 0 -397.27319142806141 39.241496236763851 0 0 0 0 -23.531282881474908 -338.28468100851114 0 -338.28468100851114 -55.872275845907097 0 0 0 0 117.34893292305605 -485.98240178135507 0 -485.98240178135507 101.29486606690898 0 0 0 0 -29.447146950184106 -264.60994287975655 0 -264.60994287975655 -24.785661474788867 0 0 0 0 -291.50173539819662 -480.79498773777959 0 -480.79498773777959 -26.768667297382308 0 0 0 0 -423.46697880180727 -451.18377060891362 0 -451.18377060891362 138.94029958305509 0 0 0 0 49.801961020166345 -242.88321096744357 0 -242.88321096744357 82.790242840601422 0 0 0 0 -449.44471782277833 -374.72196202110081 0 -374.72196202110081 -108.61776252211712 0 0 0 0 -167.9911099147248 -581.89152503311334 0 -581.89152503311334 -72.525676869361632 0 0 0 0 -634.61126744243666 -669.7721323672622 0 -669.7721323672622 -176.76527932810222 0 0 0 0 -1102.9351307346005 -589.88382989405272 0 -589.88382989405272 -80.965429325418881 0 0 0 0 -763.07345245801844 -532.77331979709925 0 -532.77331979709925 -169.45700140658391 0 0 0 0 -1089.9425830270629 -746.87161906475467 0 -746.87161906475467 -76.944352533268102 0 0 0 0 -695.86297572524199 -649.45862232056288 0 -649.45862232056288 -72.870589086009204 0 0 0 0 -427.2904561258747 -423.15499801357146 0 -423.15499801357146 -46.116626517754412 0 0 0 0 432.08981856241735 -477.62473479140272 0 -477.62473479140272 33.105082542999298 0 0 0 0 384.78084364225651 -382.15178758223601 0 -382.15178758223601 -153.51488886953121 0 0 0 0 286.20857324751523 -429.6189865827555 0 -429.6189865827555 290.00690981443768 0 0 0 0 305.29051495775548 -481.46511165089282 0 -481.46511165089282 165.36944757855235 0 0 0 0 107.26009646616876 -421.41883862058694 0 -421.41883862058694 150.53582009692673 0 0 0 0 19.822423818244715 -336.57537581919951 0 -336.57537581919951 33.270918200878441 0 0 0 0 146.50030372309993 -467.28329714750726 0 -467.28329714750726 -83.949436856552893 0 0 0 0 24.06234767416754 -369.41315619087163 0 -369.41315619087163 227.64292326936447 0 0 0 0 1062.9830245536286 -299.80423379939111 0 -299.80423379939111 -165.90920435108637 0 0 0 0 0.17014410623701637 -1.9576788787279327 0 -1.9576788787279327 -0.38965995354989502 0 0 0 0 239.48725623251812 -405.10109700910562 0 -405.10109700910562 -75.184174964965678 0 0 0 0 -827.27255857624391 -435.66106140518076 0 -435.66106140518076 92.901411599730636 0 0 0 0 201.07004395670083 -479.72243372621165 0 -479.72243372621165 -70.941232661611139 0 0 0 0 107.78242566809786 -221.77334509117281 0 -221.77334509117281 -127.03652092869652 0 0 0 0 399.99115650338354 -366.16240528988237 0 -366.16240528988237 -33.441475281799285 0 0 0 0 422.02209304529242 -493.59552901465759 0 -493.59552901465759 -178.74598375411801 0 0 0 0 484.42432933285454 -410.83130423741568 0 -410.83130423741568 -144.96468723456201 0 0 0 0 560.63602160229493 -456.52665917211016 0 -456.52665917211016 463.7575564201361 0 0 0 0 388.03120835551817 -561.36657949067921 0 -561.36657949067921 429.27394292905126 0 0 0 0 388.3306741820652 -405.21395560753126 0 -405.21395560753126 422.76322498989248 0 0 0 0 400.4227693324865 -517.94285405094661 0 -517.94285405094661 440.40255375378911 0 0 0 0 496.26968610299809 -448.49937503088586 0 -448.49937503088586 194.42351074313137 0 0 0 0 434.17510576370842 -454.76586278816831 0 -454.76586278816831 -2.4485726115567559 0 0 0 0 423.14665870054887 -405.93685393776559 0 -405.93685393776559 200.92536346142151 0 0 0 0 248.07807193344706 -337.42671609527724 0 -337.42671609527724 145.68481814984625 0 0 0 0 325.09621002889617 -529.92025272104183 0 -529.92025272104183 410.33316560017556 0 0 0 0 395.81588583799021 -498.72333709756094 0 -498.72333709756094 146.87082253574403 0 0 0 0 446.90203599354572 -295.61194776491811 0 -295.61194776491811 50.821916640459676 0 0 0 0 -139.97410458643208 -289.1013119591662 0 -289.1013119591662 154.04176526872834 0 0 0 0 0.099657425377610576 -6.2244643052495974 0 -6.2244643052495974 -0.3641839652294081 0 0 0 0 351.8358140460881 -327.14799158264384 0 -327.14799158264384 -236.50091325114045 0 0 0 0 -264.45567988990661 -340.80304296311897 0 -340.80304296311897 -61.462529856306901 0 0 0 0 -478.03114457191987 -966.57624665716412 0 -966.57624665716412 81.886449396773969 0 0 0 0 -1195.9515365955137 -608.45178733956163 0 -608.45178733956163 137.01225339611119 0 0 0 0 -0.038073510619725859 -3.668186138431949 0 -3.668186138431949 0.014593102261372337 0 0 0 0 -62.023580306777149 -572.45038267284144 0 -572.45038267284144 274.05676713000776 0 0 0 0 -43.545261103536177 -550.1548291441045 0 -550.1548291441045 15.580064897090779 0 0 0 0 128.40904695964127 -709.66466831010348 0 -709.66466831010348 118.24974078171658 0 0 0 0 270.55548278953938 -554.97055636964524 0 -554.97055636964524 -375.10806715132094 0 0 0 0 466.97348983077973 -974.54281198213448 0 -974.54281198213448 138.06887747181349 0 0 0 0 1184.0450309519811 -621.94813540455368 0 -621.94813540455368 42.364118842095195 0 0 0 0 413.64927212248949 -595.10906984363555 0 -595.10906984363555 312.52384562493899 0 0 0 0 269.63245044201904 -581.66658274931615 0 -581.66658274931615 373.83795355129405 0 0 0 0 291.58536556218314 -517.92718964354208 0 -517.92718964354208 557.30603607140074 0 0 0 0 450.18011755932093 -710.46268578852323 0 -710.46268578852323 350.06511678052266 0 0 0 0 254.88490075932987 -514.31875912597991 0 -514.31875912597991 160.36800205663894 0 0 0 0 283.77124247810571 -826.64082830495681 0 -826.64082830495681 -49.485174347224529 0 0 0 0 144.70533882189193 -583.56881782725031 0 -583.56881782725031 -97.709357538546101 0 0 0 0 -16.223287750675809 -252.22505125018506 0 -252.22505125018506 -513.64099100192016 0 0 0 0 -415.82945264629961 -673.02856890013754 0 -673.02856890013754 -570.17065823939265 0 0 0 0 142.92654579473106 -438.10123453152391 0 -438.10123453152391 -838.72518728566502 0 0 0 0 -112.1863495897851 -799.53908738976315 0 -799.53908738976315 30.785729695715418 0 0 0 0 -66.031457954351936 -692.71351217088522 0 -692.71351217088522 224.09291851170565 0 0 0 0 -0.23084992262940318 -5.3472509893582227 0 -5.3472509893582227 -1.5315048012159718 0 0 0 0 70.554040029790485 32.726853421156193 0 32.726853421156193 -1258.533298744549 0 0 0 0 -11.277600858331425 -617.86215235852615 0 -617.86215235852615 -964.80100800332366 0 0 0 0 -105.7991343048925 -495.16841836240201 0 -495.16841836240201 -888.83083296763652 0 0 0 0 4.3931090366568242 -73.76423946092882 0 -73.76423946092882 -380.85944183763786 0 0 0 0 1.653536012730342 -1.3581816526765493 0 -1.3581816526765493 -1.7906791900330141 0 0 0 0 410.9157238727239 -775.77490904063848 0 -775.77490904063848 729.6509278382473 0 0 0 0 141.42599704706663 134.97396115482752 0 134.97396115482752 -50.106320836264331 0 0 0 0 406.63296837528469 -462.1530304481721 0 -462.1530304481721 708.64020901743424 0 0 0 0 -638.19334635352425 -798.40899957050442 0 -798.40899957050442 -875.53454274763226 0 0 0 0 -1112.7068902939354 -177.90803983923524 0 -177.90803983923524 181.17877563497041 0 0 0 0 -2.506143155570669 -7.0079313103289635 0 -7.0079313103289635 7.9390041838118535 0 0 0 0 4.1346954049721631 -14.515995135138994 0 -14.515995135138994 16.295126946406583 0 0 0 0 -15.015635167706932 -16.392382618123065 0 -16.392382618123065 9.912102427391801 0 0 0 0 -802.39187365769612 -624.30167775252448 0 -624.30167775252448 -231.48513593858479 0 0 0 0 -484.37773814136381 -502.11351697079226 0 -502.11351697079226 -386.98315123367138 0 0 0 0 -996.05752424182356 -714.69469525816567 0 -714.69469525816567 -210.60271348180686 0 0 0 0 -783.90521457343857 -562.06842962852988 0 -562.06842962852988 -133.54308553080773 0 0 0 0 -279.87946018689399 -605.9323257275455 0 -605.9323257275455 -340.31535854895719 0 0 0 0 -10.777191244131245 -526.69168194299618 0 -526.69168194299618 -99.197827264765692 0 0 0 0 -235.70767884509405 -427.78809507452115 0 -427.78809507452115 -111.23053641782826 0 0 0 0 -185.41524846083485 -830.300705135729 0 -830.300705135729 -216.63352384476457 0 0 0 0 -271.79999590617081 -668.81266148569011 0 -668.81266148569011 -384.85319630242429 0 0 0 0 -392.39456143807911 -927.07154351425015 0 -927.07154351425015 -657.13359168113584 0 0 0 0 -714.02456207277282 -277.40603938512641 0 -277.40603938512641 -523.20594962651012 0 0 0 0 -275.6671067502175 -631.5582264822342 0 -631.5582264822342 -121.94452912588167 0 0 0 0 14.014007201483764 -841.19627473828314 0 -841.19627473828314 -44.567482310834748 0 0 0 0 -432.77570091677626 -623.51032485087944 0 -623.51032485087944 133.14591890940119 0 0 0 0 -369.95992194850987 -894.17073035578869 0 -894.17073035578869 670.87879344764769 0 0 0 0 -281.23545649868902 -249.55175762609178 0 -249.55175762609178 717.16788106850333 0 0 0 0 248.62783334183769 961.56576248401166 0 961.56576248401166 1695.7439114213448 0 0 0 0 0.08482575113042401 -2.4965882593369599 0 -2.4965882593369599 14.641142528425569 0 0 0 0 565.54842140015535 -1047.6343356152929 0 -1047.6343356152929 629.15611205763435 0 0 0 0 -474.73965893204877 -309.57047043978946 0 -309.57047043978946 170.34058303037637 0 0 0 0 -139.22759934507485 -265.07701621611159 0 -265.07701621611159 94.957125668449407 0 0 0 0 -1.5897251951021474 -14.485683464365351 0 -14.485683464365351 33.941339035125054 0 0 0 0 100.62598047136999 22.71707721547341 0 22.71707721547341 176.78542899822696 0 0 0 0 -3.2335330780238962 -18.816219441377861 0 -18.816219441377861 -2.1204004629590614 0 0 0 0 -87.446570457719645 -24.421161202728172 0 -24.421161202728172 561.10803958532779 0 0 0 0 -159.47230532612593 212.77855673012346 0 212.77855673012346 541.78700529708158 0 0 0 0 -416.92556643567514 308.99264844561276 0 308.99264844561276 1348.5863649265364 0 0 0 0 -201.24638801969195 217.55725412643312 0 217.55725412643312 1386.355584883645 0 0 0 0 -357.72553412523121 221.05063168052766 0 221.05063168052766 1135.8227691165921 0 0 0 0 -97.017371900306898 -189.78819122860341 0 -189.78819122860341 1608.3016167560672 0 0 0 0 -503.76735223126889 329.5433549179952 0 329.5433549179952 2580.4865349204329 0 0 0 0 -362.68156439920131 -1611.9501643242511 0 -1611.9501643242511 2106.4704488398957 0 0 0 0 274.82928069159243 -187.02324474071179 0 -187.02324474071179 116.34746244254075 0 0 0 0 -5.9822359598476567 -10.233366442400154 0 -10.233366442400154 -1.0275582406490802 0 0 0 0 -16.28553983160964 -400.26412577777307 0 -400.26412577777307 -143.08821899829218 0 0 0 0 206.93085058448196 -247.97210634673183 0 -247.97210634673183 164.40288206766854 0 0 0 0 106.24335353563947 -541.50095055734982 0 -541.50095055734982 737.52532880709487 0 0 0 0 -348.84607262113423 -179.20323790202315 0 -179.20323790202315 1634.6505633914837 0 0 0 0 -1.8800823123426973 -2.482488827002399 0 -2.482488827002399 2.3332805707131641 0 0 0 0 -2.5780508804772229 -14.881428057220347 0 -14.881428057220347 9.8127669809675879 0 0 0 0 -6.0070999185700202 -22.74623073231669 0 -22.74623073231669 13.859810586345702 0 0 0 0 338.38848911014065 -208.55646501229285 0 -208.55646501229285 88.898907172322652 0 0 0 0 313.02558342386328 -217.1311533180442 0 -217.1311533180442 126.47099144846175 0 0 0 0 339.03923098329324 -308.58933863903019 0 -308.58933863903019 187.83424673525951 0 0 0 0 869.71860424266197 -256.13618154166306 0 -256.13618154166306 4.1361036785829128 0 0 0 0 417.47860202900483 -221.19813987722864 0 -221.19813987722864 11.792186934716483 0 0 0 0 154.28990924640675 -500.33964831365392 0 -500.33964831365392 146.1122900135415 0 0 0 0 484.51025919370477 -357.92541823420902 0 -357.92541823420902 34.323970898506559 0 0 0 0 141.30506578637869 -476.51892001695614 0 -476.51892001695614 180.06159022300562 0 0 0 0 309.92575824545929 -386.36053893284588 0 -386.36053893284588 40.65115485533488 0 0 0 0 212.42852692410816 -430.31977717646623 0 -430.31977717646623 182.24837965512688 0 0 0 0 -95.355493358954845 -550.12271918918032 0 -550.12271918918032 102.6818754462256 0 0 0 0 -363.29723409021972 -478.43519463735447 0 -478.43519463735447 204.10058887303649 0 0 0 0 144.27334661284112 -305.47671412012255 0 -305.47671412012255 155.76741857698744 0 0 0 0 -206.06899736978812 -346.12373131385493 0 -346.12373131385493 265.86317747396879 0 0 0 0 228.67131578158296 -604.80466093621271 0 -604.80466093621271 139.52774805072863 0 0 0 0 143.96617305978725 -611.89294630220161 0 -611.89294630220161 682.88782762801452 0 0 0 0 205.20487973160925 -290.04512841100245 0 -290.04512841100245 378.67943969947555 0 0 0 0 -366.40900989645161 -1255.8794779124071 0 -1255.8794779124071 1140.8111045357455 0 0 0 0 -0.043013246441233832 -0.22880315533853235 0 -0.22880315533853235 -0.060975497014159163 0 0 0 0 1020.8280961312794 1351.6305765101042 0 1351.6305765101042 172.67387413810911 0 0 0 0 -4.7077794796587114 -1642.0853005559572 0 -1642.0853005559572 -308.82916360333195 0 0 0 0 -407.8172479573841 -1038.9263577503757 0 -1038.9263577503757 207.70303184330115 0 0 0 0 -334.76680724034668 -1061.7894897292931 0 -1061.7894897292931 -192.57012529310896 0 0 0 0 -850.051848864161 -504.21597534988405 0 -504.21597534988405 0.82402048865037614 0 0 0 0 -522.06496081581281 -970.65987476443092 0 -970.65987476443092 -421.75233241444056 0 0 0 0 -486.72106140483083 -831.1564087834048 0 -831.1564087834048 -156.6577891655536 0 0 0 0 -2045.0604238617088 -1199.0064964380233 0 -1199.0064964380233 -144.53906113451688 0 0 0 0 -975.29206898705525 -846.96722550317827 0 -846.96722550317827 -408.83816145480841 0 0 0 0 -2690.6202837104793 -974.63010904899704 0 -974.63010904899704 318.46516163982324 0 0 0 0 -262.34746502745838 -347.62887389968 0 -347.62887389968 16.164837073364652 0 0 0 0 -616.0011841943633 -725.49069507119293 0 -725.49069507119293 112.12377464948077 0 0 0 0 1.3492132623578073 -375.29425358293395 0 -375.29425358293395 203.16807593473749 0 0 0 0 2.4478462353022223 -7.9024686092496381 0 -7.9024686092496381 1.6090705320500298 0 0 0 0 1925.3693159479953 -947.85300314434153 0 -947.85300314434153 351.40934439991042 0 0 0 0 -0.59158557470800588 -1339.0563306017975 0 -1339.0563306017975 570.51949749745108 0 0 0 0 -144.481238664579 -1071.5076571168179 0 -1071.5076571168179 -14.239322151971464 0 0 0 0 17.632179187852671 -1199.7645557967512 0 -1199.7645557967512 87.009208961959303 0 0 0 0 -3.8519839540313114 -1052.7096007548446 0 -1052.7096007548446 113.71249215520675 0 0 0 0 -511.15553597600956 -331.39253048992305 0 -331.39253048992305 185.01462161338168 0 0 0 0 -376.41482855584763 -1243.4494404559605 0 -1243.4494404559605 300.25728837646011 0 0 0 0 -784.50199875440012 -937.85613361014612 0 -937.85613361014612 305.75728803081984 0 0 0 0 -133.25413135235431 -924.74486316238654 0 -924.74486316238654 286.52877640513861 0 0 0 0 -84.961081889563502 -817.52291444023479 0 -817.52291444023479 83.02545789447322 0 0 0 0 -118.54740370588115 -685.10943099105953 0 -685.10943099105953 182.90474454302966 0 0 0 0 -26.279030614590738 -634.86121004698134 0 -634.86121004698134 204.07466360509352 0 0 0 0 114.40459959753207 -745.03751017889044 0 -745.03751017889044 100.11429875697399 0 0 0 0 83.511447079243226 -854.69565990491014 0 -854.69565990491014 -240.75650866395699 0 0 0 0 259.98901217755338 -454.47488618778289 0 -454.47488618778289 -5.9180338278638374 0 0 0 0 170.07456991273466 -1134.2645462640121 0 -1134.2645462640121 -774.62156335481268 0 0 0 0 1.8976052783327759 -1334.409213134737 0 -1334.409213134737 -126.86498297947537 0 0 0 0 186.7761651420733 -1021.6023718721931 0 -1021.6023718721931 -14.779217501246421 0 0 0 0 -85.956148455210496 -624.09010908238361 0 -624.09010908238361 -153.89518689102192 0 0 0 0 85.683282842823246 -278.88630694505991 0 -278.88630694505991 -522.25301083278646 0 0 0 0 1233.417113917043 -518.10899895981856 0 -518.10899895981856 -897.96169133927106 0 0 0 0 737.5954109365266 -670.56261840782736 0 -670.56261840782736 -868.131177894026 0 0 0 0 -1.4230812054366311 -4.8928652217172584 0 -4.8928652217172584 -3.5593269746738514 0 0 0 0 0.034240453064720275 -49.583402616100642 0 -49.583402616100642 82.227902306462056 0 0 0 0 852.74438967211245 -50.93254262602386 0 -50.93254262602386 -500.31641686156763 0 0 0 0 -254.27473975607427 -670.88208391923035 0 -670.88208391923035 450.04890045896173 0 0 0 0 -341.6074382983843 -356.23120459747065 0 -356.23120459747065 576.95525781455035 0 0 0 0 184.58228508918546 -603.17516103248226 0 -603.17516103248226 368.92420883425439 0 0 0 0 165.6190967980001 -291.37113902853162 0 -291.37113902853162 232.27157816363024 0 0 0 0 0.18988053901557578 -49.725620037162116 0 -49.725620037162116 82.170819666986063 0 0 0 0 -4.3568618347537438 -8.8206014626878897 0 -8.8206014626878897 -6.1232176601737933 0 0 0 0 337.00658970723453 -261.65173193574901 0 -261.65173193574901 32.875981949111065 0 0 0 0 317.58232532435795 -367.51315926856023 0 -367.51315926856023 103.0541143226219 0 0 0 0 250.30767961931269 -678.7384369905526 0 -678.7384369905526 -289.21487050011274 0 0 0 0 -3.9879879899054345 -5.2230792106068975 0 -5.2230792106068975 -3.8584959177971143 0 0 0 0 591.64640330622206 -369.65777898875513 0 -369.65777898875513 -145.10784359897571 0 0 0 0 -71.900497440408799 -272.14152988579553 0 -272.14152988579553 597.90019752931039 0 0 0 0 401.13210429207174 -153.77550343646658 0 -153.77550343646658 195.59298399730687 0 0 0 0 68.536579739433364 -278.70092738846733 0 -278.70092738846733 132.26022074966932 0 0 0 0 317.60150791480191 -164.98267581171831 0 -164.98267581171831 109.34707232674009 0 0 0 0 217.52290367415117 -137.22658180513645 0 -137.22658180513645 228.57773093731828 0 0 0 0 209.48307891377681 -323.40984258050526 0 -323.40984258050526 244.07266581227123 0 0 0 0 369.07240199857915 -168.71096816783665 0 -168.71096816783665 389.50960983559889 0 0 0 0 186.54697511161794 -114.93039423528353 0 -114.93039423528353 -7.2712433226688518 0 0 0 0 266.10489738849719 -379.17873691679642 0 -379.17873691679642 -335.48855206746339 0 0 0 0 -86.095318630803376 -303.14380945405901 0 -303.14380945405901 -677.68747812026459 0 0 0 0 104.04659816849744 -677.02725957067832 0 -677.02725957067832 -189.92616936179729 0 0 0 0 -953.4440169304944 -1172.0076576948313 0 -1172.0076576948313 -15.924084947318988 0 0 0 0 -134.47105440450832 -996.09988399240501 0 -996.09988399240501 21.858756685677236 0 0 0 0 2160.1675699480838 -1234.0927766397535 0 -1234.0927766397535 685.3572129084605 0 0 0 0 -41.425025943521177 -1210.7541612611631 0 -1210.7541612611631 476.64629340435931 0 0 0 0 2142.9730927579658 -1314.7480089831151 0 -1314.7480089831151 452.54738400790666 0 0 0 0 589.77960717037786 -231.95752326296861 0 -231.95752326296861 118.62160662724273 0 0 0 0 789.73145278352604 -310.03465317674727 0 -310.03465317674727 951.66828933038232 0 0 0 0 479.98635181297141 -650.9322869904363 0 -650.9322869904363 577.06978199506284 0 0 0 0 584.84117188461096 -465.54069823179179 0 -465.54069823179179 489.52591842804031 0 0 0 0 1168.8602600076993 -1030.4157320595405 0 -1030.4157320595405 898.61871155839083 0 0 0 0 1071.4073953936168 -170.08823361315899 0 -170.08823361315899 -0.38164163006990748 0 0 0 0 1050.2507584187442 -642.2796406059955 0 -642.2796406059955 264.50003397125511 0 0 0 0 -0.054865824633914428 -4.4918220693800208 0 -4.4918220693800208 2.6097693699564246 0 0 0 0 -2334.5359142329617 -480.58511634070965 0 -480.58511634070965 274.90252116906959 0 0 0 0 -4.0717321562871973 -1.8841558975692152 0 -1.8841558975692152 3.3208466874001061 0 0 0 0 2610.9781475846394 -437.89589620191327 0 -437.89589620191327 34.571851704784422 0 0 0 0 -1242.2513628385823 -444.78844292884696 0 -444.78844292884696 -272.78919722657884 0 0 0 0 -1135.1142973860879 -650.75693053544592 0 -650.75693053544592 -106.37100870460927 0 0 0 0 -24.319142389416811 -17.369778609120658 0 -17.369778609120658 10.441492901571564 0 0 0 0 1.2464971455446143 -12.403379411282003 0 -12.403379411282003 5.7136740334346996 0 0 0 0 857.78563461995054 -253.83854884353786 0 -253.83854884353786 30.475955700079794 0 0 0 0 -0.81285354578929514 -6.3265962573074432 0 -6.3265962573074432 11.189683773855172 0 0 0 0 503.26648515924171 -395.59716243277126 0 -395.59716243277126 161.22553589831841 0 0 0 0 516.84815785996034 -553.85139883832198 0 -553.85139883832198 157.5599543301505 0 0 0 0 215.28864355159021 -411.79285298552986 0 -411.79285298552986 265.30233482192085 0 0 0 0 271.25156507542124 -340.85864052147963 0 -340.85864052147963 334.64007771237993 0 0 0 0 464.30307727065519 -583.63152106785401 0 -583.63152106785401 556.71005634094035 0 0 0 0 332.63137469562571 -852.09977718038806 0 -852.09977718038806 894.58164402514853 0 0 0 0 876.49661789029051 -614.88779199632177 0 -614.88779199632177 188.0171488704714 0 0 0 0 0.3255426084300268 1.332310655546852 0 1.332310655546852 1.669576087090908 0 0 0 0 208.11386763642804 -295.82588102630461 0 -295.82588102630461 322.29336622347682 0 0 0 0 619.52510305970645 -211.31471209452354 0 -211.31471209452354 166.82477586063681 0 0 0 0 241.50515335434102 -8.0668567675029408 0 -8.0668567675029408 -1285.4478897669164 0 0 0 0 386.0570581688271 -355.20902009105941 0 -355.20902009105941 333.40125358763726 0 0 0 0 -4.0583743112207458 -0.34016218867553283 0 -0.34016218867553283 -0.48501889792722075 0 0 0 0 232.1540361625448 -621.49350176936559 0 -621.49350176936559 218.32234374355971 0 0 0 0 621.28243283839402 -431.33603638128625 0 -431.33603638128625 -501.35004073921027 0 0 0 0 386.38294355957623 -99.013746564515714 0 -99.013746564515714 -318.7301086975117 0 0 0 0 443.0153387883438 -189.49734640445968 0 -189.49734640445968 -185.69608911699424 0 0 0 0 467.53464789574355 -358.30183450810705 0 -358.30183450810705 -95.506812168330725 0 0 0 0 311.90156272802778 -193.73447884444568 0 -193.73447884444568 127.50263127723019 0 0 0 0 487.80701634400612 -441.33077727082741 0 -441.33077727082741 171.97087702661429 0 0 0 0 318.77889049396981 -201.35374896907683 0 -201.35374896907683 34.109007993428463 0 0 0 0 208.79879055877973 -161.86224680226132 0 -161.86224680226132 20.764949714533941 0 0 0 0 439.76221088838065 -145.8022312444109 0 -145.8022312444109 -38.853201189936044 0 0 0 0 61.262791655821275 -88.333587320801698 0 -88.333587320801698 -240.08636256330905 0 0 0 0 10.185652993762474 -8.829076720736424 0 -8.829076720736424 -8.7768534166589642 0 0 0 0 225.50297820169726 -201.4964022526965 0 -201.4964022526965 99.967753848854045 0 0 0 0 130.11649149813093 3.3013594820810113 0 3.3013594820810113 -123.74588600795573 0 0 0 0 323.35177188656962 -253.52059959680605 0 -253.52059959680605 355.8557289816813 0 0 0 0 -418.50376325607795 89.89636120247593 0 89.89636120247593 74.854257570881828 0 0 0 0 -132.04884033139933 75.530481339779215 0 75.530481339779215 74.39999178280209 0 0 0 0 113.96564397723705 31.698322797496076 0 31.698322797496076 10.636470126027007 0 0 0 0 5.3026562713536762 -4.9468607402455209 0 -4.9468607402455209 -5.0503460086747882 0 0 0 0 109.29826224282624 -171.18812369218304 0 -171.18812369218304 -24.398278058981759 0 0 0 0 -24.052748919285097 -50.361368100749843 0 -50.361368100749843 -27.797278284836025 0 0 0 0 -1.4128093611116128 -215.16436888979106 0 -215.16436888979106 -7.4272087524723247 0 0 0 0 -254.06841786380755 -185.54003293511141 0 -185.54003293511141 -35.740978730153756 0 0 0 0 -21.200315338468499 -73.523688798652302 0 -73.523688798652302 -24.796139246637722 0 0 0 0 75.201465003934572 -115.99573308169465 0 -115.99573308169465 -6.476826135938154 0 0 0 0 81.562941469841462 -80.937462983027672 0 -80.937462983027672 53.974933768175106 0 0 0 0 -34.419513307658008 -48.807164200987422 0 -48.807164200987422 -16.224370231313618 0 0 0 0 -26.250573590637941 -54.878264399925683 0 -54.878264399925683 -26.995622441737396 0 0 0 0 -24.231211076836189 -33.847752216640401 0 -33.847752216640401 -9.1401869790352066 0 0 0 0 7.531948255898179 -33.182880009172536 0 -33.182880009172536 -34.798266810289867 0 0 0 0 27.214343710336834 -27.218559545224707 0 -27.218559545224707 -45.329897271789378 0 0 0 0 60.818659457043395 -82.460072818623303 0 -82.460072818623303 -97.536280847616581 0 0 0 0 -2.2842634579532159 -3.4272792838735553 0 -3.4272792838735553 -5.2953631755777115 0 0 0 0 82.105731642797764 -134.75415426425661 0 -134.75415426425661 18.725666248939888 0 0 0 0 232.70194908996928 -171.18531024160848 0 -171.18531024160848 -192.19452494840516 0 0 0 0 283.03100556963182 -291.25632659324583 0 -291.25632659324583 -17.882821304448044 0 0 0 0 333.10561553364823 -380.68917886523082 0 -380.68917886523082 -27.061100449032892 0 0 0 0 364.08904911210266 -340.67519578217707 0 -340.67519578217707 2.3707333032539282 0 0 0 0 858.31685849693531 284.50678421719022 0 284.50678421719022 -720.09272808215519 0 0 0 0 697.15098868111818 -222.20649707577218 0 -222.20649707577218 -186.7945077197179 0 0 0 0 351.97848104562581 -559.43881126942324 0 -559.43881126942324 -115.49314372107256 0 0 0 0 447.22431247347413 -504.95912573346544 0 -504.95912573346544 -478.95007201554654 0 0 0 0 360.6648008512675 -364.56956007793633 0 -364.56956007793633 311.04036611499146 0 0 0 0 361.65400138117548 -514.56932122429453 0 -514.56932122429453 91.791772506558118 0 0 0 0 417.81516425459267 -415.2608446143613 0 -415.2608446143613 3.9921105231824185 0 0 0 0 384.04610434935603 -444.06132197028364 0 -444.06132197028364 46.056622062066708 0 0 0 0 263.32458209516335 -378.46395708546061 0 -378.46395708546061 133.77847437484979 0 0 0 0 452.2969506812733 -475.2597584180146 0 -475.2597584180146 65.948438114832243 0 0 0 0 404.79817085046307 -237.26467389679124 0 -237.26467389679124 -72.885873173174048 0 0 0 0 514.03810922666889 -415.16158383600418 0 -415.16158383600418 26.367184621957676 0 0 0 0 843.57756317997701 -366.10118828052691 0 -366.10118828052691 -50.187027389664081 0 0 0 0 223.3831422047042 -44.376629469313571 0 -44.376629469313571 88.510173053570725 0 0 0 0 -95.191738053486915 -25.514358795588123 0 -25.514358795588123 87.493099457492121 0 0 0 0 325.57662038245144 -287.71357148940007 0 -287.71357148940007 -32.214453306422001 0 0 0 0 54.40152136782126 -140.69746904201966 0 -140.69746904201966 -20.100522468270185 0 0 0 0 71.795064369856846 -178.77802432188275 0 -178.77802432188275 51.629650966882707 0 0 0 0 231.87676647058106 -298.82965473045778 0 -298.82965473045778 212.25242223709643 0 0 0 0 115.96076163417456 -120.14919582131284 0 -120.14919582131284 23.365653838228724 0 0 0 0 350.47326468126994 -306.349377628014 0 -306.349377628014 -20.214520673466723 0 0 0 0 11.89205839751321 -62.933344766795472 0 -62.933344766795472 11.497743576373978 0 0 0 0 -7.4177449238516289 -45.530136656962227 0 -45.530136656962227 14.386526933060143 0 0 0 0 -49.117691213970829 -109.66988509812609 0 -109.66988509812609 182.32142961687077 0 0 0 0 27.061610477001523 -62.806310432418741 0 -62.806310432418741 54.751336241704394 0 0 0 0 34.357557158829877 -6.3656810968250284 0 -6.3656810968250284 -146.20206267813501 0 0 0 0 -0.51267523148129612 -3.7653147260705069 0 -3.7653147260705069 -3.3055351228462833 0 0 0 0 72.886289692643913 -75.069367269650002 0 -75.069367269650002 -133.84918812057413 0 0 0 0 -20.236794802960219 -34.99159981622924 0 -34.99159981622924 -33.13446621417755 0 0 0 0 -9.8879008286385215 -60.326203556530345 0 -60.326203556530345 -31.298989203238307 0 0 0 0 31.353208386950428 -91.78273277446624 0 -91.78273277446624 -2.7639165636974212 0 0 0 0 14.557900094943903 -2.3442720673678465 0 -2.3442720673678465 -8.7947845098769442 0 0 0 0 9.9303962046650867 -50.088571803957876 0 -50.088571803957876 -13.357167906860605 0 0 0 0 -8.5164458967083192 -67.362638944342507 0 -67.362638944342507 -42.343147926201709 0 0 0 0 -9.3503848067985018 -62.011255166018486 0 -62.011255166018486 -52.69330143312618 0 0 0 0 38.010912325104073 -32.631033546676008 0 -32.631033546676008 -199.21412108863842 0 0 0 0 2.000957454296838 -3.6437779420554808 0 -3.6437779420554808 -1.1299707876983351 0 0 0 0 109.56074050562893 -135.79910438830325 0 -135.79910438830325 660.94671936782561 0 0 0 0 -12.227749903431686 -34.675318882766987 0 -34.675318882766987 -43.582951505935853 0 0 0 0 270.40591556097206 -270.53043983398948 0 -270.53043983398948 401.8877250592177 0 0 0 0 12.096343130491732 -28.971675848815266 0 -28.971675848815266 -49.734809640775893 0 0 0 0 2.8535780699544659 -7.2556932275131549 0 -7.2556932275131549 -4.9351681998093859 0 0 0 0 -12.94279428443042 -33.543556845067542 0 -33.543556845067542 -20.578119959653122 0 0 0 0 -15.027794038916682 -17.581910821500031 0 -17.581910821500031 -19.984488202379886 0 0 0 0 -229.4535211372131 -446.94001944056618 0 -446.94001944056618 1495.6213631247319 0 0 0 0 380.23775987508998 -590.72477094846545 0 -590.72477094846545 -1665.4423858297373 0 0 0 0 10.462254840715133 -7.4263003612919363 0 -7.4263003612919363 1.1363484552609369 0 0 0 0 -99.907788517659355 15.901127364935519 0 15.901127364935519 1062.7928854309744 0 0 0 0 72.763579847633082 -74.832847527472723 0 -74.832847527472723 138.3666419887154 0 0 0 0 89.659447146375896 -80.335629907743851 0 -80.335629907743851 50.757369901004495 0 0 0 0 -1.1121001102001173 -69.879333823358138 0 -69.879333823358138 97.06830103879463 0 0 0 0 -15.416488819922961 -29.209942115792956 0 -29.209942115792956 4.9375535831094339 0 0 0 0 -12.705951429138182 -6.4558917714099513 0 -6.4558917714099513 -3.2152581298613265 0 0 0 0 2.4669812209031079 532.69574230602302 0 532.69574230602302 -177.71840592848093 0 0 0 0 79.02916785080015 -16.992323719891829 0 -16.992323719891829 -724.12876874698668 0 0 0 0 -103.26190090546152 -17.145112376892939 0 -17.145112376892939 -634.67823199067789 0 0 0 0 582.69213997521729 -1432.4856641273436 0 -1432.4856641273436 323.9418154645287 0 0 0 0 -82.951560632776818 -63.898877954179625 0 -63.898877954179625 282.63004489631385 0 0 0 0 -5.0796585519001525 -2.9437716401318852 0 -2.9437716401318852 2.878301316291008 0 0 0 0 -130.90978391405224 -794.09876983545792 0 -794.09876983545792 -706.9987174937396 0 0 0 0 -56.160785677973763 -499.68896897317245 0 -499.68896897317245 51.78300231887215 0 0 0 0 -22.43787600487849 -284.43906404817881 0 -284.43906404817881 -418.07924488723802 0 0 0 0 15.345608952702605 -234.54714769443217 0 -234.54714769443217 -542.65644359036196 0 0 0 0 -98.858383614311606 -123.97320052817008 0 -123.97320052817008 -506.14117273938336 0 0 0 0 180.37828740256373 -198.04186280107456 0 -198.04186280107456 -543.1104027883157 0 0 0 0 82.855937019554403 -290.224792143169 0 -290.224792143169 -362.56026399540497 0 0 0 0 163.1165754784306 -284.01869632964736 0 -284.01869632964736 -578.68180170784944 0 0 0 0 130.04960938687145 -395.94967318341151 0 -395.94967318341151 -517.00671177251661 0 0 0 0 167.42664764356687 -470.56917591646311 0 -470.56917591646311 -878.16092044845209 0 0 0 0 113.85125953746683 -275.40207441797247 0 -275.40207441797247 -423.31397004091195 0 0 0 0 192.87853954832099 -285.69041970201943 0 -285.69041970201943 -717.942001451127 0 0 0 0 115.30316461039365 -129.62926835184953 0 -129.62926835184953 -241.02556639610157 0 0 0 0 113.88696050673389 -275.946288384951 0 -275.946288384951 -287.97649461567562 0 0 0 0 223.82766206156521 -203.22348700217754 0 -203.22348700217754 -471.36510662310138 0 0 0 0 168.65032888617861 -236.82624431172917 0 -236.82624431172917 6.5041938298618334 0 0 0 0 128.75510751852198 -277.60625792795781 0 -277.60625792795781 -129.24268864925125 0 0 0 0 88.836166294569466 -145.866807980472 0 -145.866807980472 78.444581863124768 0 0 0 0 215.17290063659311 -18.986568534624894 0 -18.986568534624894 -1357.9070626135272 0 0 0 0 -175.48346524029694 -133.23598190608209 0 -133.23598190608209 -609.38928901988493 0 0 0 0 217.92685729484219 -244.41438398225273 0 -244.41438398225273 -800.62240632279543 0 0 0 0 78.446151061216369 -462.88824577142623 0 -462.88824577142623 -806.80156339343375 0 0 0 0 131.39189491359866 -254.40697645476394 0 -254.40697645476394 -733.53859165507038 0 0 0 0 104.49954429200079 -181.83813014829502 0 -181.83813014829502 -398.89033390589793 0 0 0 0 171.61979930691814 -85.487900486273247 0 -85.487900486273247 45.34456835913079 0 0 0 0 319.90458150686027 -369.68152802164605 0 -369.68152802164605 -189.882445831523 0 0 0 0 -14.649693233521248 -166.59990399849903 0 -166.59990399849903 -307.28826067756199 0 0 0 0 236.4858876946455 -108.39652854691667 0 -108.39652854691667 -220.51409691887693 0 0 0 0 53.5269537528211 -489.12194416881732 0 -489.12194416881732 -225.47096413308645 0 0 0 0 138.24628798404046 -322.16159411518538 0 -322.16159411518538 -112.7806197273585 0 0 0 0 86.548823725010152 -334.76396930704277 0 -334.76396930704277 313.41599231445434 0 0 0 0 354.65776418869063 -493.73362715234543 0 -493.73362715234543 404.75764436843383 0 0 0 0 461.35201775444739 -727.3767945717168 0 -727.3767945717168 897.29637754342912 0 0 0 0 93.676656610477949 -198.00914643590022 0 -198.00914643590022 254.36477147686492 0 0 0 0 548.09057953352567 -65.587225911529003 0 -65.587225911529003 278.71434539841357 0 0 0 0 54.130144027574715 -239.3591576605404 0 -239.3591576605404 914.59977331971459 0 0 0 0 513.5323845928433 -628.58509817653794 0 -628.58509817653794 414.51811623204594 0 0 0 0 579.05758206978498 -168.68462334006563 0 -168.68462334006563 -4.0685050887168472 0 0 0 0 160.25883885026269 -238.56570078997902 0 -238.56570078997902 280.84461031838146 0 0 0 0 -34.023269825441275 -217.54473060431258 0 -217.54473060431258 422.87674946729749 0 0 0 0 -40.402473421192553 -171.54594283858296 0 -171.54594283858296 990.49237659130813 0 0 0 0 -23.456750142599049 -226.14656172420473 0 -226.14656172420473 1162.9701199523429 0 0 0 0 180.50112545533921 222.87454024745239 0 222.87454024745239 298.40167067755829 0 0 0 0 0.21221394512700442 -6.2809969000492814 0 -6.2809969000492814 0.49890157852499328 0 0 0 0 -1.3573581687602996 -4.4905436555523508 0 -4.4905436555523508 0.60759981449819733 0 0 0 0 227.52710111636043 -215.05147655732071 0 -215.05147655732071 75.905282202533272 0 0 0 0 61.612355296978421 -230.19426301284625 0 -230.19426301284625 301.62435335158989 0 0 0 0 83.946471355026006 -271.45118704307515 0 -271.45118704307515 296.48177737995138 0 0 0 0 112.84570836054991 -51.565925614218941 0 -51.565925614218941 135.06979252948804 0 0 0 0 56.033819262913312 -309.78627060810322 0 -309.78627060810322 465.21480439827428 0 0 0 0 54.926574917790049 -243.66059386086465 0 -243.66059386086465 348.25340407242038 0 0 0 0 99.106025269646125 -291.34401729551655 0 -291.34401729551655 308.21248328114962 0 0 0 0 207.00491012390194 -388.21262796620931 0 -388.21262796620931 344.83053038035723 0 0 0 0 435.575105898115 -235.71072626909699 0 -235.71072626909699 181.42991048158319 0 0 0 0 479.19830541452757 -321.17670423879235 0 -321.17670423879235 315.79573413772232 0 0 0 0 456.68335421166103 -46.392830285127275 0 -46.392830285127275 2.6133267243003502 0 0 0 0 521.74216938867539 -227.06230660473102 0 -227.06230660473102 -3.957329753097838 0 0 0 0 820.42805111656162 -115.97810779387237 0 -115.97810779387237 -9.009317484253188 0 0 0 0 196.16867825351801 -196.40926102585672 0 -196.40926102585672 176.97097394994398 0 0 0 0 278.6548733286254 -182.14487341743097 0 -182.14487341743097 -202.53291412235922 0 0 0 0 215.20535201749226 -79.709119291552952 0 -79.709119291552952 -74.693687117465743 0 0 0 0 424.75495791087451 -198.99324437181531 0 -198.99324437181531 -250.79758343194226 0 0 0 0 440.81061186096849 -37.151513610717529 0 -37.151513610717529 -185.11700295156515 0 0 0 0 538.272414273084 -177.35099820151891 0 -177.35099820151891 -339.28960120601187 0 0 0 0 160.20473987540026 -371.3977015519165 0 -371.3977015519165 -494.41961066403474 0 0 0 0 292.37623043419444 -56.203065627270007 0 -56.203065627270007 -393.91962613074247 0 0 0 0 -13.178067164990352 -229.21497634965726 0 -229.21497634965726 -207.12946654831876 0 0 0 0 498.46527967340324 25.892366289513774 0 25.892366289513774 -52.051204239995059 0 0 0 0 224.9385270230232 -41.180417422977371 0 -41.180417422977371 -66.955330908183896 0 0 0 0 545.52171058328167 -141.69886091090757 0 -141.69886091090757 -164.50786776061068 0 0 0 0 503.90364085864348 -104.9747533900636 0 -104.9747533900636 -196.31594749542819 0 0 0 0 601.32323881412594 19.112253399207475 0 19.112253399207475 -108.63147750310964 0 0 0 0 593.20902022043083 -114.64572019117622 0 -114.64572019117622 -154.18253768163231 0 0 0 0 10.766732897179935 -14.449061570944529 0 -14.449061570944529 6.1035159663148093 0 0 0 0 585.6142400382505 31.156564450393262 0 31.156564450393262 -97.183148892750978 0 0 0 0 542.36058721379959 11.413332847598667 0 11.413332847598667 8.1941973883567698 0 0 0 0 -699.76024638456329 -244.35342097593548 0 -244.35342097593548 23.541009686399775 0 0 0 0 913.7089233293882 168.12483115278701 0 168.12483115278701 5.631693747899007 0 0 0 0 7.1187744702077005 -11.850587645619356 0 -11.850587645619356 5.3223916617752209 0 0 0 0 750.23818872715765 -13.296997435679714 0 -13.296997435679714 37.396835926374479 0 0 0 0 -614.47942019089533 -419.85494347769372 0 -419.85494347769372 59.991526450517995 0 0 0 0 201.41511926670137 -11.084685584495674 0 -11.084685584495674 -40.219304245223611 0 0 0 0 228.2492067211133 -29.488551119868134 0 -29.488551119868134 -60.128585049516914 0 0 0 0 0.3719773457067288 -4.2521191572879999 0 -4.2521191572879999 -7.4137284187566408 0 0 0 0 -34.045727213630016 -120.67696248033144 0 -120.67696248033144 -290.83157302004656 0 0 0 0 255.26565196522279 -43.089742168386692 0 -43.089742168386692 -41.937789944665383 0 0 0 0 137.20646572749683 -94.478483467035403 0 -94.478483467035403 -56.003270288908425 0 0 0 0 74.890003760130639 -113.40934338512761 0 -113.40934338512761 -163.91516643762225 0 0 0 0 108.0424476844637 -32.638701918825973 0 -32.638701918825973 -32.201710964103313 0 0 0 0 64.403497493545729 -68.380806337360809 0 -68.380806337360809 -8.9998150079700281 0 0 0 0 -320.53305977755372 -58.298195535738159 0 -58.298195535738159 -23.772406309095459 0 0 0 0 -12.794274518591685 -9.6202480111617064 0 -9.6202480111617064 -13.57595167010232 0 0 0 0 0.15516495329211466 -118.17758171526202 0 -118.17758171526202 -66.189163851010562 0 0 0 0 -18.251691279333144 -41.398817128335544 0 -41.398817128335544 -73.687806612882326 0 0 0 0 -281.77455486262625 -4.270079565458218 0 -4.270079565458218 50.361647786289211 0 0 0 0 -57.28302101787267 -54.927083054270042 0 -54.927083054270042 -89.768639463585714 0 0 0 0 -215.27833902412021 -40.992335510979956 0 -40.992335510979956 442.65030441118506 0 0 0 0 -260.47199069630733 -207.80550693524219 0 -207.80550693524219 55.538718476525332 0 0 0 0 -152.12792921586424 -637.50700075464351 0 -637.50700075464351 455.0000528315768 0 0 0 0 -1.4961500086419193 1.9238578463990876 0 1.9238578463990876 -1.2201109703008015 0 0 0 0 -244.1979136781847 -175.39065152677631 0 -175.39065152677631 10.445805138460855 0 0 0 0 -200.66948259205674 -106.97532724222765 0 -106.97532724222765 47.21065611771337 0 0 0 0 -87.68013063010585 -129.26619698759896 0 -129.26619698759896 -115.52953400306433 0 0 0 0 -124.93218268499186 -31.782350122572097 0 -31.782350122572097 37.303663565179022 0 0 0 0 108.93458522827132 -62.170618705799825 0 -62.170618705799825 -74.268716426155152 0 0 0 0 -137.81520315905072 -191.39196016203823 0 -191.39196016203823 -14.280526229122188 0 0 0 0 -188.28456768368778 -156.93310210512482 0 -156.93310210512482 81.684791931082145 0 0 0 0 -319.97090877084702 -53.127649096673849 0 -53.127649096673849 20.992421577047935 0 0 0 0 -23.139782248486881 -166.91612672936026 0 -166.91612672936026 -30.829518981800902 0 0 0 0 -235.60463609596627 -324.02706936516097 0 -324.02706936516097 -127.99811835970831 0 0 0 0 1.5430219803661203 -1.4333864122052802 0 -1.4333864122052802 -0.61006149145483768 0 0 0 0 -60.322130930217099 -115.60407587167265 0 -115.60407587167265 -442.98577086766772 0 0 0 0 -289.29953832615865 -303.36683211280069 0 -303.36683211280069 -14.208341369780101 0 0 0 0 -194.47619259078056 -229.07916234180084 0 -229.07916234180084 -49.752581218686828 0 0 0 0 -259.37320809358789 -188.17743685925598 0 -188.17743685925598 -48.656655042706916 0 0 0 0 -233.0299136728645 -235.3996504476163 0 -235.3996504476163 -132.2413313991492 0 0 0 0 -291.64437479554908 -241.18210830380121 0 -241.18210830380121 2.4152757971205574 0 0 0 0 -210.87182637542719 -255.66352986103993 0 -255.66352986103993 -28.577397556098731 0 0 0 0 -223.70738254717435 -237.98266986964154 0 -237.98266986964154 -40.463701512682746 0 0 0 0 -240.87493033400096 -257.37723175105748 0 -257.37723175105748 -32.979995003755903 0 0 0 0 -233.33330423074221 -307.20033142169268 0 -307.20033142169268 -99.694575483608787 0 0 0 0 -124.60342605708138 -226.43525585255702 0 -226.43525585255702 -53.849596401618328 0 0 0 0 -297.97045809002884 -272.60620444390952 0 -272.60620444390952 -18.393413286486975 0 0 0 0 -278.52402053530386 -261.75227874171469 0 -261.75227874171469 -21.55092409603094 0 0 0 0 -298.5336778293422 -272.15028483714377 0 -272.15028483714377 -0.54295844421176298 0 0 0 0 -328.69697671223548 -260.42460855337958 0 -260.42460855337958 -4.0707120032093371 0 0 0 0 -19.831239500002994 -228.77297461172748 0 -228.77297461172748 -55.195279905017742 0 0 0 0 56.761092517714133 -205.90046666485887 0 -205.90046666485887 -76.755549824436457 0 0 0 0 -129.20352227082185 -190.43067146190879 0 -190.43067146190879 -17.740830633110818 0 0 0 0 -145.68710078671575 -259.84832309599915 0 -259.84832309599915 -53.972653187134711 0 0 0 0 -71.471866286832665 -268.24673082616118 0 -268.24673082616118 -83.475613656766654 0 0 0 0 15.08839291986078 -167.84252003675647 0 -167.84252003675647 -49.767243045221676 0 0 0 0 308.42763789457968 -79.828684946505746 0 -79.828684946505746 -120.15549261596243 0 0 0 0 73.328953658405226 -144.20556918870398 0 -144.20556918870398 -5.058862913883786 0 0 0 0 240.52685287129134 -89.782540589520067 0 -89.782540589520067 -96.73879774537636 0 0 0 0 222.58352444687262 -38.077101441242803 0 -38.077101441242803 -96.769018280025193 0 0 0 0 -15.90700659275015 -42.229708574527145 0 -42.229708574527145 -65.514202581963133 0 0 0 0 345.39657331180206 -61.934091285567774 0 -61.934091285567774 32.953356847259784 0 0 0 0 -696.10980710495642 -184.38757814791006 0 -184.38757814791006 335.37078315339386 0 0 0 0 63.550527647756098 -292.9169877667855 0 -292.9169877667855 -811.52981880890911 0 0 0 0 76.304386392512242 -392.43796363383353 0 -392.43796363383353 -372.03679934844513 0 0 0 0 -0.06306747599815532 -2.7826218203926203 0 -2.7826218203926203 -2.9711423767428435 0 0 0 0 238.19427443964923 5.5624671377831874 0 5.5624671377831874 24.50419101845182 0 0 0 0 -21.483883874294804 -42.677138921354938 0 -42.677138921354938 -70.058042613024995 0 0 0 0 183.86434999588528 -195.77625666347171 0 -195.77625666347171 -90.782503809054106 0 0 0 0 19.826620041210845 -50.269125240324684 0 -50.269125240324684 8.7507487186999242 0 0 0 0 -13.080245825946392 -10.583980518621843 0 -10.583980518621843 -3.3105151567404576 0 0 0 0 52.909606270319273 -127.58148636114902 0 -127.58148636114902 -23.787118785898201 0 0 0 0 20.221688166058897 -3.0406247815962999 0 -3.0406247815962999 -4.841494243354667 0 0 0 0 105.44366241674288 -99.11111645681558 0 -99.11111645681558 -522.25604899544487 0 0 0 0 78.126227115189977 -85.910478554804286 0 -85.910478554804286 -86.640084843966179 0 0 0 0 26.545490898453863 -175.94365444226605 0 -175.94365444226605 4.7545340736533035 0 0 0 0 77.243372719785839 -198.5621845785322 0 -198.5621845785322 -78.689278740112059 0 0 0 0 107.55843558064225 -149.60014158251033 0 -149.60014158251033 -252.46896351634859 0 0 0 0 4.1241162803235056 -67.146951564835149 0 -67.146951564835149 46.019994050186142 0 0 0 0 13.536352253026536 -1.7208340976377414 0 -1.7208340976377414 -2.1321307323112837 0 0 0 0 70.081749795630458 -10.173486554513147 0 -10.173486554513147 -67.424136434116917 0 0 0 0 13.520018138435262 -223.69829416360108 0 -223.69829416360108 318.4904123468732 0 0 0 0 42.937422400478681 16.571837888839582 0 16.571837888839582 -141.51159967351123 0 0 0 0 6.4906414344614234 -2.6026588789106526 0 -2.6026588789106526 -1.6492950649809366 0 0 0 0 128.3101538325227 -120.72003091536862 0 -120.72003091536862 -88.240338548012005 0 0 0 0 179.13302332936291 -96.256309824108939 0 -96.256309824108939 0.03815100367364721 0 0 0 0 -119.26750563731184 -178.30289680849819 0 -178.30289680849819 -22.470515687845364 0 0 0 0 -25.149905532267439 -4.9997932379951635 0 -4.9997932379951635 -112.7934207094695 0 0 0 0 -207.93217223107058 -141.47355401013101 0 -141.47355401013101 -22.517920512189448 0 0 0 0 -230.70858573092846 -127.55910926449178 0 -127.55910926449178 25.177865088611725 0 0 0 0 -345.67327150024357 -198.32050246571089 0 -198.32050246571089 43.227189582182291 0 0 0 0 -307.37477055798627 -184.26853605558256 0 -184.26853605558256 35.80928119134478 0 0 0 0 -99.310643498058198 88.504347701737061 0 88.504347701737061 180.9251343283031 0 0 0 0 -185.84822257596534 -75.442388685878541 0 -75.442388685878541 112.88260131497373 0 0 0 0 -312.96584987123151 -120.80881960417923 0 -120.80881960417923 118.12327966057273 0 0 0 0 -47.760715054144384 -50.912113173575563 0 -50.912113173575563 21.414586998100276 0 0 0 0 -49.638565832201493 -58.714892392622005 0 -58.714892392622005 56.573261381825432 0 0 0 0 353.58724844999597 -313.80592736690642 0 -313.80592736690642 260.36277076827901 0 0 0 0 84.794661877975159 -12.243916823111249 0 -12.243916823111249 -75.633346005597559 0 0 0 0 218.93425582328928 -30.731551367131033 0 -30.731551367131033 6.6598727484506526 0 0 0 0 156.34489374583063 -206.58639439358922 0 -206.58639439358922 92.137722689913971 0 0 0 0 -0.11109578688606803 -2.3031616497305833 0 -2.3031616497305833 1.1424286157246968 0 0 0 0 -29.015410162246553 -63.58818044164218 0 -63.58818044164218 49.862810190752498 0 0 0 0 -3.5800315837500989 -7.9384141257100396 0 -7.9384141257100396 -5.9070429033423224 0 0 0 0 49.959633203277917 -51.90406687599716 0 -51.90406687599716 101.25142463789234 0 0 0 0 -19.389604777745262 -27.073340394280876 0 -27.073340394280876 -29.013460902657243 0 0 0 0 -8.0933941725306795 -1.2937590307492428 0 -1.2937590307492428 -3.564339597873186 0 0 0 0 105.87935102280608 -49.494144808459168 0 -49.494144808459168 -34.383960753305018 0 0 0 0 83.983121127364939 -110.27465361873328 0 -110.27465361873328 9.1808227957844792 0 0 0 0 -13.732821731503563 -9.2685785046531919 0 -9.2685785046531919 -0.029778749772304991 0 0 0 0 41.049958993680775 -87.898617423812539 0 -87.898617423812539 29.209918377775466 0 0 0 0 8.346450642517226 -3.9238836141911975 0 -3.9238836141911975 -7.44776123558783 0 0 0 0 403.30695524748444 -334.65124705192284 0 -334.65124705192284 290.28285212916353 0 0 0 0 435.36317915240943 -463.08005740682711 0 -463.08005740682711 323.77752397623453 0 0 0 0 445.34125925369153 -315.62836339475052 0 -315.62836339475052 42.188281216996984 0 0 0 0 463.22344028902444 -401.15655304796746 0 -401.15655304796746 274.83040020673025 0 0 0 0 443.10130555533397 -395.44417866284311 0 -395.44417866284311 277.55093644089357 0 0 0 0 508.74684530557715 -435.51488930852793 0 -435.51488930852793 20.296628987615804 0 0 0 0 517.01075822401708 -631.08003738262255 0 -631.08003738262255 558.17897510278999 0 0 0 0 77.421197062620195 13.747167993355106 0 13.747167993355106 83.255310884489518 0 0 0 0 3.8230833137292848 -2.5981931005682668 0 -2.5981931005682668 -4.8647916982473269 0 0 0 0 414.68100751574821 -468.39667349917045 0 -468.39667349917045 543.08250796531865 0 0 0 0 577.3041668890437 -426.08985761606073 0 -426.08985761606073 -267.89851380107393 0 0 0 0 571.02450604228943 -451.57273804506804 0 -451.57273804506804 -170.05185454063212 0 0 0 0 523.70633031037869 -388.91829135626563 0 -388.91829135626563 -87.107057668417838 0 0 0 0 518.7546972002674 -370.28523369001505 0 -370.28523369001505 -9.1198335774133739 0 0 0 0 499.43507121381117 -442.84603486548576 0 -442.84603486548576 -141.01304686555522 0 0 0 0 389.1876420831104 -243.09411607650054 0 -243.09411607650054 -28.360947877481522 0 0 0 0 561.10352340585086 -361.08076690533744 0 -361.08076690533744 -151.46832450504917 0 0 0 0 447.95907037601864 -306.38009846569184 0 -306.38009846569184 -34.663410375203966 0 0 0 0 582.45608834446466 -472.36558926527596 0 -472.36558926527596 -260.76680587971714 0 0 0 0 530.29689385793608 -356.63821277795159 0 -356.63821277795159 -476.16599062203204 0 0 0 0 553.35644717294781 -319.303518505395 0 -319.303518505395 -349.61844710707737 0 0 0 0 570.14014947586838 -467.24773750962049 0 -467.24773750962049 -178.00192956822502 0 0 0 0 434.57329524905799 -426.96927864830923 0 -426.96927864830923 -423.00820249305616 0 0 0 0 56.102774078310176 -238.30871967188523 0 -238.30871967188523 -411.93793618911513 0 0 0 0 119.06531424708373 -472.06215694575894 0 -472.06215694575894 -529.31999133387581 0 0 0 0 295.05916924294434 -247.21681653148698 0 -247.21681653148698 -357.30163377639656 0 0 0 0 443.97851805925166 -262.33492208538883 0 -262.33492208538883 -410.96552874855115 0 0 0 0 296.39857300303993 -257.88981762959156 0 -257.88981762959156 -208.60930472134169 0 0 0 0 284.85709457669873 -46.261369810456017 0 -46.261369810456017 -82.07492729639489 0 0 0 0 45.257789112401952 62.087647489497613 0 62.087647489497613 -7.9933051908510606 0 0 0 0 275.24765695161022 -118.67975685258011 0 -118.67975685258011 -395.41643742868473 0 0 0 0 323.33544573600011 -262.83541052226929 0 -262.83541052226929 -544.07529705030902 0 0 0 0 1.5295326938610287 -0.21966351440688925 0 -0.21966351440688925 -2.0355034867597936 0 0 0 0 -99.626101210356865 -247.18144589059193 0 -247.18144589059193 -659.30363040804514 0 0 0 0 -2.5868692377882923 -2.5003923483644144 0 -2.5003923483644144 -2.357202484434854 0 0 0 0 -459.93730193868396 -183.94573171167212 0 -183.94573171167212 126.23968295843588 0 0 0 0 -264.96702923509292 -22.687032217429078 0 -22.687032217429078 208.36106215369364 0 0 0 0 -479.41015779506415 -177.82016998314884 0 -177.82016998314884 161.05797909251851 0 0 0 0 -452.31989968067501 -235.73646841823575 0 -235.73646841823575 88.80496421126918 0 0 0 0 -416.2749973142636 -251.47408272446592 0 -251.47408272446592 15.812280802460009 0 0 0 0 -639.97149742930196 -431.24221277571996 0 -431.24221277571996 -23.110516861514952 0 0 0 0 -328.66263293469819 -534.93145353774526 0 -534.93145353774526 -643.83001394192615 0 0 0 0 -438.38259237870807 -521.18970472280671 0 -521.18970472280671 -524.88481767854955 0 0 0 0 -526.80707862545387 -33.306412173374156 0 -33.306412173374156 -365.30013241588313 0 0 0 0 -256.71150910510914 -310.07685016199412 0 -310.07685016199412 -345.84474014646003 0 0 0 0 -58.604965378472116 -369.69202424606556 0 -369.69202424606556 -366.04312809360636 0 0 0 0 -276.36926702128403 -259.6778215353761 0 -259.6778215353761 -382.3404345215622 0 0 0 0 -1.0375072272126431 -1.234249803486108 0 -1.234249803486108 -2.3421352724117561 0 0 0 0 152.15394631811068 -68.948512038075023 0 -68.948512038075023 -8.6731601984793087 0 0 0 0 11.231013601878658 -66.569555222920826 0 -66.569555222920826 -362.23239965263554 0 0 0 0 67.392097377254686 -42.126080759847355 0 -42.126080759847355 107.57065108363895 0 0 0 0 530.4865917321149 -189.90265633376293 0 -189.90265633376293 61.985047844194924 0 0 0 0 497.25219383872172 -144.52859387713943 0 -144.52859387713943 -5.8648165588674601 0 0 0 0 404.77901428615587 -295.27900663674791 0 -295.27900663674791 136.31360157346353 0 0 0 0 706.60248407581093 -400.6129613565663 0 -400.6129613565663 -40.332250454302994 0 0 0 0 887.17089816332737 -308.94079081659584 0 -308.94079081659584 48.035699102852959 0 0 0 0 837.98915632331045 -753.09312801775559 0 -753.09312801775559 406.25823381337068 0 0 0 0 571.50964143527381 -447.83090209367037 0 -447.83090209367037 165.44159920267703 0 0 0 0 482.32491280100658 -433.16458580647213 0 -433.16458580647213 -520.46481639426929 0 0 0 0 498.37236536465207 -589.19546009532371 0 -589.19546009532371 -176.23303585557733 0 0 0 0 206.19087883422162 -485.60040297607975 0 -485.60040297607975 -50.711546391925367 0 0 0 0 608.95891006257807 -626.46222564360551 0 -626.46222564360551 -24.457461396852523 0 0 0 0 585.23118691724085 -460.65166651165782 0 -460.65166651165782 -175.26563041829468 0 0 0 0 548.65281224816863 -492.62037968822551 0 -492.62037968822551 -32.797658875017078 0 0 0 0 538.70570695160131 -582.70979265555525 0 -582.70979265555525 279.47080845549954 0 0 0 0 666.50282321331179 -704.29875806813061 0 -704.29875806813061 137.46872133128272 0 0 0 0 536.47449026319373 -467.67528010547176 0 -467.67528010547176 518.06312700330272 0 0 0 0 528.59547183066024 -522.27304133838788 0 -522.27304133838788 44.346526015526251 0 0 0 0 472.25949147355277 -481.63713977078805 0 -481.63713977078805 230.3565103652727 0 0 0 0 597.82415202379343 -497.09394830627753 0 -497.09394830627753 -172.96825536066899 0 0 0 0 173.08659911224822 -41.928576396378958 0 -41.928576396378958 -150.69068943284401 0 0 0 0 109.78337638657104 -107.7690699772993 0 -107.7690699772993 -102.87767592441423 0 0 0 0 319.57088752331765 -178.40800326580575 0 -178.40800326580575 -80.459591845868999 0 0 0 0 163.98988329314307 -38.530256041693065 0 -38.530256041693065 -109.38929837702381 0 0 0 0 104.00275028573014 -117.21133527719212 0 -117.21133527719212 -36.643358426779741 0 0 0 0 -35.873851064603208 -53.387676937519871 0 -53.387676937519871 -34.97823657245187 0 0 0 0 34.966154713049036 -160.36074632833333 0 -160.36074632833333 -38.549185970192411 0 0 0 0 130.84517340744787 -129.10605173253134 0 -129.10605173253134 31.712117142818897 0 0 0 0 -115.95983811223414 -26.097062806911708 0 -26.097062806911708 47.251107436401071 0 0 0 0 -17.950792654281088 -15.003171042657428 0 -15.003171042657428 -7.9740585738882714 0 0 0 0 136.37413698016826 -151.83539984285801 0 -151.83539984285801 51.075147325613216 0 0 0 0 -4.2386120229343298 -27.70332798143864 0 -27.70332798143864 1.2855549653243017 0 0 0 0 80.305355023774098 -51.669778371287649 0 -51.669778371287649 -67.583410638295092 0 0 0 0 -183.59219476362341 95.681875062266045 0 95.681875062266045 -84.491143537439712 0 0 0 0 214.59798679732285 -174.9304266240207 0 -174.9304266240207 26.474938591370119 0 0 0 0 173.22495594299107 -246.11444917467315 0 -246.11444917467315 -93.105063903891278 0 0 0 0 262.57526958268863 -29.485637242936718 0 -29.485637242936718 -127.67574317980689 0 0 0 0 221.84710312751122 -272.47853111074437 0 -272.47853111074437 122.20389821451499 0 0 0 0 11.427576494899284 -12.452181285428544 0 -12.452181285428544 -19.662179359880476 0 0 0 0 419.12800569208775 -127.27304817054164 0 -127.27304817054164 -113.64288278116328 0 0 0 0 -116.03524678121903 -209.99036710325345 0 -209.99036710325345 -50.254269087100511 0 0 0 0 59.467945539523498 -169.84091231321327 0 -169.84091231321327 -190.36386529355696 0 0 0 0 -21.343527707688736 -171.25114190915644 0 -171.25114190915644 -152.85850981399199 0 0 0 0 82.40571151633776 -94.481627265686257 0 -94.481627265686257 50.280395004730963 0 0 0 0 -425.77340058965274 -388.28928870374875 0 -388.28928870374875 -99.823192877916881 0 0 0 0 -215.98706519996631 -288.7444326039149 0 -288.7444326039149 -251.08255761722285 0 0 0 0 -119.38178213658921 -234.97134925639693 0 -234.97134925639693 -150.98411931357987 0 0 0 0 -216.03482285015343 -292.46832982756314 0 -292.46832982756314 -185.07101716953184 0 0 0 0 -20.506916041893419 -180.37211308860969 0 -180.37211308860969 -367.37277021710179 0 0 0 0 -278.62599236360984 0.33817020185961155 0 0.33817020185961155 -587.45576231682867 0 0 0 0 -48.451093658921309 59.960455608455959 0 59.960455608455959 -161.0491549885046 0 0 0 0 -102.50062997900386 -139.72585085370338 0 -139.72585085370338 -490.56997825677536 0 0 0 0 -355.45428001306573 -142.25173575520967 0 -142.25173575520967 -301.92989815726651 0 0 0 0 -73.751326390905888 -33.927775149277295 0 -33.927775149277295 -246.17483299489049 0 0 0 0 -63.31392964515544 -72.744225801287939 0 -72.744225801287939 -295.11481267887939 0 0 0 0 6.8689737275417428 -70.535773359575614 0 -70.535773359575614 -263.93343552506121 0 0 0 0 90.209885720760212 24.320874687750802 0 24.320874687750802 -170.87204639322783 0 0 0 0 124.57845457781514 -60.847354231821555 0 -60.847354231821555 -119.24191838678962 0 0 0 0 30.713967877229152 66.952404966727045 0 66.952404966727045 -176.603062082424 0 0 0 0 56.825363523203123 15.117668349211726 0 15.117668349211726 -75.217753014479968 0 0 0 0 -67.56633878716093 65.309325035786969 0 65.309325035786969 -16.10747752294219 0 0 0 0 -83.292156205083302 -71.10390460722374 0 -71.10390460722374 -278.16033658343258 0 0 0 0 -10.696080595766034 100.069067783072 0 100.069067783072 -162.54790144134677 0 0 0 0 1.6843257120232948 -7.0926265730204108 0 -7.0926265730204108 -4.3071735040498069 0 0 0 0 31.975438192072033 22.610795068658263 0 22.610795068658263 28.421145085581884 0 0 0 0 18.219643121934496 -25.083724746321423 0 -25.083724746321423 11.371546891422213 0 0 0 0 24.462554307912313 -9.5776266855081573 0 -9.5776266855081573 2.2186738708456808 0 0 0 0 26.324933691270417 2.6798002402715611 0 2.6798002402715611 -44.33323581192144 0 0 0 0 -1.267980237804295 32.224927466120789 0 32.224927466120789 -75.927479622159154 0 0 0 0 66.78722045950235 -57.440944762963454 0 -57.440944762963454 -56.114446787159977 0 0 0 0 49.339429269803077 4.2859205198983545 0 4.2859205198983545 -92.291018101681402 0 0 0 0 57.838883601172711 9.6525780144747841 0 9.6525780144747841 -102.79699803327821 0 0 0 0 86.132663826705539 -54.103867505218659 0 -54.103867505218659 -63.974975559063751 0 0 0 0 99.757834240357624 -63.932235075566496 0 -63.932235075566496 -65.493755370624967 0 0 0 0 15.41818488836725 -60.260964151446387 0 -60.260964151446387 -44.420581315076561 0 0 0 0 19.183854636045524 -16.133854836548181 0 -16.133854836548181 -0.98411436801807639 0 0 0 0 34.850559800667966 -19.610422629191675 0 -19.610422629191675 -1.2677530382059459 0 0 0 0 81.197182800256996 -63.188100028402914 0 -63.188100028402914 -59.251224559199272 0 0 0 0 9.8728282547235722 -51.500122631716295 0 -51.500122631716295 -71.813109899781011 0 0 0 0 30.220906683382054 -49.193615622249126 0 -49.193615622249126 -48.597970624934533 0 0 0 0 9.0912933180370601 -31.376158347995442 0 -31.376158347995442 -28.402017937556593 0 0 0 0 8.0663928312787903 -51.046878957846275 0 -51.046878957846275 17.714363422524912 0 0 0 0 5.7114296238942188 -78.723034083117454 0 -78.723034083117454 49.706615573504678 0 0 0 0 22.336851950925848 -54.508073433385107 0 -54.508073433385107 18.159595701301441 0 0 0 0 -8.1230548713756434 -48.21968605252232 0 -48.21968605252232 34.998970313134123 0 0 0 0 16.266566486199736 -51.670864550590522 0 -51.670864550590522 -7.9079902633784513 0 0 0 0 28.530211156892619 -22.645363177750824 0 -22.645363177750824 -29.167916200976833 0 0 0 0 25.625437577411304 -20.152271405556924 0 -20.152271405556924 12.741875928741422 0 0 0 0 23.767236946230696 -23.977928256431369 0 -23.977928256431369 -17.20541754008218 0 0 0 0 14.868839952614508 -15.998576797201167 0 -15.998576797201167 9.3895913807937177 0 0 0 0 12.022251831332468 -9.1316878516097191 0 -9.1316878516097191 -3.9588328339010985 0 0 0 0 9.8384431699858794 -6.5223939159068038 0 -6.5223939159068038 -2.1870568557518411 0 0 0 0 16.971956995490473 -14.264781168167247 0 -14.264781168167247 6.7464621097915369 0 0 0 0 15.930901242997237 -8.1394190462037912 0 -8.1394190462037912 -0.6789933846303331 0 0 0 0 89.217496708864928 -84.559813596679305 0 -84.559813596679305 -41.035333320703103 0 0 0 0 129.75397961932322 -1215.4752117430089 0 -1215.4752117430089 1448.170012162961 0 0 0 0 709.27000483585289 -1013.6261124425246 0 -1013.6261124425246 1449.7050442307927 0 0 0 0 1514.9039271575748 -1461.9230096127048 0 -1461.9230096127048 1460.2383546182864 0 0 0 0 -893.32934410428425 -1008.0049921451832 0 -1008.0049921451832 1728.0108193775886 0 0 0 0 -8.6251478549828136 -12.520122807858527 0 -12.520122807858527 8.419443589429612 0 0 0 0 8.2421971990406746 -14.770481662471866 0 -14.770481662471866 12.514176061114995 0 0 0 0 1.1175300890594144 -7.6707717239878974 0 -7.6707717239878974 4.3014018237642908 0 0 0 0 5.498294413964075 -14.694736988072012 0 -14.694736988072012 4.9220013857640694 0 0 0 0 -0.31592134063491528 -0.40373618287183 0 -0.40373618287183 -0.20396701227080527 0 0 0 0 -151.26391325256554 -1060.9914284400911 0 -1060.9914284400911 1209.3143960159432 0 0 0 0 1434.6657826185328 -345.72918382761236 0 -345.72918382761236 1344.4664316467315 0 0 0 0 726.15799220887129 156.92489105082495 0 156.92489105082495 513.78866236018439 0 0 0 0 772.13554971007397 -1324.0660268136398 0 -1324.0660268136398 1059.4307765927715 0 0 0 0 1841.9875443216079 -2130.9473246256575 0 -2130.9473246256575 1498.0537596156446 0 0 0 0 311.45327442025155 -1152.2358004685866 0 -1152.2358004685866 2721.7832725792359 0 0 0 0 2.6394523761272062 -10.889341777328845 0 -10.889341777328845 17.766379888154027 0 0 0 0 -2913.2667818076952 -884.63166277757455 0 -884.63166277757455 1425.6003337499133 0 0 0 0 -430.22823001343932 -1826.3124692279666 0 -1826.3124692279666 1656.2678774353226 0 0 0 0 -1247.0315706979782 221.01618885636617 0 221.01618885636617 -25.484146977920318 0 0 0 0 3279.1913490270754 -953.9569331637158 0 -953.9569331637158 272.24377929970069 0 0 0 0 1078.0445930093774 -36.480849846560886 0 -36.480849846560886 -106.25657128462444 0 0 0 0 959.74677917673398 -1126.795056503408 0 -1126.795056503408 1112.6758112956722 0 0 0 0 920.27498672723596 -861.70016381740606 0 -861.70016381740606 805.46126196267596 0 0 0 0 -186.34243116370635 -158.79722276858104 0 -158.79722276858104 675.05791657634836 0 0 0 0 1080.2978580188574 -1232.0107098416538 0 -1232.0107098416538 1049.3974552791678 0 0 0 0 -0.49816840154451825 0.11430477215357371 0 0.11430477215357371 4.3986255598010047 0 0 0 0 -174.85151741409868 103.21013793907304 0 103.21013793907304 22.065155689939274 0 0 0 0 -20.33946813581413 -10.678230641706762 0 -10.678230641706762 -3.3976917168739256 0 0 0 0 -48.313857978151646 -42.156474529310799 0 -42.156474529310799 76.062388295904384 0 0 0 0 456.24367185060146 -630.41151014846037 0 -630.41151014846037 1232.437509092284 0 0 0 0 -5.981560642975694 1.9972988751332394 0 1.9972988751332394 11.85391631938171 0 0 0 0 1091.5539772301709 -1231.5367032720224 0 -1231.5367032720224 1014.7904024777454 0 0 0 0 1398.1063848339691 -1082.9762565745837 0 -1082.9762565745837 870.82163647985726 0 0 0 0 489.69042062673543 -416.05324065417335 0 -416.05324065417335 586.79771533518169 0 0 0 0 423.06206351166793 -387.6262832373672 0 -387.6262832373672 626.13266665313677 0 0 0 0 637.71270095782893 -207.21857067953351 0 -207.21857067953351 554.92317904421543 0 0 0 0 515.92561575039872 -694.84111547849898 0 -694.84111547849898 938.22485508273166 0 0 0 0 414.99191525768038 -120.53618351268869 0 -120.53618351268869 1213.966192487489 0 0 0 0 422.54678795304062 -157.87480676161886 0 -157.87480676161886 947.14645709151046 0 0 0 0 429.59948957567394 126.34929138171083 0 126.34929138171083 859.72482643593526 0 0 0 0 423.36962996477087 40.181033038692476 0 40.181033038692476 1094.6065165408329 0 0 0 0 544.93414214210497 63.931459509367414 0 63.931459509367414 1597.1715156247301 0 0 0 0 755.84536374124946 -540.97911214619171 0 -540.97911214619171 1515.4465855379894 0 0 0 0 553.30668214662001 -105.63244046951877 0 -105.63244046951877 1043.6469649915839 0 0 0 0 520.49076180989505 -460.95038899151405 0 -460.95038899151405 869.32895134661521 0 0 0 0 518.84337520544614 -454.67468461654266 0 -454.67468461654266 1694.9846842350235 0 0 0 0 676.71734651613224 -576.72163794746666 0 -576.72163794746666 619.30952264431835 0 0 0 0 1317.4842542664919 -733.41823824306539 0 -733.41823824306539 427.47165877500083 0 0 0 0 895.18901867189561 -988.5018735799531 0 -988.5018735799531 1055.973073278954 0 0 0 0 984.52297089595231 -679.31685357995593 0 -679.31685357995593 539.59392234882762 0 0 0 0 1583.1869905854401 -1844.9736295258153 0 -1844.9736295258153 2342.1276785453229 0 0 0 0 773.61979052487004 -428.7704833389289 0 -428.7704833389289 1466.8890458110945 0 0 0 0 914.02256531725288 -31.319228485180247 0 -31.319228485180247 2590.6582184182407 0 0 0 0 1698.3435715576488 -342.24128295282208 0 -342.24128295282208 1520.197389829631 0 0 0 0 855.79314234186313 -1397.5803977141677 0 -1397.5803977141677 3002.1657923251323 0 0 0 0 2689.7543345605663 -1100.223535552981 0 -1100.223535552981 -376.33662639461545 0 0 0 0 822.3532097065472 415.15988742050286 0 415.15988742050286 235.33819280595344 0 0 0 0 7.1353841185880924 -3.3571937691038727 0 -3.3571937691038727 1.0332533785388236 0 0 0 0 0.75587854182910519 -3.5196659803240919 0 -3.5196659803240919 0.19532365625311243 0 0 0 0 723.72845830795268 200.44537562992446 0 200.44537562992446 -125.34774758660205 0 0 0 0 30.137605534488102 138.24977028214744 0 138.24977028214744 -95.602987084566848 0 0 0 0 292.46002855653933 -552.44414607247381 0 -552.44414607247381 1986.9262425545967 0 0 0 0 -30.642397872441506 -525.49639242975718 0 -525.49639242975718 1215.9728047565366 0 0 0 0 948.16826022669557 -448.59671565278677 0 -448.59671565278677 1219.7115650801625 0 0 0 0 161.70101423808228 -1101.7822667640357 0 -1101.7822667640357 1735.6414624987192 0 0 0 0 -192.69796231704095 -231.44904004811133 0 -231.44904004811133 711.1827471266588 0 0 0 0 -589.8170766214389 -511.58688068214815 0 -511.58688068214815 740.179029824689 0 0 0 0 -382.4730088344586 -573.39635896334084 0 -573.39635896334084 136.819840217055 0 0 0 0 -358.87387247352308 -493.82529963741717 0 -493.82529963741717 -494.75700515311019 0 0 0 0 19.234627670211921 -77.836808006886258 0 -77.836808006886258 72.786584790945199 0 0 0 0 382.1664414858169 -346.70015886992496 0 -346.70015886992496 120.05134563509182 0 0 0 0 -26.364208769737161 -290.25752017386503 0 -290.25752017386503 824.06577990587903 0 0 0 0 418.77239390661271 167.33610482396739 0 167.33610482396739 801.66371924570194 0 0 0 0 1014.5996700417572 -275.08441196844137 0 -275.08441196844137 -35.028863520314189 0 0 0 0 893.67237803244279 436.20144749087149 0 436.20144749087149 187.36152834342556 0 0 0 0 876.09699365308916 408.03581411343839 0 408.03581411343839 969.87245646295924 0 0 0 0 374.80275173454356 -283.85050099719911 0 -283.85050099719911 1054.7916551929518 0 0 0 0 1003.5505670607745 -234.77094217843887 0 -234.77094217843887 491.93357670889554 0 0 0 0 406.88176299917905 -172.01094298850421 0 -172.01094298850421 -263.08450217608606 0 0 0 0 405.18561459526609 80.219189122791249 0 80.219189122791249 -125.57852475020491 0 0 0 0 284.43722927704948 -107.68988286736931 0 -107.68988286736931 -51.133156370091911 0 0 0 0 355.0499693153215 -200.60942044442004 0 -200.60942044442004 -239.19047360706463 0 0 0 0 -23.512614725186722 -350.67240879357178 0 -350.67240879357178 -226.91148243032058 0 0 0 0 -387.08666216065467 -328.43400309932031 0 -328.43400309932031 -92.578818257801686 0 0 0 0 -355.78225306967215 -448.51081481724759 0 -448.51081481724759 -139.11604520890296 0 0 0 0 13.944432388521818 -543.0652956398244 0 -543.0652956398244 -202.74598881940619 0 0 0 0 7.4862782476484426 -143.53405918412591 0 -143.53405918412591 75.440314506025061 0 0 0 0 -664.34902788044201 -559.96726797521524 0 -559.96726797521524 -162.83666120105499 0 0 0 0 -441.32430444297097 -442.16366122721161 0 -442.16366122721161 -196.72665250485443 0 0 0 0 -464.69564761540096 -356.29916022825319 0 -356.29916022825319 -107.30694463362306 0 0 0 0 -591.44654132986761 -429.90317626034039 0 -429.90317626034039 -99.793738754580772 0 0 0 0 -733.10766883941687 -323.11930405926341 0 -323.11930405926341 9.3374281050600985 0 0 0 0 -645.92373041418614 -262.93409060940667 0 -262.93409060940667 34.779420570553611 0 0 0 0 -663.81315291392821 -189.66376303395191 0 -189.66376303395191 -116.39298914757592 0 0 0 0 -293.0772182312121 -120.43147247331672 0 -120.43147247331672 -407.18816491817779 0 0 0 0 -267.61247463995824 -209.85172423062158 0 -209.85172423062158 -198.76405231065564 0 0 0 0 -331.88663743481084 -311.20579716284556 0 -311.20579716284556 -165.47861142610236 0 0 0 0 -118.43948680766698 -264.9791609730587 0 -264.9791609730587 -178.88826226441779 0 0 0 0 -388.59386167103366 -260.04205395963254 0 -260.04205395963254 -98.680403168691555 0 0 0 0 252.57838692969017 -92.125660115288156 0 -92.125660115288156 -232.91004737452931 0 0 0 0 13.491005022351601 -202.56741273563671 0 -202.56741273563671 -213.90957629981585 0 0 0 0 -1.6023450753345969 -167.59141357491762 0 -167.59141357491762 -266.20113189014228 0 0 0 0 224.64647582079851 -143.5042871137739 0 -143.5042871137739 -274.16980042885189 0 0 0 0 223.01582419516126 -105.09147783132721 0 -105.09147783132721 -106.90515029732796 0 0 0 0 705.33078273797582 -574.02752972485905 0 -574.02752972485905 205.63488610070453 0 0 0 0 655.47477477323991 -548.66879215287554 0 -548.66879215287554 284.52497535996736 0 0 0 0 792.03952038446732 -675.58601805385842 0 -675.58601805385842 265.50712668542565 0 0 0 0 726.73678772036874 -757.68783555638129 0 -757.68783555638129 410.49229990423919 0 0 0 0 703.75447087100838 -665.70731545563831 0 -665.70731545563831 394.90021395800431 0 0 0 0 696.03643465436471 -710.1575570881846 0 -710.1575570881846 787.33628512779978 0 0 0 0 636.6591186259102 -736.4295853378153 0 -736.4295853378153 462.86387310551072 0 0 0 0 873.91066064472216 -416.03915237469164 0 -416.03915237469164 95.654403077231109 0 0 0 0 1039.0364166167565 -791.23737899407024 0 -791.23737899407024 306.4781601679997 0 0 0 0 1313.9280272953038 -850.5079920238195 0 -850.5079920238195 462.46648546644428 0 0 0 0 -1534.8956148741345 -635.7325810112834 0 -635.7325810112834 -31.133613205814072 0 0 0 0 5.97829261196933 -26.760084566228613 0 -26.760084566228613 39.835494173508117 0 0 0 0 445.35167373461627 -261.60553526464264 0 -261.60553526464264 270.27898242674746 0 0 0 0 600.95381821916089 -147.36444087908967 0 -147.36444087908967 -62.155081779714237 0 0 0 0 624.53201857511522 -441.59366660571686 0 -441.59366660571686 225.99489507703038 0 0 0 0 675.873211192491 -359.73729422699762 0 -359.73729422699762 47.073241241098003 0 0 0 0 223.55913496492167 -80.360775978868787 0 -80.360775978868787 117.07866950268726 0 0 0 0 207.40281901060553 -265.84046778291167 0 -265.84046778291167 218.01997723264503 0 0 0 0 -7.2006776266043744 -100.35712486829107 0 -100.35712486829107 141.71673581570212 0 0 0 0 -944.03267855166632 -502.10849481863306 0 -502.10849481863306 19.542014682991066 0 0 0 0 34.075427048035635 56.332004216086716 0 56.332004216086716 118.36593666667977 0 0 0 0 7.4339950439725939 -31.760903618890588 0 -31.760903618890588 44.793371223990107 0 0 0 0 -0.55101253482806811 -1.0024097095136355 0 -1.0024097095136355 1.8020502062519057 0 0 0 0 -89.636985035889666 4.4558210555633195 0 4.4558210555633195 24.685170231059601 0 0 0 0 -184.29281826309443 146.15726588401992 0 146.15726588401992 36.97528629405133 0 0 0 0 173.57166726190553 -71.788690542209224 0 -71.788690542209224 -59.005424960931123 0 0 0 0 -1.9064391262637486 -1.9526536104239369 0 -1.9526536104239369 0.44965227685864306 0 0 0 0 -150.18518568735453 -130.82193567752074 0 -130.82193567752074 152.51095837120465 0 0 0 0 408.22069007689424 -305.23517059100595 0 -305.23517059100595 279.51493793297141 0 0 0 0 471.90425313248852 -381.72819035865359 0 -381.72819035865359 293.47264721143983 0 0 0 0 579.92922612962639 -417.65773191078893 0 -417.65773191078893 142.94633937277104 0 0 0 0 492.13743946232717 -412.01834057016822 0 -412.01834057016822 266.04332024577116 0 0 0 0 578.55644891812699 -534.90268237167766 0 -534.90268237167766 350.83500732869379 0 0 0 0 630.72292133322117 -580.16176707366867 0 -580.16176707366867 386.05337466704805 0 0 0 0 432.67476407818322 -364.09174729435472 0 -364.09174729435472 387.69096141495857 0 0 0 0 499.88113072690612 -324.35236325779078 0 -324.35236325779078 443.7203303402548 0 0 0 0 494.23207427397574 -528.51720230795581 0 -528.51720230795581 663.78513287008536 0 0 0 0 357.19405056017422 -496.97807028598618 0 -496.97807028598618 950.89646423382874 0 0 0 0 773.41593449842912 -729.50735002144575 0 -729.50735002144575 1170.2080945838334 0 0 0 0 1793.2909484191623 -1809.6065472244281 0 -1809.6065472244281 1112.5079938789495 0 0 0 0 1501.9583739570808 -1116.7582299336718 0 -1116.7582299336718 986.57444070938436 0 0 0 0 1484.3816285862267 -872.5163779251161 0 -872.5163779251161 649.46174464281285 0 0 0 0 2022.7978833131201 -567.58136457111141 0 -567.58136457111141 840.68330753889313 0 0 0 0 1468.7821840634119 -763.15671111240613 0 -763.15671111240613 802.57031152129639 0 0 0 0 894.61020689694124 -761.41474390614167 0 -761.41474390614167 876.21279343111382 0 0 0 0 887.67410255222057 -803.298521054905 0 -803.298521054905 730.14831171585683 0 0 0 0 905.19482682616945 -656.51707545928912 0 -656.51707545928912 569.78520043383105 0 0 0 0 1456.7904187482636 -741.67220946617817 0 -741.67220946617817 369.03650197390925 0 0 0 0 682.57691232252546 -800.44931243813517 0 -800.44931243813517 791.94196697923689 0 0 0 0 584.54959118152874 -632.75758503708357 0 -632.75758503708357 522.41597938902851 0 0 0 0 627.0246968239735 -614.47743872367209 0 -614.47743872367209 483.21484590046202 0 0 0 0 535.44411220237362 -1295.0745763438754 0 -1295.0745763438754 1135.6919463059749 0 0 0 0 1378.8493788130345 -1550.0881140946585 0 -1550.0881140946585 833.56272094449741 0 0 0 0 1363.5658153039521 -1635.6883185505139 0 -1635.6883185505139 1133.0621989425708 0 0 0 0 1645.0872494449829 -1465.4476497247379 0 -1465.4476497247379 865.07280411489046 0 0 0 0 1187.075108587354 -1676.250185820456 0 -1676.250185820456 1206.5355370130637 0 0 0 0 -10810.770487900336 5190.7968102314708 0 5190.7968102314708 -3794.1283284608653 0 0 0 0 -12.94558432186299 -7.2679242208017278 0 -7.2679242208017278 20.89045584373514 0 0 0 0 3014.3944525551146 -2185.7563079412284 0 -2185.7563079412284 628.22060982523544 0 0 0 0 1644.0754054795218 -2542.0135044059562 0 -2542.0135044059562 2115.8281928241486 0 0 0 0 4219.9870263820376 -1933.872784515316 0 -1933.872784515316 372.7776088922401 0 0 0 0 3404.6057021428496 -722.47836530841232 0 -722.47836530841232 447.60800313308573 0 0 0 0 1521.2251272934591 -876.66605046494624 0 -876.66605046494624 543.51914074135857 0 0 0 0 -1628.0360557225058 1701.551981362154 0 1701.551981362154 -1482.8830247246224 0 0 0 0 -1128.5748634378288 -1027.6492920691089 0 -1027.6492920691089 3492.0049113800706 0 0 0 0 -23.662265920652366 -26.219004330337391 0 -26.219004330337391 75.335178018030177 0 0 0 0 -7516.981392224855 -2670.1774834774114 0 -2670.1774834774114 6339.3866593996354 0 0 0 0 896.94552343818987 -1306.8321510598762 0 -1306.8321510598762 2607.1250505335192 0 0 0 0 570.3308563555056 -608.61475578521276 0 -608.61475578521276 400.91147225388704 0 0 0 0 1025.8079703560807 -1053.3156136892167 0 -1053.3156136892167 873.34526270002243 0 0 0 0 36.133904114315101 -679.79970775239053 0 -679.79970775239053 750.72077047529092 0 0 0 0 289.583326360721 -570.1734660611728 0 -570.1734660611728 892.95564738570829 0 0 0 0 110.04538059114202 -70.492512271299347 0 -70.492512271299347 -610.60851511758437 0 0 0 0 6.3942037063901225 -8.2256967689653031 0 -8.2256967689653031 12.887724358823078 0 0 0 0 55.042616317885404 55.110934068248753 0 55.110934068248753 -283.00281073412043 0 0 0 0 -308.82555899524971 -214.49030217020481 0 -214.49030217020481 163.61616200517165 0 0 0 0 70.674964656982979 -27.239492752776528 0 -27.239492752776528 -75.649023937527005 0 0 0 0 299.70328689874191 -119.93575289420369 0 -119.93575289420369 -260.14617541688494 0 0 0 0 2007.8917296786981 -441.04365697206595 0 -441.04365697206595 -1920.87132183637 0 0 0 0 975.82320477644453 74.814955055717292 0 74.814955055717292 357.25744609320827 0 0 0 0 397.24678998547552 -1160.8961015526875 0 -1160.8961015526875 -1212.6874996021652 0 0 0 0 161.57730140526292 -356.12055663259889 0 -356.12055663259889 -23.984557742753168 0 0 0 0 368.41249838859449 -174.88481178457005 0 -174.88481178457005 -375.81458318165824 0 0 0 0 -24.086212141576198 6.3873165190943837 0 6.3873165190943837 65.414856206487457 0 0 0 0 680.48836965186956 -1171.9201163937505 0 -1171.9201163937505 1472.2865384423203 0 0 0 0 134.43050650672012 120.61130074532048 0 120.61130074532048 -747.96849100858526 0 0 0 0 1.8542665849066964 2.1816735508429304 0 2.1816735508429304 -8.9340837954396477 0 0 0 0 7.5600908550937902 262.84418487302742 0 262.84418487302742 -678.16254917130209 0 0 0 0 38.546055692528171 45.251203690275361 0 45.251203690275361 -67.787115800252195 0 0 0 0 -6.9056162948715922 -4.8216085435243343 0 -4.8216085435243343 -12.136192657648433 0 0 0 0 33.256410941138967 1.3603378699232138 0 1.3603378699232138 -100.12331811934723 0 0 0 0 848.3767356966564 -689.97866222872653 0 -689.97866222872653 361.13657518939362 0 0 0 0 733.94621210092737 -768.7326511466199 0 -768.7326511466199 424.42659387286767 0 0 0 0 631.20414086985693 -593.64454114007094 0 -593.64454114007094 330.97343008916232 0 0 0 0 -26.564597456437554 -34.10041405660138 0 -34.10041405660138 97.225230856092139 0 0 0 0 -1158.5877664206851 -170.16913475226283 0 -170.16913475226283 637.26824729919463 0 0 0 0 814.04282099579723 -530.87611836403994 0 -530.87611836403994 321.73241684082132 0 0 0 0 788.80902959022205 -546.63775468899257 0 -546.63775468899257 312.092387571377 0 0 0 0 563.48724658379433 -290.38384347663668 0 -290.38384347663668 97.368751891401189 0 0 0 0 509.93588010881103 -605.46819943916216 0 -605.46819943916216 439.62941611919814 0 0 0 0 395.48766575667833 -444.03918945925398 0 -444.03918945925398 267.62628181646505 0 0 0 0 458.64213743600703 -802.38220786177408 0 -802.38220786177408 640.82512961448083 0 0 0 0 156.91184524496566 -53.027549126341 0 -53.027549126341 114.72661816054824 0 0 0 0 215.27680417974625 -450.46363650523381 0 -450.46363650523381 405.3665036554994 0 0 0 0 20.750543502894288 -74.613214974997391 0 -74.613214974997391 109.27423509972596 0 0 0 0 16.25258953422599 -94.96237725044557 0 -94.96237725044557 104.06288960923848 0 0 0 0 -18.458518448556063 -19.593731988722318 0 -19.593731988722318 5.8541716986112498 0 0 0 0 49.202702210688585 -44.16363025467308 0 -44.16363025467308 19.893278432555235 0 0 0 0 29.981656525022117 -47.927839142454104 0 -47.927839142454104 87.139371424185811 0 0 0 0 90.821899735979969 -67.321660100174995 0 -67.321660100174995 37.025478592040599 0 0 0 0 117.76819500247075 -116.03003087560865 0 -116.03003087560865 59.421864199081028 0 0 0 0 5.1232044531803638 -18.387865913056977 0 -18.387865913056977 9.8631501058626938 0 0 0 0 72.539677580003627 -274.0862868038439 0 -274.0862868038439 419.93253598853698 0 0 0 0 -24.190094344873629 -45.205578414541868 0 -45.205578414541868 98.370818136069886 0 0 0 0 46.225691019903024 -69.730739088346127 0 -69.730739088346127 32.732736345675221 0 0 0 0 -69.202199019900718 -199.33762914249019 0 -199.33762914249019 115.8966988081811 0 0 0 0 71.524194741700285 -40.436749065163866 0 -40.436749065163866 -39.229172730244819 0 0 0 0 56.364866280991009 -61.740049645922682 0 -61.740049645922682 10.798697731652283 0 0 0 0 8.8589376659401751 -46.508162236436874 0 -46.508162236436874 30.309359833885537 0 0 0 0 53.283906064356643 -26.281121358887816 0 -26.281121358887816 -64.607310766937289 0 0 0 0 3.2672287845861252 -16.353306965369018 0 -16.353306965369018 -3.3346137339738036 0 0 0 0 -62.309939330149064 -35.043296722660671 0 -35.043296722660671 22.811115355319998 0 0 0 0 2.2110572390956804 -40.003399573535717 0 -40.003399573535717 -40.734808147641161 0 0 0 0 -4.1329609204003646 -18.408137129192255 0 -18.408137129192255 0.4954336341979797 0 0 0 0 -4.0893620782990183 -50.623828726122156 0 -50.623828726122156 6.9617978502792539 0 0 0 0 0.57531400451262016 -4.8228997941077978 0 -4.8228997941077978 3.1815049256106249 0 0 0 0 2.05477563686145 -11.302988875141182 0 -11.302988875141182 -28.23205362603403 0 0 0 0 -29.883494528705342 -14.355734280610704 0 -14.355734280610704 6.3061350058433163 0 0 0 0 -6.2077694651088677 15.047546447765853 0 15.047546447765853 -38.362915662492924 0 0 0 0 422.47313948964438 214.0168604872888 0 214.0168604872888 305.82812710847975 0 0 0 0 10.431008129899055 -25.980084271364831 0 -25.980084271364831 -55.480299836935956 0 0 0 0 2.9374724268617709 -9.2653905333487607 0 -9.2653905333487607 -13.755006134030815 0 0 0 0 18.014257926285936 4.5807531525648457 0 4.5807531525648457 -1.868493600464852 0 0 0 0 30.31066808599644 -28.76621951080142 0 -28.76621951080142 -108.56673281246185 0 0 0 0 202.27387760804595 -578.95340250495383 0 -578.95340250495383 367.07870104311951 0 0 0 0 65.264329449179058 -656.72842676824985 0 -656.72842676824985 549.59211008675629 0 0 0 0 450.39104149360355 -674.41266561416705 0 -674.41266561416705 403.09896894769736 0 0 0 0 216.94948486113572 -515.10141862019373 0 -515.10141862019373 527.55003703491002 0 0 0 0 -326.67929917349829 -499.26725982553944 0 -499.26725982553944 556.6910114093007 0 0 0 0 2.9879032830055929 -7.4435598922015487 0 -7.4435598922015487 -0.2684133413812404 0 0 0 0 360.42379680933846 -488.21871526162522 0 -488.21871526162522 205.64151188306823 0 0 0 0 35.039526211756311 -317.53375025722926 0 -317.53375025722926 326.62807797378446 0 0 0 0 647.97509890179208 -682.86987533715455 0 -682.86987533715455 235.52021965035783 0 0 0 0 381.75400844974502 -463.30921416046476 0 -463.30921416046476 63.925531202273305 0 0 0 0 152.86508313869126 -273.80528871169963 0 -273.80528871169963 232.16280714881759 0 0 0 0 3.0201542488412088 -32.514095919473533 0 -32.514095919473533 259.84539985307219 0 0 0 0 -6.9208619856916442 -13.070097238671085 0 -13.070097238671085 -9.5427626623229536 0 0 0 0 75.470317487895954 -193.65754147675761 0 -193.65754147675761 171.82784939819339 0 0 0 0 -21.836838296325269 -20.177386024261565 0 -20.177386024261565 -13.213509340468168 0 0 0 0 14.765281682070054 -20.708268171114469 0 -20.708268171114469 -40.642912815952513 0 0 0 0 -25.182823699869914 -31.292420442092407 0 -31.292420442092407 -42.582754249488062 0 0 0 0 27.75196001038239 -81.082690652112433 0 -81.082690652112433 19.054529893670406 0 0 0 0 32.516444023771328 -81.375781987930168 0 -81.375781987930168 9.2444082467588942 0 0 0 0 23.666484273431706 -47.420725445681455 0 -47.420725445681455 3.7420924472535262 0 0 0 0 3.6363529500273728 -3.1509976368590387 0 -3.1509976368590387 -5.629153025644932 0 0 0 0 -8.8863622267137821 -7.9294282667593023 0 -7.9294282667593023 6.486739416604145 0 0 0 0 31.494572167695878 -41.089664516841367 0 -41.089664516841367 -44.122855834371876 0 0 0 0 25.784093611102435 -48.21616985667788 0 -48.21616985667788 -45.400491400927422 0 0 0 0 22.593961148959352 -65.194529772175883 0 -65.194529772175883 -26.434128061624506 0 0 0 0 -14.155796320752415 -32.430862261100629 0 -32.430862261100629 -13.936528791346063 0 0 0 0 22.427486924992991 -69.024473712597683 0 -69.024473712597683 -57.2281387748626 0 0 0 0 8.9771567437273916 -49.871257731061633 0 -49.871257731061633 -3.0911704198497318 0 0 0 0 11.814216946142551 -66.825307952649382 0 -66.825307952649382 79.282306445449649 0 0 0 0 30.892737545249474 -35.067653257584425 0 -35.067653257584425 4.4388742757619184 0 0 0 0 17.696816931071226 -52.764377103263541 0 -52.764377103263541 42.131490793372905 0 0 0 0 -1.8954590912835556 -4.7973445671104855 0 -4.7973445671104855 12.341348787731476 0 0 0 0 46.816543173594255 -29.04926535089362 0 -29.04926535089362 -8.0475164345771191 0 0 0 0 -13.981212927185879 -16.190666396496226 0 -16.190666396496226 -10.311297127565922 0 0 0 0 21.46100509766984 -29.248128873168753 0 -29.248128873168753 -34.739383024643757 0 0 0 0 -220.04049052707705 146.28426576169204 0 146.28426576169204 348.73791794930548 0 0 0 0 1268.5006982647283 -545.50800445023742 0 -545.50800445023742 503.60993006270519 0 0 0 0 8.7203630046287799 -85.084570522083823 0 -85.084570522083823 148.76352148070509 0 0 0 0 -132.76936148320237 -132.53475144852564 0 -132.53475144852564 173.58729197621869 0 0 0 0 -220.37751299105003 221.10712208645964 0 221.10712208645964 98.623067524378712 0 0 0 0 5.1209585091237386 147.28424031490795 0 147.28424031490795 -118.69376912478765 0 0 0 0 -35.411038570483747 -48.769648606772137 0 -48.769648606772137 53.880824116951857 0 0 0 0 28.972290406979155 -26.9936085093617 0 -26.9936085093617 16.095350161763228 0 0 0 0 -54.620377459279553 -192.58824091241422 0 -192.58824091241422 -4.344543199931195 0 0 0 0 132.89954547208526 -92.376774974263981 0 -92.376774974263981 -149.88776041645724 0 0 0 0 18.555661498225291 -3.6532051030720485 0 -3.6532051030720485 0.086312420532827616 0 0 0 0 384.15564681132673 110.79691017779805 0 110.79691017779805 -105.87334560318413 0 0 0 0 1077.2269658304358 -164.30331031462993 0 -164.30331031462993 -170.94960845254718 0 0 0 0 616.47678737812384 -469.79176172517873 0 -469.79176172517873 11.836291423776856 0 0 0 0 1353.8984579671305 -993.59880145031275 0 -993.59880145031275 406.84545536267251 0 0 0 0 1204.3143984912749 -781.67561585338808 0 -781.67561585338808 124.79523197364324 0 0 0 0 457.5338788127483 -738.28032789799363 0 -738.28032789799363 755.7308568056651 0 0 0 0 181.41310179733409 695.38060158799271 0 695.38060158799271 2315.2425848158746 0 0 0 0 886.98769228739548 -1178.1824017564068 0 -1178.1824017564068 1176.8142945108011 0 0 0 0 702.43195268433783 -1452.8030795290315 0 -1452.8030795290315 907.86883319309163 0 0 0 0 582.14855352246741 -1142.1593599897205 0 -1142.1593599897205 767.65250763308086 0 0 0 0 644.54392585960159 -904.00871899883532 0 -904.00871899883532 1309.1259179688004 0 0 0 0 9.2792511518632921 2.3764023219125789 0 2.3764023219125789 1.6701172067603522 0 0 0 0 210.52559700820711 208.87757537313337 0 208.87757537313337 -70.525889643531627 0 0 0 0 1082.4961542929868 -338.66276711452156 0 -338.66276711452156 -86.567976912494487 0 0 0 0 679.60131839480891 181.6558437794647 0 181.6558437794647 -110.91552874538775 0 0 0 0 13.062230396688392 -72.277830136907141 0 -72.277830136907141 -75.320997321176037 0 0 0 0 -44.276872018726863 -36.325831245356312 0 -36.325831245356312 22.418492536438862 0 0 0 0 162.62646264215437 55.504194541077595 0 55.504194541077595 42.550429627250651 0 0 0 0 13.659747294212139 -47.641971546735476 0 -47.641971546735476 42.839178588685172 0 0 0 0 182.66319387611293 -45.282472843555297 0 -45.282472843555297 5.6928894707270956 0 0 0 0 28.811795276247722 15.263396256535998 0 15.263396256535998 39.123383036793257 0 0 0 0 253.72369626782529 -44.380750669361078 0 -44.380750669361078 17.490133449024142 0 0 0 0 222.92170261764113 32.00417018961889 0 32.00417018961889 26.560407427989276 0 0 0 0 472.03118954092133 -74.859508745178573 0 -74.859508745178573 -90.620664686677628 0 0 0 0 422.72438827856604 -162.45974955197016 0 -162.45974955197016 -82.277384648180515 0 0 0 0 309.28684027675627 -405.50851462048377 0 -405.50851462048377 86.002544286636294 0 0 0 0 546.00563767700623 -706.41444746346042 0 -706.41444746346042 506.4134780549648 0 0 0 0 -20.950222138671961 -170.11430933167594 0 -170.11430933167594 799.73503961575807 0 0 0 0 -139.4086199668709 -167.70213552675796 0 -167.70213552675796 426.546725686625 0 0 0 0 90.023284064713152 -349.35373760222183 0 -349.35373760222183 268.09666667713464 0 0 0 0 104.42569550086773 -328.74395751220254 0 -328.74395751220254 183.73222622777394 0 0 0 0 170.61966633061274 -237.28523247822068 0 -237.28523247822068 -118.07046068887212 0 0 0 0 354.04496763992574 -278.15674103835045 0 -278.15674103835045 -174.14326133128361 0 0 0 0 450.74752160365369 -172.22878714017179 0 -172.22878714017179 -110.1161486596684 0 0 0 0 289.78483231767314 -118.99571030133575 0 -118.99571030133575 -422.23433498365011 0 0 0 0 148.46846345783342 -256.07503462400382 0 -256.07503462400382 -124.16217089506426 0 0 0 0 -7.2282175627442484 28.058782727181097 0 28.058782727181097 24.654844524898635 0 0 0 0 195.69837200413895 -154.21665524543641 0 -154.21665524543641 49.617029602217372 0 0 0 0 368.86989897090098 -195.06845084476299 0 -195.06845084476299 -16.713672910120295 0 0 0 0 294.16572026053473 -113.17773494719859 0 -113.17773494719859 -98.732174506792944 0 0 0 0 -1.5582466797899599 -1.4633969441228061 0 -1.4633969441228061 -0.96538687534677337 0 0 0 0 275.62022563111532 -224.63777805213067 0 -224.63777805213067 73.065760881002461 0 0 0 0 204.67862994207462 -178.14559165149331 0 -178.14559165149331 -582.47232847581472 0 0 0 0 -130.38760623729831 616.42613776954931 0 616.42613776954931 -775.57985786640347 0 0 0 0 177.29507431502498 169.92891295200934 0 169.92891295200934 -36.580816420275369 0 0 0 0 1.7017069487816734 4.2833557704998952 0 4.2833557704998952 -10.967260854386318 0 0 0 0 102.4372510789961 -30.864414216484967 0 -30.864414216484967 -48.57523986541942 0 0 0 0 -291.08120393944409 -42.626650426616834 0 -42.626650426616834 -439.03764218588185 0 0 0 0 233.39208463877731 -294.95244055997318 0 -294.95244055997318 196.18371592861513 0 0 0 0 985.469972777777 -961.47693079586315 0 -961.47693079586315 -147.86372931234109 0 0 0 0 691.86551823461195 -889.99168586603992 0 -889.99168586603992 -263.94056588346211 0 0 0 0 1117.8078577309243 -1484.7070041778024 0 -1484.7070041778024 572.2013445736884 0 0 0 0 615.64451056125017 -628.91231474903907 0 -628.91231474903907 62.101955900798202 0 0 0 0 336.2164128432878 -130.37721845291253 0 -130.37721845291253 -821.71315004998905 0 0 0 0 7.6411874601438257 -15.210425471707666 0 -15.210425471707666 1.0711194593443594 0 0 0 0 43.135068542905174 44.838852915868756 0 44.838852915868756 -286.34537358935086 0 0 0 0 126.84651621309837 -56.338237354860247 0 -56.338237354860247 9.8434040412033426 0 0 0 0 198.29025628218187 -118.12119200658708 0 -118.12119200658708 -14.262328168320892 0 0 0 0 -62.585921222984325 189.06529528109968 0 189.06529528109968 -75.759200308930303 0 0 0 0 586.75708932691305 -386.09863905609382 0 -386.09863905609382 -1180.0393307722861 0 0 0 0 341.88773924753241 735.28875401402729 0 735.28875401402729 -1581.5837061052298 0 0 0 0 101.51937848402849 46.167623458884918 0 46.167623458884918 -848.26954059082709 0 0 0 0 247.84410470143303 6.2514796368359384 0 6.2514796368359384 -342.18041804736276 0 0 0 0 683.23325503259548 -633.8083205231851 0 -633.8083205231851 66.939575888450236 0 0 0 0 384.65639505399213 -762.56269908492322 0 -762.56269908492322 1563.225344788334 0 0 0 0 1870.5368278384522 -393.92789939271097 0 -393.92789939271097 1521.2544135570261 0 0 0 0 -145.5846208996627 -1391.7179170918407 0 -1391.7179170918407 1215.0780033735318 0 0 0 0 318.74487673111832 -1046.6211826716492 0 -1046.6211826716492 1471.4305188313374 0 0 0 0 1491.6665745168502 -2238.1317779232122 0 -2238.1317779232122 2345.9995285193581 0 0 0 0 325.4210483118768 -1018.8543743484042 0 -1018.8543743484042 1231.8250264960443 0 0 0 0 785.03695878376584 -547.93457044265188 0 -547.93457044265188 289.70530783590948 0 0 0 0 1493.5273234170418 -1183.4093412284856 0 -1183.4093412284856 858.94961724227687 0 0 0 0 135.1089171565236 -794.40893945185599 0 -794.40893945185599 1331.5883360388798 0 0 0 0 654.91377514244232 -898.19209661821151 0 -898.19209661821151 980.37923484976636 0 0 0 0 -197.15325810666991 -150.66830048801785 0 -150.66830048801785 -43.473789199895691 0 0 0 0 -84.441057467717656 -4.1489976504635706 0 -4.1489976504635706 31.035113926118356 0 0 0 0 -92.525611756847184 19.847201157819654 0 19.847201157819654 -122.99597292763065 0 0 0 0 -21.376580801624577 -28.840059859393321 0 -28.840059859393321 34.285772867495012 0 0 0 0 -15.426882533859686 7.5306318512954533 0 7.5306318512954533 39.307356015211809 0 0 0 0 1130.0942804537463 -333.79511573613127 0 -333.79511573613127 181.36362768217077 0 0 0 0 -8.7273546662809878 -1.100133223385285 0 -1.100133223385285 13.199972924411014 0 0 0 0 3561.3304675270556 -1041.7797552546435 0 -1041.7797552546435 236.96539886148958 0 0 0 0 39.476316234344267 -97.037234280302073 0 -97.037234280302073 -48.955911447250401 0 0 0 0 -400.27943532239533 -300.87968387977162 0 -300.87968387977162 1729.4436737737487 0 0 0 0 -414.4112885852719 179.75857421066394 0 179.75857421066394 534.21645678843561 0 0 0 0 1602.9309797082933 -2087.3571966799336 0 -2087.3571966799336 2698.3199031023687 0 0 0 0 -2.7044472653401623 1.7275022500446529 0 1.7275022500446529 16.483145113648192 0 0 0 0 1745.6957042537651 -2282.3420328792527 0 -2282.3420328792527 2305.3173621283859 0 0 0 0 1473.0416533957141 -847.31113935145549 0 -847.31113935145549 1566.4845737837568 0 0 0 0 825.12527566483368 -777.53122013264874 0 -777.53122013264874 449.1769088076835 0 0 0 0 1128.6671976291277 -1495.3288734687303 0 -1495.3288734687303 916.58089788049256 0 0 0 0 1575.0465115377629 -618.30091236810767 0 -618.30091236810767 105.0126013411209 0 0 0 0 589.45903660083331 -1531.8004947532463 0 -1531.8004947532463 1788.6744659293618 0 0 0 0 1334.7430038199473 -1767.0705383232344 0 -1767.0705383232344 1021.3737632795091 0 0 0 0 803.97174557099379 -1366.0796111363798 0 -1366.0796111363798 908.06070920846832 0 0 0 0 828.50652214365698 -1559.2248688484256 0 -1559.2248688484256 1020.5855040922615 0 0 0 0 1051.5586102726193 -1478.8751994327467 0 -1478.8751994327467 1037.4840849391767 0 0 0 0 300.64828471887722 -1050.8835667110543 0 -1050.8835667110543 996.38473635416403 0 0 0 0 714.91910408452441 -210.69200240950158 0 -210.69200240950158 300.70986021380759 0 0 0 0 2552.6262847311909 -952.29937688979771 0 -952.29937688979771 273.43721578309487 0 0 0 0 1899.0291915658772 -655.88304371880076 0 -655.88304371880076 288.86479068022163 0 0 0 0 987.46040873903621 -1143.1255254142015 0 -1143.1255254142015 675.82815918049891 0 0 0 0 2217.2854483084329 -1411.8514073998813 0 -1411.8514073998813 717.49023257789668 0 0 0 0 4235.1769979594883 -2837.0523380324585 0 -2837.0523380324585 514.34826173640613 0 0 0 0 -11.869401483418084 -7.7211978965134307 0 -7.7211978965134307 25.735151457910106 0 0 0 0 -11644.158792244165 4553.4640163570148 0 4553.4640163570148 -2783.0233773950022 0 0 0 0 1658.9456475556508 -1996.3790851374179 0 -1996.3790851374179 1211.0960429277911 0 0 0 0 1813.8188739911302 -1318.0170392655023 0 -1318.0170392655023 955.16009332130488 0 0 0 0 610.19422074990143 -1436.9349408093149 0 -1436.9349408093149 3096.9483546842857 0 0 0 0 1156.0533991932261 -442.03592636629674 0 -442.03592636629674 360.82426047904301 0 0 0 0 2649.9631158760967 -3434.1467417767799 0 -3434.1467417767799 2056.1723329840825 0 0 0 0 -795.88441742579016 -5398.0690013221465 0 -5398.0690013221465 4229.6331117186564 0 0 0 0 1168.8082055265404 -379.36405752227074 0 -379.36405752227074 141.97594734725135 0 0 0 0 -1109.3053152403177 332.11257995031167 0 332.11257995031167 1339.0437200279339 0 0 0 0 -79.074067876597837 802.56440155026576 0 802.56440155026576 -587.70629432741771 0 0 0 0 1163.4259950516534 -373.50320799367728 0 -373.50320799367728 435.33278872955088 0 0 0 0 -23.108031971579159 -25.255621597778937 0 -25.255621597778937 54.190424651114341 0 0 0 0 127.4780751011308 -239.99740237969672 0 -239.99740237969672 841.74846401865216 0 0 0 0 -3270.9197160636431 179.03003170697411 0 179.03003170697411 2189.2925843271696 0 0 0 0 325.46173214142118 -649.88074404268264 0 -649.88074404268264 321.80633453921473 0 0 0 0 374.99597492221801 -264.63179705364837 0 -264.63179705364837 501.59261244533263 0 0 0 0 374.34923286023695 -58.928039112061015 0 -58.928039112061015 162.88425040473521 0 0 0 0 323.47411465750338 -397.64358800010086 0 -397.64358800010086 112.06461594942812 0 0 0 0 19.610571328594233 1.1731634981515526 0 1.1731634981515526 744.27254678467125 0 0 0 0 795.72775928283954 -757.84422524624824 0 -757.84422524624824 943.03128994512372 0 0 0 0 128.16944687347132 -1965.1748995000853 0 -1965.1748995000853 1213.5840951840219 0 0 0 0 -812.09063742169383 -131.68634424558968 0 -131.68634424558968 204.52287076849461 0 0 0 0 -1.1326176230269098 -4.2889313647802751 0 -4.2889313647802751 -10.468118999958023 0 0 0 0 33.969255193371282 12.508659455390443 0 12.508659455390443 -65.582373277611623 0 0 0 0 251.39631108422691 -343.69387938293949 0 -343.69387938293949 -13.056047020520055 0 0 0 0 277.96175126874732 -64.14157072652597 0 -64.14157072652597 15.555855198581412 0 0 0 0 244.30459679340038 -219.33426122398373 0 -219.33426122398373 127.61984499706523 0 0 0 0 49.159674639377045 -231.7480206355358 0 -231.7480206355358 -76.696195432647073 0 0 0 0 21.737111318867392 -190.39476994909455 0 -190.39476994909455 244.65243189839748 0 0 0 0 327.32979382602571 -245.40961458500351 0 -245.40961458500351 -54.575708714401117 0 0 0 0 -83.431211464645457 -44.378115990290098 0 -44.378115990290098 13.181900352748926 0 0 0 0 302.78512346738989 -331.04780850224188 0 -331.04780850224188 295.53253224472064 0 0 0 0 -9.3101474706727529 -16.094351095256812 0 -16.094351095256812 -13.480154819140651 0 0 0 0 418.49617553476128 -107.26037541470942 0 -107.26037541470942 154.41108909135073 0 0 0 0 297.28988425391435 -360.43203966314104 0 -360.43203966314104 367.15293880236641 0 0 0 0 456.21077728587625 -339.09406083469457 0 -339.09406083469457 129.67110148907159 0 0 0 0 -116.7909389213828 38.869100837915539 0 38.869100837915539 -16.403544927958137 0 0 0 0 -23.433992129525421 -30.92402749949477 0 -30.92402749949477 52.824326993017408 0 0 0 0 57.157266936732526 128.3295238665637 0 128.3295238665637 25.804061207105406 0 0 0 0 501.66428969035405 -862.50909162252174 0 -862.50909162252174 -338.72258727205258 0 0 0 0 -360.43035416751627 77.716749027234073 0 77.716749027234073 102.56474768204862 0 0 0 0 -7.0796943994220349 -14.939511701039081 0 -14.939511701039081 -24.547998293414878 0 0 0 0 58.450363176620158 -94.158612292994803 0 -94.158612292994803 -61.297399175262399 0 0 0 0 -581.77633623524707 222.43999154809308 0 222.43999154809308 209.49781979061299 0 0 0 0 -254.07262619643006 13.499308732516511 0 13.499308732516511 163.58570575468912 0 0 0 0 225.11984661007955 -513.7847819755807 0 -513.7847819755807 122.62394745132349 0 0 0 0 -10.525594479185436 -21.219535503250832 0 -21.219535503250832 -33.613482769360644 0 0 0 0 -140.23042778824311 -30.254345103527157 0 -30.254345103527157 30.970686210152053 0 0 0 0 -55.218498344936961 -204.54790797575151 0 -204.54790797575151 131.12537818323472 0 0 0 0 153.1529033827901 -222.59522736338113 0 -222.59522736338113 -22.291778181886912 0 0 0 0 132.85692269425635 -165.94983937753932 0 -165.94983937753932 -84.232430181757081 0 0 0 0 59.375203323797905 -212.5692245090795 0 -212.5692245090795 52.284197602566564 0 0 0 0 111.51039362882784 -264.24542737126649 0 -264.24542737126649 78.09946492673771 0 0 0 0 161.44465150509495 -334.14232454341982 0 -334.14232454341982 220.09044552859268 0 0 0 0 157.69847761137862 -236.29156932401202 0 -236.29156932401202 94.862626442354667 0 0 0 0 218.84996997043345 -201.36913909712166 0 -201.36913909712166 43.168976922461297 0 0 0 0 -17.537160975399427 -27.434264137873811 0 -27.434264137873811 -37.981963676120706 0 0 0 0 -19.252881105827328 -187.51838398525342 0 -187.51838398525342 69.621435944347468 0 0 0 0 20.624101497597621 80.684734866401413 0 80.684734866401413 18.157519699932891 0 0 0 0 38.987382463386894 -4.8268500101871723 0 -4.8268500101871723 -83.535321041992574 0 0 0 0 921.44018723721456 -332.40242060853234 0 -332.40242060853234 102.55948893216555 0 0 0 0 -2.5856085608429922 -5.1043933511759221 0 -5.1043933511759221 -0.36855917025303597 0 0 0 0 339.47612511462648 -288.88063747893102 0 -288.88063747893102 64.384456040532314 0 0 0 0 398.6020628069964 -217.52707128276234 0 -217.52707128276234 110.10398780607284 0 0 0 0 289.23909728959188 -362.8058727869593 0 -362.8058727869593 143.37738076388632 0 0 0 0 244.12790476892314 -154.425795342112 0 -154.425795342112 135.03759482212627 0 0 0 0 142.81293862526218 -267.24576573194827 0 -267.24576573194827 125.15594836653327 0 0 0 0 99.595303296649945 -196.59822574602731 0 -196.59822574602731 -24.37465471543419 0 0 0 0 140.39162712605321 -173.44720410115042 0 -173.44720410115042 -21.155030589630769 0 0 0 0 333.45572776353947 -261.24287800666571 0 -261.24287800666571 12.056121658955817 0 0 0 0 3.5367426940228128 -0.47362536114165721 0 -0.47362536114165721 -1.2351083952962938 0 0 0 0 34.57001070669503 22.737425033574254 0 22.737425033574254 -44.269221439586545 0 0 0 0 0.74794406964148408 -17.498008010143906 0 -17.498008010143906 -17.466647301432133 0 0 0 0 4.427210318427484 -2.0414668416362929 0 -2.0414668416362929 -2.8096573039824335 0 0 0 0 7.3397133768157801 -22.165956453452964 0 -22.165956453452964 -6.1379209029473714 0 0 0 0 4.5064524758890592 -18.240572207779273 0 -18.240572207779273 -0.2027046429384427 0 0 0 0 -4.0913241546929413 -15.814134763415495 0 -15.814134763415495 -12.701611761017432 0 0 0 0 34.471091650011658 -66.088044968644681 0 -66.088044968644681 84.342921518253206 0 0 0 0 1.4589918032988862 -44.272514318173307 0 -44.272514318173307 -42.287447771283041 0 0 0 0 15.106084620129877 -73.16107846612158 0 -73.16107846612158 -64.404349027703574 0 0 0 0 5.8003282721805931 -27.777885345288816 0 -27.777885345288816 5.3469001561224587 0 0 0 0 29.282325706153642 -89.443692439257575 0 -89.443692439257575 -78.882042734563584 0 0 0 0 338.76011470418598 -568.23002725141123 0 -568.23002725141123 379.50239854415122 0 0 0 0 -117.41631811122352 35.872246732156782 0 35.872246732156782 28.241340906184632 0 0 0 0 -8.2285251723145336 -8.4293361843722181 0 -8.4293361843722181 8.6113386845150899 0 0 0 0 -21.569247848663508 -50.059957875753753 0 -50.059957875753753 614.3270750362135 0 0 0 0 -1.6490266177743464 -9.4311874774712905 0 -9.4311874774712905 -4.6615187436307224 0 0 0 0 442.01097777106042 159.95159725691337 0 159.95159725691337 -198.10621903286665 0 0 0 0 255.29461135676684 -282.52038903201174 0 -282.52038903201174 144.98713107997173 0 0 0 0 651.90221054433277 -518.16506720142297 0 -518.16506720142297 145.81147695229447 0 0 0 0 751.54981690674322 -25.736278001859318 0 -25.736278001859318 -307.73486799054081 0 0 0 0 70.859133121826744 -286.19111562348917 0 -286.19111562348917 571.33995829368541 0 0 0 0 5.9128993483433447 -2.0370890044729322 0 -2.0370890044729322 -10.199801696793017 0 0 0 0 34.867672845086531 -95.381340884822606 0 -95.381340884822606 282.15652324730036 0 0 0 0 -117.61015249553748 108.07972791062275 0 108.07972791062275 57.0007209149353 0 0 0 0 235.3859020916716 -141.42719142109854 0 -141.42719142109854 -113.0126689964527 0 0 0 0 -4.1167744364185239 -28.182315050495859 0 -28.182315050495859 -40.814856801749244 0 0 0 0 309.93607587072256 -108.82140991545384 0 -108.82140991545384 -159.52952719009045 0 0 0 0 163.23382473224046 -135.65967156965053 0 -135.65967156965053 29.586703857999964 0 0 0 0 755.94396621501801 -204.27256720432706 0 -204.27256720432706 -29.121316304524953 0 0 0 0 367.97702122741612 -478.25849546116297 0 -478.25849546116297 647.72418155983905 0 0 0 0 98.475580538732174 -460.52671441159328 0 -460.52671441159328 611.10831063167279 0 0 0 0 216.02011056891934 -233.75158572890359 0 -233.75158572890359 -86.472959281709336 0 0 0 0 -10.348628669473733 -24.647688323665825 0 -24.647688323665825 79.514345541378987 0 0 0 0 -11.645463053560306 -38.612755919879838 0 -38.612755919879838 81.346031756345951 0 0 0 0 -170.72918541193212 -113.41380842038052 0 -113.41380842038052 168.61434958304744 0 0 0 0 -50.35360313482397 -43.813369817442435 0 -43.813369817442435 75.626483738713432 0 0 0 0 -456.21909334533484 -265.13252424641723 0 -265.13252424641723 308.56223034883442 0 0 0 0 -468.24262738477228 -297.99639878023208 0 -297.99639878023208 509.06805160237127 0 0 0 0 -248.15810064126345 50.407684121351849 0 50.407684121351849 33.86440922424481 0 0 0 0 -296.19590246799271 -57.793153537406397 0 -57.793153537406397 92.927493262998723 0 0 0 0 -236.62042652617674 -8.7614349643008609 0 -8.7614349643008609 26.906262907079508 0 0 0 0 -162.65231430830318 112.27321310748084 0 112.27321310748084 266.72073369623104 0 0 0 0 -279.18802395286184 -66.92660983319729 0 -66.92660983319729 -8.8381050169555238 0 0 0 0 -32.309951552456141 -36.043429032109998 0 -36.043429032109998 17.070400874654297 0 0 0 0 -638.26567139066174 222.80092940719624 0 222.80092940719624 -168.68461203495099 0 0 0 0 21.180023338571729 -22.141377645407445 0 -22.141377645407445 5.725004140342584 0 0 0 0 241.28890167549253 -182.93673417079845 0 -182.93673417079845 112.51910114308703 0 0 0 0 -62.749840360929049 -86.068402657420521 0 -86.068402657420521 95.246888528346858 0 0 0 0 -25.187456032084839 -4.6718662592206961 0 -4.6718662592206961 9.3255687501925308 0 0 0 0 19.227374639105619 -70.779533304354118 0 -70.779533304354118 36.425276849869988 0 0 0 0 21.556357039033173 -73.404705697088502 0 -73.404705697088502 27.333643695776118 0 0 0 0 15.637887506285551 -97.393874700046581 0 -97.393874700046581 47.372318530211487 0 0 0 0 64.354707583762774 -87.027426537468273 0 -87.027426537468273 21.113760090773212 0 0 0 0 -36.754247887554044 -122.78193710888445 0 -122.78193710888445 252.12716908093716 0 0 0 0 -0.32305042231215786 -48.324616840719841 0 -48.324616840719841 -14.992609992518652 0 0 0 0 11.245661744374345 -29.384685968605154 0 -29.384685968605154 -30.050960840134692 0 0 0 0 19.227226665707349 -83.220136643387377 0 -83.220136643387377 74.312704511314223 0 0 0 0 390.98857495203993 -380.33985824913361 0 -380.33985824913361 281.54922876847559 0 0 0 0 -31.100199264150906 -34.412449164002439 0 -34.412449164002439 41.266674809799355 0 0 0 0 -558.35156064128932 -845.58653689212224 0 -845.58653689212224 135.46227884241671 0 0 0 0 356.48661809850455 -50.86088266783554 0 -50.86088266783554 -142.4298160420949 0 0 0 0 -94.457206005414832 -66.067231035001896 0 -66.067231035001896 64.235181368072517 0 0 0 0 28.021949672306846 -70.993697087706096 0 -70.993697087706096 45.895833129317907 0 0 0 0 -23.993716917462699 -30.019043554154738 0 -30.019043554154738 35.466829495254984 0 0 0 0 739.42097022143889 -428.88360806849778 0 -428.88360806849778 126.60230950052937 0 0 0 0 584.31239653652301 -196.65539175971935 0 -196.65539175971935 127.12703062762405 0 0 0 0 261.10439630754172 -477.1397449142205 0 -477.1397449142205 582.80408907683159 0 0 0 0 332.15720652945311 -525.78709140204228 0 -525.78709140204228 562.59243952553516 0 0 0 0 879.05196650358084 -453.83549342444348 0 -453.83549342444348 324.41722556915192 0 0 0 0 -22.481949212836412 -27.455925398061606 0 -27.455925398061606 35.009700543657516 0 0 0 0 77.936699062683147 91.135771306719107 0 91.135771306719107 -110.21324376435496 0 0 0 0 -164.38029901607911 89.665271797468449 0 89.665271797468449 71.118681784209912 0 0 0 0 -71.705706322068636 -142.56223946096725 0 -142.56223946096725 439.60845623745263 0 0 0 0 -206.1589688074896 -328.33253045745005 0 -328.33253045745005 447.75011046351574 0 0 0 0 -32.625931304784203 -47.380009334005976 0 -47.380009334005976 37.684115451265797 0 0 0 0 -34.902205315059199 -8.3014790162617658 0 -8.3014790162617658 72.56747161908973 0 0 0 0 -161.37847306012009 -82.745330610781821 0 -82.745330610781821 -7.3712518691718287 0 0 0 0 -18.344441332455062 83.337737713405659 0 83.337737713405659 -47.245197767217178 0 0 0 0 -45.260987383528914 1.6515352374603793 0 1.6515352374603793 50.426090598360879 0 0 0 0 -234.26354062322025 43.608394076753029 0 43.608394076753029 51.52772460282722 0 0 0 0 -32.99493483598048 -70.127501797733231 0 -70.127501797733231 68.77809498353399 0 0 0 0 0.56713220799134945 -4.2138514220060586 0 -4.2138514220060586 1.7669692053248127 0 0 0 0 15.233744144235288 -170.75823797469275 0 -170.75823797469275 94.721738442574861 0 0 0 0 41.564777929296952 -55.925757387714839 0 -55.925757387714839 4.0386009111243766 0 0 0 0 260.96263281972585 -54.494318236902473 0 -54.494318236902473 -48.554966335315839 0 0 0 0 308.41792912751407 -294.78546295872547 0 -294.78546295872547 -73.053383837665024 0 0 0 0 45.95911552580219 -147.39818138368173 0 -147.39818138368173 106.42743735820113 0 0 0 0 -154.38630081410884 -43.669798456367062 0 -43.669798456367062 -75.454377323831068 0 0 0 0 -61.995908314325789 -184.40424393316789 0 -184.40424393316789 -61.431223750442996 0 0 0 0 8.4721925890917191 -212.08643767829562 0 -212.08643767829562 57.377822102767823 0 0 0 0 -233.68986477227736 -204.17429840194654 0 -204.17429840194654 176.66073998680258 0 0 0 0 -96.155254888304626 -87.364227682059209 0 -87.364227682059209 80.283248617398385 0 0 0 0 56.43785633196967 -227.92754875501942 0 -227.92754875501942 75.924744732048566 0 0 0 0 357.2327984105932 -138.55875513372382 0 -138.55875513372382 18.116470707471308 0 0 0 0 146.49360885329588 -102.66886697769451 0 -102.66886697769451 37.398963595313035 0 0 0 0 -25.703449819287925 -185.46297122023407 0 -185.46297122023407 -87.597271690960952 0 0 0 0 -44.5912529941088 -253.6152271050089 0 -253.6152271050089 -321.98491276173445 0 0 0 0 -175.40676212858307 -243.46993277296178 0 -243.46993277296178 164.89751190945753 0 0 0 0 -0.30267176635243231 -269.91096288914741 0 -269.91096288914741 -126.26666876283889 0 0 0 0 -176.02324378188496 -341.79596394363125 0 -341.79596394363125 -100.811573230254 0 0 0 0 -316.34268236036587 -184.44082366928342 0 -184.44082366928342 -82.479435856750683 0 0 0 0 -487.16965594964859 -396.88702239543272 0 -396.88702239543272 -312.77178967608234 0 0 0 0 -917.30224686042493 71.24992817304792 0 71.24992817304792 -1.4044739139808371 0 0 0 0 12.207008420420237 -13.015248713030388 0 -13.015248713030388 5.925620182916493 0 0 0 0 -86.880308835734468 -259.70879147024561 0 -259.70879147024561 -216.8594700987851 0 0 0 0 -556.86969872488407 -87.583550797658063 0 -87.583550797658063 337.25488099487666 0 0 0 0 11.467421064055124 -44.196654942760389 0 -44.196654942760389 40.381266144481017 0 0 0 0 -310.65185016328269 92.127805255692692 0 92.127805255692692 -15.320371369123677 0 0 0 0 0.62099246924323381 -3.3579701348904649 0 -3.3579701348904649 3.1638954365836582 0 0 0 0 137.11195087589658 -186.37707725111613 0 -186.37707725111613 -114.06287698053347 0 0 0 0 -474.6761966623817 -113.40392895388413 0 -113.40392895388413 174.90442188575435 0 0 0 0 -337.20403348761465 -143.48004014477192 0 -143.48004014477192 53.650118856779955 0 0 0 0 12.695557706205868 -46.016581765836982 0 -46.016581765836982 40.643499693047247 0 0 0 0 18.044828192485511 -50.89350194522558 0 -50.89350194522558 51.152410341808718 0 0 0 0 51.668232952522885 -65.111925071787482 0 -65.111925071787482 36.444657568172261 0 0 0 0 109.34384199669876 -59.130312852845236 0 -59.130312852845236 29.626489811153078 0 0 0 0 58.48129722844169 -56.369976744603264 0 -56.369976744603264 34.948570066750108 0 0 0 0 88.994659564647009 -75.736455791913613 0 -75.736455791913613 35.757779206272971 0 0 0 0 85.853175544594706 -78.568644903298264 0 -78.568644903298264 49.86305920293762 0 0 0 0 -2.1888209879450571 -2.0470370942914542 0 -2.0470370942914542 -4.517940440578343 0 0 0 0 -1.2458499127576026 -1.3375571307415157 0 -1.3375571307415157 10.099674107070598 0 0 0 0 102.19883816615766 -29.847773323162983 0 -29.847773323162983 -13.994295606658852 0 0 0 0 102.67645672451181 -84.146280046370521 0 -84.146280046370521 34.606376085630473 0 0 0 0 -26.744689370243577 -46.65782723083521 0 -46.65782723083521 48.013985632707772 0 0 0 0 58.639563520999218 51.283210601162864 0 51.283210601162864 -49.877881012549551 0 0 0 0 68.777065562786447 -41.433527500914352 0 -41.433527500914352 39.372393562160141 0 0 0 0 82.563889888932863 -65.335319180259376 0 -65.335319180259376 45.030245288449805 0 0 0 0 12.953554174973448 -5.7857153567432107 0 -5.7857153567432107 5.9667150885031219 0 0 0 0 40.686833780710003 -73.985516402153735 0 -73.985516402153735 26.689625932413037 0 0 0 0 -53.673448223264131 -53.873208365193932 0 -53.873208365193932 68.548961698548737 0 0 0 0 9.6003504635920685 -33.738884869176665 0 -33.738884869176665 46.088785339863684 0 0 0 0 -30.904551787692981 35.234539497164405 0 35.234539497164405 -10.730482640377886 0 0 0 0 -78.055870264750411 -69.104328655366771 0 -69.104328655366771 58.314408887983518 0 0 0 0 47.851842183556073 112.1849469611152 0 112.1849469611152 -86.633175162565749 0 0 0 0 140.08442366299823 -59.448890858596315 0 -59.448890858596315 -49.517893413045385 0 0 0 0 -85.418736974967032 17.771856358265723 0 17.771856358265723 55.813344253263494 0 0 0 0 23.096523228607111 57.890250995951646 0 57.890250995951646 8.6817183883904363 0 0 0 0 -0.8303292682151806 -1.0831504235906309 0 -1.0831504235906309 5.3184155222059246 0 0 0 0 2.4606937448807003 15.858894375794989 0 15.858894375794989 -76.622775701071077 0 0 0 0 -160.07451148094697 101.1919164001697 0 101.1919164001697 -1.7693241254564782 0 0 0 0 403.86611425356386 -175.22160766281741 0 -175.22160766281741 169.69362653259122 0 0 0 0 -4.9708580301601302 -5.5898446727178452 0 -5.5898446727178452 -2.2677970608108922 0 0 0 0 476.08489904588714 -187.0527393791981 0 -187.0527393791981 141.17481335302 0 0 0 0 432.48868839853094 -155.61098331148605 0 -155.61098331148605 181.49404975811376 0 0 0 0 405.65552995024518 -164.59405951407189 0 -164.59405951407189 68.466535603529337 0 0 0 0 424.27011155225773 -214.92758395063902 0 -214.92758395063902 128.11021855582112 0 0 0 0 -138.11087092699017 58.991063535756439 0 58.991063535756439 12.0831562439962 0 0 0 0 500.8783086754629 -288.55815560175142 0 -288.55815560175142 -20.662016799989942 0 0 0 0 -9.2391144820474906 -10.646225671439353 0 -10.646225671439353 -7.3378079793467208 0 0 0 0 22.547141710354481 -60.11724648992822 0 -60.11724648992822 20.989618672003417 0 0 0 0 -52.751123996371462 -7.5932812803912384 0 -7.5932812803912384 72.082278386671533 0 0 0 0 -72.065096663005534 -44.83880668763959 0 -44.83880668763959 0.29451743076424464 0 0 0 0 -38.539019328349241 26.981618336414613 0 26.981618336414613 23.494976391346427 0 0 0 0 -0.19823091844591545 9.8554993859343085 0 9.8554993859343085 35.96395091605882 0 0 0 0 -24.160564402780437 -15.779878458033636 0 -15.779878458033636 12.852230357386361 0 0 0 0 -40.004762367039802 11.885896066698479 0 11.885896066698479 -22.980963747435453 0 0 0 0 -42.896427499013953 24.47297660296681 0 24.47297660296681 26.790971467933559 0 0 0 0 -98.499752103078208 -8.133304066652272 0 -8.133304066652272 17.07588872051565 0 0 0 0 2.8879152623994742 62.11748968365464 0 62.11748968365464 -46.399537792611227 0 0 0 0 -155.52443926396518 -82.449661360711616 0 -82.449661360711616 -6.9078897770523326 0 0 0 0 -157.13072604975207 14.044871889829921 0 14.044871889829921 37.118079752006452 0 0 0 0 29.485822522947274 -59.123200524607455 0 -59.123200524607455 82.025114460775512 0 0 0 0 -2.5401518554384381 -2.310478771599989 0 -2.310478771599989 3.1528222241780384 0 0 0 0 76.564374670670077 -65.124252859874105 0 -65.124252859874105 13.40951871201014 0 0 0 0 -1.092615270554905 -3.4746121134827206 0 -3.4746121134827206 2.0555109046800482 0 0 0 0 103.21220283842558 -41.989415127203756 0 -41.989415127203756 22.64880434704537 0 0 0 0 95.684765287922346 -69.55085933333612 0 -69.55085933333612 49.315157768585777 0 0 0 0 89.056730861488177 -65.573499611230545 0 -65.573499611230545 -26.442485199993826 0 0 0 0 78.82691856429301 -43.111750984724495 0 -43.111750984724495 28.771590871168883 0 0 0 0 58.882494948830754 -48.39978775266809 0 -48.39978775266809 -14.701137908399687 0 0 0 0 97.862508069185424 -49.06474071174307 0 -49.06474071174307 -15.257628462903085 0 0 0 0 67.347549008125497 -93.79076430448913 0 -93.79076430448913 -47.108281044911564 0 0 0 0 -137.04744824043883 -125.04098793259618 0 -125.04098793259618 27.593521677375975 0 0 0 0 -162.55306026806647 -50.558018711881232 0 -50.558018711881232 18.091192072395643 0 0 0 0 -2.3162885391378012 -1.0905885038423548 0 -1.0905885038423548 1.7260886307087162 0 0 0 0 -6.2030458394310699 -16.932729249731437 0 -16.932729249731437 -24.954401676492125 0 0 0 0 -64.351739896104846 -68.621230074908453 0 -68.621230074908453 -7.0610383248640574 0 0 0 0 5.8807027440416277 26.720932708027249 0 26.720932708027249 -7.9459942189641879 0 0 0 0 8.4904872650536873 -2.8216716304545955 0 -2.8216716304545955 5.2332461002221109 0 0 0 0 -29.899605376311229 -65.399814643777063 0 -65.399814643777063 -11.175863285559899 0 0 0 0 -31.2414037564522 -59.38276636235787 0 -59.38276636235787 -28.250314474797051 0 0 0 0 43.347540872404352 -51.308980928322853 0 -51.308980928322853 -36.509511688425846 0 0 0 0 48.629378673693282 -58.199540867844917 0 -58.199540867844917 -28.76629318742016 0 0 0 0 -32.542913687397231 -104.13722301008238 0 -104.13722301008238 -28.442241381853819 0 0 0 0 93.317978641585796 -38.001623513155209 0 -38.001623513155209 -37.470366188780645 0 0 0 0 95.993435100957868 -52.686633368219191 0 -52.686633368219191 -38.180499200916529 0 0 0 0 123.66550555930007 -70.171295654869027 0 -70.171295654869027 -51.373819823787926 0 0 0 0 185.13306091575942 -83.967006923114241 0 -83.967006923114241 -53.188035316954483 0 0 0 0 136.49257952503467 -11.853306288623571 0 -11.853306288623571 -67.092039359456976 0 0 0 0 4.8584520739381247 1.1706819998849625 0 1.1706819998849625 -1.3888666920745933 0 0 0 0 38.406202548272631 2.4626205094700708 0 2.4626205094700708 -65.918180231201404 0 0 0 0 191.95638877054444 -24.378886795857397 0 -24.378886795857397 -114.98647149678072 0 0 0 0 26.129927424924972 -146.17530304459069 0 -146.17530304459069 -17.407292714378855 0 0 0 0 373.23317177879653 -333.02348851544593 0 -333.02348851544593 82.665161437857023 0 0 0 0 132.79354969073029 -128.95375773927663 0 -128.95375773927663 -17.971341354448668 0 0 0 0 70.418767479692178 -116.11328399777267 0 -116.11328399777267 -16.265252349316142 0 0 0 0 43.250429506682849 -82.053161087982517 0 -82.053161087982517 -9.6109779690377763 0 0 0 0 23.592410608034697 -89.606278258423117 0 -89.606278258423117 -2.5556377042739769 0 0 0 0 45.552764077139727 -71.018940575595479 0 -71.018940575595479 10.25376829310153 0 0 0 0 69.729447160390919 -65.256933179536645 0 -65.256933179536645 -13.152020770474337 0 0 0 0 67.43105889632352 -60.614194017507543 0 -60.614194017507543 4.5297687910788227 0 0 0 0 97.250895120996574 -47.255961401724562 0 -47.255961401724562 -18.601388114075235 0 0 0 0 87.379914589149848 -45.238268633218468 0 -45.238268633218468 21.982627301513276 0 0 0 0 96.120810111904575 -48.680900371909956 0 -48.680900371909956 -18.772870170751048 0 0 0 0 82.079104309777904 -45.412683810103772 0 -45.412683810103772 13.874298773996998 0 0 0 0 85.996868452792114 -63.984732539294782 0 -63.984732539294782 18.859589922165469 0 0 0 0 76.422512379547697 -58.610737560022244 0 -58.610737560022244 64.203497912327293 0 0 0 0 147.97253817554338 -87.104208226934134 0 -87.104208226934134 45.08453057276347 0 0 0 0 82.687076683949272 -68.157061878060631 0 -68.157061878060631 51.36854170170227 0 0 0 0 83.339671017856745 -63.662768929847516 0 -63.662768929847516 37.433277938670471 0 0 0 0 58.929718409352063 -73.705134633088164 0 -73.705134633088164 40.080078009516001 0 0 0 0 47.357520706397736 -49.547422690126041 0 -49.547422690126041 26.415630638162838 0 0 0 0 64.218428304648114 -50.194897877734547 0 -50.194897877734547 30.082312582919258 0 0 0 0 11.977457935514394 -46.426499930426871 0 -46.426499930426871 33.403590095265827 0 0 0 0 -381.43316136005524 -42.377514061304282 0 -42.377514061304282 -20.645079192447156 0 0 0 0 0.99313580673496205 -5.9858722333903955 0 -5.9858722333903955 9.932325864311629 0 0 0 0 -184.7133371100972 -133.62774111769977 0 -133.62774111769977 4.923760118543214 0 0 0 0 -359.23190326339318 -91.560502535183332 0 -91.560502535183332 59.395684290937425 0 0 0 0 -206.6056183729961 -110.67018730069867 0 -110.67018730069867 -16.663609066425124 0 0 0 0 12.922746855729962 -46.378359825804083 0 -46.378359825804083 38.332926263949048 0 0 0 0 -16.263086637985907 -73.227596962829921 0 -73.227596962829921 30.830541502095002 0 0 0 0 16.400112002520473 -67.192114886278432 0 -67.192114886278432 12.194339540154033 0 0 0 0 12.472250727333634 -46.175642781393542 0 -46.175642781393542 36.324210543216395 0 0 0 0 -107.06143509055255 -85.559208102029515 0 -85.559208102029515 43.859129202213808 0 0 0 0 -31.491581202171801 -128.51511913575268 0 -128.51511913575268 37.006638866845606 0 0 0 0 27.306217473462311 -155.52548487323065 0 -155.52548487323065 48.751889551247586 0 0 0 0 -192.31722027150681 -36.665205296892964 0 -36.665205296892964 156.33352453672342 0 0 0 0 -338.39453280442831 -15.506247468343645 0 -15.506247468343645 42.099174156268418 0 0 0 0 1.2339638357517799 -7.272266792152891 0 -7.272266792152891 12.660468092063525 0 0 0 0 -203.39390242577156 -68.600235583649464 0 -68.600235583649464 -57.403125541299232 0 0 0 0 842.1567459497237 -212.24529833713677 0 -212.24529833713677 -393.53645508619775 0 0 0 0 -509.67828600821667 103.89067721709398 0 103.89067721709398 785.57161935843033 0 0 0 0 1.48375626822234 -5.6479690839718302 0 -5.6479690839718302 5.5609620492782454 0 0 0 0 394.96401801957836 -273.37244282710344 0 -273.37244282710344 -243.72300937004911 0 0 0 0 498.2993559756942 -394.49023180822405 0 -394.49023180822405 -109.14581792376703 0 0 0 0 -425.14385093040619 -94.060854334801661 0 -94.060854334801661 198.23428554978454 0 0 0 0 56.228066395597125 -14.301450878439937 0 -14.301450878439937 -2.7732245061524736 0 0 0 0 256.70595482111457 -282.6143121236255 0 -282.6143121236255 82.925678820101894 0 0 0 0 -36.966246439238603 -12.622919237070164 0 -12.622919237070164 11.087049957328418 0 0 0 0 419.89467962297567 101.37035101075253 0 101.37035101075253 -30.171689802045876 0 0 0 0 9.4453933029207633 -0.79904627536313733 0 -0.79904627536313733 -0.46085653753390687 0 0 0 0 32.158953052807192 -158.11298944248301 0 -158.11298944248301 585.6392217215307 0 0 0 0 234.34594589526387 -218.80362228614013 0 -218.80362228614013 -105.58475509805066 0 0 0 0 381.18342972387472 -441.6001170899799 0 -441.6001170899799 184.24598984397926 0 0 0 0 213.88754267295735 -185.46794192374909 0 -185.46794192374909 -74.863698383191149 0 0 0 0 401.01818981135148 -121.48263836266233 0 -121.48263836266233 -183.74343976051023 0 0 0 0 59.200876154616708 91.711534877575104 0 91.711534877575104 -228.61092543308996 0 0 0 0 88.381679056874418 -79.687955132776551 0 -79.687955132776551 -195.87949342868524 0 0 0 0 241.70662966298187 -204.50661029716321 0 -204.50661029716321 -128.98320056241937 0 0 0 0 170.42767917628225 -212.40192364085669 0 -212.40192364085669 -118.63850886537875 0 0 0 0 253.16810350923333 -165.06856166841499 0 -165.06856166841499 -110.53139886674762 0 0 0 0 19.77436136657343 -99.62510204782302 0 -99.62510204782302 25.848377593509213 0 0 0 0 24.308340703399153 -82.235016190843453 0 -82.235016190843453 16.636670567237161 0 0 0 0 25.849127187917475 -69.160411654524069 0 -69.160411654524069 42.797248886759007 0 0 0 0 50.385710915226809 -114.55238354730955 0 -114.55238354730955 33.344627060170751 0 0 0 0 -13.422731545710121 -60.211867164023715 0 -60.211867164023715 -4.3881025656373822 0 0 0 0 -48.357875990028333 -62.852342223059622 0 -62.852342223059622 84.1626113738821 0 0 0 0 -36.189005827614892 -98.508226235199345 0 -98.508226235199345 -29.776816742676601 0 0 0 0 -8.5866984786576666 -7.1109625342774621 0 -7.1109625342774621 3.8168318406037542 0 0 0 0 17.070488902987563 -15.550508612661361 0 -15.550508612661361 57.411889398437779 0 0 0 0 6.803496107982113 3.7414709700396216 0 3.7414709700396216 -3.1132146328175807 0 0 0 0 126.13034631764458 59.566698045375233 0 59.566698045375233 -447.69971271710529 0 0 0 0 0.095630653348052874 -6.0570134886093001 0 -6.0570134886093001 165.53408253639645 0 0 0 0 -3.6888152214305592 -190.93379257295601 0 -190.93379257295601 -204.17910754407785 0 0 0 0 41.31223889982175 -88.900506143243547 0 -88.900506143243547 -47.742675523797516 0 0 0 0 125.99251479316445 -329.30590286801907 0 -329.30590286801907 376.00319067802775 0 0 0 0 333.29996705093072 196.17333958410745 0 196.17333958410745 -207.70834145598201 0 0 0 0 44.762275777397008 -537.53060684010234 0 -537.53060684010234 -23.227209198812488 0 0 0 0 -40.251570609598275 -39.976091908221861 0 -39.976091908221861 71.14137427269452 0 0 0 0 16.59950258275785 -14.073777299301582 0 -14.073777299301582 -3.6585867433859676 0 0 0 0 -3.9291900685340977 -5.9963592475822765 0 -5.9963592475822765 4.4793523184239685 0 0 0 0 188.09395511211551 -168.27245653377759 0 -168.27245653377759 -554.54933960892959 0 0 0 0 14.162493415648555 -4.2040514758451835 0 -4.2040514758451835 -0.33345404479241125 0 0 0 0 -18.220061822674325 -35.293906728329603 0 -35.293906728329603 8.5870742649385647 0 0 0 0 5.3832902327123797 -23.728575353346173 0 -23.728575353346173 13.49696658950532 0 0 0 0 1.9241449102264596 -16.029964876863232 0 -16.029964876863232 -3.801330382051674 0 0 0 0 28.310293035506817 -22.984066082732781 0 -22.984066082732781 9.9704301252845617 0 0 0 0 16.168474753961771 -46.186292855590061 0 -46.186292855590061 34.48707828684617 0 0 0 0 -5.1683870947454125 -398.00394663639599 0 -398.00394663639599 -334.70287059196562 0 0 0 0 -284.94494704833778 -160.99686621237197 0 -160.99686621237197 -29.699842511385214 0 0 0 0 -249.55504057278085 -91.228068108904154 0 -91.228068108904154 94.259710512662423 0 0 0 0 -243.67674398125382 -286.61747927580291 0 -286.61747927580291 321.99173706063812 0 0 0 0 -7.4467276482334483 -7.3280512854487583 0 -7.3280512854487583 8.5618171207980396 0 0 0 0 -149.50400668186194 29.888529689229472 0 29.888529689229472 22.72654633858474 0 0 0 0 -115.94076194378613 -2.2606641606098492 0 -2.2606641606098492 53.07167863912764 0 0 0 0 -278.29238468447147 24.523424421902746 0 24.523424421902746 113.79292457324482 0 0 0 0 -66.60457791020599 -154.94488587499654 0 -154.94488587499654 -55.419118519072072 0 0 0 0 -0.9701147727783308 -11.442735642752723 0 -11.442735642752723 4.970444233192608 0 0 0 0 -41.459201936786485 -25.529347940776915 0 -25.529347940776915 64.964606748944789 0 0 0 0 9.389216568088159 -111.95569547680498 0 -111.95569547680498 -123.13353498706601 0 0 0 0 -60.041558488403098 -149.57349023944698 0 -149.57349023944698 -10.373146592784906 0 0 0 0 -50.546198302801713 -93.594863983127652 0 -93.594863983127652 -30.01558005521656 0 0 0 0 -70.293004960869439 -43.934253045194055 0 -43.934253045194055 133.96083889180227 0 0 0 0 0.4619017315372389 -11.150640369840723 0 -11.150640369840723 6.0438006266924731 0 0 0 0 -66.677456568804701 -77.009050202585058 0 -77.009050202585058 -7.1308665115793701 0 0 0 0 10.313942167542848 -30.536686618736645 0 -30.536686618736645 10.754474675414258 0 0 0 0 -31.051813689533446 -24.425265396901523 0 -24.425265396901523 40.928964016406098 0 0 0 0 -28.537978658601787 -55.528992466322961 0 -55.528992466322961 6.2900261998584028 0 0 0 0 10.622454475843497 -35.813853374459597 0 -35.813853374459597 14.157869981036072 0 0 0 0 -41.339239659093437 -74.271523107840039 0 -74.271523107840039 -20.584513758018147 0 0 0 0 -69.511510371790791 -43.07513505399038 0 -43.07513505399038 80.372176783086616 0 0 0 0 -57.458778888711095 -55.58177908738071 0 -55.58177908738071 29.052467087964942 0 0 0 0 -53.272310152833597 -77.308474553599808 0 -77.308474553599808 -7.657328069639334 0 0 0 0 -57.08011224040456 -72.853282194038911 0 -72.853282194038911 26.797311910879216 0 0 0 0 25.214571095631982 -115.95976514869108 0 -115.95976514869108 61.665268507149449 0 0 0 0 -21.176697170412808 -51.386159798636072 0 -51.386159798636072 -25.56842000818142 0 0 0 0 -57.696080217290728 -89.404635134080308 0 -89.404635134080308 44.794696789334921 0 0 0 0 -58.407574457178271 -47.098105551220215 0 -47.098105551220215 49.257563165320335 0 0 0 0 -3.4333326883715927 -57.872887674377125 0 -57.872887674377125 44.669218165920029 0 0 0 0 19.414376300832373 -115.87001130848876 0 -115.87001130848876 139.82441193402337 0 0 0 0 65.073973846676381 -56.52362921742224 0 -56.52362921742224 -19.498556247774104 0 0 0 0 191.90088250862027 -131.72324428406864 0 -131.72324428406864 19.854498082699138 0 0 0 0 2.2018857224848034 5.5580729388721011 0 5.5580729388721011 -93.351011938022566 0 0 0 0 168.94317190576112 -114.23984218905753 0 -114.23984218905753 -43.144994429050712 0 0 0 0 -59.661406991475815 -125.59847521920528 0 -125.59847521920528 -16.753222355240723 0 0 0 0 -28.261075655467721 -117.73966245451447 0 -117.73966245451447 -165.09496062467952 0 0 0 0 7.0305778137981321 -1.6292311761648932 0 -1.6292311761648932 0.077875229047336347 0 0 0 0 -25.73853141983227 151.69827581920936 0 151.69827581920936 167.83687583087885 0 0 0 0 -260.37847370039162 -10.949584895548469 0 -10.949584895548469 141.43869359865494 0 0 0 0 164.21224620803696 104.51739131303657 0 104.51739131303657 -56.651904183199804 0 0 0 0 -194.72777207015042 -209.66324094608899 0 -209.66324094608899 341.80940719962382 0 0 0 0 255.01212729887629 -235.40470349433963 0 -235.40470349433963 280.04003006088897 0 0 0 0 212.12653070150554 -168.49874700268083 0 -168.49874700268083 391.74897496384801 0 0 0 0 2.843442713395163 -0.55301043641415504 0 -0.55301043641415504 -0.19710696191258137 0 0 0 0 243.19401688854123 -99.677120827494946 0 -99.677120827494946 -221.82609456056889 0 0 0 0 307.07277256693851 -269.65114097643982 0 -269.65114097643982 14.170560216771264 0 0 0 0 41.849669035313127 -176.12787055274384 0 -176.12787055274384 333.71817751240815 0 0 0 0 -28.68345173043781 63.833438537954862 0 63.833438537954862 195.74906332132377 0 0 0 0 -64.355492012455215 18.741283918752742 0 18.741283918752742 89.873774853964278 0 0 0 0 1.595021237961177 -8.3706460903099256 0 -8.3706460903099256 31.394351729293248 0 0 0 0 10.952928342831001 -103.26504154581198 0 -103.26504154581198 87.879608514867869 0 0 0 0 0.73332042718720913 -53.333002708362983 0 -53.333002708362983 30.974510887775978 0 0 0 0 186.31211044624797 -97.706041060471762 0 -97.706041060471762 -81.763232990364486 0 0 0 0 158.04521347314585 -89.122072266241958 0 -89.122072266241958 -11.856114206668281 0 0 0 0 183.24843579710432 -74.064176650408626 0 -74.064176650408626 39.605143621418392 0 0 0 0 274.00101713717959 -84.842096495973237 0 -84.842096495973237 -26.043114011132275 0 0 0 0 -211.26130019527591 -52.408817980761341 0 -52.408817980761341 45.729790113728086 0 0 0 0 1.5662617753554677 -6.43018285403042 0 -6.43018285403042 19.358913134089079 0 0 0 0 -154.44022455306731 71.731018775538359 0 71.731018775538359 183.63109740410437 0 0 0 0 756.27836519682023 -192.7765348744615 0 -192.7765348744615 4.6365374172237352 0 0 0 0 0.97963790676742057 -2.5117940975418733 0 -2.5117940975418733 6.4860870612721442 0 0 0 0 19.698511966180376 -185.51347775774775 0 -185.51347775774775 256.54160674140439 0 0 0 0 477.9008838933114 -72.662928493671643 0 -72.662928493671643 34.509793977042136 0 0 0 0 379.67749661792914 -313.95292704067833 0 -313.95292704067833 248.71450865596853 0 0 0 0 -175.90333968985215 -28.581666475531165 0 -28.581666475531165 319.61047020363185 0 0 0 0 660.46512444712062 -266.45357833706657 0 -266.45357833706657 -482.59314509906108 0 0 0 0 -264.50170461089147 -83.915290607365023 0 -83.915290607365023 320.65767826217416 0 0 0 0 34.477567337193662 -42.773649614310273 0 -42.773649614310273 18.15789829592854 0 0 0 0 -0.31854229979944648 -99.836453979660291 0 -99.836453979660291 -87.911767661640624 0 0 0 0 -16.067827659093382 -127.47379315081162 0 -127.47379315081162 0.24609290280932328 0 0 0 0 14.482993309029553 -85.990012093163386 0 -85.990012093163386 -78.048946700982924 0 0 0 0 16.300732044414488 -36.437782663527088 0 -36.437782663527088 17.071942658603305 0 0 0 0 56.997264416753751 0.22768765631553833 0 0.22768765631553833 -259.74503550147347 0 0 0 0 7.8975606222202259 -80.754358918456091 0 -80.754358918456091 -13.917710365487437 0 0 0 0 3.7478821961303765 -74.286665637155238 0 -74.286665637155238 -0.095463302052241558 0 0 0 0 -14.35919978854804 -8.4858538006998288 0 -8.4858538006998288 -31.126612731590285 0 0 0 0 -13.854190966274473 -25.169562109076651 0 -25.169562109076651 -108.94257603045844 0 0 0 0 -47.058819617515837 -17.850946360875241 0 -17.850946360875241 2.6381199353127158 0 0 0 0 -35.0047467635668 -19.916533301475283 0 -19.916533301475283 2.4781393904272591 0 0 0 0 -41.857749573242472 93.643945615422126 0 93.643945615422126 58.805049212474842 0 0 0 0 9.1659613952033396 115.10922698790455 0 115.10922698790455 -149.20844818534169 0 0 0 0 -33.288112900147098 -48.76539975749256 0 -48.76539975749256 135.91700935366316 0 0 0 0 -6.5296312560762999 -51.590042966655346 0 -51.590042966655346 99.992944852332585 0 0 0 0 -53.988511983216085 -7.3348130997328553 0 -7.3348130997328553 67.700527355031227 0 0 0 0 -48.895584500332916 -66.785377967033128 0 -66.785377967033128 87.99270963876188 0 0 0 0 -48.646681529542548 -23.579472712764982 0 -23.579472712764982 39.565759384064677 0 0 0 0 -61.871751367272736 -53.489928287408475 0 -53.489928287408475 37.481330451810209 0 0 0 0 -57.927905547228875 -44.885715087242716 0 -44.885715087242716 21.302387279378308 0 0 0 0 -55.114886666208804 -51.778676606122644 0 -51.778676606122644 13.638947019790066 0 0 0 0 9.9478230283493634 -33.161698628046707 0 -33.161698628046707 10.446460322048097 0 0 0 0 -41.759872435093712 -37.314615619019605 0 -37.314615619019605 2.3137731519809677 0 0 0 0 -51.175886482600617 -35.684271139518387 0 -35.684271139518387 2.7014543955410772 0 0 0 0 -26.870923915448657 -39.708730606969766 0 -39.708730606969766 -27.990772232347808 0 0 0 0 -16.179213398605498 -31.972947323949484 0 -31.972947323949484 -61.13052971223442 0 0 0 0 -35.359144583054331 -23.851753441647588 0 -23.851753441647588 -26.691097325179726 0 0 0 0 -6.2163287040958153 -31.69505324396458 0 -31.69505324396458 11.399278544102202 0 0 0 0 0.41137001963188879 -2.6409321767691836 0 -2.6409321767691836 6.1195368052559331 0 0 0 0 -7.97585283821536 -20.037039991097117 0 -20.037039991097117 0.021783072401402037 0 0 0 0 -64.993103553933906 -16.094347309161094 0 -16.094347309161094 58.708696590918407 0 0 0 0 -14.692583465366624 -15.496629380329978 0 -15.496629380329978 -0.013956850695891249 0 0 0 0 -8.061952957418498 -18.774752913834618 0 -18.774752913834618 -3.2778171621757792 0 0 0 0 5.88008756844647 -27.084417042067798 0 -27.084417042067798 -1.3643611862935359 0 0 0 0 -2.3310249959050537 -15.323538944631537 0 -15.323538944631537 -2.436423676348987 0 0 0 0 -27.224241305986766 -44.005377322805089 0 -44.005377322805089 -26.8687202868241 0 0 0 0 -16.848334689984085 -30.52463117789037 0 -30.52463117789037 -10.825441544440608 0 0 0 0 -46.845233487771111 -49.511052796740842 0 -49.511052796740842 -18.816440510840039 0 0 0 0 8.1125596937869169 -40.851586245503825 0 -40.851586245503825 3.3210940865037628 0 0 0 0 161.95260235527167 -64.04338032177111 0 -64.04338032177111 -49.045746846164548 0 0 0 0 15.066973929335404 -31.750350524525501 0 -31.750350524525501 -43.011168469938923 0 0 0 0 3.1698562282270188 -13.952130546175226 0 -13.952130546175226 -26.492015466914012 0 0 0 0 -37.889848294517833 -52.074990489116317 0 -52.074990489116317 -34.147097750421381 0 0 0 0 232.9489146772321 23.737595415143005 0 23.737595415143005 -75.505519767430087 0 0 0 0 1.0303915992317343 -17.927386636934898 0 -17.927386636934898 54.803188271573163 0 0 0 0 -0.13238977334432889 -3.09893279883849 0 -3.09893279883849 -1.015342704051605 0 0 0 0 -2.425679318411575 -0.72163240536438167 0 -0.72163240536438167 -0.21457567146620704 0 0 0 0 411.56955257832306 -130.25315585345379 0 -130.25315585345379 0.24318705475640848 0 0 0 0 174.13607390773541 -216.43972970188042 0 -216.43972970188042 45.289899898802105 0 0 0 0 338.77596158542292 -172.93869813335186 0 -172.93869813335186 -52.576114760711789 0 0 0 0 115.56583167870849 -112.29779394148136 0 -112.29779394148136 -63.042290475474147 0 0 0 0 34.121754659504404 -63.875966637256624 0 -63.875966637256624 5.8050837782284361 0 0 0 0 0.56613772181299282 -58.500654846830002 0 -58.500654846830002 5.057161020447893 0 0 0 0 -16.195807631349453 -68.276422333889059 0 -68.276422333889059 8.2944678368221503 0 0 0 0 -13.810241013429504 -67.530552881783365 0 -67.530552881783365 1.4491902591180406 0 0 0 0 29.484256623451074 -69.129579835673212 0 -69.129579835673212 -1.8426242139903479 0 0 0 0 30.592670335641742 -69.689568210460493 0 -69.689568210460493 -16.418867727756151 0 0 0 0 24.142950745474081 -75.651228009253828 0 -75.651228009253828 -17.790885894850362 0 0 0 0 -252.89116484970964 -430.39517024905945 0 -430.39517024905945 -214.86493972092285 0 0 0 0 -50.614350370746251 -247.04885795662994 0 -247.04885795662994 -98.792704313775175 0 0 0 0 -184.00913188493723 -500.76264457382058 0 -500.76264457382058 -317.72427533654263 0 0 0 0 125.75680276551066 4.570053249670309 0 4.570053249670309 48.684844177041668 0 0 0 0 75.759910068674799 -241.64881137460179 0 -241.64881137460179 -257.05313811014639 0 0 0 0 21.799662236057884 -62.218148269179437 0 -62.218148269179437 7.3947360546153504 0 0 0 0 -10.125100623515209 -219.02633810465341 0 -219.02633810465341 -180.5963873321889 0 0 0 0 4.3967230157504673 -93.227725449265563 0 -93.227725449265563 77.273848230019212 0 0 0 0 25.673848742690097 19.786514723222353 0 19.786514723222353 84.916314953237816 0 0 0 0 -92.231146771278873 -87.915947805231554 0 -87.915947805231554 106.59842924983786 0 0 0 0 -50.001519290856777 -213.43256152294634 0 -213.43256152294634 -110.0968398215191 0 0 0 0 73.853963114441285 -93.298970062645822 0 -93.298970062645822 -37.286072123381018 0 0 0 0 -195.36858808364332 -69.414579091457199 0 -69.414579091457199 108.00885458923585 0 0 0 0 -358.57827808435559 -400.86902774911869 0 -400.86902774911869 -108.6981418011128 0 0 0 0 -275.72652953516956 -400.09852312538351 0 -400.09852312538351 -159.29439103415643 0 0 0 0 -144.52311721216756 -216.02510207784508 0 -216.02510207784508 -49.559181791555602 0 0 0 0 -260.4955496756171 -412.97202687155368 0 -412.97202687155368 -251.12487792823231 0 0 0 0 -376.53544000614966 -613.43075280096673 0 -613.43075280096673 -335.55719806756679 0 0 0 0 -727.80991523612124 -668.14940905726689 0 -668.14940905726689 -300.59568269627925 0 0 0 0 -539.8165392514012 -410.5458083500198 0 -410.5458083500198 -273.85120950252895 0 0 0 0 -636.73276996386312 -643.33575545877829 0 -643.33575545877829 -656.19218097263365 0 0 0 0 -391.69592487680234 -583.84489170664165 0 -583.84489170664165 -472.82283102322981 0 0 0 0 -392.82042628075624 -481.20299806637195 0 -481.20299806637195 -185.39181578534772 0 0 0 0 -247.7409478975369 -449.34018725196074 0 -449.34018725196074 -352.57388900871592 0 0 0 0 7.1605326466124097 3.3657316583266947 0 3.3657316583266947 -269.5291901279561 0 0 0 0 -365.00114887728091 34.190925781059377 0 34.190925781059377 147.62873867894814 0 0 0 0 -66.02008027783188 116.60501613284578 0 116.60501613284578 -112.96522809485032 0 0 0 0 -2.8789670930009494 -6.8294241363358594 0 -6.8294241363358594 7.1629042131989991 0 0 0 0 -365.99410425438873 -666.68152564865159 0 -666.68152564865159 -722.98331943311496 0 0 0 0 59.152205450410293 -632.67721214073754 0 -632.67721214073754 -779.03545075841248 0 0 0 0 -443.5806993209269 -447.36038707918487 0 -447.36038707918487 13.217541511665331 0 0 0 0 -113.8183850763703 -509.1305146682389 0 -509.1305146682389 557.01761292511947 0 0 0 0 208.67712147853854 -187.00861680679373 0 -187.00861680679373 104.15431053158682 0 0 0 0 -120.79938399733146 33.203459973585268 0 33.203459973585268 540.77443570148898 0 0 0 0 299.88514513054622 -493.48029943666188 0 -493.48029943666188 655.04913869596203 0 0 0 0 -8.3103995179225816 -13.423965168242262 0 -13.423965168242262 11.103970982511925 0 0 0 0 -97.935498321694467 -279.38012214439368 0 -279.38012214439368 292.05369017393969 0 0 0 0 -29.970811022700374 -25.304556545394121 0 -25.304556545394121 2.6181372813518635 0 0 0 0 53.014461539415151 -266.38373352698181 0 -266.38373352698181 688.92847780318698 0 0 0 0 -18.639631108527738 -195.1642216309956 0 -195.1642216309956 362.78241228873958 0 0 0 0 -58.302954473266254 -194.71901060910022 0 -194.71901060910022 421.78396452667948 0 0 0 0 6.5311123199917347 8.2661354210722493 0 8.2661354210722493 117.04239365772082 0 0 0 0 72.164796915832468 -30.481570548239688 0 -30.481570548239688 57.41511657628871 0 0 0 0 -103.39661824762393 -2.539597012080776 0 -2.539597012080776 132.42307711965259 0 0 0 0 -10.672802714256107 -18.311934484211477 0 -18.311934484211477 55.954535989233307 0 0 0 0 142.60680236958069 -185.49369498863234 0 -185.49369498863234 257.477691707958 0 0 0 0 -16.161670986245554 -33.068667213854496 0 -33.068667213854496 280.7879567889031 0 0 0 0 13.595720927825369 -22.218974845403864 0 -22.218974845403864 131.59736313021858 0 0 0 0 -0.62119711846867132 -8.4640957478863612 0 -8.4640957478863612 5.5731038888433773 0 0 0 0 21.400384250669049 -81.396864063419343 0 -81.396864063419343 189.94555843419221 0 0 0 0 8.5033713689099386 -68.7331897327349 0 -68.7331897327349 82.641547400417039 0 0 0 0 123.71203732335471 -34.358140397343959 0 -34.358140397343959 102.34423093192163 0 0 0 0 37.274888566840488 -36.243163888418124 0 -36.243163888418124 11.462681289222481 0 0 0 0 18.297162037555761 -52.508847493138106 0 -52.508847493138106 79.837513858613704 0 0 0 0 28.141943691588494 -74.200132039935852 0 -74.200132039935852 196.16773442549311 0 0 0 0 23.720622231767244 -59.35410610781561 0 -59.35410610781561 76.471814028078086 0 0 0 0 -18.079084008781138 -34.020942899169313 0 -34.020942899169313 78.458795567752531 0 0 0 0 20.999223349520889 -50.662292995770258 0 -50.662292995770258 60.939110765357327 0 0 0 0 -71.667603819021679 -204.19037183556247 0 -204.19037183556247 14.429176437130081 0 0 0 0 34.164229379384778 -219.36855480688973 0 -219.36855480688973 -86.701308422763759 0 0 0 0 -8.8062975639513752 -132.7171039081295 0 -132.7171039081295 52.255733382131439 0 0 0 0 127.33041954190412 -149.961575183479 0 -149.961575183479 -50.103259190196695 0 0 0 0 2.9136287505407807 -22.140744875749704 0 -22.140744875749704 -34.243332192487856 0 0 0 0 115.35685733118089 -16.671911413566249 0 -16.671911413566249 -135.85408383075992 0 0 0 0 22.749189471534919 -20.127089506524499 0 -20.127089506524499 -69.007502729960834 0 0 0 0 3.892198995405451 -0.069874570778779344 0 -0.069874570778779344 -5.1836524295336659 0 0 0 0 -24.923782523983391 11.565466440635646 0 11.565466440635646 -47.595820474889479 0 0 0 0 28.118771564120834 -90.228043568873545 0 -90.228043568873545 139.72567883171359 0 0 0 0 67.382882350782893 -31.739951864614341 0 -31.739951864614341 203.41911560026347 0 0 0 0 58.993684326167568 -66.491967891299282 0 -66.491967891299282 67.021625270215736 0 0 0 0 63.202520292077679 -96.186742500460241 0 -96.186742500460241 77.447869765353971 0 0 0 0 41.943897353710781 -86.57065338724351 0 -86.57065338724351 108.34699210086546 0 0 0 0 37.825390604717541 -73.010532024694839 0 -73.010532024694839 76.638590748796105 0 0 0 0 35.384853443902102 -59.691895374635351 0 -59.691895374635351 113.38812599927769 0 0 0 0 14.35512992889926 -78.765063587903569 0 -78.765063587903569 89.488594990951242 0 0 0 0 48.604968597464904 -67.017895893004606 0 -67.017895893004606 73.990559518118971 0 0 0 0 -27.091346868342953 -25.91450295195682 0 -25.91450295195682 42.742396958383324 0 0 0 0 7.6492221483786125 -58.587951003442868 0 -58.587951003442868 58.488224846689263 0 0 0 0 23.209540317855385 -42.366695895399374 0 -42.366695895399374 12.322277322295093 0 0 0 0 -0.52379848227643322 -2.761914398994449 0 -2.761914398994449 5.613923603834337 0 0 0 0 2.9587745289267318 -13.958607574501457 0 -13.958607574501457 39.628548556224189 0 0 0 0 17.939827659087314 -28.355109310839907 0 -28.355109310839907 -34.081693829382857 0 0 0 0 56.10860182594115 -187.51812533029442 0 -187.51812533029442 191.69352459180664 0 0 0 0 -113.17793181334855 -120.45652095913556 0 -120.45652095913556 105.5978179644153 0 0 0 0 1.3030757960004422 -0.37941892967353397 0 -0.37941892967353397 0.28410302854496905 0 0 0 0 -32.595814080661512 -171.45784520104644 0 -171.45784520104644 318.2096039800017 0 0 0 0 37.63910969193239 -16.530424053918978 0 -16.530424053918978 -190.3158714480378 0 0 0 0 -57.454839228194032 -43.722591597768769 0 -43.722591597768769 56.865870155328594 0 0 0 0 44.761290196838672 -135.10424374513241 0 -135.10424374513241 122.58674496662934 0 0 0 0 54.107810732643429 -69.564392144144222 0 -69.564392144144222 17.684477380797034 0 0 0 0 -237.20234163438818 -48.060739985574401 0 -48.060739985574401 95.297575207267073 0 0 0 0 -60.050531491448055 -58.99341229109632 0 -58.99341229109632 -15.741304742768989 0 0 0 0 -109.97776051046458 10.985276663457626 0 10.985276663457626 17.22442746878005 0 0 0 0 7.4543468644187669 -30.444953057871317 0 -30.444953057871317 21.388093891741846 0 0 0 0 23.253331510128191 -75.940898485077923 0 -75.940898485077923 15.739933828481298 0 0 0 0 17.952351365483992 -75.809444198506753 0 -75.809444198506753 65.942566291632829 0 0 0 0 -73.503166231806972 -72.462386386316211 0 -72.462386386316211 36.040789603786834 0 0 0 0 1.5944569472994772 -37.730515759943955 0 -37.730515759943955 29.389145375366752 0 0 0 0 70.002484366796125 -52.32154772314243 0 -52.32154772314243 67.979012161814808 0 0 0 0 24.015580669129122 -57.991477200874215 0 -57.991477200874215 68.715010730840731 0 0 0 0 48.92460813546495 -79.746632254085853 0 -79.746632254085853 76.79668778245923 0 0 0 0 54.047801107586565 -74.579229520930312 0 -74.579229520930312 57.583166774536949 0 0 0 0 58.707412290161301 -65.835599052814359 0 -65.835599052814359 63.915395751006145 0 0 0 0 61.579560980499082 -67.88350625809835 0 -67.88350625809835 36.03709704697394 0 0 0 0 52.170240353283589 -51.072639360601897 0 -51.072639360601897 37.63533250362525 0 0 0 0 16.29796752074617 -65.477812908229225 0 -65.477812908229225 49.168881180572498 0 0 0 0 53.479066876723664 -59.016244603895757 0 -59.016244603895757 74.943153040600009 0 0 0 0 12.990433485676951 -43.854243807099948 0 -43.854243807099948 78.923327243088494 0 0 0 0 63.195824925391207 -44.100762335210675 0 -44.100762335210675 83.379018506340799 0 0 0 0 61.224981910512724 -65.573987686253531 0 -65.573987686253531 56.136583704254008 0 0 0 0 -164.54508023268932 0.18404508210551285 0 0.18404508210551285 96.594490906281862 0 0 0 0 109.74302034684297 -31.987242272691219 0 -31.987242272691219 66.015330054629885 0 0 0 0 15.969926834253533 -47.713626948337769 0 -47.713626948337769 75.788822828761397 0 0 0 0 85.742584926520067 -52.044836671371741 0 -52.044836671371741 84.502908042893978 0 0 0 0 82.505124848416017 -28.012020113172184 0 -28.012020113172184 80.640827738403459 0 0 0 0 77.287437971546751 -47.264095123544394 0 -47.264095123544394 60.294629679687205 0 0 0 0 30.014230557448172 -15.570673516929673 0 -15.570673516929673 79.323682495389221 0 0 0 0 47.701831579375721 -34.619084627061966 0 -34.619084627061966 77.849986682726012 0 0 0 0 48.101195576863688 -46.579235510104468 0 -46.579235510104468 64.742668549602968 0 0 0 0 -186.22977649881341 -295.70585026842673 0 -295.70585026842673 -448.10839070955262 0 0 0 0 57.614403700850964 -50.274370227653151 0 -50.274370227653151 22.40918962930219 0 0 0 0 42.278526620790217 -34.136264157845289 0 -34.136264157845289 105.35884188294585 0 0 0 0 -52.31839971683803 -399.85769331242773 0 -399.85769331242773 -645.39061358066101 0 0 0 0 -407.80827652814696 -616.39180638146354 0 -616.39180638146354 -580.90842112592509 0 0 0 0 -462.90292729345674 -478.23451033473248 0 -478.23451033473248 -1057.6810755436018 0 0 0 0 -227.9028973601944 -716.61262054755935 0 -716.61262054755935 -1216.3579715786909 0 0 0 0 6.9873907961040089 -10.321952836081167 0 -10.321952836081167 -3.8977963013128374 0 0 0 0 381.33450946786616 -511.38494599226397 0 -511.38494599226397 -1126.209703450324 0 0 0 0 -130.71474092931385 3.771611226224195 0 3.771611226224195 25.878886189664627 0 0 0 0 -120.235607785909 -54.173745093001799 0 -54.173745093001799 84.902161290992808 0 0 0 0 1.4876481808969402 -37.816738912835717 0 -37.816738912835717 67.999387555180874 0 0 0 0 13.887813216300856 -65.898492321368394 0 -65.898492321368394 83.17012531527871 0 0 0 0 46.786200873111298 -46.111578334117439 0 -46.111578334117439 19.131925545028054 0 0 0 0 -183.19394460357944 -171.42227495223051 0 -171.42227495223051 26.672096634796617 0 0 0 0 53.876510022610091 -98.32571263243517 0 -98.32571263243517 -187.54704883441445 0 0 0 0 -48.647599046842515 -138.18627842846035 0 -138.18627842846035 -183.25910316877344 0 0 0 0 36.482713131566925 -129.42796119246486 0 -129.42796119246486 -408.29065329802688 0 0 0 0 -304.31887365960392 -468.85334055752537 0 -468.85334055752537 -304.33572089383961 0 0 0 0 -56.009870309428152 -209.97446512277929 0 -209.97446512277929 -167.72715308651095 0 0 0 0 -146.71061485257269 -245.84493153211952 0 -245.84493153211952 -1.3939300165729946 0 0 0 0 -416.73246914583569 -477.61212444612102 0 -477.61212444612102 -369.92169425130123 0 0 0 0 -341.90112825588892 -511.68001320282582 0 -511.68001320282582 -478.54193437914364 0 0 0 0 -6.3622993393080591 -1.8009329255297502 0 -1.8009329255297502 3.3756182303644096 0 0 0 0 -343.6783579943193 -319.65828747219689 0 -319.65828747219689 -478.69994630030124 0 0 0 0 -142.35786376347096 -404.5372537160365 0 -404.5372537160365 -482.28445693357753 0 0 0 0 -230.83983209644612 -146.54237063604523 0 -146.54237063604523 -0.39990377888898365 0 0 0 0 -193.2952642532764 -578.82207026511605 0 -578.82207026511605 -690.24177113080805 0 0 0 0 -3.8918131928769526 -1.8449300358339542 0 -1.8449300358339542 2.6552659920482142 0 0 0 0 -366.07968644536095 -357.54282388597494 0 -357.54282388597494 -299.10581481704139 0 0 0 0 -550.4001659050009 -319.86706488678283 0 -319.86706488678283 -0.19215878718387103 0 0 0 0 -628.40821912058345 -456.85325312525674 0 -456.85325312525674 -158.29800254128349 0 0 0 0 -659.47999521951124 -522.79152552040978 0 -522.79152552040978 -287.04357419078588 0 0 0 0 -525.23476023928379 -391.97917960795166 0 -391.97917960795166 -365.219972887724 0 0 0 0 -443.26387849075036 -417.10983217445755 0 -417.10983217445755 -306.80980921025184 0 0 0 0 -485.81905821698365 -339.22187506090995 0 -339.22187506090995 -294.743000858507 0 0 0 0 -461.35409478785459 -564.01646949198403 0 -564.01646949198403 -347.10784087213688 0 0 0 0 -595.34880875344152 -972.50047686760809 0 -972.50047686760809 -934.02892683602113 0 0 0 0 -562.40733964571655 -712.74365603987098 0 -712.74365603987098 -439.65613421924354 0 0 0 0 -12.149240673772265 -12.938944177058573 0 -12.938944177058573 21.509188277352095 0 0 0 0 -179.74896894940412 -842.05874429998221 0 -842.05874429998221 -1548.4105516622658 0 0 0 0 -434.23667955479323 -65.915769877668936 0 -65.915769877668936 -346.73584718074562 0 0 0 0 -4.4022912654095041 -1.0170178854903043 0 -1.0170178854903043 1.5337420045457861 0 0 0 0 -703.43143576533771 -778.98928305960726 0 -778.98928305960726 -616.35210293859927 0 0 0 0 -553.92852392826649 -614.27270165437585 0 -614.27270165437585 -214.92059463571059 0 0 0 0 -420.6772882696464 -528.6897905374226 0 -528.6897905374226 -365.56383646182803 0 0 0 0 -415.0791033654923 -602.60980860358541 0 -602.60980860358541 -262.21246530961434 0 0 0 0 -597.8724053476717 -375.77575850952417 0 -375.77575850952417 74.358766673500213 0 0 0 0 -564.19986541514379 -541.43652436406944 0 -541.43652436406944 103.27958185183525 0 0 0 0 -500.36586650178208 -699.0301612229523 0 -699.0301612229523 -401.2403688138802 0 0 0 0 -559.47950024232955 -652.93787213596806 0 -652.93787213596806 -434.04186154819399 0 0 0 0 -711.36203536819505 -542.55974445442985 0 -542.55974445442985 -220.33021309250034 0 0 0 0 -523.75132935241209 -527.47702346872029 0 -527.47702346872029 -253.57101352583777 0 0 0 0 -524.48825262785181 -574.51158552008155 0 -574.51158552008155 -239.71647385344841 0 0 0 0 -696.02922246196499 -489.00180811553128 0 -489.00180811553128 0.22690066681388998 0 0 0 0 -447.70612606479654 -729.33865133064683 0 -729.33865133064683 -1.7933922234013098 0 0 0 0 -303.85706383609124 -808.41599573313306 0 -808.41599573313306 -423.69872293315711 0 0 0 0 -281.16663638346495 -820.11188869439957 0 -820.11188869439957 -811.59389172751253 0 0 0 0 -393.55549221787078 -585.07286215824934 0 -585.07286215824934 -333.23517427102342 0 0 0 0 -291.62021148205076 -545.74781697979051 0 -545.74781697979051 -467.5570982226709 0 0 0 0 -326.92570779189668 -534.12570019252598 0 -534.12570019252598 -331.77030119985284 0 0 0 0 -296.3317491483449 -305.97235136041127 0 -305.97235136041127 -327.69609935881454 0 0 0 0 -532.41096355397531 -375.65774140970461 0 -375.65774140970461 -0.16323912666121032 0 0 0 0 -2.3372957746819161 -3.2818105922065399 0 -3.2818105922065399 2.801821623848582 0 0 0 0 -223.51470281232923 -142.64595368429582 0 -142.64595368429582 -0.42672872341536772 0 0 0 0 -416.71862770396183 -437.93049461354531 0 -437.93049461354531 -615.21155961572367 0 0 0 0 -436.88010102916644 -532.64639985784061 0 -532.64639985784061 -325.31718083981104 0 0 0 0 -423.73456868773792 -512.03522949433682 0 -512.03522949433682 -373.44656527836378 0 0 0 0 -2.3769559729617598 -5.0595842888442917 0 -5.0595842888442917 4.8944660044066097 0 0 0 0 -428.72074199861709 -541.06938707470908 0 -541.06938707470908 -331.39291546356981 0 0 0 0 -435.50402967304944 -565.89173362399197 0 -565.89173362399197 -271.15383136808668 0 0 0 0 -269.63567396852955 -495.76726323976618 0 -495.76726323976618 -338.98455693592769 0 0 0 0 -353.25219522395412 -491.24551213342602 0 -491.24551213342602 -340.71402148941706 0 0 0 0 -356.10317541442009 -575.22670111865955 0 -575.22670111865955 -123.06816702325887 0 0 0 0 -70.13227080596107 -305.60279058224114 0 -305.60279058224114 -232.75746648446875 0 0 0 0 -396.37968804946877 -126.90799898777186 0 -126.90799898777186 490.56475627148757 0 0 0 0 -707.74455506938489 -1100.7036194700927 0 -1100.7036194700927 -1051.236428392418 0 0 0 0 -4.9586874801813909 -3.5967889250350709 0 -3.5967889250350709 1.7969701067913917 0 0 0 0 -400.53303602288452 -656.92589717362353 0 -656.92589717362353 -731.42198667720368 0 0 0 0 -421.81095749456927 -799.11853665301896 0 -799.11853665301896 -561.47965123060931 0 0 0 0 -629.12004163846495 -290.18336077066033 0 -290.18336077066033 -197.53156831458182 0 0 0 0 -417.99704574511998 -647.64798423686807 0 -647.64798423686807 -621.90207113826909 0 0 0 0 -341.42646513801174 -532.5739288824916 0 -532.5739288824916 -421.8674255538499 0 0 0 0 -7.6513733395379901 -5.2157689825125146 0 -5.2157689825125146 2.9355601955399635 0 0 0 0 -394.04779628732831 -514.00350162917312 0 -514.00350162917312 -275.1116096628225 0 0 0 0 -269.66988468092768 -848.36713327281905 0 -848.36713327281905 -1152.4654459493613 0 0 0 0 -3.6899339696803821 -3.0926571315312685 0 -3.0926571315312685 1.2323601836290834 0 0 0 0 -73.581888767859937 -133.27744208772606 0 -133.27744208772606 221.09032166020188 0 0 0 0 -99.713448598506147 -337.39809959277773 0 -337.39809959277773 -566.61125694694783 0 0 0 0 -22.317849892240702 -554.34988154071834 0 -554.34988154071834 -312.04209488997003 0 0 0 0 -55.90010310035359 -670.10687638421223 0 -670.10687638421223 -287.78010632170844 0 0 0 0 98.446220733836526 -666.90322378297788 0 -666.90322378297788 -303.87689032779599 0 0 0 0 -57.460698798125179 -646.9848253892244 0 -646.9848253892244 22.581503716122825 0 0 0 0 2.6485800688860763 -559.95378605989026 0 -559.95378605989026 -153.9095535564411 0 0 0 0 -122.547945676155 -1021.6831335113311 0 -1021.6831335113311 -234.98856735554546 0 0 0 0 -67.439466279462067 -516.55967821333616 0 -516.55967821333616 555.93066957673 0 0 0 0 -394.24284570105556 -435.80954744297924 0 -435.80954744297924 833.28858729201602 0 0 0 0 -1321.9039653058026 -1608.5144116204247 0 -1608.5144116204247 -157.05548725567496 0 0 0 0 -317.9790339201536 -715.19157415596419 0 -715.19157415596419 1426.2982535368756 0 0 0 0 -13.057751677928117 -5.570152499589426 0 -5.570152499589426 -2.4321508833441783 0 0 0 0 -1224.6303710496759 752.56717827393732 0 752.56717827393732 436.28828525322024 0 0 0 0 92.821412493403841 -754.88616888987906 0 -754.88616888987906 -1124.9270324864483 0 0 0 0 115.20325087175388 -108.28082342184643 0 -108.28082342184643 -65.482161471656582 0 0 0 0 -940.83237800892039 -105.18806166850845 0 -105.18806166850845 -623.64073777315934 0 0 0 0 90.159180937855126 -691.65487345212023 0 -691.65487345212023 -1332.9803766808618 0 0 0 0 -1360.4372804043433 -1133.8322065690882 0 -1133.8322065690882 -642.77111301539844 0 0 0 0 -147.0531407527269 -922.0093570700592 0 -922.0093570700592 -417.98334263151628 0 0 0 0 -57.325410999348151 -712.07561950744457 0 -712.07561950744457 -475.63597873248364 0 0 0 0 86.141694818415999 -1212.2988901416757 0 -1212.2988901416757 -739.41992395274428 0 0 0 0 75.880476607262608 -551.25415397016695 0 -551.25415397016695 -607.70513341151673 0 0 0 0 63.866505869658795 -575.340523062383 0 -575.340523062383 -641.12823665685573 0 0 0 0 -7.6302232222624298 -586.23991238288727 0 -586.23991238288727 -579.69474857812747 0 0 0 0 -5.6153193204700074 -551.64098879945959 0 -551.64098879945959 -192.89294374009478 0 0 0 0 8.1040870652122976 -663.01080549602921 0 -663.01080549602921 -403.77363625833459 0 0 0 0 -78.783897238457939 -849.89472739960911 0 -849.89472739960911 -431.67909057128418 0 0 0 0 1.8579437314201641 -735.05991122778141 0 -735.05991122778141 -337.54939006635686 0 0 0 0 -36.848600736433582 -847.94126720440545 0 -847.94126720440545 -659.34340605939633 0 0 0 0 -78.503320352578157 -776.44137886597309 0 -776.44137886597309 -493.66138866981055 0 0 0 0 -371.40561669395493 -718.01272441197671 0 -718.01272441197671 -276.39114809349121 0 0 0 0 -46.746447473695298 -807.48868903414768 0 -807.48868903414768 -265.7644261358073 0 0 0 0 -75.916337825713867 -753.57223837215633 0 -753.57223837215633 -336.26725557380996 0 0 0 0 -50.596666836951044 -651.12455623124697 0 -651.12455623124697 -215.10927288193307 0 0 0 0 78.73892330288254 -733.47546939553649 0 -733.47546939553649 -165.04336933599552 0 0 0 0 -138.67662678819215 -666.20964456802903 0 -666.20964456802903 -98.223344832789735 0 0 0 0 -125.45791227402151 -694.59035780558042 0 -694.59035780558042 -76.5684178657757 0 0 0 0 -114.85407542311987 -747.49205413264644 0 -747.49205413264644 -95.301666403553099 0 0 0 0 -108.48314360104268 -754.45656195004631 0 -754.45656195004631 -294.3519511267441 0 0 0 0 -386.52722898399588 -340.23043445626536 0 -340.23043445626536 286.40129496534792 0 0 0 0 -1.9040606083112195 -3.0544754172442197 0 -3.0544754172442197 2.7804953583311942 0 0 0 0 -297.1658554580481 -807.01011389118867 0 -807.01011389118867 -832.14887360969442 0 0 0 0 -509.44233249625768 -372.83513274808683 0 -372.83513274808683 -310.9389683016052 0 0 0 0 -330.804910298496 -791.64410688915996 0 -791.64410688915996 -103.35884980865376 0 0 0 0 -446.09609737195842 -573.79940522411198 0 -573.79940522411198 -0.083065773877024185 0 0 0 0 -469.92128324296209 -492.31763621354185 0 -492.31763621354185 -244.12476970020361 0 0 0 0 84.57774274320218 -709.28366265055683 0 -709.28366265055683 -171.90497815862182 0 0 0 0 -168.48119962765486 -595.40195008629598 0 -595.40195008629598 -316.66695491332575 0 0 0 0 -156.11183712254569 -666.68289892159737 0 -666.68289892159737 -31.970626975617051 0 0 0 0 28.035158457496436 -766.69725008789101 0 -766.69725008789101 -0.23027926470967941 0 0 0 0 129.78397508996022 -646.30185837227691 0 -646.30185837227691 -91.610319453851844 0 0 0 0 300.23887794004258 -812.62679117946027 0 -812.62679117946027 0.13911593407101464 0 0 0 0 89.31569294582323 -732.8033981436356 0 -732.8033981436356 -60.929493126241141 0 0 0 0 563.37540222629468 -662.99856055214877 0 -662.99856055214877 -179.66142234334984 0 0 0 0 1121.9526924075763 -936.96258873344777 0 -936.96258873344777 -0.23634713714631345 0 0 0 0 2.9599409048681977 -3.1478710761041242 0 -3.1478710761041242 2.9530562554714948 0 0 0 0 1642.4255899355185 -94.089989275065818 0 -94.089989275065818 -325.62362327771552 0 0 0 0 471.78061658263869 -59.510298384047928 0 -59.510298384047928 -326.59777856164146 0 0 0 0 913.83747075404062 -571.09744744014097 0 -571.09744744014097 -283.77361744619702 0 0 0 0 543.0276268121379 -635.03882383229575 0 -635.03882383229575 -99.494303916275385 0 0 0 0 489.4795816306214 -426.29414655172513 0 -426.29414655172513 -327.75715663634764 0 0 0 0 568.97866677618185 -596.97787067885474 0 -596.97787067885474 -182.51080028915021 0 0 0 0 351.07817829429223 -311.02721756907704 0 -311.02721756907704 -24.382818397047231 0 0 0 0 259.37735309062191 -608.32427191960596 0 -608.32427191960596 -89.119891808433749 0 0 0 0 284.14906186618282 -640.77601027854325 0 -640.77601027854325 -173.07795674420049 0 0 0 0 77.542250823673612 -716.48324353934777 0 -716.48324353934777 -108.01311115291901 0 0 0 0 316.28761194679646 -670.25959333684295 0 -670.25959333684295 -152.74660612956359 0 0 0 0 313.59950897164526 -665.34928346208471 0 -665.34928346208471 -135.77093755281385 0 0 0 0 -63.976129810194834 -533.54208644516166 0 -533.54208644516166 -0.30325278618329321 0 0 0 0 307.08846864135012 -622.05733765556943 0 -622.05733765556943 -168.82211391951569 0 0 0 0 151.98044661538006 -620.7714446377322 0 -620.7714446377322 74.132277114724275 0 0 0 0 -555.81006431163041 -391.72542652814445 0 -391.72542652814445 -0.44025684066720616 0 0 0 0 -147.30524916255854 -342.83487901899207 0 -342.83487901899207 -195.84115555297467 0 0 0 0 -331.0159119571108 -520.40179733175319 0 -520.40179733175319 -229.90048225112673 0 0 0 0 -180.63499938332097 -310.11033923821196 0 -310.11033923821196 -219.22379754312715 0 0 0 0 6.6721999688356419 -8.099309569727879 0 -8.099309569727879 6.2658078218299806 0 0 0 0 73.185053994478949 63.482217823988321 0 63.482217823988321 -346.26798153819254 0 0 0 0 137.56384740724934 -526.46006566471078 0 -526.46006566471078 -533.80675650325429 0 0 0 0 384.40445757884663 -411.41009683420634 0 -411.41009683420634 179.61266187973524 0 0 0 0 92.266885269975319 -393.69408042085706 0 -393.69408042085706 520.09924979948846 0 0 0 0 1414.5232899068433 -1671.414866053994 0 -1671.414866053994 704.24674587300615 0 0 0 0 -733.65253806350847 -1133.1653395669364 0 -1133.1653395669364 594.99826751057117 0 0 0 0 1160.543291046939 -556.63995676103514 0 -556.63995676103514 -361.39296223667043 0 0 0 0 2.8840330932806495 -4.4234972971328403 0 -4.4234972971328403 4.5211032083557825 0 0 0 0 1970.9930516905224 -743.96319706370559 0 -743.96319706370559 -364.90986319530202 0 0 0 0 158.70455281775457 -1073.0677336739036 0 -1073.0677336739036 366.4021276798012 0 0 0 0 170.70941265753345 -961.91609689839834 0 -961.91609689839834 30.776385801815195 0 0 0 0 1342.4762187174929 -1239.0677501616738 0 -1239.0677501616738 91.891212732545682 0 0 0 0 3359.979319168553 -2053.7032787607022 0 -2053.7032787607022 931.11879510208382 0 0 0 0 2176.7960986643011 -2910.1139206394218 0 -2910.1139206394218 775.3370130356052 0 0 0 0 -1910.4868462329832 -1194.1236663584787 0 -1194.1236663584787 644.67234214858036 0 0 0 0 -738.14993417356891 -544.02715715872182 0 -544.02715715872182 40.756916203201399 0 0 0 0 24.441150311969977 -1692.1010215127681 0 -1692.1010215127681 766.30623145145364 0 0 0 0 -602.19339232790662 -804.50142329115261 0 -804.50142329115261 360.29876739392057 0 0 0 0 -316.21673998750339 -687.6384112214655 0 -687.6384112214655 223.96470914629754 0 0 0 0 -740.8904870340557 -540.0320660149664 0 -540.0320660149664 172.92370970505726 0 0 0 0 -203.90789089614191 -622.04638223944494 0 -622.04638223944494 73.555441373464419 0 0 0 0 -361.20345439366247 -538.57897656515888 0 -538.57897656515888 153.17807511253341 0 0 0 0 -106.35681875458249 -784.57572685226478 0 -784.57572685226478 70.875623280036962 0 0 0 0 -14.134253575473849 -674.91604344172811 0 -674.91604344172811 200.1772144503193 0 0 0 0 -66.702929792896612 -619.02316521620378 0 -619.02316521620378 -44.390777500906552 0 0 0 0 -343.3346791123804 -481.311777011103 0 -481.311777011103 -138.50385649064265 0 0 0 0 -373.46420813187706 -625.63812550255079 0 -625.63812550255079 10.20381686516339 0 0 0 0 -204.79039448452022 -514.46494506884483 0 -514.46494506884483 -135.51993497111835 0 0 0 0 -382.12622539408767 -438.10550461732782 0 -438.10550461732782 -96.111359259521123 0 0 0 0 -443.00863086569007 -676.12796801405784 0 -676.12796801405784 -104.27059297959204 0 0 0 0 -799.35458885335538 -431.77281755629519 0 -431.77281755629519 -21.741939851315692 0 0 0 0 -662.22090098402259 -209.84884038227756 0 -209.84884038227756 -334.64537631819258 0 0 0 0 -0.44617019126563484 -5.5625733422683155 0 -5.5625733422683155 2.4622963582543775 0 0 0 0 -2638.7016012756685 -465.72571360219808 0 -465.72571360219808 697.48958681167278 0 0 0 0 -1916.031701095264 -75.550576788060425 0 -75.550576788060425 49.157223842019448 0 0 0 0 -928.26547443048912 -277.92649788311974 0 -277.92649788311974 1.6714106514700688 0 0 0 0 -532.06957784121914 -512.67225037192838 0 -512.67225037192838 26.912363289360655 0 0 0 0 -514.23397299044154 -92.409814946156985 0 -92.409814946156985 -39.415539355453802 0 0 0 0 -3.2216547286537569 -14.800572561988375 0 -14.800572561988375 6.4180865391564339 0 0 0 0 926.72979566664617 -472.65110457576338 0 -472.65110457576338 77.365493355493527 0 0 0 0 1282.0767886778049 -692.52672725757293 0 -692.52672725757293 129.7504585527131 0 0 0 0 1180.6965477011472 -521.8728308604841 0 -521.8728308604841 381.1583350381843 0 0 0 0 3410.9321402882442 -1144.0776907426041 0 -1144.0776907426041 20.385831260020495 0 0 0 0 979.7140168540609 -1052.7591602366601 0 -1052.7591602366601 560.65343945396307 0 0 0 0 793.49201983595412 -846.08832649901888 0 -846.08832649901888 182.62872387804964 0 0 0 0 426.625486458046 -679.93374991229939 0 -679.93374991229939 415.2986891251785 0 0 0 0 315.09990885322986 -847.68487077256941 0 -847.68487077256941 412.09992223773588 0 0 0 0 -57.814518858467636 -623.56211554456968 0 -623.56211554456968 -1090.5937964108907 0 0 0 0 316.17860618522354 -559.88207816348222 0 -559.88207816348222 865.67338968965487 0 0 0 0 -1.4538732326338248 -6.0463707706556988 0 -6.0463707706556988 1.6419138283230197 0 0 0 0 -617.53704724406543 -623.16015989947846 0 -623.16015989947846 -768.82820292068936 0 0 0 0 37.515121360262128 132.84491695681936 0 132.84491695681936 -372.44020230800379 0 0 0 0 4.6836881872158997 -4.9129123152841387 0 -4.9129123152841387 -2.5965919615673272 0 0 0 0 -162.5774173522168 -30.731526255332938 0 -30.731526255332938 43.555503279872937 0 0 0 0 -0.13845982774112997 -19.749639468413569 0 -19.749639468413569 6.5563491415995827 0 0 0 0 202.96940918368273 -283.41956671622756 0 -283.41956671622756 346.6782744305674 0 0 0 0 -130.64871653864975 -207.04434994190524 0 -207.04434994190524 -67.320673505324521 0 0 0 0 -368.83811011118451 -399.52700674976586 0 -399.52700674976586 312.49294010200538 0 0 0 0 -192.34267859199099 -542.86464036271718 0 -542.86464036271718 370.28010452304443 0 0 0 0 49.522161150693137 -379.95609400797548 0 -379.95609400797548 81.873888056652504 0 0 0 0 -43.892905506592797 -2.1613038993891678 0 -2.1613038993891678 -62.831262521518511 0 0 0 0 -193.60687187224903 -486.17434132062772 0 -486.17434132062772 -769.08893547674234 0 0 0 0 26.764151570163421 -15.895167012578838 0 -15.895167012578838 -0.30359357949988208 0 0 0 0 69.530212509995181 -212.88080610874749 0 -212.88080610874749 234.01786448790517 0 0 0 0 14.627123652088102 -9.1675578733207175 0 -9.1675578733207175 1.1751435150525111 0 0 0 0 256.04500225975789 -180.55176794052386 0 -180.55176794052386 -1368.6273236269262 0 0 0 0 2.5140809779534408 -3.2339085193173105 0 -3.2339085193173105 -0.21669919618678435 0 0 0 0 -305.56162658297399 -34.44122831144341 0 -34.44122831144341 -1122.1182329161311 0 0 0 0 -364.37323449693213 -323.78630822397827 0 -323.78630822397827 614.23663716447481 0 0 0 0 -36.737060738065338 -180.27003787948343 0 -180.27003787948343 226.70914029203414 0 0 0 0 -281.16850006398818 -543.8047853195676 0 -543.8047853195676 -1.3451287056523142 0 0 0 0 -216.88452129215148 -423.76979616646713 0 -423.76979616646713 50.941793477679312 0 0 0 0 245.93056943201918 -892.17037777775113 0 -892.17037777775113 -132.37315315923661 0 0 0 0 101.50101197739787 -877.52763630288609 0 -877.52763630288609 -305.23708536657341 0 0 0 0 72.406025687476358 -678.7919116200992 0 -678.7919116200992 -253.37060037957417 0 0 0 0 142.17268715132013 -757.49743068056341 0 -757.49743068056341 -171.81212457966467 0 0 0 0 233.83122306832593 -642.89457589097583 0 -642.89457589097583 -58.317225210004835 0 0 0 0 289.89453360940934 -642.97365005210304 0 -642.97365005210304 -131.20844659599607 0 0 0 0 293.84845387813766 -603.55476999787788 0 -603.55476999787788 258.14475654652779 0 0 0 0 240.45781300598537 -852.26082436958677 0 -852.26082436958677 250.02821141008462 0 0 0 0 424.69578331365551 -705.52640959665314 0 -705.52640959665314 79.480040432717942 0 0 0 0 269.61881280324724 -851.36822220892464 0 -851.36822220892464 -62.096583521364664 0 0 0 0 299.60371240864697 -1058.7865387063939 0 -1058.7865387063939 4.4888117946647981 0 0 0 0 324.23868410187242 -984.4843833440973 0 -984.4843833440973 -136.87198360824914 0 0 0 0 295.56873648234978 -1036.0556059374467 0 -1036.0556059374467 -145.20693308288537 0 0 0 0 287.68595131803431 -1072.7913163398389 0 -1072.7913163398389 -352.95402939513588 0 0 0 0 272.26448138641626 -1028.2011084866572 0 -1028.2011084866572 -90.471732383564813 0 0 0 0 177.02948123188071 -786.80919281420574 0 -786.80919281420574 -292.77562103731907 0 0 0 0 111.95281984051871 -1083.4597426282016 0 -1083.4597426282016 -126.81658731554489 0 0 0 0 348.14122643471853 -1757.1965320759041 0 -1757.1965320759041 615.78330465125327 0 0 0 0 291.42980670780889 -1062.0244024206913 0 -1062.0244024206913 -149.50015389258624 0 0 0 0 -216.98662674871593 -887.46834965512244 0 -887.46834965512244 1612.193810142031 0 0 0 0 -165.90004241977476 -881.66601026813441 0 -881.66601026813441 773.38331112048036 0 0 0 0 110.57224718150974 -870.4827937344271 0 -870.4827937344271 435.12691635546798 0 0 0 0 264.58972273182326 -1208.9913928337437 0 -1208.9913928337437 18.181544644045061 0 0 0 0 68.526032335950731 -970.44941897731042 0 -970.44941897731042 -26.182356832363439 0 0 0 0 266.66577459231576 -934.83465666589291 0 -934.83465666589291 -126.81527371193806 0 0 0 0 -237.43999040038398 -563.22485366062392 0 -563.22485366062392 105.02124131449818 0 0 0 0 161.20326802698037 -854.56575978176988 0 -854.56575978176988 138.69091691474023 0 0 0 0 329.16616349108881 -396.06501745002606 0 -396.06501745002606 481.22985593466365 0 0 0 0 -72.878823370887403 -461.95278851802505 0 -461.95278851802505 760.30912313023146 0 0 0 0 192.39735305568092 -853.6186944807032 0 -853.6186944807032 265.27759265339409 0 0 0 0 -322.4736566687825 -273.60180395937277 0 -273.60180395937277 358.99408630433027 0 0 0 0 1.8887191271056309 -3.4160336202073012 0 -3.4160336202073012 5.1325647017666256 0 0 0 0 659.06841383383471 -246.67512149890172 0 -246.67512149890172 -26.323576575952757 0 0 0 0 -517.67775955437537 -134.34905231080484 0 -134.34905231080484 266.0063193718961 0 0 0 0 -76.50074567367119 -309.19246997591108 0 -309.19246997591108 313.50959514312854 0 0 0 0 -1.7987150704348096 -541.38625122378471 0 -541.38625122378471 -150.93947622858104 0 0 0 0 24.346972714774893 -39.153227783459442 0 -39.153227783459442 87.823291330016218 0 0 0 0 -439.53281816217714 -275.9233472679407 0 -275.9233472679407 1026.7597597022323 0 0 0 0 -195.32567940836088 -561.47883364411246 0 -561.47883364411246 1095.3185294545183 0 0 0 0 -141.51050900017435 -570.4721886894331 0 -570.4721886894331 1034.9542873020982 0 0 0 0 -279.12374031254876 -478.84720619929431 0 -478.84720619929431 999.02839429604137 0 0 0 0 -104.12461544849612 -377.71131792645247 0 -377.71131792645247 779.9483298583873 0 0 0 0 110.67696917726698 -401.98828808594226 0 -401.98828808594226 242.95148446390522 0 0 0 0 121.24091950304864 -377.86535158703555 0 -377.86535158703555 225.27037855696472 0 0 0 0 66.970348195947281 -321.62329768514383 0 -321.62329768514383 428.11923209493398 0 0 0 0 37.708272912350367 -200.16426267950737 0 -200.16426267950737 240.90126863809564 0 0 0 0 63.678187160735206 -282.71181903377101 0 -282.71181903377101 168.83524012031558 0 0 0 0 -273.93120425139205 -803.92941771732876 0 -803.92941771732876 -160.77315558467672 0 0 0 0 156.88660546124447 -123.54368869172322 0 -123.54368869172322 -603.7000515161053 0 0 0 0 90.207384389723302 -201.69237865158357 0 -201.69237865158357 -282.12369542412489 0 0 0 0 -570.34690099634281 -700.55149182457899 0 -700.55149182457899 1508.696077098095 0 0 0 0 -40.724059181156917 -249.2907842169152 0 -249.2907842169152 594.99124061185648 0 0 0 0 -419.71230693317193 -818.51751035368216 0 -818.51751035368216 310.25323058303184 0 0 0 0 -618.08043622525656 -369.91060270036542 0 -369.91060270036542 67.096822892024647 0 0 0 0 -387.39225969237305 -443.1375214792206 0 -443.1375214792206 -792.51027651160257 0 0 0 0 56.707340160328386 -827.55572809788282 0 -827.55572809788282 -783.94284092775342 0 0 0 0 -316.41186789948915 -722.66187278230427 0 -722.66187278230427 7.3473866129643284 0 0 0 0 -509.00328208085557 -634.1767125880433 0 -634.1767125880433 30.901672400203097 0 0 0 0 -237.82341381826197 -640.18074016148034 0 -640.18074016148034 -74.960822565175476 0 0 0 0 -373.13312221233718 -378.27142714869115 0 -378.27142714869115 73.177167667519825 0 0 0 0 -268.66152849153968 -285.87918315976094 0 -285.87918315976094 -209.06280571334355 0 0 0 0 -88.257870262139477 -309.14730353375489 0 -309.14730353375489 -455.43636274836695 0 0 0 0 -534.62228339362628 -712.31764460107661 0 -712.31764460107661 -444.76710910232214 0 0 0 0 -2.2920928784309638 -6.5461350896589181 0 -6.5461350896589181 0.6354850711054123 0 0 0 0 -98.068448367321253 -691.07789160270113 0 -691.07789160270113 -1423.6349548590297 0 0 0 0 -229.50607969851626 -620.95438538451344 0 -620.95438538451344 -601.28577036205388 0 0 0 0 -94.078900942502514 -445.08645302908189 0 -445.08645302908189 -594.80001202138374 0 0 0 0 -87.768258222346049 190.77893840057732 0 190.77893840057732 -570.73850050993497 0 0 0 0 255.97814935966744 7.5779974988108734 0 7.5779974988108734 -43.912346363213146 0 0 0 0 62.779196036433859 -163.3660870898384 0 -163.3660870898384 -2.2878259410063038 0 0 0 0 -4.3426821777029048 -5.1103416312529646 0 -5.1103416312529646 -3.2836012074778012 0 0 0 0 -4.6020374875757568 -4.6273273484281958 0 -4.6273273484281958 -2.4359317925511732 0 0 0 0 19.589378285127168 -587.94820868900024 0 -587.94820868900024 -1165.0068023867207 0 0 0 0 -444.44003087374222 -800.17571254913855 0 -800.17571254913855 -707.45435864742467 0 0 0 0 160.70340758286511 -199.82264285059136 0 -199.82264285059136 -488.5496859849809 0 0 0 0 -174.05605496675378 -298.08091349323757 0 -298.08091349323757 -350.2747394132748 0 0 0 0 -173.603157921003 -594.6293733690618 0 -594.6293733690618 -708.03889803630591 0 0 0 0 -110.90864815280656 -149.02854330163973 0 -149.02854330163973 -137.40747834381182 0 0 0 0 -44.805224152754818 -312.6257676397945 0 -312.6257676397945 -363.90411932279676 0 0 0 0 -364.04101703087508 -125.63172676775139 0 -125.63172676775139 -5.9866321600129595 0 0 0 0 -139.48382385214791 -153.66627912985859 0 -153.66627912985859 -136.09684920312429 0 0 0 0 69.981847946823109 -171.36186344537418 0 -171.36186344537418 -204.21047076072864 0 0 0 0 -97.750791150858277 -199.53609854297247 0 -199.53609854297247 -188.27928795499611 0 0 0 0 -87.526747935407911 -77.508418023120612 0 -77.508418023120612 -71.130325040314347 0 0 0 0 68.472251900282572 -154.96641697033192 0 -154.96641697033192 -85.500151766789713 0 0 0 0 -2.0318344441622251 3.8888317352700028 0 3.8888317352700028 2.2217162855951642 0 0 0 0 253.80705304358708 -103.68352280886029 0 -103.68352280886029 -92.379438447213033 0 0 0 0 -59.641186222273973 -218.65702623355173 0 -218.65702623355173 -44.645420560882485 0 0 0 0 -234.60946788795627 -296.54803918952894 0 -296.54803918952894 -295.67652142254519 0 0 0 0 -35.769358258460443 -114.41253634617829 0 -114.41253634617829 -178.66477249292075 0 0 0 0 -231.13313313538674 -153.89630028724059 0 -153.89630028724059 -131.08657386599225 0 0 0 0 -200.04740923499048 -156.13676855386439 0 -156.13676855386439 -135.80594678438501 0 0 0 0 -113.62931451508484 -191.39882878885692 0 -191.39882878885692 -3.7005487492715474 0 0 0 0 -143.14282634922893 -71.583410087463562 0 -71.583410087463562 -63.757565546402475 0 0 0 0 -12.824516207239867 32.139064775961742 0 32.139064775961742 -22.201708857435733 0 0 0 0 -90.045334603823903 -53.688294410869275 0 -53.688294410869275 17.264056258354685 0 0 0 0 -12.355382436218832 -11.236908638758024 0 -11.236908638758024 10.730439421756742 0 0 0 0 3.3760077431690547 -18.420453383415435 0 -18.420453383415435 15.31952353632704 0 0 0 0 -212.9590570413784 -51.535766908549704 0 -51.535766908549704 -243.92816224532726 0 0 0 0 -52.30244545065392 -58.094662727188791 0 -58.094662727188791 46.20590407673977 0 0 0 0 1263.0252081314975 -846.01789023696256 0 -846.01789023696256 -1368.4494345393396 0 0 0 0 -68.993046533709276 434.47031403628898 0 434.47031403628898 279.80884102698838 0 0 0 0 -95.837539407449185 -231.44880027947875 0 -231.44880027947875 -274.19384908949723 0 0 0 0 -0.90211758415146903 -40.595697460916895 0 -40.595697460916895 -59.709246619743681 0 0 0 0 -173.89199368668051 -148.36745353422884 0 -148.36745353422884 -190.1689780542365 0 0 0 0 -43.299895190929504 -44.230634657659472 0 -44.230634657659472 1.5817513006768387 0 0 0 0 -2.1172251813099194 -77.966618721636351 0 -77.966618721636351 -75.609463873824438 0 0 0 0 -68.470398792647757 -91.870548813094501 0 -91.870548813094501 -79.779032493097475 0 0 0 0 -35.407682275584442 -95.604970766902937 0 -95.604970766902937 26.726999937763139 0 0 0 0 -44.65293476030638 -96.960655472510552 0 -96.960655472510552 -42.049550434720004 0 0 0 0 -27.924199704255443 -97.201618851860985 0 -97.201618851860985 -42.074435672293475 0 0 0 0 -0.39773251613951288 -79.068497824817314 0 -79.068497824817314 -80.207207598956302 0 0 0 0 -25.87747322627547 -84.284882264681073 0 -84.284882264681073 -26.477384776575491 0 0 0 0 -39.984653595281998 -72.840693960719364 0 -72.840693960719364 -36.977383499979624 0 0 0 0 -2.9306512012844905 -85.837352524627931 0 -85.837352524627931 -30.089988771156641 0 0 0 0 -74.519041976745939 -114.08006729901535 0 -114.08006729901535 -70.945991300919559 0 0 0 0 -28.100689192972396 -66.783655198710505 0 -66.783655198710505 -5.5122037578399414 0 0 0 0 -27.663948006875984 -44.540411824068144 0 -44.540411824068144 7.1929773063676805 0 0 0 0 -30.211006766650826 -84.812987986049848 0 -84.812987986049848 -15.485051547409967 0 0 0 0 -28.955549950158456 -84.54759032826405 0 -84.54759032826405 -31.881988740700763 0 0 0 0 -97.916348466369982 -59.74625185171999 0 -59.74625185171999 33.849130415139371 0 0 0 0 3.4778297988814302 -90.386860816339322 0 -90.386860816339322 -97.608635979209794 0 0 0 0 -15.647269202684816 -19.721024137304312 0 -19.721024137304312 -2.9345587348741446 0 0 0 0 -118.78751131460012 -139.46250937804871 0 -139.46250937804871 65.690816735157568 0 0 0 0 -73.82835254562815 -21.290014593861997 0 -21.290014593861997 -25.924499683576869 0 0 0 0 -9.642930612872874 -58.905851062994657 0 -58.905851062994657 -1.5748111211723881 0 0 0 0 -9.1598067260783864 -84.800762770915753 0 -84.800762770915753 0.68156397072016262 0 0 0 0 -36.672195342244095 -46.572654810819508 0 -46.572654810819508 -35.828664063650592 0 0 0 0 -9.5744780705754238 -71.776245447909787 0 -71.776245447909787 -0.083325510335271247 0 0 0 0 -48.385960002917713 -85.816296573913348 0 -85.816296573913348 -10.282077718869516 0 0 0 0 -26.804346679185983 -57.271715239243349 0 -57.271715239243349 0.86588865594239905 0 0 0 0 -39.843952643396165 -78.788272757194761 0 -78.788272757194761 13.012387210509019 0 0 0 0 -24.812492029519532 -66.508980704827167 0 -66.508980704827167 -32.64638905238499 0 0 0 0 -21.785511353460606 -101.35416506798356 0 -101.35416506798356 -11.565309736150084 0 0 0 0 -44.245210299905899 -111.89562014524137 0 -111.89562014524137 -36.980102104417256 0 0 0 0 -35.804879996314412 -143.8755973821826 0 -143.8755973821826 32.419335080543533 0 0 0 0 4.4041517440928146 -102.83819617873814 0 -102.83819617873814 -25.892913961521117 0 0 0 0 77.986263791506644 -132.70873360577389 0 -132.70873360577389 -93.176616581011331 0 0 0 0 -50.807449360218015 -114.14535946101114 0 -114.14535946101114 -186.37538977215354 0 0 0 0 -46.793247738876744 -106.25597493458736 0 -106.25597493458736 -149.86857330435305 0 0 0 0 -2.9129951553817932 -5.1418246541719981 0 -5.1418246541719981 -2.1517354632239289 0 0 0 0 -14.098644625017187 -93.008291790094518 0 -93.008291790094518 -91.770985171249777 0 0 0 0 11.428260151813294 -56.639034493815331 0 -56.639034493815331 -96.188133976423472 0 0 0 0 -18.080464355412417 -39.667921979894743 0 -39.667921979894743 -37.223908602643746 0 0 0 0 -13.887917942651654 -54.117566543478503 0 -54.117566543478503 -6.4296473697961574 0 0 0 0 -39.919815346428976 -48.636705139391438 0 -48.636705139391438 26.344148260705293 0 0 0 0 -25.582444051964558 -85.611707137308258 0 -85.611707137308258 -6.5398671118709899 0 0 0 0 -38.816715408491291 -71.566513915549876 0 -71.566513915549876 10.505841587422765 0 0 0 0 -56.537599845873956 -73.873007016291012 0 -73.873007016291012 34.566898107026645 0 0 0 0 -35.974136406075559 -65.184972567847581 0 -65.184972567847581 6.7755310906686645 0 0 0 0 -52.637446359782189 -67.101906496434822 0 -67.101906496434822 33.836643647042365 0 0 0 0 -46.843780490026376 -64.052029674950845 0 -64.052029674950845 63.813964213814614 0 0 0 0 -41.24683654396722 -55.510364945293986 0 -55.510364945293986 -1.8868465554987779 0 0 0 0 -42.295665060002648 -61.094837830765755 0 -61.094837830765755 6.7476832342945272 0 0 0 0 -26.943626487969979 -30.724099022459058 0 -30.724099022459058 -28.90793405958658 0 0 0 0 -5.950968677856082 -11.772264432203656 0 -11.772264432203656 26.155105563050796 0 0 0 0 -45.229216991515386 -71.610522843195213 0 -71.610522843195213 -0.1817977566679474 0 0 0 0 -246.24216847690491 150.01318240020419 0 150.01318240020419 746.43833596579498 0 0 0 0 -874.54955450889975 -2045.0447087722132 0 -2045.0447087722132 -1389.823701516696 0 0 0 0 -87.00166472195275 -46.938060527942284 0 -46.938060527942284 54.980536157293741 0 0 0 0 -29.651896711406152 74.691925010491104 0 74.691925010491104 213.97114040713313 0 0 0 0 -511.44594912647153 -471.43104636618227 0 -471.43104636618227 108.76991845445809 0 0 0 0 -7.435921678056701 16.148156742215519 0 16.148156742215519 23.090005980694968 0 0 0 0 -252.99787686560012 -36.006938874372281 0 -36.006938874372281 1560.5969838139426 0 0 0 0 -391.63375006319984 -348.41427850764376 0 -348.41427850764376 -609.91056866156578 0 0 0 0 -404.18142090796027 -226.75856432999717 0 -226.75856432999717 -763.37805553012004 0 0 0 0 -258.91885900891793 -207.01953514577144 0 -207.01953514577144 -965.5450480223335 0 0 0 0 -73.258319341038728 -68.864835567573095 0 -68.864835567573095 -14.645053449961132 0 0 0 0 -569.5704061047054 -624.00612002912385 0 -624.00612002912385 404.39056198541221 0 0 0 0 184.42889582636417 109.16269664843276 0 109.16269664843276 134.39144767681137 0 0 0 0 -10.650985070537935 -15.250802659952342 0 -15.250802659952342 -14.019180750468536 0 0 0 0 -196.95764717860402 231.95132703959825 0 231.95132703959825 1066.2467302097357 0 0 0 0 -626.84512654153696 -840.71200815472184 0 -840.71200815472184 176.0912033944478 0 0 0 0 17.367068549743003 -23.967347461022158 0 -23.967347461022158 20.9319435431361 0 0 0 0 272.58897639524366 565.1987152009533 0 565.1987152009533 -445.63527131215824 0 0 0 0 -383.53239139886091 -558.53671946310624 0 -558.53671946310624 -129.93573944726086 0 0 0 0 -73.665561925216025 -832.0453483852034 0 -832.0453483852034 -475.60907914359962 0 0 0 0 -733.74384584871859 363.46737454870163 0 363.46737454870163 -763.8525314037397 0 0 0 0 -340.81434697845907 556.85303291167293 0 556.85303291167293 633.82113602384925 0 0 0 0 356.8221955642075 -1052.3386972584995 0 -1052.3386972584995 -2310.6140893267439 0 0 0 0 68.122598756235675 -422.5403086716542 0 -422.5403086716542 -84.603798132302472 0 0 0 0 198.86978058388195 -115.26667230921885 0 -115.26667230921885 -62.295176014944445 0 0 0 0 187.74994155202057 -38.511933007413973 0 -38.511933007413973 -244.91130707951379 0 0 0 0 98.799419252709413 -217.89288328093608 0 -217.89288328093608 182.71838971952093 0 0 0 0 121.48006267755045 -304.12120362937276 0 -304.12120362937276 494.81886742374627 0 0 0 0 316.22727355946881 -963.64983905963527 0 -963.64983905963527 631.77037149411626 0 0 0 0 265.17184077364072 -373.69055496691726 0 -373.69055496691726 -243.50385725097721 0 0 0 0 -38.975320313247721 -129.38607329603474 0 -129.38607329603474 67.874099238746567 0 0 0 0 5.6697252840135803 -8.3957107847752042 0 -8.3957107847752042 14.459248517964966 0 0 0 0 -6.9107359337322123 -75.422964794524887 0 -75.422964794524887 29.436050586475176 0 0 0 0 -1.849579615047432 -7.9616906198247932 0 -7.9616906198247932 8.3007396105871294 0 0 0 0 -10.41204988654863 18.596363339584059 0 18.596363339584059 16.560261812512181 0 0 0 0 -762.69413148058811 -1405.6904207675252 0 -1405.6904207675252 701.24892953183735 0 0 0 0 5.9760641036991728 -8.9228481513709994 0 -8.9228481513709994 -37.084932458979893 0 0 0 0 10.267230769764865 -28.550460179932998 0 -28.550460179932998 13.260658019586117 0 0 0 0 -74.427425805337407 -64.189795707628946 0 -64.189795707628946 777.56924874449396 0 0 0 0 7.8470963877748687 -12.689917100704804 0 -12.689917100704804 10.124665920874847 0 0 0 0 -859.64030069905857 -79.416297323346953 0 -79.416297323346953 975.77901570290123 0 0 0 0 -386.47300257672032 -859.02766499351128 0 -859.02766499351128 -3463.5641459631443 0 0 0 0 0.49351924810591896 -4.6328078535641026 0 -4.6328078535641026 2.6477425096511098 0 0 0 0 52.192583081341581 57.522106015472673 0 57.522106015472673 179.34491606889912 0 0 0 0 64.486405445866694 11.062699996109586 0 11.062699996109586 349.98356157346279 0 0 0 0 -130.66965842140053 -1489.1309659221552 0 -1489.1309659221552 -134.51046258096176 0 0 0 0 1088.9165337226696 -652.17765239747496 0 -652.17765239747496 -1678.8382834259392 0 0 0 0 574.19358205611752 -401.8577149156481 0 -401.8577149156481 -705.18630146008218 0 0 0 0 -75.5912096593499 -37.612807297827928 0 -37.612807297827928 66.025678476962028 0 0 0 0 -230.55006032298479 -182.43026906040905 0 -182.43026906040905 -288.98023999263387 0 0 0 0 -1735.125623930111 1402.7823222732968 0 1402.7823222732968 236.8116155917196 0 0 0 0 -1613.595112302688 -1777.0411809633983 0 -1777.0411809633983 -873.01708497812069 0 0 0 0 -2749.5470839481859 905.81907115108334 0 905.81907115108334 325.69153308858677 0 0 0 0 603.90938339297281 -1728.9281713426417 0 -1728.9281713426417 -2036.0373484208903 0 0 0 0 -618.81669114933175 -2446.7552879883406 0 -2446.7552879883406 -1376.109174694735 0 0 0 0 -102.60460749700724 -1521.4260921185014 0 -1521.4260921185014 -583.87010437742174 0 0 0 0 175.19455481317709 301.17862128278284 0 301.17862128278284 -4419.4857570198728 0 0 0 0 -961.05365836945566 -164.0447145636499 0 -164.0447145636499 320.5564841943451 0 0 0 0 -2274.459577973932 -1866.8325307628875 0 -1866.8325307628875 -1962.4738155166742 0 0 0 0 -18.471240849090464 -12.817287827216404 0 -12.817287827216404 -11.387250602229329 0 0 0 0 117.84627738688141 -436.65645174185192 0 -436.65645174185192 -1669.6829320731449 0 0 0 0 113.1030305378722 -95.093107320906711 0 -95.093107320906711 -1187.3457411797281 0 0 0 0 -46.276088545084349 -1054.8333214120503 0 -1054.8333214120503 -1376.0968563519018 0 0 0 0 -218.88555341254687 -698.86192533764188 0 -698.86192533764188 -409.30663284850743 0 0 0 0 -256.49772338477487 -513.30350370125598 0 -513.30350370125598 -873.73236730143253 0 0 0 0 -91.907124414894497 -433.71377561561894 0 -433.71377561561894 -1047.2810565460932 0 0 0 0 -118.62239225126177 -261.46736184660176 0 -261.46736184660176 -1073.1199267550328 0 0 0 0 -53.200604609759466 -390.49913441871286 0 -390.49913441871286 -897.31372648511751 0 0 0 0 112.92624238701069 -364.95481768285401 0 -364.95481768285401 -1029.667621095221 0 0 0 0 -119.62508902273476 -201.10568270603653 0 -201.10568270603653 -854.62711890255741 0 0 0 0 -6.6273186035723484 -379.77425742037303 0 -379.77425742037303 -1021.0759582015471 0 0 0 0 14.740418925768566 -5.2464821190652202 0 -5.2464821190652202 1.6979352697286814 0 0 0 0 -113.1068448675469 -352.31765926744117 0 -352.31765926744117 -1081.684155335206 0 0 0 0 -90.092212433486566 78.748136468841039 0 78.748136468841039 -1700.4461026917161 0 0 0 0 -95.498544635791177 -142.57663949487142 0 -142.57663949487142 -1673.0145374722779 0 0 0 0 -227.22245872680651 -228.07207324734918 0 -228.07207324734918 -952.47386847737653 0 0 0 0 -322.03718202017262 85.011233207585974 0 85.011233207585974 -1396.1636022791463 0 0 0 0 -417.78892402378005 -553.24620706144924 0 -553.24620706144924 421.59637895984633 0 0 0 0 -50.017960966843958 -59.893448518591669 0 -59.893448518591669 -26.732277735302226 0 0 0 0 70.359071865734222 -430.62933706126569 0 -430.62933706126569 843.22538775848079 0 0 0 0 -129.29986029537577 -319.88307094607444 0 -319.88307094607444 785.15512346255127 0 0 0 0 371.34760881932925 -412.9099665738504 0 -412.9099665738504 125.45149854413467 0 0 0 0 552.91751977794593 -823.32908534702437 0 -823.32908534702437 343.80648162040598 0 0 0 0 -1019.2461738417733 -442.18782331181137 0 -442.18782331181137 405.55352368696913 0 0 0 0 -210.05107650225909 -105.7632115928136 0 -105.7632115928136 244.79099987720838 0 0 0 0 -829.14752087935267 -13.458958507384523 0 -13.458958507384523 232.53438450067733 0 0 0 0 439.39043401130994 -1094.71330776785 0 -1094.71330776785 873.77163455700793 0 0 0 0 488.44707683184242 -996.48734263733422 0 -996.48734263733422 949.66127257994958 0 0 0 0 580.59070331460862 -790.03779146315355 0 -790.03779146315355 800.66161908612412 0 0 0 0 497.59589254461389 -910.54683837597986 0 -910.54683837597986 735.03932692926173 0 0 0 0 295.25893629412349 -598.03860189539773 0 -598.03860189539773 1158.3620578161372 0 0 0 0 215.51393730736163 -369.51286616852303 0 -369.51286616852303 636.33104114445814 0 0 0 0 241.76110418163262 -797.2604524586568 0 -797.2604524586568 1526.6459245096485 0 0 0 0 -33.448277712903717 -45.725904181391783 0 -45.725904181391783 -18.993481142931252 0 0 0 0 393.80775457582877 689.26743564480057 0 689.26743564480057 -1920.4347906192816 0 0 0 0 -216.48796010223668 -42.86158656833868 0 -42.86158656833868 -1576.124989921087 0 0 0 0 258.31698408910961 541.59223654229208 0 541.59223654229208 -371.50104305264722 0 0 0 0 3.6233464085528198 -2.8554851365657186 0 -2.8554851365657186 0.2673054746150143 0 0 0 0 -213.76791913730449 14.405532396140188 0 14.405532396140188 -1251.2776247231941 0 0 0 0 211.52559274373925 80.360553633436211 0 80.360553633436211 -1290.9799970254571 0 0 0 0 -60.250840691187477 -312.91210289380251 0 -312.91210289380251 -1650.9763292873213 0 0 0 0 17.395330003658728 -418.55029784563112 0 -418.55029784563112 -1510.3660304175792 0 0 0 0 83.916848359476717 -1052.1328416746655 0 -1052.1328416746655 2469.7823102846269 0 0 0 0 326.27175560076194 -811.72032451841551 0 -811.72032451841551 1851.3804358237976 0 0 0 0 -242.72080360057225 265.91868810131564 0 265.91868810131564 -2137.1110776966325 0 0 0 0 -21.132087325689305 -30.479676590075535 0 -30.479676590075535 -12.161420904501966 0 0 0 0 -307.3281917932145 -46.744212885341767 0 -46.744212885341767 -166.38582676032092 0 0 0 0 -7.9335779519454235 -10.483400958607376 0 -10.483400958607376 -4.0766775894744924 0 0 0 0 87.775066307198358 151.68809607744151 0 151.68809607744151 -3327.9296248451938 0 0 0 0 -191.83908686727227 -761.0388800338842 0 -761.0388800338842 3289.9350732318162 0 0 0 0 -182.6501279145557 -1207.5471887049475 0 -1207.5471887049475 2088.753458809224 0 0 0 0 6.9961552251916146 -973.37381447882899 0 -973.37381447882899 1790.4132811860691 0 0 0 0 115.63136815749021 -523.11567399647902 0 -523.11567399647902 1647.3515199910307 0 0 0 0 -194.46445499317815 -522.62408332311315 0 -522.62408332311315 1224.4213832506721 0 0 0 0 -68.563037659723705 -778.65829287101224 0 -778.65829287101224 1415.3170348802014 0 0 0 0 40.642284104529608 -656.19726721116604 0 -656.19726721116604 1150.8114450654539 0 0 0 0 84.371491897414671 -690.89577041227312 0 -690.89577041227312 1123.689217784271 0 0 0 0 217.730312169017 -698.90385743729985 0 -698.90385743729985 1844.0713551359004 0 0 0 0 294.29365638528452 -818.2079918267882 0 -818.2079918267882 1266.8084982707151 0 0 0 0 167.17915352562522 -820.58022124913259 0 -820.58022124913259 1344.1988685886899 0 0 0 0 -232.10578219896342 -981.19270904331643 0 -981.19270904331643 1279.6034981021767 0 0 0 0 55.547198615306115 -1129.4514853040091 0 -1129.4514853040091 1475.2439520321313 0 0 0 0 275.23065977899569 -1145.8472801038188 0 -1145.8472801038188 1121.3547102950834 0 0 0 0 279.58122065988209 -1100.5212083107908 0 -1100.5212083107908 1356.593390649914 0 0 0 0 -98.314795022235558 -1257.5426178406005 0 -1257.5426178406005 953.54818945590523 0 0 0 0 13.436409508754878 -1114.9855439693238 0 -1114.9855439693238 1122.2366200884912 0 0 0 0 -300.04397368829086 -761.31035968275683 0 -761.31035968275683 1012.0245170677736 0 0 0 0 -298.38723993706299 -883.73069225173822 0 -883.73069225173822 751.44219922579214 0 0 0 0 -326.59277164830746 -743.02124564375117 0 -743.02124564375117 -648.10100078052346 0 0 0 0 -725.34088039212247 -940.17973459979748 0 -940.17973459979748 972.72642245882889 0 0 0 0 -766.88627749509601 -325.26019754379172 0 -325.26019754379172 383.09869144219556 0 0 0 0 -57.456557033603531 -609.52553723861274 0 -609.52553723861274 1654.7751950609672 0 0 0 0 -14.425966628598871 -706.0859268881286 0 -706.0859268881286 -184.85733518912457 0 0 0 0 60.978741917449042 -548.02603011846077 0 -548.02603011846077 729.99242227210198 0 0 0 0 -265.83984768719347 -525.80871820924222 0 -525.80871820924222 730.26691078219812 0 0 0 0 19.311326614248173 -732.24487483188386 0 -732.24487483188386 915.14303613065567 0 0 0 0 -484.06506315132719 -570.88120010856801 0 -570.88120010856801 880.38654625318668 0 0 0 0 -430.59223945334088 -492.8964025127716 0 -492.8964025127716 204.79910674172243 0 0 0 0 -125.51463680671077 -571.38749212797848 0 -571.38749212797848 222.75627568465279 0 0 0 0 147.75089935879623 -297.346773060337 0 -297.346773060337 297.81348497211002 0 0 0 0 -386.88342564961567 -510.29182325021247 0 -510.29182325021247 274.36800144048721 0 0 0 0 -132.6238602140902 -680.35821645406941 0 -680.35821645406941 -479.62424834437115 0 0 0 0 -371.88986479778669 -1014.3069604371303 0 -1014.3069604371303 -880.1394516065775 0 0 0 0 -673.52837709341838 -634.09736203132343 0 -634.09736203132343 -480.92466600153966 0 0 0 0 -0.62428763973947454 -14.725321571434449 0 -14.725321571434449 12.139575849818542 0 0 0 0 -63.098252520788037 -599.73131487419414 0 -599.73131487419414 907.90743419059436 0 0 0 0 -0.2698105791990173 -3.600000708043126 0 -3.600000708043126 3.3863359522839431 0 0 0 0 -176.57891414619007 -1303.8698868048778 0 -1303.8698868048778 -1964.289522924686 0 0 0 0 -539.38863389122639 1202.3271544519976 0 1202.3271544519976 3192.1668491667806 0 0 0 0 7.5444742084243224 -25.534346547316673 0 -25.534346547316673 10.386113031736642 0 0 0 0 -510.97935968528509 -69.139341170419357 0 -69.139341170419357 40.112515314147458 0 0 0 0 -6.3185390382819193 -4.8455741100795251 0 -4.8455741100795251 7.2916967315510988 0 0 0 0 -71.164232197963429 -197.45084632206999 0 -197.45084632206999 629.37601578500471 0 0 0 0 -492.36178516597829 -780.52670994889195 0 -780.52670994889195 -593.37780033176386 0 0 0 0 -322.02927247275147 44.923090326585225 0 44.923090326585225 1889.950336143891 0 0 0 0 4.7080558796847072 -257.87895878135896 0 -257.87895878135896 366.19461474842683 0 0 0 0 4.6071168282942381 -168.06775948658469 0 -168.06775948658469 225.21443984468351 0 0 0 0 104.14576051688164 -196.70605581148266 0 -196.70605581148266 -216.87456001914688 0 0 0 0 -3.6075467167972661 -22.810027070198828 0 -22.810027070198828 -3.97569370765234 0 0 0 0 446.52035860361684 -82.975678379727469 0 -82.975678379727469 -12.633631759978016 0 0 0 0 -35.506255829551719 -261.50035956181455 0 -261.50035956181455 70.819776343138074 0 0 0 0 5.0771645336080482 -6.2207008672268671 0 -6.2207008672268671 -1.6997333359599054 0 0 0 0 2.8858365847197547 -16.445087948241735 0 -16.445087948241735 -9.9956176629902558 0 0 0 0 1115.2215207228182 -1082.3697410734676 0 -1082.3697410734676 1113.1989061023123 0 0 0 0 263.19953518768671 -1255.5599035984924 0 -1255.5599035984924 1825.6037077887231 0 0 0 0 101.94175661983417 -236.83988260742262 0 -236.83988260742262 -804.9020284276703 0 0 0 0 39.563997211580499 -535.97674148517399 0 -535.97674148517399 -546.47244377313837 0 0 0 0 322.4577770302775 -2112.401534790034 0 -2112.401534790034 2930.152224912672 0 0 0 0 156.89134209484655 -455.92288716376061 0 -455.92288716376061 -2380.3396323936176 0 0 0 0 2.0007967778536511 -7.7155052417742525 0 -7.7155052417742525 -3.3871058092227742 0 0 0 0 577.07337127450228 -1214.7653027471679 0 -1214.7653027471679 1965.875305129448 0 0 0 0 642.15778649693129 -1287.5286212733663 0 -1287.5286212733663 1779.6951164779384 0 0 0 0 5.3620261539399507 -785.94838442816035 0 -785.94838442816035 3225.8727894633594 0 0 0 0 1341.0482479193645 -1710.4500053256329 0 -1710.4500053256329 1992.5249045252131 0 0 0 0 -83.893849909919254 -1189.8663979799157 0 -1189.8663979799157 2397.9907188232464 0 0 0 0 -259.83307927136593 -74.538133841379022 0 -74.538133841379022 1319.1967453679536 0 0 0 0 209.98421229528321 -164.8901730604739 0 -164.8901730604739 -874.42381851345272 0 0 0 0 9.1651047897184696 -11.592117804375135 0 -11.592117804375135 10.695436255917542 0 0 0 0 756.94783914300569 -1428.6292704167354 0 -1428.6292704167354 -873.24045306154585 0 0 0 0 856.18069099277454 -1021.0173270563173 0 -1021.0173270563173 -132.93123218353139 0 0 0 0 901.64776864419036 -1932.6700676103628 0 -1932.6700676103628 845.09551049739821 0 0 0 0 608.19672126250953 -1179.9186110725132 0 -1179.9186110725132 650.64969596597621 0 0 0 0 874.78592369333819 -1559.3483701409091 0 -1559.3483701409091 1144.0996302684362 0 0 0 0 205.23257055158547 -1460.9648611765861 0 -1460.9648611765861 1073.6192030836391 0 0 0 0 623.26829322878621 -1309.5186653852797 0 -1309.5186653852797 988.47795656042945 0 0 0 0 476.15448212356569 -1147.1281699461179 0 -1147.1281699461179 845.69592263913364 0 0 0 0 -27.642632432246501 -823.88110899481035 0 -823.88110899481035 2338.5765087173786 0 0 0 0 526.31970914928206 -1392.652417757261 0 -1392.652417757261 1712.7250798802415 0 0 0 0 550.72326441647419 -1255.9992749349913 0 -1255.9992749349913 3090.1666707818149 0 0 0 0 758.37184154834176 -1223.0034017103862 0 -1223.0034017103862 1184.6723434053329 0 0 0 0 1292.8800738374589 -661.80477204870283 0 -661.80477204870283 2139.8007935645583 0 0 0 0 -10.548334873252315 -60.626227905639098 0 -60.626227905639098 -74.301900271635532 0 0 0 0 3.2411678684002254 -124.68672785545277 0 -124.68672785545277 -367.30636127452453 0 0 0 0 -0.6805030666582752 7.7233324876215192 0 7.7233324876215192 -169.05854903541331 0 0 0 0 -5.6788383509192499 -48.608800309841172 0 -48.608800309841172 -101.92034158567913 0 0 0 0 -8.5389287785728811 9.2798971078154864 0 9.2798971078154864 -45.89374301767748 0 0 0 0 24.313575564941857 -15.753998629141279 0 -15.753998629141279 -106.34557693735405 0 0 0 0 -1.021657733915049 -9.1423136576333945 0 -9.1423136576333945 -4.823559919800303 0 0 0 0 -53.329526174231432 -43.556996412014996 0 -43.556996412014996 -20.642334160245809 0 0 0 0 26.77176261213026 -54.945852521854249 0 -54.945852521854249 -59.420421765156789 0 0 0 0 50.841089747700607 -48.772776655292546 0 -48.772776655292546 -43.603084972841316 0 0 0 0 23.905501647554061 -24.685905005671856 0 -24.685905005671856 -30.993965547673952 0 0 0 0 96.384480832028203 14.635436713942909 0 14.635436713942909 29.174875663899002 0 0 0 0 -15.539446875815344 -12.179700563582117 0 -12.179700563582117 2.9937549744982732 0 0 0 0 -13.824243009865313 -60.987357733369208 0 -60.987357733369208 -55.201640536644845 0 0 0 0 20.280266409466975 -31.480876718021364 0 -31.480876718021364 -23.165810343454154 0 0 0 0 53.834339705834282 -61.159990189938981 0 -61.159990189938981 -32.764140175386274 0 0 0 0 65.90186309038836 -103.77672267818707 0 -103.77672267818707 -38.525850511632598 0 0 0 0 69.917241472014666 -16.880416384022396 0 -16.880416384022396 -50.547399899718584 0 0 0 0 -60.08102835957834 -78.676686388182134 0 -78.676686388182134 57.492243482694903 0 0 0 0 -43.109293280094789 -22.283492031433454 0 -22.283492031433454 -2.9523170600369433 0 0 0 0 -226.223455002626 -639.43605892147025 0 -639.43605892147025 -1887.1670647368846 0 0 0 0 -17.078956322540762 -602.31102677020135 0 -602.31102677020135 -2194.9379787689322 0 0 0 0 -240.35065886343364 -516.85269594403508 0 -516.85269594403508 -1709.6867531599564 0 0 0 0 -388.641899324728 -392.77750127838226 0 -392.77750127838226 -2042.9506390520546 0 0 0 0 468.4869574848708 -968.82523691824099 0 -968.82523691824099 -4326.9598508753461 0 0 0 0 -239.49048068368575 -211.80625345663066 0 -211.80625345663066 419.54848171900812 0 0 0 0 -13.757466289649187 -5.7770610597681866 0 -5.7770610597681866 -3.7062100018663635 0 0 0 0 -574.06622820193297 -708.58468466315389 0 -708.58468466315389 -286.73011291401963 0 0 0 0 -0.11047832883923547 -483.90158123774745 0 -483.90158123774745 -2903.5626134707127 0 0 0 0 -943.27080522447795 -605.48532804179922 0 -605.48532804179922 -1942.3589395949457 0 0 0 0 0.48402277313289233 -1202.0210284104433 0 -1202.0210284104433 -1621.3257491942059 0 0 0 0 -424.02340098223613 -1115.7102435755478 0 -1115.7102435755478 -1.2586540708616667 0 0 0 0 -748.89615815168872 -350.74453400411767 0 -350.74453400411767 492.48657162709424 0 0 0 0 -3.8725014003018146 -6.8579465214058075 0 -6.8579465214058075 -2.1692732378035462 0 0 0 0 -424.48641858094561 -1724.2198904743036 0 -1724.2198904743036 -858.49352664004982 0 0 0 0 3.0150714503179188 -2182.0997031004154 0 -2182.0997031004154 -3093.6053976421199 0 0 0 0 -5.5284421507511183 -12.966743280255628 0 -12.966743280255628 -1.4247437004837806 0 0 0 0 -232.52406244531448 -667.99103191870017 0 -667.99103191870017 -1341.9464393096787 0 0 0 0 318.5323331197651 -738.78171665213085 0 -738.78171665213085 -2088.2427390950256 0 0 0 0 -118.48655223030073 -686.42316943751575 0 -686.42316943751575 -1871.3497049486323 0 0 0 0 122.56399213753684 -792.57710575329656 0 -792.57710575329656 -3208.7988324856778 0 0 0 0 -339.17487301581696 -1080.4522979710755 0 -1080.4522979710755 -831.99698286823696 0 0 0 0 -263.96272758391569 -1347.6294464682796 0 -1347.6294464682796 -1817.8200412660799 0 0 0 0 -1.7879326171266428 -7.5164698271938732 0 -7.5164698271938732 -1.8663274770174603 0 0 0 0 -439.003590299184 -1228.7481319011713 0 -1228.7481319011713 208.33674438369053 0 0 0 0 -582.63029803166864 -851.52142585141701 0 -851.52142585141701 -761.34752056324942 0 0 0 0 -662.13495282036274 -1031.5582227733075 0 -1031.5582227733075 -712.32796251944819 0 0 0 0 -747.27026289431524 -768.83008049826458 0 -768.83008049826458 -713.59790958764643 0 0 0 0 -1225.7108968267457 -1117.5019667935121 0 -1117.5019667935121 -695.55743491546309 0 0 0 0 -596.86890130743268 -968.99688271152991 0 -968.99688271152991 -653.65682397545606 0 0 0 0 -146.48253775114426 -756.86405282476335 0 -756.86405282476335 -1242.8164210648174 0 0 0 0 -458.66360898308267 -581.67543876900527 0 -581.67543876900527 -447.24446365868789 0 0 0 0 161.77497440893785 78.675364350572636 0 78.675364350572636 -81.541028119012481 0 0 0 0 2.6612425626310596 -0.82930880091518588 0 -0.82930880091518588 -8.1354562316765566 0 0 0 0 -612.90652878952096 -819.20515743904252 0 -819.20515743904252 -703.88340600774063 0 0 0 0 11.233110364700693 -4.796791081758812 0 -4.796791081758812 6.3576905085351143 0 0 0 0 11.471348321612822 -71.141821234477902 0 -71.141821234477902 -36.063769927532121 0 0 0 0 52.935192940669367 2.6340020506358996 0 2.6340020506358996 -46.688062191547942 0 0 0 0 47.239909133866604 4.0283394611396943 0 4.0283394611396943 28.772787684327341 0 0 0 0 34.164686947529844 -5.668576247880992 0 -5.668576247880992 -4.1256267867429415 0 0 0 0 -9.1418047077895608 -12.828234732980491 0 -12.828234732980491 24.779907285788795 0 0 0 0 21.768184786650053 7.883485817385349 0 7.883485817385349 -6.4469377337911453 0 0 0 0 39.950932841172033 -4.974059533659215 0 -4.974059533659215 -11.454476063497012 0 0 0 0 86.368914086080622 19.713212248083437 0 19.713212248083437 -22.927507815882564 0 0 0 0 87.798434518597787 44.208536766513134 0 44.208536766513134 14.766720794232242 0 0 0 0 105.3844055019872 40.016617919813143 0 40.016617919813143 -6.2112872692014207 0 0 0 0 8.2728225396330259 -1.4625676152640494 0 -1.4625676152640494 1.3364794023497666 0 0 0 0 9.5416267345768517 -2.5604410025067068 0 -2.5604410025067068 -14.936273326677366 0 0 0 0 -83.104323704035778 -145.6397372725587 0 -145.6397372725587 -663.33844949255581 0 0 0 0 -214.40106174280663 -619.1668341698969 0 -619.1668341698969 -885.13876932908897 0 0 0 0 164.2078613165213 -102.59168408087862 0 -102.59168408087862 -970.36499315128003 0 0 0 0 61.042832120321691 -581.19179972956044 0 -581.19179972956044 -1868.2960708543951 0 0 0 0 -233.76364199382806 -378.89666793969081 0 -378.89666793969081 -1248.1416264668223 0 0 0 0 -29.49350512358069 -537.9471784407724 0 -537.9471784407724 -1137.2216216453817 0 0 0 0 4.5758106837899959 -21.430650535186913 0 -21.430650535186913 -8.7524894500908825 0 0 0 0 6.6465353287640028 -41.199010991600517 0 -41.199010991600517 -16.988278126552359 0 0 0 0 -107.8552795564101 169.11394918581209 0 169.11394918581209 -484.18638713819382 0 0 0 0 -3.3615812817400865 -11.274423526202185 0 -11.274423526202185 -8.1021297299565731 0 0 0 0 17.579652530801184 -36.117500768247965 0 -36.117500768247965 -20.134512512214343 0 0 0 0 41.277770089240221 -11.268428534534905 0 -11.268428534534905 -27.156324067691457 0 0 0 0 -172.35552516688949 -264.45663712040368 0 -264.45663712040368 -214.84453718850273 0 0 0 0 -6.5203903862310142 -22.681219785191686 0 -22.681219785191686 -8.8172422894034046 0 0 0 0 -31.840193873635144 -61.773395591782901 0 -61.773395591782901 -50.439485316377159 0 0 0 0 809.20084166543529 139.99875750431238 0 139.99875750431238 -271.69782213063445 0 0 0 0 45.225172625711906 -20.357022242885336 0 -20.357022242885336 -38.986434015708056 0 0 0 0 -23.729496136384114 -20.878922153669009 0 -20.878922153669009 -21.220635848294478 0 0 0 0 10.505015042246669 -30.261864006890391 0 -30.261864006890391 -66.044474989990704 0 0 0 0 10.022184178000316 -35.886285141685221 0 -35.886285141685221 -19.305676644160485 0 0 0 0 44.627741635120401 -19.860023184980491 0 -19.860023184980491 -32.779898422260885 0 0 0 0 43.577782374270726 -23.280894430886136 0 -23.280894430886136 -33.11041084388529 0 0 0 0 -43.278232969198143 -42.024721224279347 0 -42.024721224279347 -6.4685596194467507 0 0 0 0 -51.510850040867808 -110.45993649986849 0 -110.45993649986849 -53.718881708920435 0 0 0 0 16.069141065425356 -86.82171732615825 0 -86.82171732615825 -4.2788438348870841 0 0 0 0 181.5310139085268 3.4252022169130214 0 3.4252022169130214 -3.4165898111812112 0 0 0 0 246.92207638401305 404.81675771376467 0 404.81675771376467 124.25632821839099 0 0 0 0 82.902599676095633 6.4148105336225854 0 6.4148105336225854 17.347809884886374 0 0 0 0 5.0776067918854011 -3.0209546863419803 0 -3.0209546863419803 -3.8493963652602758 0 0 0 0 -2.189329581840866 -19.520435120819457 0 -19.520435120819457 -4.953231749808765 0 0 0 0 -0.59615433181170374 -3.8264461240687524 0 -3.8264461240687524 -1.3651105528479093 0 0 0 0 28.716353555355454 -8.9918812200103275 0 -8.9918812200103275 -9.4901652430999093 0 0 0 0 26.309826813761902 -1.8780473792285193 0 -1.8780473792285193 2.3207298680354143 0 0 0 0 25.682999210533126 -7.8942298502606718 0 -7.8942298502606718 -1.7065688663278706 0 0 0 0 44.044456641982833 -11.42853660901892 0 -11.42853660901892 -6.8620579559574253 0 0 0 0 25.426666621713593 -5.7906480910105529 0 -5.7906480910105529 -16.204008003609488 0 0 0 0 19.672912358001668 -17.244065686251361 0 -17.244065686251361 -7.392881510881125 0 0 0 0 37.954729187338671 -9.1845657886733534 0 -9.1845657886733534 -8.3588766502653016 0 0 0 0 20.45145441533532 -10.459770113831837 0 -10.459770113831837 -0.77154878547298722 0 0 0 0 11.898765669562323 -3.014388178375043 0 -3.014388178375043 -2.0789232520080532 0 0 0 0 99.779931206998299 21.110001335648121 0 21.110001335648121 41.347490381362149 0 0 0 0 23.390821897206479 16.772609824431129 0 16.772609824431129 -8.3825450418371474 0 0 0 0 16.045565563064883 -27.506932645854249 0 -27.506932645854249 -3.1445878295344301 0 0 0 0 3.578188134846414 -0.47175560272816597 0 -0.47175560272816597 -0.9894711083867378 0 0 0 0 0.7676389819423548 -1.0973186317093706 0 -1.0973186317093706 -0.37457385192607262 0 0 0 0 67.408232449128263 0.35920407781304675 0 0.35920407781304675 -6.1078799353526847 0 0 0 0 773.51786215876928 66.842344915945432 0 66.842344915945432 -340.61808359397037 0 0 0 0 43.999623112227709 -10.330412407944095 0 -10.330412407944095 -5.0037115126979188 0 0 0 0 37.807019634515768 -3.9955485738706784 0 -3.9955485738706784 1.7597657523438102 0 0 0 0 86.462558105235075 9.3596730937024404 0 9.3596730937024404 -7.0015698781317042 0 0 0 0 48.995479450371931 2.6423273994350893 0 2.6423273994350893 8.6031019513029605 0 0 0 0 52.636121607058158 0.83284783455746947 0 0.83284783455746947 -7.1289848910746514 0 0 0 0 494.19211180604179 -202.61910659616115 0 -202.61910659616115 -585.29902983170177 0 0 0 0 488.00463262104313 -193.81888172636172 0 -193.81888172636172 -100.57427237895172 0 0 0 0 4.690845033371204 -3.6752733804509887 0 -3.6752733804509887 1.6498276435139019 0 0 0 0 -511.07192288831311 -365.16893403114318 0 -365.16893403114318 242.66463849439606 0 0 0 0 268.12460465223558 110.65252618115483 0 110.65252618115483 -322.31367514713929 0 0 0 0 -194.31572505419899 -373.13150520937779 0 -373.13150520937779 -358.34499185410095 0 0 0 0 559.36130634503934 -126.86608792232437 0 -126.86608792232437 -224.23065011113067 0 0 0 0 545.66939568706221 230.82970348858908 0 230.82970348858908 94.113774272918818 0 0 0 0 345.8598897518641 38.155753805811401 0 38.155753805811401 -193.52656411931093 0 0 0 0 416.61805900476247 -62.858544611561229 0 -62.858544611561229 -68.452695972562651 0 0 0 0 426.65488463302609 -299.40955272186693 0 -299.40955272186693 164.59282950386114 0 0 0 0 813.55307353843818 134.0416894936352 0 134.0416894936352 -28.080167471018285 0 0 0 0 781.59971126210803 233.82036603145025 0 233.82036603145025 -18.005716135325201 0 0 0 0 703.57651506751426 201.46684183000252 0 201.46684183000252 107.54041306235013 0 0 0 0 3.6208955127382723 1.4548849731709481 0 1.4548849731709481 2.6733984880911521 0 0 0 0 24.168730398023826 -7.3743248000787958 0 -7.3743248000787958 -3.2796301705919859 0 0 0 0 41.713613321509911 1.2977722728537628 0 1.2977722728537628 1.869655105201673 0 0 0 0 30.476274016647949 -0.45458169389894465 0 -0.45458169389894465 5.1034807146752428 0 0 0 0 50.48614689126407 6.1047271013012505 0 6.1047271013012505 0.93012669785821345 0 0 0 0 36.174130968065583 -12.456074295907456 0 -12.456074295907456 -4.5468993603094532 0 0 0 0 30.241170827364172 -9.8763592446599375 0 -9.8763592446599375 -1.3367010550894065 0 0 0 0 92.450738688377896 43.475786774899461 0 43.475786774899461 -40.101027061682544 0 0 0 0 -2.1257222025778901 4.1839782408096653 0 4.1839782408096653 120.67371963262849 0 0 0 0 33.363315650698496 -465.78446123599133 0 -465.78446123599133 -0.62716475148590689 0 0 0 0 -570.04948585842794 -548.82120258862415 0 -548.82120258862415 -11.89710314846343 0 0 0 0 3.5577714222184369 -4.683150935866081 0 -4.683150935866081 3.292573264439568 0 0 0 0 -108.54443472190906 -170.904132130976 0 -170.904132130976 12.085095306436415 0 0 0 0 149.18568358918128 23.109661500003313 0 23.109661500003313 -45.326617967017228 0 0 0 0 79.228908236058487 -54.661196776512952 0 -54.661196776512952 -57.71540356685 0 0 0 0 136.67220818938222 72.925820734613808 0 72.925820734613808 -12.287539924123848 0 0 0 0 0.10283472714030495 -0.56620675273788379 0 -0.56620675273788379 -2.8005276211742967 0 0 0 0 365.40575438928499 117.60541387966805 0 117.60541387966805 -196.6794056761828 0 0 0 0 -777.33587813644408 -768.2458169641468 0 -768.2458169641468 -129.19451259141351 0 0 0 0 -408.46989591514648 -447.93998852659206 0 -447.93998852659206 -455.86148594158294 0 0 0 0 0.4291304152696398 -1.2767540539348374 0 -1.2767540539348374 1.7768084065447169 0 0 0 0 1375.7064044830113 -710.98983595293248 0 -710.98983595293248 -48.58865851880546 0 0 0 0 -350.79038294452039 -688.19651864983462 0 -688.19651864983462 1.7750898879021406 0 0 0 0 2057.5487281118913 -106.94846594226328 0 -106.94846594226328 -253.65765829720476 0 0 0 0 64.373901048464177 241.38512048839766 0 241.38512048839766 -148.45724248145416 0 0 0 0 1.121161778397969 -1.7602324401202338 0 -1.7602324401202338 0.38493171685030347 0 0 0 0 895.75867665473561 -232.21878503362677 0 -232.21878503362677 141.29246694801259 0 0 0 0 1412.3650793816191 63.117017792638762 0 63.117017792638762 -70.93631557514891 0 0 0 0 1375.1041815260751 -260.64319584249961 0 -260.64319584249961 62.657177359753405 0 0 0 0 865.58723267503228 -175.53293634496004 0 -175.53293634496004 122.69937622421276 0 0 0 0 1197.8827059334726 87.986598547398899 0 87.986598547398899 287.17367135013046 0 0 0 0 6.9041161734984016 -4.3395691950588002 0 -4.3395691950588002 -1.5108930734062938 0 0 0 0 -37.671609901539341 -26.390120928052056 0 -26.390120928052056 114.3210483841649 0 0 0 0 635.86781008695107 -345.62218301254688 0 -345.62218301254688 186.00927811257134 0 0 0 0 1217.0035468949027 122.73432732076253 0 122.73432732076253 -36.650653448305093 0 0 0 0 1420.8454470434299 400.43000963219674 0 400.43000963219674 159.98857525618951 0 0 0 0 2.1353926525841302 -1.8964096154132619 0 -1.8964096154132619 2.1686975068782886 0 0 0 0 809.72581201417779 -144.58377303813904 0 -144.58377303813904 152.66624078717723 0 0 0 0 894.88692685169372 -290.99266051839368 0 -290.99266051839368 404.30134030842237 0 0 0 0 449.7981152398861 -353.45412384926749 0 -353.45412384926749 160.37921439934871 0 0 0 0 495.20024853645373 -412.54677006555357 0 -412.54677006555357 230.31716557689651 0 0 0 0 253.70349584256837 -548.10712093091206 0 -548.10712093091206 193.67979488629499 0 0 0 0 271.65825176764338 -410.49357878283627 0 -410.49357878283627 210.14498806536722 0 0 0 0 881.46541563101346 -208.79062122205505 0 -208.79062122205505 166.1870260853284 0 0 0 0 870.24967022795045 -307.45922107887145 0 -307.45922107887145 79.111276310082758 0 0 0 0 429.53004342180793 -516.83480724838591 0 -516.83480724838591 0.16746682316942527 0 0 0 0 478.54188409234848 -476.8693489425641 0 -476.8693489425641 115.56532584727393 0 0 0 0 171.98421276656154 -481.3120862971773 0 -481.3120862971773 180.99741933836776 0 0 0 0 -35.625040221075324 -542.2070023363558 0 -542.2070023363558 179.15186898714455 0 0 0 0 273.38714584716217 -479.54788479470881 0 -479.54788479470881 105.40008812092128 0 0 0 0 138.96757579528639 -556.8222492009736 0 -556.8222492009736 139.10275746160914 0 0 0 0 201.27187741853413 -489.02129382522617 0 -489.02129382522617 127.22189525651629 0 0 0 0 122.91083342814818 -562.04289016198163 0 -562.04289016198163 158.12919160522142 0 0 0 0 16.325239137389872 -574.40835576071549 0 -574.40835576071549 89.30703244014876 0 0 0 0 115.0473538952283 -528.48689492525591 0 -528.48689492525591 30.7631405833381 0 0 0 0 -156.65842435100785 -624.50478293755441 0 -624.50478293755441 57.870561495692527 0 0 0 0 -34.713590926272445 -470.81853355771091 0 -470.81853355771091 -87.590260483135353 0 0 0 0 45.239415661882958 -815.42269057297381 0 -815.42269057297381 59.195386463628438 0 0 0 0 15.603937164902163 -489.03742887019689 0 -489.03742887019689 81.028582444501808 0 0 0 0 219.3344686663404 -511.55665576089086 0 -511.55665576089086 -67.406390423886478 0 0 0 0 236.13649037997448 -623.54571427325254 0 -623.54571427325254 16.242974547407357 0 0 0 0 102.54683488008595 -434.60445834976417 0 -434.60445834976417 213.34325260166042 0 0 0 0 180.62556956437766 -632.63657474450883 0 -632.63657474450883 46.856689478983753 0 0 0 0 447.43410925986609 -289.05693775473628 0 -289.05693775473628 78.954378612317669 0 0 0 0 -154.97485464878264 -313.27595655560435 0 -313.27595655560435 81.647300061154965 0 0 0 0 29.596519242426439 -176.11716742634599 0 -176.11716742634599 -615.54357170213189 0 0 0 0 -216.88809057174876 -169.92706857293888 0 -169.92706857293888 -122.9169528930579 0 0 0 0 122.18374877460883 -378.21488860881072 0 -378.21488860881072 -177.11807362035324 0 0 0 0 -179.58859295620277 -739.54671965365196 0 -739.54671965365196 -1.9213230695131642 0 0 0 0 3.4872313046335393 -3.4465161071225054 0 -3.4465161071225054 1.3575911779861372 0 0 0 0 -247.66136120146257 -533.98625571806042 0 -533.98625571806042 -1228.8656390373872 0 0 0 0 93.211982162945787 -182.9054570784574 0 -182.9054570784574 -605.26881968206726 0 0 0 0 -256.33275765849976 -346.9852204045892 0 -346.9852204045892 -660.97810743878654 0 0 0 0 -37.900917530561856 -585.72630986035801 0 -585.72630986035801 -718.41142018872779 0 0 0 0 8.6159989369458145 -7.0087945115677996 0 -7.0087945115677996 2.4036628084350298 0 0 0 0 -70.61202271401271 -856.41888587061112 0 -856.41888587061112 -753.18040168634616 0 0 0 0 -1.701147870888235 -784.80680342171399 0 -784.80680342171399 626.20442194124189 0 0 0 0 -18.678073419961493 -462.24218556759274 0 -462.24218556759274 63.718111473688623 0 0 0 0 -439.08503974115592 -116.11557148247084 0 -116.11557148247084 -209.59295526896312 0 0 0 0 74.491548633595812 -349.39214641237049 0 -349.39214641237049 -1623.0240430133999 0 0 0 0 -196.14517081757367 -600.27274728866178 0 -600.27274728866178 913.86057879763757 0 0 0 0 3.6160525061251292 -4.3856776223006761 0 -4.3856776223006761 -0.026239458361366985 0 0 0 0 126.86041178817186 -634.44410709512886 0 -634.44410709512886 810.79140679826378 0 0 0 0 49.12940103410574 -54.724904393167435 0 -54.724904393167435 -1202.2552307050428 0 0 0 0 137.86404629700701 -223.22010431883973 0 -223.22010431883973 -1304.8564632091802 0 0 0 0 4.0809819915300665 -4.7108957271176735 0 -4.7108957271176735 0.8923452086047412 0 0 0 0 171.4514163055137 -453.39525412276271 0 -453.39525412276271 -722.72502705412262 0 0 0 0 6.1824299040141142 -7.3753855964233708 0 -7.3753855964233708 -0.51075013432574323 0 0 0 0 -54.261718530076905 -636.03960213216487 0 -636.03960213216487 -260.98347013215243 0 0 0 0 -38.076620698022509 -305.98039748126814 0 -305.98039748126814 -329.90177928716002 0 0 0 0 -134.07615577814431 -278.80294009438512 0 -278.80294009438512 -679.30550526287698 0 0 0 0 424.6608730502121 -674.55242994004948 0 -674.55242994004948 -605.12575278096483 0 0 0 0 39.883210980136937 -49.11100541279302 0 -49.11100541279302 -1278.2062246123533 0 0 0 0 -117.08962456186418 -293.10006884357426 0 -293.10006884357426 257.80099774444898 0 0 0 0 129.32883571412458 -460.02566529149772 0 -460.02566529149772 121.81021713632072 0 0 0 0 -128.43441724567674 -320.53133447708387 0 -320.53133447708387 1372.0050612783798 0 0 0 0 46.293072274940641 -480.30941525537492 0 -480.30941525537492 597.60932657634839 0 0 0 0 75.025245392731449 -443.66736145767209 0 -443.66736145767209 272.71730311500141 0 0 0 0 48.085320096630312 -170.8591700702309 0 -170.8591700702309 292.90958855662029 0 0 0 0 56.725367650344197 -110.97257731886202 0 -110.97257731886202 705.51420974532084 0 0 0 0 262.92605969799479 -380.31975702556156 0 -380.31975702556156 231.82937842853426 0 0 0 0 212.05863420696551 -710.11226486628584 0 -710.11226486628584 686.43177463611937 0 0 0 0 47.264919163131708 -225.82323414388884 0 -225.82323414388884 691.38461333069426 0 0 0 0 48.781086583810975 -459.25686203022997 0 -459.25686203022997 66.860408191030729 0 0 0 0 -111.19070942858161 -328.45364316970881 0 -328.45364316970881 296.52237992121081 0 0 0 0 -67.766945634197327 -429.9768705426759 0 -429.9768705426759 -103.51756989979185 0 0 0 0 -454.51779081353015 -367.76370854578272 0 -367.76370854578272 163.30336388161231 0 0 0 0 -213.37171927544682 -101.451642518477 0 -101.451642518477 -191.21414495655335 0 0 0 0 -41.367839251419355 -482.05377001849774 0 -482.05377001849774 -1332.6623577811379 0 0 0 0 180.44118009484009 -223.52737135726056 0 -223.52737135726056 -696.5766562991048 0 0 0 0 -189.08391327621212 -337.40720370862618 0 -337.40720370862618 77.4237532377756 0 0 0 0 -1.6639912168786282 -9.8685380560167175 0 -9.8685380560167175 0.60553804916117215 0 0 0 0 -216.78781183934916 -377.9033147775317 0 -377.9033147775317 971.3377877660896 0 0 0 0 -0.61573720558266132 -4.165622781210061 0 -4.165622781210061 0.071568557131445942 0 0 0 0 202.40253054802088 -237.3450231943134 0 -237.3450231943134 -354.24262067965174 0 0 0 0 175.49655295469802 -345.84389307291349 0 -345.84389307291349 -386.32957465563231 0 0 0 0 -107.30969455115337 -171.57134921601755 0 -171.57134921601755 282.30165186733211 0 0 0 0 -3.262413324867822 -11.519458108526948 0 -11.519458108526948 1.0036753994433063 0 0 0 0 -275.72961009178471 -375.79771165079728 0 -375.79771165079728 -254.14525796685075 0 0 0 0 -3.4023188575274617 -313.80376310264 0 -313.80376310264 -478.82302734718542 0 0 0 0 -587.99780260376428 -282.45099588514495 0 -282.45099588514495 -457.91640341630045 0 0 0 0 38.047665394289652 -346.73105246313207 0 -346.73105246313207 -1043.7049021088169 0 0 0 0 42.202131000695772 -306.55140371820471 0 -306.55140371820471 -680.36155314724601 0 0 0 0 -87.367122844883852 -451.04712221158115 0 -451.04712221158115 -423.62425264972262 0 0 0 0 32.531883322306385 -520.54530534758305 0 -520.54530534758305 -755.96599760232493 0 0 0 0 -316.22118249406776 -786.59895385730488 0 -786.59895385730488 -882.36815115146237 0 0 0 0 -830.93510282747593 -307.31567161027851 0 -307.31567161027851 -22.153481236513471 0 0 0 0 -37.773709790228168 -13.008440684840025 0 -13.008440684840025 -79.969231863563436 0 0 0 0 -382.61099097577971 -247.9317691685319 0 -247.9317691685319 -9.4057888177921996 0 0 0 0 -148.90859606006416 -363.76227228194693 0 -363.76227228194693 -446.73422954839771 0 0 0 0 -70.239629970725218 -195.46798613966166 0 -195.46798613966166 -161.32354166659206 0 0 0 0 -46.734162685655932 -39.315446064874536 0 -39.315446064874536 -0.96285744651630267 0 0 0 0 -153.95992219434083 -201.414759949781 0 -201.414759949781 -134.27319449117931 0 0 0 0 -44.843251092628634 -85.341560464446957 0 -85.341560464446957 93.410739822989854 0 0 0 0 -43.260977597931401 -41.127650298434318 0 -41.127650298434318 34.344439844278362 0 0 0 0 -16.56813984283508 -15.039023248871672 0 -15.039023248871672 -11.875190717601697 0 0 0 0 -73.711845936999453 -61.796166194231773 0 -61.796166194231773 28.937840547972883 0 0 0 0 -8.9332626072930665 -29.115278140603834 0 -29.115278140603834 37.587861169123926 0 0 0 0 -32.588410325014422 -32.165018147568574 0 -32.165018147568574 -13.391100676491092 0 0 0 0 -11.665456197981257 -65.227842104024603 0 -65.227842104024603 155.27715667708253 0 0 0 0 -52.137871557244836 -7.4922030298755473 0 -7.4922030298755473 -0.20644523352062549 0 0 0 0 -34.263260969008115 -77.523385988008158 0 -77.523385988008158 149.93997563204903 0 0 0 0 71.32033682394831 -289.97907069086432 0 -289.97907069086432 370.47549227944546 0 0 0 0 -34.618781328736077 -68.496491312222133 0 -68.496491312222133 128.99159777148088 0 0 0 0 31.774869196658983 -187.216324093406 0 -187.216324093406 -648.58923912220052 0 0 0 0 68.707854258151201 -186.07952098887836 0 -186.07952098887836 -721.9957051582096 0 0 0 0 60.298673041608708 -176.02655065597719 0 -176.02655065597719 -732.52712809835793 0 0 0 0 112.29856908624788 -294.87093158893003 0 -294.87093158893003 -875.39768244598235 0 0 0 0 142.93072242208291 -387.1808040229007 0 -387.1808040229007 -597.88083360247401 0 0 0 0 31.103864551681909 -434.03040304883325 0 -434.03040304883325 -407.31487091038616 0 0 0 0 74.840187744401192 -557.79367891508082 0 -557.79367891508082 -644.64110327664821 0 0 0 0 85.248025559761118 -296.28542878780718 0 -296.28542878780718 -322.97458011942217 0 0 0 0 90.874054134768812 -367.18659748789287 0 -367.18659748789287 -849.60489843568939 0 0 0 0 -412.19478210932266 -546.97658732462287 0 -546.97658732462287 -244.76996301207691 0 0 0 0 -400.94507454976701 -360.97603033031191 0 -360.97603033031191 -304.84220903338428 0 0 0 0 -192.25875638002708 -393.64844583148988 0 -393.64844583148988 -1382.9581328720087 0 0 0 0 -612.02305643935688 -998.06533569232852 0 -998.06533569232852 -1959.348576005963 0 0 0 0 -164.03143132240803 -538.08349344435555 0 -538.08349344435555 -958.49341604348956 0 0 0 0 -16.463197498368316 -28.914551711814056 0 -28.914551711814056 -12.043846865750403 0 0 0 0 57.393521717614931 -65.318338748420501 0 -65.318338748420501 -1416.9791734212449 0 0 0 0 12.7414438595315 -4.6626598777675099 0 -4.6626598777675099 -1305.6068741290946 0 0 0 0 -27.546741002923227 340.06624626246048 0 340.06624626246048 -2223.8041300863406 0 0 0 0 241.24156846826008 -78.270367856926896 0 -78.270367856926896 142.36644961817365 0 0 0 0 64.696517451691761 -423.54829871331822 0 -423.54829871331822 541.28446897336107 0 0 0 0 -38.267518810763988 1.9484158105401832 0 1.9484158105401832 13.87782232376351 0 0 0 0 -19.644885437941412 -72.838576483496581 0 -72.838576483496581 184.62642567751755 0 0 0 0 152.62382186229661 -74.427648950251751 0 -74.427648950251751 114.35666735204359 0 0 0 0 -527.82231791930099 -647.97079743246286 0 -647.97079743246286 187.57297178134922 0 0 0 0 -2084.2055784016557 -1307.6462702260469 0 -1307.6462702260469 279.69929469189719 0 0 0 0 -610.52834683584661 -423.3099488433254 0 -423.3099488433254 41.017697547584248 0 0 0 0 -150.33422052838432 -341.85918453657723 0 -341.85918453657723 -3840.1677924043179 0 0 0 0 -1028.4290059303239 -171.79256132593582 0 -171.79256132593582 1047.7113628197403 0 0 0 0 -19.133792651100975 -6.9365462943533203 0 -6.9365462943533203 3.2926057074112478 0 0 0 0 -636.76135144314321 -1238.6909980566052 0 -1238.6909980566052 -3282.8154312382685 0 0 0 0 -606.99844919440147 -1461.6941559788829 0 -1461.6941559788829 -1489.153461490394 0 0 0 0 -737.96589123393278 421.57824348727445 0 421.57824348727445 -1020.3856007840805 0 0 0 0 -2273.6383225290228 -1071.3978891967272 0 -1071.3978891967272 -835.17387945305381 0 0 0 0 -856.43000405607017 5.92855633516956 0 5.92855633516956 -558.66180012902441 0 0 0 0 -876.8215001339413 -826.12165164983162 0 -826.12165164983162 -694.68699839437613 0 0 0 0 -791.76907462617964 -259.44855346455734 0 -259.44855346455734 -122.36994042734295 0 0 0 0 -0.61760046375238176 0.29740322499678484 0 0.29740322499678484 0.081757679643075676 0 0 0 0 -250.30656338768313 51.071326029297779 0 51.071326029297779 3.1359572812361876 0 0 0 0 -165.75909171889361 166.25423179970676 0 166.25423179970676 -202.20217151612451 0 0 0 0 55.716698938227637 -17.720568666838517 0 -17.720568666838517 -17.793519683968043 0 0 0 0 -306.58039831743372 -137.38730360738555 0 -137.38730360738555 44.247279589173559 0 0 0 0 -602.43694895775843 -260.15193993607318 0 -260.15193993607318 1.8618756926734932 0 0 0 0 -412.13683819831203 -471.22465126364841 0 -471.22465126364841 -240.31085333474039 0 0 0 0 -276.5719592307687 -338.79651458621083 0 -338.79651458621083 -111.12398189765372 0 0 0 0 -112.39778287785157 -558.31771558012406 0 -558.31771558012406 -249.63995728114423 0 0 0 0 -332.72501645917419 -349.83177559782689 0 -349.83177559782689 -82.809811976570927 0 0 0 0 17.12396812276711 -299.22319106561918 0 -299.22319106561918 -81.999879756931477 0 0 0 0 -289.58254353206576 -585.99781223201535 0 -585.99781223201535 -94.233488712852704 0 0 0 0 -458.29407038051215 -441.811729410814 0 -441.811729410814 254.46899242408836 0 0 0 0 154.94263454157772 -582.32767668786255 0 -582.32767668786255 -113.78833060325451 0 0 0 0 322.52697434313177 -54.722748022132691 0 -54.722748022132691 -112.29199773471919 0 0 0 0 61.153535665194795 -269.81819645451105 0 -269.81819645451105 268.63300922263443 0 0 0 0 0.98206128345526622 -2.1257831781771728 0 -2.1257831781771728 0.30358174262337911 0 0 0 0 55.04378641150106 -6.8363152753299801 0 -6.8363152753299801 7.0232053348881891 0 0 0 0 57.647122667032818 12.855514152382966 0 12.855514152382966 10.911067844710487 0 0 0 0 109.81329841322986 10.68609637443933 0 10.68609637443933 -13.781717211924843 0 0 0 0 0.30578755968328863 -1.1606590848448661 0 -1.1606590848448661 0.44929328694445303 0 0 0 0 -226.74104657845237 -146.69591252409373 0 -146.69591252409373 -124.70039425270079 0 0 0 0 -226.57051326270084 -111.58715717509767 0 -111.58715717509767 -23.959967395639978 0 0 0 0 -1.995698342572723 2.8779178548356867 0 2.8779178548356867 4.4936620364187547 0 0 0 0 58.469234725074784 -4.0065711196948541 0 -4.0065711196948541 -5.4999624391566613 0 0 0 0 18.656598133053194 -14.466605582863849 0 -14.466605582863849 2.8172879630583338 0 0 0 0 53.180958056698728 -1.8905422144380282 0 -1.8905422144380282 -5.7861333521286724 0 0 0 0 21.076591349876253 -5.3160461492807372 0 -5.3160461492807372 4.278010051973979 0 0 0 0 22.182948341505835 -9.113187030525296 0 -9.113187030525296 -1.8465329933678731 0 0 0 0 3.3541185278954799 -6.7474382626169245 0 -6.7474382626169245 3.6087134976842208 0 0 0 0 1.1387787926287274 -0.77268926036049379 0 -0.77268926036049379 -12.47081030512345 0 0 0 0 199.3887347340933 192.23755796430487 0 192.23755796430487 -15.318345994211086 0 0 0 0 4.3954803452698741 -1.3784547260883642 0 -1.3784547260883642 -5.5817288745580242 0 0 0 0 -10.171650468921143 -9.1758598154847277 0 -9.1758598154847277 -0.95752909321163315 0 0 0 0 175.09238919412746 195.71987322378482 0 195.71987322378482 205.12487471505301 0 0 0 0 33.619644542115566 -16.155566229961551 0 -16.155566229961551 -92.507374294116744 0 0 0 0 151.03246697241957 -128.94444028182443 0 -128.94444028182443 62.452822449820815 0 0 0 0 38.985581167493365 -141.94361143769856 0 -141.94361143769856 57.672446066251723 0 0 0 0 109.77173299507194 -57.545684664422879 0 -57.545684664422879 248.56806027094717 0 0 0 0 42.676346263235317 -24.368946208045529 0 -24.368946208045529 -34.428449468309196 0 0 0 0 571.596150762256 -57.883214676257921 0 -57.883214676257921 1.3668170960154384 0 0 0 0 578.50340052612773 2.149404499911725 0 2.149404499911725 -20.376336945191724 0 0 0 0 1.4757704250925059 -0.21852699546965937 0 -0.21852699546965937 -1.4858631321435496 0 0 0 0 526.88188817541231 -43.036673143258668 0 -43.036673143258668 -3.5621085718739778 0 0 0 0 0.67679315239703897 -1.2090547597364179 0 -1.2090547597364179 -1.216350432640894 0 0 0 0 539.59210412783614 9.6753683798579004 0 9.6753683798579004 -20.793141928093974 0 0 0 0 225.55895158000931 -11.806737342529232 0 -11.806737342529232 53.85469495698635 0 0 0 0 244.11915198016322 114.62479429890391 0 114.62479429890391 -91.011179145760252 0 0 0 0 -1.1477752760494155 -2.4556227711592697 0 -2.4556227711592697 -2.4338538886140952 0 0 0 0 -2.2398000399698503 1.006522937281261 0 1.006522937281261 -7.2848514948491356 0 0 0 0 61.941352734667817 -23.305957549084269 0 -23.305957549084269 -131.07805476199428 0 0 0 0 -10.753339452519867 -84.249576143800368 0 -84.249576143800368 -110.72288364474662 0 0 0 0 244.23203461518278 66.296191924222512 0 66.296191924222512 -91.128938166308217 0 0 0 0 182.4488117081637 3.0769521702677594 0 3.0769521702677594 -143.56481713226822 0 0 0 0 122.10333402145625 -15.425792447276763 0 -15.425792447276763 -154.76651291672897 0 0 0 0 81.19858133449452 -16.366508070168493 0 -16.366508070168493 -112.62716074363198 0 0 0 0 -87.435612518689595 -95.460817001017858 0 -95.460817001017858 -138.55432487826693 0 0 0 0 88.974379697717723 -69.056470059175354 0 -69.056470059175354 -194.16142280542408 0 0 0 0 -121.56095825191733 -295.20088500522979 0 -295.20088500522979 -341.43426973039459 0 0 0 0 57.025649587696535 -111.67381333684898 0 -111.67381333684898 -207.68503103424882 0 0 0 0 -0.31516018190745854 -0.61431929931434581 0 -0.61431929931434581 -1.1224037558346254 0 0 0 0 56.99250275669965 -10.110464934884931 0 -10.110464934884931 -3.1457011783495545 0 0 0 0 191.76068565803507 240.56635810370062 0 240.56635810370062 -316.96230669429133 0 0 0 0 -158.34611375819804 142.19431668639299 0 142.19431668639299 -136.82132030333742 0 0 0 0 1634.9999034293432 180.40518606240948 0 180.40518606240948 -433.76278593508687 0 0 0 0 -577.61605675458577 -288.28171596748507 0 -288.28171596748507 -49.221856278847554 0 0 0 0 1.877824974196141 -4.4323690338718507 0 -4.4323690338718507 0.77851130567773907 0 0 0 0 -26.545686904624745 -410.17534957753378 0 -410.17534957753378 -82.033620103607973 0 0 0 0 235.34104529551951 684.13295011717491 0 684.13295011717491 -212.08661327657319 0 0 0 0 -63.69392237057582 -472.05522126347569 0 -472.05522126347569 130.08395127311815 0 0 0 0 4.6817047263667106 -10.06503965913096 0 -10.06503965913096 11.015525728300901 0 0 0 0 1674.9284596637517 -136.30697376068201 0 -136.30697376068201 -742.06845982133382 0 0 0 0 -131.96040097258083 -70.897917928064999 0 -70.897917928064999 84.467352895240765 0 0 0 0 833.02704877210999 -142.81377477883143 0 -142.81377477883143 -180.91987706926011 0 0 0 0 -1.8217357669071923 -28.93063942230927 0 -28.93063942230927 31.016967489319853 0 0 0 0 -958.13327423416922 -952.2100067101419 0 -952.2100067101419 204.98576525974931 0 0 0 0 -356.28088850248605 -959.56229708015599 0 -959.56229708015599 -89.622325028089108 0 0 0 0 52.422183431765006 -87.17559700536367 0 -87.17559700536367 -38.370188237233378 0 0 0 0 -39.912115081162483 -77.305323442065855 0 -77.305323442065855 41.201450695691165 0 0 0 0 -23.887169809502666 -188.2173293990927 0 -188.2173293990927 28.162727210483354 0 0 0 0 -26.719033755604684 -39.86854640270704 0 -39.86854640270704 -33.268979935336688 0 0 0 0 -36.756512557105452 -27.322921232829685 0 -27.322921232829685 15.885854520063504 0 0 0 0 -30.987119866309186 -38.104097441678633 0 -38.104097441678633 -50.520856308638059 0 0 0 0 56.095424340300269 -232.32898055147871 0 -232.32898055147871 -1.3826187628583284 0 0 0 0 33.137328228709521 -128.33965462287597 0 -128.33965462287597 2.812106367549859 0 0 0 0 107.8262758143137 -61.744799214222439 0 -61.744799214222439 -96.40976285427314 0 0 0 0 -197.959636166976 -148.89788713893176 0 -148.89788713893176 -31.12895230572758 0 0 0 0 -298.26829481805908 -85.339867491282348 0 -85.339867491282348 -19.961723773659287 0 0 0 0 35.050021958289562 -106.79229191959757 0 -106.79229191959757 -224.5130346511578 0 0 0 0 35.636350750610291 -98.444352645205527 0 -98.444352645205527 -105.88698122018104 0 0 0 0 116.28941529554504 -106.63441425860583 0 -106.63441425860583 -56.068668893214635 0 0 0 0 -1.8856437264550436 -25.182304080086212 0 -25.182304080086212 -2.7717807206732061 0 0 0 0 -16.353132590629684 -37.700502803087147 0 -37.700502803087147 -33.22205682042113 0 0 0 0 -3.7896668850391819 -25.914251714067603 0 -25.914251714067603 -20.174337064694441 0 0 0 0 17.200300330558093 -22.106463393181912 0 -22.106463393181912 -26.86549229544471 0 0 0 0 7.1037324844232899 -11.982188082870266 0 -11.982188082870266 -29.622316531953402 0 0 0 0 14.030800530136702 -25.581780982136038 0 -25.581780982136038 -28.278933081489413 0 0 0 0 -43.028535748511786 -136.8718452962712 0 -136.8718452962712 -38.226978700564359 0 0 0 0 -27.8074080547362 -44.853931680971243 0 -44.853931680971243 -53.096557950104966 0 0 0 0 24.395790095026314 -50.056405584680761 0 -50.056405584680761 30.792783433862496 0 0 0 0 -2.7078768580644805 -6.4011154410430464 0 -6.4011154410430464 -3.4079716993580149 0 0 0 0 -58.576539835790754 -106.47269798555953 0 -106.47269798555953 -121.99361709840741 0 0 0 0 -84.211029418176622 -77.948713331836188 0 -77.948713331836188 47.809450141925481 0 0 0 0 32.968587037266843 -35.429599913349193 0 -35.429599913349193 -36.625202024486498 0 0 0 0 58.388046033021965 -92.893057932958982 0 -92.893057932958982 -34.814066385792103 0 0 0 0 -56.395570756634697 -76.294517426500533 0 -76.294517426500533 -41.603402426786488 0 0 0 0 -79.047670492505858 -51.344680691612666 0 -51.344680691612666 -45.176430784427794 0 0 0 0 -58.249703272922488 -64.677658826913103 0 -64.677658826913103 -38.697482243886043 0 0 0 0 214.09431948026031 -24.997574007113144 0 -24.997574007113144 550.28002193666907 0 0 0 0 113.25735884974711 -542.47226852524909 0 -542.47226852524909 1293.1996552261116 0 0 0 0 -149.33450662567338 -218.78580431316368 0 -218.78580431316368 1263.7669162493294 0 0 0 0 -14.331811032211391 6.056678862821169 0 6.056678862821169 30.215589248506063 0 0 0 0 -627.53310224633606 -716.57688157273151 0 -716.57688157273151 1260.6161837100117 0 0 0 0 -31.684100224672306 -57.208994189765754 0 -57.208994189765754 -37.884140876916867 0 0 0 0 -2.5987970874994062 -33.687721680784307 0 -33.687721680784307 -68.322456450478057 0 0 0 0 -25.459813791092529 -33.023043093108754 0 -33.023043093108754 -24.767637937300606 0 0 0 0 -97.771165110752918 -58.525234171742341 0 -58.525234171742341 38.457594317253097 0 0 0 0 -0.039244396844878793 -28.462873548924108 0 -28.462873548924108 -4.7515663394533476 0 0 0 0 -7.1964223185289882 -6.4523128081240486 0 -6.4523128081240486 1.3284836744111317 0 0 0 0 -32.206124736490892 -1.5751879219315015 0 -1.5751879219315015 8.1312535284851037 0 0 0 0 -260.07314919590135 73.89479222196951 0 73.89479222196951 629.11468885807335 0 0 0 0 203.88743988335773 399.09542549605703 0 399.09542549605703 521.85888392758352 0 0 0 0 -6.0082544710341921 -16.2157137501259 0 -16.2157137501259 32.243526290750992 0 0 0 0 2.3370784870736259 -17.655214384734961 0 -17.655214384734961 -22.594385200491786 0 0 0 0 -76.442663184774574 -43.248445176242967 0 -43.248445176242967 -23.083202050271211 0 0 0 0 -24.875463523363578 -25.683302580288 0 -25.683302580288 -14.552262258817791 0 0 0 0 3.9281024690135382 -26.432212213170715 0 -26.432212213170715 -8.6402785108948592 0 0 0 0 0.33525314719844346 -20.129457665209245 0 -20.129457665209245 -11.842520675882412 0 0 0 0 5.7102168538840488 -23.256161291908938 0 -23.256161291908938 -8.169951118165045 0 0 0 0 -47.679431029398557 -67.954527330943051 0 -67.954527330943051 -28.729166808321835 0 0 0 0 -15.40148014949358 -25.220786412774512 0 -25.220786412774512 12.907158439422062 0 0 0 0 6.2932208050042391 -22.070404130092356 0 -22.070404130092356 -6.1137500452296081 0 0 0 0 4.8778806973132305 -24.576534400664968 0 -24.576534400664968 -5.95885869776248 0 0 0 0 -22.086806159734707 -22.132843630485581 0 -22.132843630485581 -8.4444699078946428 0 0 0 0 -28.551774901897744 -37.011465352239739 0 -37.011465352239739 -8.2265720264112758 0 0 0 0 6.9672906452324241 -37.049037714634323 0 -37.049037714634323 49.58603417222912 0 0 0 0 -15.097748853238102 -33.370262548929226 0 -33.370262548929226 -15.654668588474809 0 0 0 0 -1.415899320737168 -15.746357962618987 0 -15.746357962618987 -9.0586435741327023 0 0 0 0 -0.010255248125758953 -8.5559220694667601 0 -8.5559220694667601 -4.4805375001888024 0 0 0 0 -8.6545489365234971 -19.457256812849664 0 -19.457256812849664 -13.6612704826548 0 0 0 0 -4.8103713122584395 -10.798457006832876 0 -10.798457006832876 -9.4678955671101761 0 0 0 0 -8.2375365598816188 -11.139663615760679 0 -11.139663615760679 -0.25551414848265352 0 0 0 0 1.0913380013153073 -11.775391090453923 0 -11.775391090453923 -4.9404493017063942 0 0 0 0 1.9378823083243333 -10.968685617895972 0 -10.968685617895972 -4.1908322424569633 0 0 0 0 -0.23671800508915908 -11.960099227940908 0 -11.960099227940908 -7.0742473676016289 0 0 0 0 -17.645173190830974 -19.889008437065058 0 -19.889008437065058 -7.0395057774549059 0 0 0 0 -38.499884742122958 -18.997259940384538 0 -18.997259940384538 4.8289526877342723 0 0 0 0 -0.07663022692446475 -2.5179230003044495 0 -2.5179230003044495 -3.0263156164326688 0 0 0 0 -13.02772803849075 0.43237990981288021 0 0.43237990981288021 -0.48457981141109485 0 0 0 0 -0.31071718359103784 -0.12138648948302233 0 -0.12138648948302233 -0.91528221869143067 0 0 0 0 -929.73991885149735 -240.34972521121381 0 -240.34972521121381 -54.152342410542587 0 0 0 0 7.2128467672737315 4.3271110379755555 0 4.3271110379755555 -44.662278553616488 0 0 0 0 -2.1204122671985601 -7.0202638446384604 0 -7.0202638446384604 -3.347028332648776 0 0 0 0 229.46684375164477 2.1274194334218919 0 2.1274194334218919 -83.393598012669827 0 0 0 0 -0.067624681047163904 -7.4080495033304032 0 -7.4080495033304032 -8.948478477592289 0 0 0 0 6.0809111060752912 -0.97193793332813527 0 -0.97193793332813527 -5.7218489164784501 0 0 0 0 145.3937646002887 47.235274239497812 0 47.235274239497812 -17.682206712153857 0 0 0 0 3.9459686150808011 -7.8055122842739308 0 -7.8055122842739308 -8.451265239851466 0 0 0 0 38.735549229386379 22.552574082190404 0 22.552574082190404 -11.731091048946837 0 0 0 0 -16.451266882555501 -36.432428002754023 0 -36.432428002754023 -25.066106019961808 0 0 0 0 -24.748063804839603 -30.528026291434344 0 -30.528026291434344 -14.617739848443307 0 0 0 0 -21.064090391111591 -21.501815847341859 0 -21.501815847341859 -5.8247231773202941 0 0 0 0 -9.2675481706828577 -22.813995493932453 0 -22.813995493932453 -15.660168288304703 0 0 0 0 -7.7644441641713513 -19.404534631452108 0 -19.404534631452108 -15.344391935397304 0 0 0 0 13.12832304474432 -29.020281776316551 0 -29.020281776316551 -20.940793042085716 0 0 0 0 -3.8291241237166105 -16.342649034373608 0 -16.342649034373608 -12.069812459454624 0 0 0 0 10.57395307840676 -11.168086306726167 0 -11.168086306726167 -14.679512193658582 0 0 0 0 13.20035041204747 -5.3026829416108967 0 -5.3026829416108967 -7.9719732297135693 0 0 0 0 17.919864672861877 -11.379445759717782 0 -11.379445759717782 -20.740706195174425 0 0 0 0 20.640991497624782 -10.724895086201286 0 -10.724895086201286 -23.393753970515263 0 0 0 0 -15.359600176889217 -16.054905623612285 0 -16.054905623612285 -13.901393101376016 0 0 0 0 6.7334849392119622 -12.329296467025074 0 -12.329296467025074 -14.68553382104713 0 0 0 0 13.038562957989797 -13.944284704774873 0 -13.944284704774873 -23.785124174961425 0 0 0 0 7.1186481369950343 -15.899551250608056 0 -15.899551250608056 -16.737475397647358 0 0 0 0 -13.488432635683836 -16.463719439921519 0 -16.463719439921519 -14.274396601783081 0 0 0 0 32.013360609926167 -92.698847614443366 0 -92.698847614443366 -65.793686945718946 0 0 0 0 178.80953699145903 -53.636368711364412 0 -53.636368711364412 -65.06586385187984 0 0 0 0 -27.326794066051662 -132.76658572150836 0 -132.76658572150836 -134.82485032974364 0 0 0 0 0.11583701005292824 -83.19626838847762 0 -83.19626838847762 -63.861184384502849 0 0 0 0 0.14629569097451167 -99.044962935233343 0 -99.044962935233343 -150.14979625051819 0 0 0 0 -23.515146132573136 -130.14539450722077 0 -130.14539450722077 -82.13556185951893 0 0 0 0 54.66723451364669 6.0134593415878044 0 6.0134593415878044 -144.54808283414968 0 0 0 0 -37.746175928110461 -55.202105953696218 0 -55.202105953696218 -30.533630461592111 0 0 0 0 7.5019447795566236 -1.8818216522628575 0 -1.8818216522628575 -4.8735512716688731 0 0 0 0 -148.64808304842882 -77.370577021581994 0 -77.370577021581994 -32.042037872495712 0 0 0 0 2.1672766485426109 -25.714488708181307 0 -25.714488708181307 -27.634056464332389 0 0 0 0 64.325492427421693 -20.694529750784419 0 -20.694529750784419 -57.773082113670569 0 0 0 0 11.224229884667572 -22.642464847984613 0 -22.642464847984613 -34.514996653200541 0 0 0 0 -17.919465055521869 -41.698387486612774 0 -41.698387486612774 -38.604365257415338 0 0 0 0 9.7567124815487176 -13.93053018976434 0 -13.93053018976434 -16.173130860590618 0 0 0 0 -21.078493566630641 -35.463405429924023 0 -35.463405429924023 -47.778910138527863 0 0 0 0 -1.8290980405823944 -2.4710182644540453 0 -2.4710182644540453 -4.8192490307966978 0 0 0 0 17.708769616180248 -25.165153092789751 0 -25.165153092789751 -36.315248011181239 0 0 0 0 89.09921837735601 -41.108529026263568 0 -41.108529026263568 -78.88287877726907 0 0 0 0 109.99716312914097 -14.530710705508682 0 -14.530710705508682 -47.072038123558741 0 0 0 0 73.420697396308242 51.346625710422813 0 51.346625710422813 -60.518140484139622 0 0 0 0 29.57610744697115 -13.630454533745294 0 -13.630454533745294 -23.79195670904528 0 0 0 0 11.437174836646591 2.170092762546119 0 2.170092762546119 10.954264438430982 0 0 0 0 123.69192243375983 113.78916687906894 0 113.78916687906894 -50.503508104200591 0 0 0 0 8.3236767646237126 -13.416895870218127 0 -13.416895870218127 -16.393347647542299 0 0 0 0 -61.002571065775555 -50.590251637135225 0 -50.590251637135225 -26.46645451214863 0 0 0 0 -158.01176086583291 -37.401459052707651 0 -37.401459052707651 -151.6121872892254 0 0 0 0 -213.95672132522668 -135.78381743425416 0 -135.78381743425416 154.37486120570975 0 0 0 0 -43.907874034077395 -126.73595897424093 0 -126.73595897424093 -308.83818021559273 0 0 0 0 -15.6233419928285 -72.919148951452371 0 -72.919148951452371 -25.839893077602028 0 0 0 0 -19.646304772628355 -77.813784884097913 0 -77.813784884097913 -14.880789576127427 0 0 0 0 1.067695092210414 -0.86807801863034229 0 -0.86807801863034229 -1.7576843521914611 0 0 0 0 20.366604516183926 -24.380426522316782 0 -24.380426522316782 -34.160124718461532 0 0 0 0 -51.030237907223636 -164.89372146016831 0 -164.89372146016831 -235.96452410006896 0 0 0 0 52.854216084037034 7.3579282752725703 0 7.3579282752725703 -33.314971311308909 0 0 0 0 64.446918579771591 -7.6157597202727629 0 -7.6157597202727629 -82.928879185536061 0 0 0 0 -32.673186262567469 -73.785746235222177 0 -73.785746235222177 33.412168053124333 0 0 0 0 -22.671831394531182 -116.87172988147358 0 -116.87172988147358 -87.185253465067944 0 0 0 0 -15.006246053424547 -31.812759566529166 0 -31.812759566529166 -52.601221950739273 0 0 0 0 -24.112992891903559 -20.395512339742709 0 -20.395512339742709 29.243972474469047 0 0 0 0 5.2036435039926516 0.35030889586386138 0 0.35030889586386138 -1.2387959523915271 0 0 0 0 2.4863095776108253 0.57054459336606556 0 0.57054459336606556 -1.5175859373838421 0 0 0 0 0.17723110529914265 11.607474957359955 0 11.607474957359955 -13.072710328582616 0 0 0 0 -114.41119481157511 -91.233697825480704 0 -91.233697825480704 75.865368038117595 0 0 0 0 -12.673323757437174 27.595360823495866 0 27.595360823495866 120.12367652165631 0 0 0 0 -58.780697358495672 -64.482192311959807 0 -64.482192311959807 -3.4660972128513095 0 0 0 0 3.3209028118135393 -10.361203132077705 0 -10.361203132077705 25.011796822384696 0 0 0 0 -5.4507611743174493 -14.551259254041724 0 -14.551259254041724 34.175214445383062 0 0 0 0 -0.10137119876162615 -36.953070132656649 0 -36.953070132656649 57.319687122866526 0 0 0 0 2.4483639457466779 -11.714628667429679 0 -11.714628667429679 23.685645791759271 0 0 0 0 -1.4994906975175866 0.18792789121456011 0 0.18792789121456011 6.9358370671449272 0 0 0 0 0.29183448498224607 62.051327705506083 0 62.051327705506083 -96.540655217411768 0 0 0 0 -23.876012129650917 2.1473514356594023 0 2.1473514356594023 22.616686563959775 0 0 0 0 0.22897310892193445 -1.7467361220055651 0 -1.7467361220055651 5.4781614832186207 0 0 0 0 -27.423491485926206 -21.812184908098061 0 -21.812184908098061 66.93345502450029 0 0 0 0 102.756884309405 -78.152311871069287 0 -78.152311871069287 30.858262399744717 0 0 0 0 -3.0099342345311015 -17.877866024229888 0 -17.877866024229888 -7.3869680939042155 0 0 0 0 -4.9505894023022847 5.4403088239396311 0 5.4403088239396311 61.181207090927501 0 0 0 0 -21.920532259930042 -17.028344236644443 0 -17.028344236644443 10.16201283197006 0 0 0 0 -4.5867684829214781 -4.564240679869954 0 -4.564240679869954 12.089349510483245 0 0 0 0 11.888632576694363 -28.047656833618476 0 -28.047656833618476 28.495873917876452 0 0 0 0 -2.8877568856260041 -14.801813834033965 0 -14.801813834033965 17.019918023341233 0 0 0 0 -8.6708248931278149 1.4183562525630489 0 1.4183562525630489 13.464133109578066 0 0 0 0 -27.335573582502548 10.265665374050513 0 10.265665374050513 70.172397075624758 0 0 0 0 -4.7627514008563594 19.197515364422884 0 19.197515364422884 66.416614613986894 0 0 0 0 37.936120804428356 -76.520122628194258 0 -76.520122628194258 46.03039823372842 0 0 0 0 6.1106747715514871 -7.8340860869461793 0 -7.8340860869461793 13.074691877330565 0 0 0 0 2.2783599145121798 -2.1859531881324603 0 -2.1859531881324603 1.0973169750169016 0 0 0 0 -52.252083768558805 -38.532061277293906 0 -38.532061277293906 180.64167430314956 0 0 0 0 76.849979900143808 -69.315449372843432 0 -69.315449372843432 164.77199094710522 0 0 0 0 -0.076456972039473214 0.97937295816578285 0 0.97937295816578285 -0.26226574715088802 0 0 0 0 -82.921899061198928 9.6110009073954643 0 9.6110009073954643 149.38535878378684 0 0 0 0 -8.0472382591033238 39.946527426123339 0 39.946527426123339 -3.0040459958854626 0 0 0 0 24.423542753058427 -6.9366938402718006 0 -6.9366938402718006 164.34212222327733 0 0 0 0 -33.755817736920534 -73.345692711695392 0 -73.345692711695392 54.559023709118847 0 0 0 0 88.780140480972477 -44.040165877282561 0 -44.040165877282561 -456.14076284981638 0 0 0 0 -5.7165222837793408 -24.960941152202395 0 -24.960941152202395 154.03077318921351 0 0 0 0 -13.053656936521293 -57.582176060974234 0 -57.582176060974234 -31.376429111740435 0 0 0 0 -1.1112541124315101 -32.691543000424304 0 -32.691543000424304 36.188849642412968 0 0 0 0 -15.292376122711516 -39.189925351980676 0 -39.189925351980676 30.384814502013533 0 0 0 0 115.36566198356741 85.84535718681218 0 85.84535718681218 -285.68842329247491 0 0 0 0 10.860742493372527 -64.007052468366965 0 -64.007052468366965 -19.539009029816953 0 0 0 0 12.978367589195102 -44.698062483023463 0 -44.698062483023463 10.04525848548721 0 0 0 0 18.682423902733717 -36.850467668209603 0 -36.850467668209603 44.327987437332922 0 0 0 0 -15.948233558941865 -53.0122972269819 0 -53.0122972269819 -3.3495126741981949 0 0 0 0 6.2540358456026297 -43.665115719322785 0 -43.665115719322785 0.57558762604458025 0 0 0 0 -51.378238531528041 44.964732597720285 0 44.964732597720285 127.40461766137742 0 0 0 0 -2.3673654720274726 0.014279632827751243 0 0.014279632827751243 21.408886815164564 0 0 0 0 -2.957694393966392 -14.499439002710858 0 -14.499439002710858 55.824011280804207 0 0 0 0 -14.263131353498466 -54.534021246822704 0 -54.534021246822704 44.594025557573332 0 0 0 0 -2.5342155613470823 -21.917221760850225 0 -21.917221760850225 9.0220618384737463 0 0 0 0 -12.001292766778988 -3.1299236117262978 0 -3.1299236117262978 8.4258438092745092 0 0 0 0 -0.51688967618201787 -5.0039377930456084 0 -5.0039377930456084 -32.355098714830177 0 0 0 0 0.029108906765390546 -3.668833153103106 0 -3.668833153103106 -79.250113852787763 0 0 0 0 12.070108926927958 -8.7604688388367862 0 -8.7604688388367862 -19.393460711385259 0 0 0 0 -2.3097391325122487 24.837835938229034 0 24.837835938229034 -76.503862516281089 0 0 0 0 -531.04323337037931 -443.06714265145638 0 -443.06714265145638 -748.75127557957239 0 0 0 0 -530.71671436096187 -895.11820222614267 0 -895.11820222614267 -1059.5072845288087 0 0 0 0 -1.588265360405785 -775.88316719218528 0 -775.88316719218528 -1193.6429619662231 0 0 0 0 -404.95332419874467 -988.0667876018133 0 -988.0667876018133 -1170.541310479246 0 0 0 0 -667.97718453130801 -929.22149460825312 0 -929.22149460825312 -1162.9344850543575 0 0 0 0 -556.58841310456046 -752.66753104893996 0 -752.66753104893996 -1165.6443399232085 0 0 0 0 -4.7739690332940654 16.174670735196372 0 16.174670735196372 -42.570528622711606 0 0 0 0 460.01221421278024 321.53931760898922 0 321.53931760898922 -232.70652294364118 0 0 0 0 -815.06272789220384 -750.45437977299662 0 -750.45437977299662 -1115.6985069723432 0 0 0 0 -5.0516637009714032 -126.63429046774036 0 -126.63429046774036 108.7189751477199 0 0 0 0 -1373.4037107487638 -1754.1297819569172 0 -1754.1297819569172 -1307.7218012161538 0 0 0 0 -708.78933344539473 -830.86557676197663 0 -830.86557676197663 -1386.2859732574289 0 0 0 0 -2024.6112535412103 -1505.7451031436503 0 -1505.7451031436503 -1151.0061671439232 0 0 0 0 2.6030735682143131 -1242.794497449664 0 -1242.794497449664 -1057.4239126302091 0 0 0 0 -842.13572927149653 -824.69027747712244 0 -824.69027747712244 132.94931780927436 0 0 0 0 -12.298398222013946 -354.4627699436013 0 -354.4627699436013 570.93427175734541 0 0 0 0 909.00649042664736 829.15303008509909 0 829.15303008509909 -304.265600228724 0 0 0 0 1.9198222520245167 -1.3708725567789486 0 -1.3708725567789486 11.222935920620699 0 0 0 0 1.4226678933785166 -2.2032061932845011 0 -2.2032061932845011 -0.91759421683509856 0 0 0 0 -439.59981084072206 270.15854354213297 0 270.15854354213297 -1178.6552085806761 0 0 0 0 -117.4234624373421 -272.90949632655338 0 -272.90949632655338 -338.94164585409453 0 0 0 0 -591.5312181164627 596.17598193822414 0 596.17598193822414 489.70679740414926 0 0 0 0 -124.31377836241154 -118.76566267685121 0 -118.76566267685121 79.093920037936186 0 0 0 0 -109.32567258310337 72.674841108445889 0 72.674841108445889 -218.69333596953948 0 0 0 0 0.0017394813679378247 -9.8462923786391539 0 -9.8462923786391539 -3.6862324814283056 0 0 0 0 -23.594474062178051 -12.65718023237423 0 -12.65718023237423 -3.811757890143781 0 0 0 0 1.2369706749150851 -2.9941215209889265 0 -2.9941215209889265 0.56436781213700726 0 0 0 0 324.08769348004716 17.469144730763219 0 17.469144730763219 298.68945636026183 0 0 0 0 -691.92500478594184 -1006.4305413541542 0 -1006.4305413541542 -676.93106676887692 0 0 0 0 -863.04476194427116 423.40198964572664 0 423.40198964572664 -765.26307991463182 0 0 0 0 -567.49478325576638 -468.99813350689874 0 -468.99813350689874 313.88925781834951 0 0 0 0 -2100.3689009554801 -2611.2221298663389 0 -2611.2221298663389 -2365.6237933500042 0 0 0 0 -702.3016228463166 -1029.1899768879589 0 -1029.1899768879589 -2967.929702864174 0 0 0 0 566.72437483430258 -457.305859745833 0 -457.305859745833 -1899.1614997457182 0 0 0 0 133.20992601664148 149.87034557617517 0 149.87034557617517 -1541.3018335510569 0 0 0 0 572.77230469167625 1097.1257734899036 0 1097.1257734899036 -435.78570217791275 0 0 0 0 -4.4990515907788904 5.3379581435976604 0 5.3379581435976604 -13.165570986038233 0 0 0 0 449.28701421807637 -663.15176566778609 0 -663.15176566778609 -408.87878797962179 0 0 0 0 -503.04374544462917 -545.97721385197474 0 -545.97721385197474 -15.825312475004466 0 0 0 0 -7.6264792025079373 -6.4279480425992119 0 -6.4279480425992119 -14.864147815574796 0 0 0 0 81.218001128865581 -69.7301222323822 0 -69.7301222323822 -177.83649725496798 0 0 0 0 156.21975033212584 -328.38492856252196 0 -328.38492856252196 -862.74282916573429 0 0 0 0 -69.935389372025014 -63.080070578606588 0 -63.080070578606588 45.676205876448648 0 0 0 0 91.905138747082674 53.474917530776111 0 53.474917530776111 242.6586238549844 0 0 0 0 -151.32030912528353 72.176927856618931 0 72.176927856618931 562.17087543352409 0 0 0 0 -285.95571551469766 -359.16146401989317 0 -359.16146401989317 716.92500962091435 0 0 0 0 -547.18150389828679 -2012.207642587799 0 -2012.207642587799 -895.20484484206099 0 0 0 0 835.34260587710014 -605.44496941993566 0 -605.44496941993566 -2844.5906651890982 0 0 0 0 367.37790735038288 -317.67104442085838 0 -317.67104442085838 -862.57726345508559 0 0 0 0 707.16465666050499 -524.7400718999852 0 -524.7400718999852 -1749.8701901280147 0 0 0 0 582.06654447830806 -350.79547615462798 0 -350.79547615462798 -1160.4826789532381 0 0 0 0 360.16237425697909 -25.759466094576055 0 -25.759466094576055 -613.33243835715257 0 0 0 0 673.51421546106576 -28.224824753327994 0 -28.224824753327994 -1717.3505901314275 0 0 0 0 110.81605712615055 357.32941405504971 0 357.32941405504971 -876.28478433563578 0 0 0 0 443.75244275289879 27.41678084268824 0 27.41678084268824 -1109.2359898463619 0 0 0 0 597.06620527665655 442.05264640655514 0 442.05264640655514 -2384.8105302949898 0 0 0 0 436.37093337040278 -71.646812830324052 0 -71.646812830324052 -1085.2646839737281 0 0 0 0 35.799654639455184 334.11414534303731 0 334.11414534303731 -65.951209656712308 0 0 0 0 285.57218321594701 52.759429102216018 0 52.759429102216018 -16.524523168627638 0 0 0 0 171.95457427704423 -122.68653494736009 0 -122.68653494736009 246.20184635839541 0 0 0 0 677.15853807183885 -537.7801036936271 0 -537.7801036936271 453.25320823880611 0 0 0 0 1.7026450124125461 -77.282687545625208 0 -77.282687545625208 -46.336570520184544 0 0 0 0 5.9210353233924309 -47.032594815998564 0 -47.032594815998564 -48.875214467838376 0 0 0 0 341.50691102238125 -794.36530838893964 0 -794.36530838893964 -369.60742488330288 0 0 0 0 -67.094681773945922 -589.58637885548524 0 -589.58637885548524 617.90537154348567 0 0 0 0 -295.54853629410354 -1166.4876394108142 0 -1166.4876394108142 -2294.489625115355 0 0 0 0 -1678.899564848909 -1669.746498147515 0 -1669.746498147515 -261.98049912393617 0 0 0 0 -12.440305174574405 -8.8932582280496106 0 -8.8932582280496106 -3.1113405568499317 0 0 0 0 -1022.5877321363223 -372.69226056819025 0 -372.69226056819025 414.08380376028435 0 0 0 0 -949.4892771937084 -1438.2936827868834 0 -1438.2936827868834 -2395.2321621782539 0 0 0 0 -1.1631654401442368 -6.2745090829758539 0 -6.2745090829758539 -35.232978355527408 0 0 0 0 -1509.0356849065902 -1876.0877656381899 0 -1876.0877656381899 -1992.4036152468034 0 0 0 0 -494.31619462346134 -1623.6919185557272 0 -1623.6919185557272 -2864.6069853611916 0 0 0 0 -509.83376411173231 -630.2759179222121 0 -630.2759179222121 -905.45230680129316 0 0 0 0 -940.77513216985244 -1764.1451628901486 0 -1764.1451628901486 -1881.2032003389249 0 0 0 0 -1058.197042964041 37.590107731103899 0 37.590107731103899 -873.47608867219242 0 0 0 0 857.13095398409496 -146.56511600197518 0 -146.56511600197518 -1230.7413143631056 0 0 0 0 -155.05085104680984 -1266.3268349588852 0 -1266.3268349588852 -292.25391094580846 0 0 0 0 -445.74244412298037 1375.1961932583974 0 1375.1961932583974 -1342.890967591622 0 0 0 0 -1352.2374610326733 844.47551101435965 0 844.47551101435965 1841.4482325517274 0 0 0 0 -85.687631522085326 -51.369667761511586 0 -51.369667761511586 42.385448868622838 0 0 0 0 110.19033820426557 98.975891262920413 0 98.975891262920413 371.65384196433206 0 0 0 0 173.17209687153081 263.76087631003793 0 263.76087631003793 402.92143284268604 0 0 0 0 -0.88852223847658252 -1.4725737626655899 0 -1.4725737626655899 1.5405708229449555 0 0 0 0 7.1395202117273584 241.78962724672601 0 241.78962724672601 654.98243854199882 0 0 0 0 -138.5361625583173 -143.10291041550863 0 -143.10291041550863 -142.50517475586184 0 0 0 0 -82.342736421949667 59.094225465437148 0 59.094225465437148 612.66274781211359 0 0 0 0 -165.76438888661141 -89.282385539106144 0 -89.282385539106144 -60.702694134231933 0 0 0 0 -189.97998638123681 -128.85800725030822 0 -128.85800725030822 16.915570640212536 0 0 0 0 -133.11856438588438 -117.57618116100366 0 -117.57618116100366 -73.397913970968602 0 0 0 0 -149.19807570228295 -62.507394141800887 0 -62.507394141800887 -41.247093187990686 0 0 0 0 -95.815082034816442 -60.247947377967648 0 -60.247947377967648 -14.93348945064281 0 0 0 0 -54.404381670763541 -65.294277729668465 0 -65.294277729668465 -86.437154074290447 0 0 0 0 -51.613098984445969 -24.568786346827267 0 -24.568786346827267 -44.28027654734251 0 0 0 0 -17.461480784826563 -32.316700594254144 0 -32.316700594254144 -76.028590488489499 0 0 0 0 -0.25790431781427969 -4.0277324893578381 0 -4.0277324893578381 3.3769955907582112 0 0 0 0 5.2132662187214009 -14.792990698803806 0 -14.792990698803806 -68.223329066614497 0 0 0 0 3.1102958045143225 -6.6281695034629067 0 -6.6281695034629067 3.6502408097633889 0 0 0 0 -94.297616235475289 22.903317098799107 0 22.903317098799107 363.46209855977759 0 0 0 0 42.678019726721686 -51.398123539802327 0 -51.398123539802327 -61.115349934785627 0 0 0 0 -40.043523564352654 -20.468171212150992 0 -20.468171212150992 35.338010137260426 0 0 0 0 50.040908035138273 -0.36472683380452509 0 -0.36472683380452509 34.907009772434265 0 0 0 0 32.202370582424919 -76.037312199033295 0 -76.037312199033295 97.192601977117192 0 0 0 0 -30.464561035361839 -4.7934860441364435 0 -4.7934860441364435 -27.359335201814247 0 0 0 0 -65.51108274318176 -56.531192689423278 0 -56.531192689423278 219.53390743585624 0 0 0 0 -52.89004559883324 -96.22436790318261 0 -96.22436790318261 -7.1204404447657907 0 0 0 0 -65.42865917293966 -118.70172137094028 0 -118.70172137094028 -73.572520630999861 0 0 0 0 -67.866601469140733 -110.0954621355595 0 -110.0954621355595 -103.38686871634286 0 0 0 0 0.42673110041397422 -0.63866484475376151 0 -0.63866484475376151 -0.046994680847727288 0 0 0 0 -34.108458934890223 -6.1095018733194593 0 -6.1095018733194593 2.1890475302916457 0 0 0 0 -42.877729596124482 -76.674551926007723 0 -76.674551926007723 -61.133911990840716 0 0 0 0 -146.37674902391154 -43.513730874116845 0 -43.513730874116845 18.355048998698294 0 0 0 0 -12.141334152998752 -5.7673851753752388 0 -5.7673851753752388 -17.597212548656898 0 0 0 0 -126.09368367411662 -141.99752754724432 0 -141.99752754724432 -37.498700928164908 0 0 0 0 -97.881088848293075 -156.51848681548631 0 -156.51848681548631 -97.602701379222708 0 0 0 0 -108.28026318195043 -132.62114047171781 0 -132.62114047171781 -35.352001464020759 0 0 0 0 -149.80407702743105 -125.57189705355631 0 -125.57189705355631 -79.455144284638664 0 0 0 0 -178.57961497396172 -191.83796117864495 0 -191.83796117864495 -134.57623218647859 0 0 0 0 -166.60963594791247 -90.232796592795694 0 -90.232796592795694 -89.926921709502494 0 0 0 0 -104.87213851726119 -162.36098208935437 0 -162.36098208935437 -73.735800530750566 0 0 0 0 -313.9523285379255 -278.38291063415681 0 -278.38291063415681 -204.64353804437178 0 0 0 0 -207.15264551768632 -158.80330511396187 0 -158.80330511396187 -173.95064247694449 0 0 0 0 -222.35591586460214 -157.54970269166233 0 -157.54970269166233 -147.59117299328136 0 0 0 0 -337.49286634360033 -287.56391442249515 0 -287.56391442249515 -207.27746981320342 0 0 0 0 -382.9488666977486 -271.49974501845236 0 -271.49974501845236 -187.56533838220548 0 0 0 0 -469.98911071705515 -441.05221695430464 0 -441.05221695430464 -310.62749406581224 0 0 0 0 -399.32171184450272 -353.72851589423863 0 -353.72851589423863 -234.81793259893129 0 0 0 0 -455.73632332427223 -482.24762242464976 0 -482.24762242464976 -360.84780604775551 0 0 0 0 -454.86016754130833 -490.05963699893891 0 -490.05963699893891 -346.34313535191905 0 0 0 0 -357.28633850864571 -348.25262900905909 0 -348.25262900905909 -273.55822069140686 0 0 0 0 -314.99834645887313 -385.79261292473893 0 -385.79261292473893 -353.77211842309293 0 0 0 0 -291.78732976784522 -265.04985391934588 0 -265.04985391934588 -270.21862804525813 0 0 0 0 -256.15280601057384 -226.58026012778873 0 -226.58026012778873 -132.51061825249599 0 0 0 0 -207.16150605461735 -295.53717775395125 0 -295.53717775395125 -312.45977368292733 0 0 0 0 -131.43355620508373 -216.28369716867439 0 -216.28369716867439 -207.89054996399864 0 0 0 0 -303.72071961196343 -312.72206239451589 0 -312.72206239451589 -198.15702328569569 0 0 0 0 -122.69541354884859 -159.23482443458215 0 -159.23482443458215 -134.57788176792809 0 0 0 0 -68.776811062140041 -110.94484503516151 0 -110.94484503516151 -75.2239823717793 0 0 0 0 -211.33627172349952 -159.69645617342849 0 -159.69645617342849 -74.653159495353975 0 0 0 0 -159.94508568508172 -163.93795814439773 0 -163.93795814439773 -187.65644421155775 0 0 0 0 -134.41047703202639 -87.83801022186708 0 -87.83801022186708 -106.15301957383053 0 0 0 0 -217.02835946681807 -170.03648496923302 0 -170.03648496923302 -133.99502240942093 0 0 0 0 -123.23131587082753 -76.613408440947751 0 -76.613408440947751 -57.554143276694504 0 0 0 0 -129.84235942122177 -32.84669220883552 0 -32.84669220883552 52.494323856707524 0 0 0 0 -190.65576718138982 -109.18611513946234 0 -109.18611513946234 181.17204920132281 0 0 0 0 -97.147451488002844 -32.039294685577261 0 -32.039294685577261 197.79029396191072 0 0 0 0 14.961447777845024 -18.57770623064016 0 -18.57770623064016 65.121930927512039 0 0 0 0 -153.28821074793086 -109.31612329510608 0 -109.31612329510608 48.416194770601578 0 0 0 0 -69.914964178614298 -50.248429171680179 0 -50.248429171680179 39.222820001702949 0 0 0 0 -86.893798381337547 626.48934502867269 0 626.48934502867269 717.64125044543835 0 0 0 0 -101.98254023941263 90.48972211156115 0 90.48972211156115 371.24155105234695 0 0 0 0 48.228452158651635 -381.45873903054962 0 -381.45873903054962 -640.22877362142754 0 0 0 0 127.11764075294559 43.964862885440652 0 43.964862885440652 -79.890514836355578 0 0 0 0 125.28501492527721 -24.564539270442765 0 -24.564539270442765 -200.76475303838561 0 0 0 0 -65.354355033552565 -412.11430503938755 0 -412.11430503938755 -430.91492778902466 0 0 0 0 -929.97326944142696 -1088.7806605290571 0 -1088.7806605290571 -264.69825889385538 0 0 0 0 -3.6248844623696641 -109.13166331539469 0 -109.13166331539469 108.14625222786344 0 0 0 0 92.238959084785165 -7.9324030153065905 0 -7.9324030153065905 -53.509442070004297 0 0 0 0 -37.04530241419863 -59.984930563846063 0 -59.984930563846063 40.825623512268855 0 0 0 0 77.932269853859907 52.516378912048822 0 52.516378912048822 18.667465674734558 0 0 0 0 134.67479601934247 -164.34671543212971 0 -164.34671543212971 -110.76328343140631 0 0 0 0 0.44726814869846976 -71.215539970758357 0 -71.215539970758357 44.910402576139511 0 0 0 0 -65.28302123685549 -154.24984200301009 0 -154.24984200301009 -31.670991260270057 0 0 0 0 -66.125414362446463 25.473395825938951 0 25.473395825938951 274.75194232955869 0 0 0 0 -86.368580402369844 -143.89110828007779 0 -143.89110828007779 48.370637256872214 0 0 0 0 -178.19993949471245 -111.76969462875468 0 -111.76969462875468 37.614339297969309 0 0 0 0 -209.3267349244561 -195.14998051385282 0 -195.14998051385282 -20.859265970455681 0 0 0 0 -225.14902663003159 -239.72638469222511 0 -239.72638469222511 -114.6225643553006 0 0 0 0 -173.76821977760119 -369.60465624104654 0 -369.60465624104654 -371.09933966507924 0 0 0 0 -98.479637456446653 -196.36782597382762 0 -196.36782597382762 -188.1376033154238 0 0 0 0 -111.94179496914148 -84.938724208037002 0 -84.938724208037002 72.193033108746931 0 0 0 0 -169.50684379049198 -238.9428166197813 0 -238.9428166197813 -49.896534897326092 0 0 0 0 -69.17984552906637 -184.92132605997904 0 -184.92132605997904 -75.09241624729475 0 0 0 0 -167.73347610238852 -177.26248925278219 0 -177.26248925278219 127.04982680131343 0 0 0 0 -99.762243856617715 -151.23153028027446 0 -151.23153028027446 -108.80621988429044 0 0 0 0 -126.82075480489584 -69.562348703748285 0 -69.562348703748285 207.76930451413796 0 0 0 0 -118.97102211588481 -213.41167676999078 0 -213.41167676999078 162.28165590136632 0 0 0 0 221.73417754866387 -218.01188767712233 0 -218.01188767712233 -62.079963950674255 0 0 0 0 31.796331066072668 -89.411228114514117 0 -89.411228114514117 44.224112515709038 0 0 0 0 35.478971039330645 -223.50573476768022 0 -223.50573476768022 158.94552773005125 0 0 0 0 -65.829007738407029 -24.253891502604596 0 -24.253891502604596 33.763258968374146 0 0 0 0 -59.400433301983867 -22.588475425764045 0 -22.588475425764045 196.40794365228794 0 0 0 0 -34.306760482788377 -51.542377155594295 0 -51.542377155594295 34.504584846488797 0 0 0 0 -28.560236458899027 -51.800270710500051 0 -51.800270710500051 30.421205910964062 0 0 0 0 -362.06670322210266 -281.95778278614398 0 -281.95778278614398 -32.913970747545136 0 0 0 0 -94.067926229850855 -192.88459507852167 0 -192.88459507852167 -81.63047514466416 0 0 0 0 7.5358145407953998 -29.821674870647257 0 -29.821674870647257 138.80526055039172 0 0 0 0 -2.044913855271659 -5.8111978720744517 0 -5.8111978720744517 25.292778727004816 0 0 0 0 -22.367644955156067 -59.104178762802405 0 -59.104178762802405 23.362492914769348 0 0 0 0 -37.492104139120784 -90.158026834047632 0 -90.158026834047632 76.585770887177205 0 0 0 0 -23.06652479149065 -48.357300733286564 0 -48.357300733286564 57.808795003961123 0 0 0 0 -28.980312896176244 -80.272104970154544 0 -80.272104970154544 7.2455241073156884 0 0 0 0 -5.5409080924000591 -29.758773320674663 0 -29.758773320674663 16.721294835748267 0 0 0 0 2.3500125131378411 -89.985389908891108 0 -89.985389908891108 124.81529259546799 0 0 0 0 9.6086440705985297 -0.04315404864064476 0 -0.04315404864064476 -64.499192852392298 0 0 0 0 -10.985806047872757 -702.45333021865372 0 -702.45333021865372 324.3817561316755 0 0 0 0 0.54858922608421778 -11.022971284533895 0 -11.022971284533895 -14.528640998579391 0 0 0 0 -155.54490989861915 -74.191604872737116 0 -74.191604872737116 -766.80071194383345 0 0 0 0 -554.2560665117926 -159.3306620039366 0 -159.3306620039366 -491.01940048569668 0 0 0 0 4.6361788901321859 -4.520820785208727 0 -4.520820785208727 6.6313760344545525 0 0 0 0 -166.67368573872955 31.299314957806473 0 31.299314957806473 546.59056391038621 0 0 0 0 -79.46372199630423 -465.76731592646047 0 -465.76731592646047 535.77823174225489 0 0 0 0 0.51236611751664896 38.140174386634271 0 38.140174386634271 170.6242404653772 0 0 0 0 -148.74056672650477 -240.38270017614695 0 -240.38270017614695 172.19947221585971 0 0 0 0 -36.642537047671794 -217.10459298865089 0 -217.10459298865089 -87.863870493442846 0 0 0 0 -105.82599928193667 -422.85773988653364 0 -422.85773988653364 -61.059742737671513 0 0 0 0 126.8206620397832 -335.71652504802796 0 -335.71652504802796 -425.55530742006522 0 0 0 0 56.051467765602865 -362.83148088453163 0 -362.83148088453163 -778.94829537590886 0 0 0 0 176.24748753027234 -81.445826168491294 0 -81.445826168491294 -63.059057617274448 0 0 0 0 422.05794147246343 -427.45996625624775 0 -427.45996625624775 -100.9990960990599 0 0 0 0 -64.042898962259642 -356.38659340094273 0 -356.38659340094273 -92.156939431935484 0 0 0 0 91.689461209316505 -155.6517639901349 0 -155.6517639901349 -182.55087541590819 0 0 0 0 -162.59622128802221 -358.84081256662171 0 -358.84081256662171 -269.78748813079619 0 0 0 0 -186.76197273772414 -599.21863207133879 0 -599.21863207133879 -484.62399379143608 0 0 0 0 -29.691825746886025 -366.49722334057878 0 -366.49722334057878 -480.51747734380479 0 0 0 0 -26.021474614317412 -616.24481608427186 0 -616.24481608427186 -669.7975590534179 0 0 0 0 -310.91231804046402 -899.00357526336393 0 -899.00357526336393 -831.13059623686604 0 0 0 0 -265.07865677140944 -908.1440839181987 0 -908.1440839181987 -952.06048447827379 0 0 0 0 -461.90803174854955 -873.68699146153722 0 -873.68699146153722 -726.27219029573803 0 0 0 0 -478.79698521242244 -187.96692304083808 0 -187.96692304083808 1141.7472433437047 0 0 0 0 -610.53008191663139 -1252.39935127476 0 -1252.39935127476 -1013.0899734065661 0 0 0 0 -3.5476191980978911 -6.4624822471307475 0 -6.4624822471307475 0.41875289480042177 0 0 0 0 -733.20437335595307 -938.90572771252801 0 -938.90572771252801 -671.09731540490429 0 0 0 0 -500.40589368983638 -731.51758454061837 0 -731.51758454061837 -609.65953989518312 0 0 0 0 -534.12408971938567 -701.25893717693771 0 -701.25893717693771 -571.18605705461778 0 0 0 0 -212.20716986036132 -706.59139322752253 0 -706.59139322752253 -737.57452194427788 0 0 0 0 -322.59185660188086 -563.46067562943063 0 -563.46067562943063 -482.86559169481995 0 0 0 0 -222.83180880951841 -521.1650091278625 0 -521.1650091278625 -579.21493129671944 0 0 0 0 -295.65066716265028 -368.20904559004316 0 -368.20904559004316 -337.46021204659337 0 0 0 0 -341.59388212612248 -538.2858049184556 0 -538.2858049184556 -506.62917348467545 0 0 0 0 -355.75973557720863 -358.54199667058674 0 -358.54199667058674 -267.08131487220408 0 0 0 0 -182.38090597383052 -285.17966194547796 0 -285.17966194547796 -320.30931710573168 0 0 0 0 -379.57077500258538 -511.8593354068795 0 -511.8593354068795 -426.48326451944013 0 0 0 0 -246.92277393225231 -343.46639614531728 0 -343.46639614531728 -401.41945610675521 0 0 0 0 -652.99444263364421 -628.44364193356068 0 -628.44364193356068 -514.34543684993719 0 0 0 0 -358.88954641016244 -518.78565473418894 0 -518.78565473418894 -528.60995846996229 0 0 0 0 -485.4629956232593 -680.25564165947901 0 -680.25564165947901 -723.94265681322395 0 0 0 0 -502.91261320693593 -474.90689015466614 0 -474.90689015466614 -396.33890093992613 0 0 0 0 -670.61261881590326 -636.43675681359537 0 -636.43675681359537 -179.39076183315956 0 0 0 0 -563.66575388405181 -631.73380548647219 0 -631.73380548647219 -458.39858530391939 0 0 0 0 -1056.1913644890956 -1031.4093503184799 0 -1031.4093503184799 -569.07294796557017 0 0 0 0 0.73963613873615941 -6.7771082075570774 0 -6.7771082075570774 1.6295396949819025 0 0 0 0 -478.80726098711602 -1163.0210079617164 0 -1163.0210079617164 -1578.0860925125944 0 0 0 0 -313.57122735241137 -323.36978406446269 0 -323.36978406446269 765.70387986230253 0 0 0 0 -434.05119618755566 -658.56208763773463 0 -658.56208763773463 342.98432516102366 0 0 0 0 -432.81788981941929 -702.15201325956252 0 -702.15201325956252 -1045.9746167378635 0 0 0 0 -630.2037782352927 -856.70323861489396 0 -856.70323861489396 -653.2921114897299 0 0 0 0 -6.4920670279249748 -7.005603711653194 0 -7.005603711653194 -7.8155426076971395 0 0 0 0 -1074.3045615631659 -26.82814017953126 0 -26.82814017953126 -145.35626526560918 0 0 0 0 147.86366765356797 -371.8953731394131 0 -371.8953731394131 -448.22899077408374 0 0 0 0 128.61465423089339 -205.45425192801321 0 -205.45425192801321 214.98638494488841 0 0 0 0 -98.948756567959208 -527.07732989584611 0 -527.07732989584611 -192.27114159103985 0 0 0 0 -265.15454093361177 -584.32835615621809 0 -584.32835615621809 -173.49875990909095 0 0 0 0 -1328.8045148911915 -1403.7917003170869 0 -1403.7917003170869 -106.53045905969338 0 0 0 0 -443.29943251503209 -319.11709387262044 0 -319.11709387262044 -836.10168121698553 0 0 0 0 -376.77892787815654 -665.41009694464628 0 -665.41009694464628 -1077.1601450554494 0 0 0 0 -523.31417103831336 -614.75793255552662 0 -614.75793255552662 -440.21291037770425 0 0 0 0 -516.47104270507407 -629.19210429715349 0 -629.19210429715349 -673.66906760877737 0 0 0 0 -596.39320954993309 -376.54204152189232 0 -376.54204152189232 -272.73752841805344 0 0 0 0 -1175.274579140576 -1024.3100206906984 0 -1024.3100206906984 -627.34513323343072 0 0 0 0 -461.84071589083032 -514.77498396666761 0 -514.77498396666761 -234.4606263792648 0 0 0 0 -336.21261967093596 -505.51782014267565 0 -505.51782014267565 -318.38091839053232 0 0 0 0 -586.23723838813748 -865.4664185034037 0 -865.4664185034037 -519.38068893626223 0 0 0 0 -131.66430196312285 -508.35752856072713 0 -508.35752856072713 -312.9923551598331 0 0 0 0 -230.2341773441658 -474.55582791476718 0 -474.55582791476718 -311.63940173579067 0 0 0 0 76.129329364666773 -20.11494980023781 0 -20.11494980023781 277.28002006054339 0 0 0 0 -199.09034305484238 -100.17906214038339 0 -100.17906214038339 290.65174804877824 0 0 0 0 86.558303778809204 -260.15567479788479 0 -260.15567479788479 310.34605226326312 0 0 0 0 -44.072625539105502 75.015079914119269 0 75.015079914119269 -152.0007537793511 0 0 0 0 -345.77957532450273 90.815060555835203 0 90.815060555835203 76.365641509646593 0 0 0 0 21.662215759497485 -162.86431494149383 0 -162.86431494149383 203.42782101088278 0 0 0 0 -15.624848264151296 191.24286706470139 0 191.24286706470139 -114.00837804506409 0 0 0 0 -21.395353649509161 -19.406848651461424 0 -19.406848651461424 -19.183416124734819 0 0 0 0 -218.37327578303666 -14.047530210423247 0 -14.047530210423247 369.43825713990009 0 0 0 0 181.9509444172545 62.803835530015476 0 62.803835530015476 -160.46853059215755 0 0 0 0 -74.929680287226802 -377.94603826626474 0 -377.94603826626474 14.302071654863539 0 0 0 0 -98.492111342420685 -283.53208677999282 0 -283.53208677999282 256.90629845903459 0 0 0 0 -88.06472296769789 270.51323908593804 0 270.51323908593804 805.21586537591338 0 0 0 0 -86.987020253487572 -310.49890256931758 0 -310.49890256931758 -192.89601717914957 0 0 0 0 3.0424793254953215 -2.1360113811741286 0 -2.1360113811741286 2.5899202395069842 0 0 0 0 -234.92348351017722 -285.17075514866548 0 -285.17075514866548 -90.097520600561438 0 0 0 0 63.001096215521102 -260.35860348224924 0 -260.35860348224924 -175.46168028449574 0 0 0 0 55.440124646673212 -182.79522380265848 0 -182.79522380265848 -126.76218133404291 0 0 0 0 -54.1376997523912 -355.6770436135123 0 -355.6770436135123 -363.75212984911559 0 0 0 0 84.972705143882195 -90.653778213567421 0 -90.653778213567421 -286.80574374578941 0 0 0 0 -191.74156538954412 -249.79387206328056 0 -249.79387206328056 -119.30864917927101 0 0 0 0 -496.50392160071351 -505.17710386755039 0 -505.17710386755039 -331.89423821042601 0 0 0 0 -11.612227114415873 -346.61898092471472 0 -346.61898092471472 -865.78696714164744 0 0 0 0 -184.18367655249313 255.14961498341336 0 255.14961498341336 -487.42441687956193 0 0 0 0 177.72021966076863 157.98325634867979 0 157.98325634867979 -183.84352429415208 0 0 0 0 167.60855624442047 -128.50284759233705 0 -128.50284759233705 -317.66224079838366 0 0 0 0 17.888247152033728 -283.53294358302082 0 -283.53294358302082 -292.58007204585095 0 0 0 0 -17.297851589108177 -242.6068529678829 0 -242.6068529678829 -332.9402329207303 0 0 0 0 -791.80178699801763 -296.85018175309506 0 -296.85018175309506 -56.200399554754313 0 0 0 0 20.601674150115286 -413.06348647478512 0 -413.06348647478512 -773.6132786504495 0 0 0 0 -1.207069050703069 -8.2637353011149628 0 -8.2637353011149628 -5.3909657866000309 0 0 0 0 -2.3182413028480369 53.945169808974129 0 53.945169808974129 -599.54012016387878 0 0 0 0 -600.63566528809042 -129.77622562679346 0 -129.77622562679346 -29.095558977975998 0 0 0 0 -11.280627154486865 49.952431033978769 0 49.952431033978769 -174.89967046382117 0 0 0 0 12.345753745750528 -14.077957040786814 0 -14.077957040786814 4.8548351976285709 0 0 0 0 -7.9376609656985977 -15.659129733552774 0 -15.659129733552774 -10.632372157088771 0 0 0 0 -137.33176717380411 -16.157408259211479 0 -16.157408259211479 2.005599428607411 0 0 0 0 -202.7139883156924 -127.32992997430028 0 -127.32992997430028 -33.085632425945732 0 0 0 0 -240.82781478617062 3.8659551511607404 0 3.8659551511607404 12.356514812148816 0 0 0 0 6.1271222835879655 -11.118139409404549 0 -11.118139409404549 3.5224445107203834 0 0 0 0 -101.64666738167921 -106.0394866148697 0 -106.0394866148697 247.10490338060299 0 0 0 0 -52.026281144550012 -11.016218162140831 0 -11.016218162140831 352.98266565692302 0 0 0 0 11.021940253056528 -200.59293311831641 0 -200.59293311831641 329.76893288670362 0 0 0 0 -525.40919453135575 -208.38761396342352 0 -208.38761396342352 5.3401239427603286 0 0 0 0 -96.356151439526002 -94.187605191543753 0 -94.187605191543753 -133.11535392136375 0 0 0 0 -165.90585639039637 -207.30000323154081 0 -207.30000323154081 -169.57452610025666 0 0 0 0 -224.28803315522964 -212.7909380967269 0 -212.7909380967269 -133.4296991203546 0 0 0 0 -430.92450170577649 -362.91553112164866 0 -362.91553112164866 -184.59047434533386 0 0 0 0 8.0678940812581175 -6.7575074521623151 0 -6.7575074521623151 5.4103322748200817 0 0 0 0 -45.56474637415522 -148.41229508855577 0 -148.41229508855577 -233.95172072325795 0 0 0 0 -18.959135461249389 -206.1742568668094 0 -206.1742568668094 -183.47291248873898 0 0 0 0 -91.939001871753135 -772.63662813155224 0 -772.63662813155224 -349.85778564021393 0 0 0 0 -383.12861776341742 -640.90402135608565 0 -640.90402135608565 -331.24909477066029 0 0 0 0 2.1781941063605359 -2.9626660450242639 0 -2.9626660450242639 1.9088700540710404 0 0 0 0 -34.801042274928477 -373.151694461636 0 -373.151694461636 -384.23240298925703 0 0 0 0 -305.04587276491475 -405.50139120488541 0 -405.50139120488541 -356.55773773174224 0 0 0 0 -481.00340857387346 -495.39245203128439 0 -495.39245203128439 -231.25300281437603 0 0 0 0 -409.0643304166133 -696.15054889053977 0 -696.15054889053977 -403.61135852336884 0 0 0 0 -525.05305899644009 -668.37742611051976 0 -668.37742611051976 -400.56820685820139 0 0 0 0 -374.04780769774516 -402.32618022736983 0 -402.32618022736983 -170.567676961296 0 0 0 0 -474.71327589171415 -720.25246868074964 0 -720.25246868074964 -510.28974266556088 0 0 0 0 -892.46151461753834 -693.59774515060565 0 -693.59774515060565 -232.79002155418402 0 0 0 0 -485.37417034430837 -747.59016068554934 0 -747.59016068554934 -504.88928136022332 0 0 0 0 -555.13276193978891 -694.65773747650314 0 -694.65773747650314 -344.06004096262041 0 0 0 0 -370.82803859293927 -504.2906654432345 0 -504.2906654432345 -396.44466837062373 0 0 0 0 -530.13907505275711 -680.89536926474921 0 -680.89536926474921 -494.71200185107728 0 0 0 0 -573.80560739577413 -817.06315116080532 0 -817.06315116080532 -833.60003775611585 0 0 0 0 -5.1922922486063214 -5.0494488997857161 0 -5.0494488997857161 -5.6466845357392046 0 0 0 0 -1663.6989736055621 -613.39211987241652 0 -613.39211987241652 -103.29317923519648 0 0 0 0 300.31216119541386 -636.20180664173586 0 -636.20180664173586 -598.53346281498489 0 0 0 0 -1293.7436807201957 -803.24649892957723 0 -803.24649892957723 -368.27570841340366 0 0 0 0 -553.09637557917449 -1174.3606293563926 0 -1174.3606293563926 -766.62203931019303 0 0 0 0 -784.26068940993719 -370.63023851567959 0 -370.63023851567959 -581.79393739770876 0 0 0 0 -603.12354784195486 -685.26614961616724 0 -685.26614961616724 -356.4844292403177 0 0 0 0 -657.16401009862602 -801.16664181120632 0 -801.16664181120632 -576.61466365574779 0 0 0 0 -571.36132887897838 -605.28736130602738 0 -605.28736130602738 -417.89568128198425 0 0 0 0 -479.39573312393259 -454.13198075513878 0 -454.13198075513878 -271.22816197722568 0 0 0 0 -706.32199110958027 -624.88234233338244 0 -624.88234233338244 -362.82849047324271 0 0 0 0 -466.97896425930958 -401.07175501582788 0 -401.07175501582788 -279.90436252803738 0 0 0 0 -373.63136544138251 -240.56238850690397 0 -240.56238850690397 -152.13583785818264 0 0 0 0 -329.4082922982052 -274.73900410180249 0 -274.73900410180249 -141.79376571593377 0 0 0 0 -429.9118632358186 -432.57770521466773 0 -432.57770521466773 -246.8656298727783 0 0 0 0 -540.68957768631662 -434.07320083169543 0 -434.07320083169543 -177.13591194663877 0 0 0 0 -611.1450456855091 -387.12765174672813 0 -387.12765174672813 -221.33441800104083 0 0 0 0 -552.75634730939055 -544.744586096273 0 -544.744586096273 -451.28957952018573 0 0 0 0 -34.885632258206897 -137.45555964824325 0 -137.45555964824325 -5.0152409802039983 0 0 0 0 -414.20735951937695 -293.43428482814579 0 -293.43428482814579 92.843005905908285 0 0 0 0 -186.27408159471088 -190.25550703780164 0 -190.25550703780164 -130.69583620693265 0 0 0 0 -184.94171799800097 -201.94274634887267 0 -201.94274634887267 -31.03684809942024 0 0 0 0 -96.471905259706546 -163.06900138053015 0 -163.06900138053015 -132.99752165543077 0 0 0 0 -139.54202814996097 -197.56767287332332 0 -197.56767287332332 -37.259348569419672 0 0 0 0 -90.384056786599103 -183.52993977690039 0 -183.52993977690039 -70.784439249558091 0 0 0 0 -245.46113629055617 -91.524138934642451 0 -91.524138934642451 -1.1210807267525524 0 0 0 0 -186.3852996298956 -138.67753084137621 0 -138.67753084137621 -35.365567981218192 0 0 0 0 -184.89120011575142 -139.77828746267824 0 -139.77828746267824 -42.364395949594837 0 0 0 0 -0.6638009338831381 -2.3460622916636851 0 -2.3460622916636851 4.8518808404709119 0 0 0 0 -834.15295165755379 65.726234596333597 0 65.726234596333597 310.81997250863515 0 0 0 0 -339.13628130707366 -17.882957737170727 0 -17.882957737170727 -94.41849545929108 0 0 0 0 -52.176428296334052 -301.26162634296088 0 -301.26162634296088 129.68778551761716 0 0 0 0 -139.61866623553215 -177.77686305861062 0 -177.77686305861062 -41.450900177191443 0 0 0 0 -255.88163498973154 -232.37369871551527 0 -232.37369871551527 151.77883613761878 0 0 0 0 -246.59136012814997 -120.57783793684393 0 -120.57783793684393 108.1447922987104 0 0 0 0 36.49058865938423 -123.23865942140901 0 -123.23865942140901 303.2971111532388 0 0 0 0 -329.89350756931526 -341.65169307312044 0 -341.65169307312044 534.64342309246604 0 0 0 0 -248.57122249101667 -144.75211324976135 0 -144.75211324976135 342.76630998073233 0 0 0 0 338.80136191231577 -658.57913211673076 0 -658.57913211673076 1130.4951784647546 0 0 0 0 -628.60420122007054 -224.77933316247345 0 -224.77933316247345 494.72056334649642 0 0 0 0 1615.1686976823694 -688.90462207872088 0 -688.90462207872088 -90.308063197775482 0 0 0 0 -97.775580281217117 -183.74749393005504 0 -183.74749393005504 -192.71165095117885 0 0 0 0 -233.39015135231602 -219.99044581921316 0 -219.99044581921316 -197.48725563279959 0 0 0 0 256.32370736957091 -395.88846346286482 0 -395.88846346286482 467.01739660140356 0 0 0 0 -1.4841163885725592 -8.5331680384891229 0 -8.5331680384891229 -1.8360838635222514 0 0 0 0 -2.9888990197573548 -9.8580997516191822 0 -9.8580997516191822 3.0771104154026592 0 0 0 0 -371.33642749255523 -206.93552991452952 0 -206.93552991452952 -114.36593812347564 0 0 0 0 -247.82950553237606 -532.04871030379081 0 -532.04871030379081 -746.27215685056308 0 0 0 0 -332.23331458139728 -875.77902042992446 0 -875.77902042992446 -1317.4037105599591 0 0 0 0 -2.4606233295517939 -3.461938716402198 0 -3.461938716402198 0.91170703424822808 0 0 0 0 -374.27196321263182 -441.28238038676045 0 -441.28238038676045 572.21629464671832 0 0 0 0 -290.21129487475264 94.242693547693534 0 94.242693547693534 1233.3710563613176 0 0 0 0 -400.46707299398258 -578.1371468950897 0 -578.1371468950897 -132.42291047804611 0 0 0 0 -598.3900442818267 -774.90293837192667 0 -774.90293837192667 -439.42631054036065 0 0 0 0 -642.86370922536298 -932.38929383543064 0 -932.38929383543064 -684.29404470764712 0 0 0 0 -580.56290712498594 -698.56597558856765 0 -698.56597558856765 -503.26195738756132 0 0 0 0 -576.2187821974594 -795.03761421339459 0 -795.03761421339459 -450.0857238422268 0 0 0 0 -538.6147171059074 -794.1230722429749 0 -794.1230722429749 -428.27058628857776 0 0 0 0 -550.21000897655358 -744.01549961756837 0 -744.01549961756837 -385.98216302886885 0 0 0 0 -511.63997639790614 -764.1038288501195 0 -764.1038288501195 -458.01064096458799 0 0 0 0 -455.83094251895091 -677.18992400220486 0 -677.18992400220486 -327.31629801394593 0 0 0 0 -472.85094916197704 -756.30858442126248 0 -756.30858442126248 -366.22502804443502 0 0 0 0 -518.07647339772666 -761.53345243180024 0 -761.53345243180024 -332.02113013039661 0 0 0 0 -533.4616385939662 -776.28513924535173 0 -776.28513924535173 -339.47625646292272 0 0 0 0 -491.51208921724174 -736.21317612934445 0 -736.21317612934445 -386.87549761162484 0 0 0 0 -484.98466223294236 -724.41276637994974 0 -724.41276637994974 -400.23693970054524 0 0 0 0 -483.68159003486653 -739.36696738698095 0 -739.36696738698095 -298.45153629648121 0 0 0 0 -385.30840285193699 -711.46221506280654 0 -711.46221506280654 -357.53896927812968 0 0 0 0 -407.9393925354816 -764.00693036460461 0 -764.00693036460461 -441.66348558103414 0 0 0 0 -461.78979303014057 -730.66348926197679 0 -730.66348926197679 -454.38006363310853 0 0 0 0 -517.26307863848342 -763.30789989942377 0 -763.30789989942377 -399.21889580939819 0 0 0 0 -484.81331127669546 -774.10634447714892 0 -774.10634447714892 -404.97191844548945 0 0 0 0 -541.50261099649651 -770.87866903106442 0 -770.87866903106442 -321.88558623422796 0 0 0 0 -461.27835087724088 -824.67064760815083 0 -824.67064760815083 -332.31599490223107 0 0 0 0 -227.98089398472075 -960.59219383290053 0 -960.59219383290053 -302.22319341666707 0 0 0 0 -497.57155437559425 -787.70257731486686 0 -787.70257731486686 -259.39339017533894 0 0 0 0 -545.19448999849556 -837.57663964007952 0 -837.57663964007952 -488.23916150137916 0 0 0 0 -533.39058754542202 -744.07182644880913 0 -744.07182644880913 -391.31583823825531 0 0 0 0 -496.57967448026056 -719.2505809951266 0 -719.2505809951266 -449.13994859942432 0 0 0 0 -537.03763209182944 -782.1239911189241 0 -782.1239911189241 -446.52815041771692 0 0 0 0 -0.65412910057084162 -1.6354337993776653 0 -1.6354337993776653 -2.4340908946061628 0 0 0 0 -264.77401746031683 -145.43171395704485 0 -145.43171395704485 -100.38258157640394 0 0 0 0 638.12636299776932 -458.57333665317844 0 -458.57333665317844 -124.39551665108866 0 0 0 0 -1203.1213381991474 -590.57987733116943 0 -590.57987733116943 -97.127960584165521 0 0 0 0 13.091445160869625 -322.79937355349057 0 -322.79937355349057 461.46766339995156 0 0 0 0 145.52651312997114 -231.39882148592562 0 -231.39882148592562 288.29999773474992 0 0 0 0 -0.13813770881097298 -391.2180253442848 0 -391.2180253442848 240.46198471915454 0 0 0 0 -88.398692577095062 -172.80380069462444 0 -172.80380069462444 1203.3420641885718 0 0 0 0 -35.8785298265866 -250.33790284840779 0 -250.33790284840779 401.63788692029448 0 0 0 0 -10.907005833779465 -484.33035064756297 0 -484.33035064756297 640.20296406759826 0 0 0 0 -8.7727176573530414 -659.11830819032139 0 -659.11830819032139 191.81690598508703 0 0 0 0 -35.197835145372665 -940.64761352373034 0 -940.64761352373034 -313.92746592313244 0 0 0 0 58.187121147071593 -539.32715747600628 0 -539.32715747600628 -15.303846368173254 0 0 0 0 -96.023477090253436 -760.28418949703405 0 -760.28418949703405 -428.74078793002764 0 0 0 0 11.458868022382376 -916.27581753261211 0 -916.27581753261211 -241.8527912449639 0 0 0 0 111.71387691253403 -660.10457306790727 0 -660.10457306790727 -153.2352685441424 0 0 0 0 110.99356795600033 -782.14215932462048 0 -782.14215932462048 -677.04920468996738 0 0 0 0 17.953996223353897 -892.94480658381462 0 -892.94480658381462 -537.36764928065998 0 0 0 0 220.09043891362671 -770.5183554346213 0 -770.5183554346213 -536.96806187550555 0 0 0 0 20.439526156449574 -981.81749601143156 0 -981.81749601143156 -342.8942636749191 0 0 0 0 -0.044238629787287209 -980.85418610746024 0 -980.85418610746024 -76.533824609278781 0 0 0 0 99.23915809776372 -539.06902668525368 0 -539.06902668525368 457.16907232245194 0 0 0 0 115.82846790197073 -889.95283965572094 0 -889.95283965572094 98.167710017436548 0 0 0 0 -44.99004866303585 -505.84158227424405 0 -505.84158227424405 658.69417945784176 0 0 0 0 -93.761965562480327 -185.91424286095707 0 -185.91424286095707 2239.1220729216157 0 0 0 0 0.6273694547926425 -920.89805247098889 0 -920.89805247098889 874.54445200330156 0 0 0 0 1.3683297251444912 -3.4202725489538821 0 -3.4202725489538821 1.7122482445104961 0 0 0 0 0.10433359269518405 -593.92624382950635 0 -593.92624382950635 -535.9311380146155 0 0 0 0 163.5394071050614 -367.62429550601519 0 -367.62429550601519 -1344.6195594178953 0 0 0 0 -107.54687395833025 -236.93248857536037 0 -236.93248857536037 83.490745022727424 0 0 0 0 37.629751402459078 -545.59681442790179 0 -545.59681442790179 -265.64231496506181 0 0 0 0 -224.23601963679539 -470.4805177283115 0 -470.4805177283115 282.95584138854792 0 0 0 0 -46.280435291391768 -439.11770166053475 0 -439.11770166053475 -567.70202511576099 0 0 0 0 -180.11970900739834 -309.70439817632814 0 -309.70439817632814 -349.91912379305722 0 0 0 0 3.5018404236678009 -9.4991677495424121 0 -9.4991677495424121 3.3937982995367588 0 0 0 0 -135.35370136550046 -153.12641667893786 0 -153.12641667893786 -64.759905827218972 0 0 0 0 -139.68767707831284 -256.06164367123074 0 -256.06164367123074 -210.33486594703572 0 0 0 0 26.27225044676743 -202.45627755977466 0 -202.45627755977466 437.82475904476178 0 0 0 0 5.4806933563471318 -14.640124792245054 0 -14.640124792245054 3.3507611584009744 0 0 0 0 -175.23618855339009 -130.19886602228144 0 -130.19886602228144 -57.95744395485508 0 0 0 0 -218.17409999108349 -130.77133531731306 0 -130.77133531731306 -41.35380698197514 0 0 0 0 -2.8424695227134293 -8.7968435012273574 0 -8.7968435012273574 5.5689704838602125 0 0 0 0 -194.97312771507859 -158.78269827451913 0 -158.78269827451913 -50.245751069687685 0 0 0 0 -402.13360878895037 -127.69495917929089 0 -127.69495917929089 -17.820594864837403 0 0 0 0 -378.93590388118082 -346.22795391498596 0 -346.22795391498596 239.28030402467266 0 0 0 0 -212.57814659351425 -441.9544064715119 0 -441.9544064715119 -94.354976344478928 0 0 0 0 -351.31094960006885 -211.32339581248107 0 -211.32339581248107 139.80727259494597 0 0 0 0 -724.11471780439024 -284.48599221811583 0 -284.48599221811583 531.87983402699501 0 0 0 0 -988.86684311796853 79.027317390243297 0 79.027317390243297 294.32284199459173 0 0 0 0 1492.7594392186002 -589.52039483436329 0 -589.52039483436329 19.862773899081731 0 0 0 0 -1.284108127370942 -2.1916421717832009 0 -2.1916421717832009 2.1845544832950807 0 0 0 0 -2.6469192511753121 -5.3930579019768317 0 -5.3930579019768317 11.103733782506694 0 0 0 0 324.11759542062646 -459.94284763402584 0 -459.94284763402584 615.6381083319684 0 0 0 0 57.507450176301063 -158.80267913610714 0 -158.80267913610714 255.56976335281433 0 0 0 0 -305.04450422562149 49.704900532888473 0 49.704900532888473 612.86099154733165 0 0 0 0 -244.54024569405556 -212.60473947798528 0 -212.60473947798528 390.07822452874098 0 0 0 0 73.998592532298062 98.0362891091454 0 98.0362891091454 285.2012022123663 0 0 0 0 1.9503716615558773 -3.8477291920654011 0 -3.8477291920654011 9.0430657924822739 0 0 0 0 33.708070768640027 -251.88732867387807 0 -251.88732867387807 553.08234124216688 0 0 0 0 212.01445689858519 435.81991618710163 0 435.81991618710163 776.17471243842738 0 0 0 0 0.13890122591971316 19.539438203406007 0 19.539438203406007 1464.2934165071056 0 0 0 0 434.55499965774652 -556.8686679447801 0 -556.8686679447801 242.64470369909304 0 0 0 0 -227.64052142220316 -57.142802218302677 0 -57.142802218302677 1315.3428419131924 0 0 0 0 -179.96755032033252 -463.20805810913225 0 -463.20805810913225 1204.3572877410079 0 0 0 0 -180.44783210799505 -534.35697977025302 0 -534.35697977025302 805.66579551859104 0 0 0 0 -187.77723676865571 -294.26745972782373 0 -294.26745972782373 242.79799375095718 0 0 0 0 -244.97380675171735 -134.38937420544789 0 -134.38937420544789 469.04260176985917 0 0 0 0 -336.72069964574621 -309.08538467216022 0 -309.08538467216022 637.97451667113273 0 0 0 0 -137.69404784288054 61.31524986138993 0 61.31524986138993 748.52995158062549 0 0 0 0 -89.92929086723916 -121.73118970448604 0 -121.73118970448604 -152.12697237183966 0 0 0 0 50.756510489223729 -191.2635257003094 0 -191.2635257003094 -664.48895866646126 0 0 0 0 -38.615490392967331 -64.602533944969764 0 -64.602533944969764 -365.18646270366298 0 0 0 0 -38.112591823457478 -230.50711422773747 0 -230.50711422773747 -313.32502568505242 0 0 0 0 -121.91155107082341 -296.71348308652523 0 -296.71348308652523 -345.24244824754351 0 0 0 0 -87.966421836083214 16.858861896100962 0 16.858861896100962 -403.90684429631074 0 0 0 0 -60.464006481948672 274.78872262645564 0 274.78872262645564 608.79702085450481 0 0 0 0 75.729036200596966 -250.22970690109105 0 -250.22970690109105 994.59803762428055 0 0 0 0 7.1945928676493196 -11.257130766040909 0 -11.257130766040909 1.9942715198742222 0 0 0 0 26.009745591458341 -144.61448246764121 0 -144.61448246764121 1132.3108449998858 0 0 0 0 7.7932893844116293 -7.9112851061265559 0 -7.9112851061265559 4.255741860124445 0 0 0 0 -385.75366702377141 546.32356836361578 0 546.32356836361578 2032.6541643640739 0 0 0 0 5.9049448740451851 -21.930913441109553 0 -21.930913441109553 -8.1535534929392899 0 0 0 0 -217.22004444457707 -883.98374282544137 0 -883.98374282544137 1718.3324690560767 0 0 0 0 -53.714659199353264 -139.51487440980259 0 -139.51487440980259 -166.44626196500758 0 0 0 0 1107.863569517991 -1635.5637804892831 0 -1635.5637804892831 696.09721695615372 0 0 0 0 17.985192543297366 -38.565751019296869 0 -38.565751019296869 -83.534138264352862 0 0 0 0 -5.2649985989846755 -119.20413041678694 0 -119.20413041678694 -231.16051326957142 0 0 0 0 -11.876427567819114 -32.422169009666604 0 -32.422169009666604 -27.48760433253932 0 0 0 0 -8.2471367066063976 -105.57311540328737 0 -105.57311540328737 -178.27829557617224 0 0 0 0 1.5006068245784263 -105.60554870516353 0 -105.60554870516353 -215.80413112240058 0 0 0 0 -19.187995910131576 -162.62570033547672 0 -162.62570033547672 -191.31689080752767 0 0 0 0 -26.642937859436643 -149.01815320299283 0 -149.01815320299283 -122.41400124486245 0 0 0 0 -37.827365255561745 -115.34490486741197 0 -115.34490486741197 -219.16990552569405 0 0 0 0 -19.302685520866362 -167.68966956956683 0 -167.68966956956683 -158.15710549158393 0 0 0 0 -6.4811613490383024 -183.36924932137481 0 -183.36924932137481 -263.0551148751947 0 0 0 0 -37.552934868037482 -173.22986238174599 0 -173.22986238174599 -76.506957703430089 0 0 0 0 -47.470759739993809 -166.95296573019004 0 -166.95296573019004 -168.2061401426472 0 0 0 0 -14.677882120984577 -180.92133862175433 0 -180.92133862175433 -170.07577406923701 0 0 0 0 3.7509963873162633 -186.77584546106118 0 -186.77584546106118 -169.18057436853996 0 0 0 0 -17.050741268945785 -184.62502062079147 0 -184.62502062079147 -147.85695094157563 0 0 0 0 -42.900162671693792 -55.572797383996914 0 -55.572797383996914 -51.638090879109939 0 0 0 0 -266.0720276390748 -354.3175516289698 0 -354.3175516289698 -230.75609665400043 0 0 0 0 -199.87646877094812 -269.73829969590224 0 -269.73829969590224 -297.81760712999494 0 0 0 0 104.19724447796762 -111.9138605841772 0 -111.9138605841772 -46.163168265964487 0 0 0 0 -94.558190491028654 -334.32758352589542 0 -334.32758352589542 -280.02802651777893 0 0 0 0 25.088852170803065 -10.157423694894076 0 -10.157423694894076 -20.369948279045925 0 0 0 0 -98.558340524441974 -223.7262813274304 0 -223.7262813274304 100.72486828288675 0 0 0 0 27.756053549999706 -150.99891894944449 0 -150.99891894944449 -91.981789851539361 0 0 0 0 0.27060681210083715 -46.868698478004383 0 -46.868698478004383 -34.377790885370359 0 0 0 0 31.887153341645899 -74.285824848211632 0 -74.285824848211632 19.303598388025421 0 0 0 0 -23.445101404836535 -47.351858802468023 0 -47.351858802468023 7.2799423860891963 0 0 0 0 -27.41222339072533 -30.42468925165258 0 -30.42468925165258 94.546670782827277 0 0 0 0 30.387837583318287 -33.640551210668491 0 -33.640551210668491 -118.00515141609503 0 0 0 0 18.375414193650901 -11.81225508419481 0 -11.81225508419481 -12.960465519836657 0 0 0 0 -97.120197810910213 -144.24136918640852 0 -144.24136918640852 48.792195866360998 0 0 0 0 -43.027420400154369 -204.70128264842424 0 -204.70128264842424 -114.12558368745431 0 0 0 0 2.7312417147986707 -16.587839390820591 0 -16.587839390820591 -82.583583174746309 0 0 0 0 5.6016906238214226 -2.6999470986459642 0 -2.6999470986459642 4.1555493742985377 0 0 0 0 168.4749911131621 53.247112047143673 0 53.247112047143673 -53.196390214545318 0 0 0 0 350.20829891969879 -220.84271378802805 0 -220.84271378802805 -56.152154695897025 0 0 0 0 45.676595068160168 -263.9323635480705 0 -263.9323635480705 402.17507428214594 0 0 0 0 478.9127568774561 -64.09887001678544 0 -64.09887001678544 -194.76577962458759 0 0 0 0 129.37054646745855 49.261805037400336 0 49.261805037400336 299.13234804587591 0 0 0 0 -46.329553442491317 29.09498181874865 0 29.09498181874865 399.69411460802439 0 0 0 0 110.36809079286286 -444.09957438752826 0 -444.09957438752826 -59.363618325252901 0 0 0 0 31.22407352173559 -174.59372118913416 0 -174.59372118913416 76.118580669553467 0 0 0 0 45.196502210301333 -129.729338347468 0 -129.729338347468 89.882440529177984 0 0 0 0 -56.479348807471965 -36.553956317429765 0 -36.553956317429765 46.277361763723007 0 0 0 0 36.674324498413625 -182.12652567668192 0 -182.12652567668192 78.580221617597999 0 0 0 0 -11.919041488468793 -172.67821025512603 0 -172.67821025512603 225.12071764457869 0 0 0 0 71.066450782882384 -72.351948627989259 0 -72.351948627989259 56.2868968720868 0 0 0 0 -31.489096875879113 -119.66579183553495 0 -119.66579183553495 110.89971458800574 0 0 0 0 -61.511331566833597 -35.461983632036294 0 -35.461983632036294 44.513008481917524 0 0 0 0 -295.66771186442929 101.75936411377552 0 101.75936411377552 103.57660132954243 0 0 0 0 -81.847304661085218 -141.78886459395653 0 -141.78886459395653 206.7612425549014 0 0 0 0 -71.751060734124621 -144.00141713147605 0 -144.00141713147605 143.65161747612092 0 0 0 0 -81.924998103459984 -71.090493334459097 0 -71.090493334459097 65.656055785879289 0 0 0 0 -66.086141894306053 -36.207174228432805 0 -36.207174228432805 39.855276246152179 0 0 0 0 -7.7291302750563773 -229.53499737123002 0 -229.53499737123002 128.07315461516919 0 0 0 0 10.241961515090225 -200.54862414616036 0 -200.54862414616036 155.12999826024861 0 0 0 0 354.01713466917499 -358.27266661131034 0 -358.27266661131034 -1190.3243636127845 0 0 0 0 133.2029177540735 -432.79001008705018 0 -432.79001008705018 -256.57605356018166 0 0 0 0 440.86069493474315 -199.52656451377516 0 -199.52656451377516 48.710067376241568 0 0 0 0 84.207179459956478 -333.39465828536686 0 -333.39465828536686 113.23636463909133 0 0 0 0 2.3207160783085996 -5.7666149006141367 0 -5.7666149006141367 0.43994170835792135 0 0 0 0 -196.85442879729453 -324.44360449314991 0 -324.44360449314991 1676.3144119482745 0 0 0 0 28.636409454892686 -33.00035439170621 0 -33.00035439170621 16.549240718651774 0 0 0 0 405.56641288686569 -327.8168536645735 0 -327.8168536645735 112.78248149686988 0 0 0 0 -50.0075883668991 -51.179206508804057 0 -51.179206508804057 38.758144295798999 0 0 0 0 -220.83733160238808 -12.160712292930839 0 -12.160712292930839 337.51500888219925 0 0 0 0 267.65160235356143 -263.87076246570723 0 -263.87076246570723 -191.8833413882312 0 0 0 0 -248.2806981695685 -114.48886146492441 0 -114.48886146492441 -16.643329002403334 0 0 0 0 13.697720203873907 -27.718549488028064 0 -27.718549488028064 -2.6931361442148614 0 0 0 0 17.143667534504857 -165.88645103846648 0 -165.88645103846648 -92.879842813053983 0 0 0 0 81.07055386803404 -135.00372999045976 0 -135.00372999045976 -114.45204657348404 0 0 0 0 113.49843469902771 -292.35806570465684 0 -292.35806570465684 56.418026274172007 0 0 0 0 134.11398309582182 -190.27045125792847 0 -190.27045125792847 24.847353756262237 0 0 0 0 57.933608371989976 -208.92604425197351 0 -208.92604425197351 21.702352404672638 0 0 0 0 -167.12347093140852 4.6701132768976095 0 4.6701132768976095 196.04701494203618 0 0 0 0 131.54523731108389 -72.925503413693534 0 -72.925503413693534 25.009222336410868 0 0 0 0 128.46513869131059 -60.898767588857027 0 -60.898767588857027 26.451030673598854 0 0 0 0 190.14677079668945 -252.89349571266439 0 -252.89349571266439 -294.44806929704282 0 0 0 0 -104.63659498645939 118.2410133096746 0 118.2410133096746 5.4912440226980834 0 0 0 0 -133.981939724732 243.51864257510897 0 243.51864257510897 -818.61880739575645 0 0 0 0 212.9606218135159 -294.37641631070528 0 -294.37641631070528 -309.66133853562496 0 0 0 0 -297.36065325222148 -862.76239969103688 0 -862.76239969103688 -1385.9389080115252 0 0 0 0 -2.7438623944127372 -3.4822044199071271 0 -3.4822044199071271 -7.9390787628192214 0 0 0 0 -1090.6234917925285 -175.77216927817062 0 -175.77216927817062 170.97128414591862 0 0 0 0 387.39552978093707 -567.6786967087578 0 -567.6786967087578 -1667.4757135140026 0 0 0 0 -139.49238009976943 -335.5926863212153 0 -335.5926863212153 -178.23133507452803 0 0 0 0 230.65280888754751 3.2772986919044342 0 3.2772986919044342 -1386.1107851565612 0 0 0 0 -667.20500086975881 -446.34438067078372 0 -446.34438067078372 -1366.3053706289757 0 0 0 0 -722.30536480871274 -16.750411064008404 0 -16.750411064008404 -961.93205293893698 0 0 0 0 68.830090940195078 -140.69364686672634 0 -140.69364686672634 -1451.1096431292608 0 0 0 0 76.375456917839756 -46.757969161987603 0 -46.757969161987603 -615.79183672731597 0 0 0 0 360.56433868728709 51.549196108942851 0 51.549196108942851 -886.42945705769307 0 0 0 0 -334.12822263477756 -617.11719755681406 0 -617.11719755681406 -41.623422253069293 0 0 0 0 380.15989926443945 -18.574448468254559 0 -18.574448468254559 -648.69852416897629 0 0 0 0 -790.05693402427278 -941.48394216684392 0 -941.48394216684392 -696.57961882841846 0 0 0 0 -410.91411426501509 -469.68915400869082 0 -469.68915400869082 -112.91009753292747 0 0 0 0 -252.141037004174 -585.21636595840755 0 -585.21636595840755 -145.26894492602696 0 0 0 0 -209.91697107277651 -377.29761057731594 0 -377.29761057731594 -427.19864108491674 0 0 0 0 -219.77603480614926 -435.25648076840616 0 -435.25648076840616 -295.62212481102324 0 0 0 0 186.90378444380622 -623.23714476387613 0 -623.23714476387613 -237.93851354610524 0 0 0 0 -103.49629723067665 -675.14901526075118 0 -675.14901526075118 -751.4067317312074 0 0 0 0 -333.40047680284624 -708.25671004451942 0 -708.25671004451942 -317.43987663315056 0 0 0 0 22.905110740126055 -18.953994518257872 0 -18.953994518257872 8.8695109133837313 0 0 0 0 -125.18334168351475 -363.47758124752227 0 -363.47758124752227 -910.26008776034723 0 0 0 0 576.17590687949269 212.32813082245048 0 212.32813082245048 -618.36165215034271 0 0 0 0 423.87247941763053 -472.57231935168602 0 -472.57231935168602 -1548.3594711290752 0 0 0 0 162.21836901691495 -48.420786976199452 0 -48.420786976199452 -1132.0620808747699 0 0 0 0 378.86002480888419 -406.37161249123892 0 -406.37161249123892 -681.35672654817608 0 0 0 0 1223.9565602261864 -279.79786817982313 0 -279.79786817982313 -666.80710846402508 0 0 0 0 138.5482705932518 -515.91054273553891 0 -515.91054273553891 794.22241011174629 0 0 0 0 329.15360851742116 58.044083668559324 0 58.044083668559324 -258.43027205864564 0 0 0 0 -474.34869756485023 -269.07068978995426 0 -269.07068978995426 -120.51063084033376 0 0 0 0 5.5420204916412974 -40.419765119282374 0 -40.419765119282374 -94.175413051270041 0 0 0 0 518.15025490316293 367.57373290177748 0 367.57373290177748 170.20325069167302 0 0 0 0 -2.9324176123091039 -19.574275221142166 0 -19.574275221142166 -4.2045553096293986 0 0 0 0 1084.5448103780609 -457.97592094319862 0 -457.97592094319862 360.94308477935556 0 0 0 0 21.57300518295429 1.2895848432779502 0 1.2895848432779502 -24.178964121754625 0 0 0 0 1245.650838112706 -1232.243817208815 0 -1232.243817208815 506.46991254090972 0 0 0 0 665.23806108619101 -765.07280728696423 0 -765.07280728696423 200.93589268275537 0 0 0 0 1705.0294011898513 -330.68273863435752 0 -330.68273863435752 -155.42840415188402 0 0 0 0 808.37925948785414 -39.625344162337569 0 -39.625344162337569 -654.43490713038773 0 0 0 0 388.83364823846205 -157.41632163641407 0 -157.41632163641407 -88.321921747422493 0 0 0 0 253.89560902250923 -103.77399919897107 0 -103.77399919897107 -661.82666685877484 0 0 0 0 443.56137149647111 -242.17808541608792 0 -242.17808541608792 -1020.5477588824797 0 0 0 0 -233.03167653198034 -291.14972890350327 0 -291.14972890350327 -497.49545954999621 0 0 0 0 374.48045371379885 -312.20952377394133 0 -312.20952377394133 -502.38422695301415 0 0 0 0 -1.4154026198575593 -692.95639744392429 0 -692.95639744392429 -409.08754220965056 0 0 0 0 -154.0363229880254 -687.51007257397055 0 -687.51007257397055 -406.31378609820968 0 0 0 0 -38.777021704365325 -43.662998153369699 0 -43.662998153369699 -653.31903783905727 0 0 0 0 15.922847926438408 -21.217198079753103 0 -21.217198079753103 -14.365471105803593 0 0 0 0 -269.58262365250266 -160.56642080764323 0 -160.56642080764323 -298.8225678836726 0 0 0 0 -358.14900209095595 -459.74728388934022 0 -459.74728388934022 -43.054081621197838 0 0 0 0 -38.155976010632358 -59.095044492682682 0 -59.095044492682682 -55.325346725398845 0 0 0 0 -300.07095067972841 -161.43041233281656 0 -161.43041233281656 -219.05838275171845 0 0 0 0 -244.19376562089019 -195.89673733891323 0 -195.89673733891323 -269.05397354096385 0 0 0 0 -260.33731025089219 -262.04184472702036 0 -262.04184472702036 -180.47439074293288 0 0 0 0 -320.39601948545896 -280.62845353174089 0 -280.62845353174089 -304.5355666518164 0 0 0 0 -312.4243770599187 -365.89060753855915 0 -365.89060753855915 -338.17092175843209 0 0 0 0 -72.871204946648504 -254.2342537720524 0 -254.2342537720524 -292.15984946491153 0 0 0 0 -98.899221386003774 -203.37212738646849 0 -203.37212738646849 -102.16687685999568 0 0 0 0 -288.63499151928409 -273.05171085674192 0 -273.05171085674192 -125.06890825727169 0 0 0 0 182.14502132844791 -147.11952671767904 0 -147.11952671767904 -82.948198363446863 0 0 0 0 34.129820603292245 -27.104358740932305 0 -27.104358740932305 -16.634205913768955 0 0 0 0 -36.766908954043174 -161.66508267118479 0 -161.66508267118479 -1116.2888866027388 0 0 0 0 -39.231745897810271 -46.104920469257166 0 -46.104920469257166 -30.064291834521327 0 0 0 0 136.49103227890009 173.457267965553 0 173.457267965553 87.18320981382567 0 0 0 0 157.18277181418671 -29.050323112953265 0 -29.050323112953265 -425.76730858664814 0 0 0 0 341.35116506361555 -1957.2166238190812 0 -1957.2166238190812 -1860.1736103448602 0 0 0 0 966.95306263657403 -510.87653642040914 0 -510.87653642040914 -481.81876541084921 0 0 0 0 -1385.589491975501 123.94652964708348 0 123.94652964708348 502.69280292235635 0 0 0 0 839.28049915771408 -806.61587355106531 0 -806.61587355106531 -114.43160170643205 0 0 0 0 16.213048885892135 -2.6171916353949882 0 -2.6171916353949882 -0.33750796973049191 0 0 0 0 -23.137963005516212 -489.64584130816729 0 -489.64584130816729 522.26691434836903 0 0 0 0 277.71766426026443 -486.67427573152941 0 -486.67427573152941 -233.08183674414977 0 0 0 0 262.56915918610503 -426.72437792398682 0 -426.72437792398682 -364.58339357781006 0 0 0 0 322.23584194829891 -363.99844184555877 0 -363.99844184555877 -348.08035282277797 0 0 0 0 956.73813589038491 28.122543638074717 0 28.122543638074717 -472.1773352836808 0 0 0 0 -272.12255800655112 -9.3941076634318961 0 -9.3941076634318961 -335.75655920912914 0 0 0 0 404.76816402984514 -241.14008169795716 0 -241.14008169795716 -445.55017276544822 0 0 0 0 185.28772985860996 -5.3982341960354461 0 -5.3982341960354461 -449.04625957160169 0 0 0 0 267.66886917626107 -330.39122303090244 0 -330.39122303090244 -304.02748904662258 0 0 0 0 174.02897800260689 -303.31127925376131 0 -303.31127925376131 -311.10762751770108 0 0 0 0 188.91234611169784 -227.40059388524605 0 -227.40059388524605 -234.3836555636226 0 0 0 0 121.22422971132619 -307.96238327213723 0 -307.96238327213723 -205.52252354570146 0 0 0 0 69.432797675573966 -284.75690420010869 0 -284.75690420010869 -201.13671824699122 0 0 0 0 171.17846523641219 -324.41204025272873 0 -324.41204025272873 -236.24515883774438 0 0 0 0 -44.54100531549193 -303.15562258320642 0 -303.15562258320642 -192.72616304959593 0 0 0 0 69.136970186649705 -285.97807771617408 0 -285.97807771617408 -206.00507215393009 0 0 0 0 -15.897522948449478 -249.932420641715 0 -249.932420641715 -198.45036385699859 0 0 0 0 -13.286375305659021 -236.97748456459431 0 -236.97748456459431 -161.31936575723375 0 0 0 0 -57.894350603251951 -214.38377423289057 0 -214.38377423289057 -172.38662921099603 0 0 0 0 -54.978649204233079 -146.32066272650263 0 -146.32066272650263 -142.73513397724491 0 0 0 0 -143.97596914145106 -149.89530246190225 0 -149.89530246190225 -111.93989323388269 0 0 0 0 -45.865061316329957 -280.81149162263944 0 -280.81149162263944 -161.0238064452642 0 0 0 0 -120.05381676713296 -254.08897051551685 0 -254.08897051551685 -152.55097160459081 0 0 0 0 -196.11335099581629 -261.42472620138142 0 -261.42472620138142 -153.36155703571876 0 0 0 0 -199.11689055285024 -270.24474414466476 0 -270.24474414466476 -178.38325111356608 0 0 0 0 -362.11838229848945 -157.4479514403738 0 -157.4479514403738 -107.93251859068278 0 0 0 0 -287.30403473297338 -212.05798355826664 0 -212.05798355826664 -177.09016454387165 0 0 0 0 -219.02647743502166 -214.2321218301222 0 -214.2321218301222 -207.5653735269625 0 0 0 0 -176.67181349316525 -265.8617810127098 0 -265.8617810127098 -205.39724994455901 0 0 0 0 -79.998081786376133 -326.53780661679593 0 -326.53780661679593 -179.07606919319824 0 0 0 0 -199.76702164713424 -292.77182434104634 0 -292.77182434104634 -148.63829623109996 0 0 0 0 -91.841735153691843 -459.46277494136484 0 -459.46277494136484 39.319098125974051 0 0 0 0 32.638278142498166 -350.41898278217013 0 -350.41898278217013 -233.98244234638787 0 0 0 0 145.06377913970937 -406.99264462843348 0 -406.99264462843348 -244.35599487858417 0 0 0 0 33.395215353186359 -317.93675306361365 0 -317.93675306361365 -200.26783622261792 0 0 0 0 -66.694367890704598 -347.75695389914563 0 -347.75695389914563 -154.04898243567732 0 0 0 0 52.598013236252882 -113.01476280290262 0 -113.01476280290262 -38.796743529576815 0 0 0 0 -26.470683636332978 -228.83377834359999 0 -228.83377834359999 13.299849625142997 0 0 0 0 -71.237503029085929 -96.318563837367037 0 -96.318563837367037 34.621757106038785 0 0 0 0 -23.695649821806001 -111.48844464351259 0 -111.48844464351259 39.380401750582109 0 0 0 0 29.684059023566078 -183.6558031497234 0 -183.6558031497234 -229.44986371607592 0 0 0 0 13.849070695162112 -22.037098192368767 0 -22.037098192368767 -3.5789802907714061 0 0 0 0 -44.214525637667975 -143.95691679616129 0 -143.95691679616129 -202.41745596871442 0 0 0 0 168.57725409841805 -464.90764260776359 0 -464.90764260776359 -375.26967768662189 0 0 0 0 -3.6457941954949433 -14.890761056706936 0 -14.890761056706936 -42.073677114051883 0 0 0 0 8.4780319512938149 -64.702854371575086 0 -64.702854371575086 -364.94405323391584 0 0 0 0 -13.617518757912961 -17.338805601393219 0 -17.338805601393219 -10.631925862073039 0 0 0 0 72.797639264608733 -123.16951759780204 0 -123.16951759780204 -41.46671192426237 0 0 0 0 7.1805404458136763 -97.833292516194433 0 -97.833292516194433 -42.211792641377315 0 0 0 0 -44.032673241235898 -45.405705120969287 0 -45.405705120969287 -50.318640570120806 0 0 0 0 6.8982327210979619 -16.742739609739232 0 -16.742739609739232 -51.187436425373683 0 0 0 0 -0.36386088548562157 -5.0125800224751629 0 -5.0125800224751629 -5.673354295390447 0 0 0 0 -401.06348519217863 -652.74972000080447 0 -652.74972000080447 -565.72525254617722 0 0 0 0 253.60840549848217 10.995285822301412 0 10.995285822301412 -44.307970072242824 0 0 0 0 -3.9043032530380728 -0.57426447655785751 0 -0.57426447655785751 -31.417877348828164 0 0 0 0 280.40679365368851 -187.30685744954189 0 -187.30685744954189 -40.289208265661728 0 0 0 0 -1002.4046650916571 -751.89671485104191 0 -751.89671485104191 -240.89066386688137 0 0 0 0 -949.65823904027638 -1347.6463696411447 0 -1347.6463696411447 -722.03138466474775 0 0 0 0 -956.60786627829657 -1363.7564719365582 0 -1363.7564719365582 -746.95801723434761 0 0 0 0 -385.06956839207851 -917.83304498721373 0 -917.83304498721373 -1036.142134783795 0 0 0 0 -529.3195291367083 -556.59205451158414 0 -556.59205451158414 -151.29460290739371 0 0 0 0 83.283104780120539 -180.74485641812049 0 -180.74485641812049 -1053.0041280575315 0 0 0 0 108.44839692442474 286.81880935071331 0 286.81880935071331 -224.36167276721608 0 0 0 0 -151.32249846093146 -147.98535884439707 0 -147.98535884439707 -1202.8884949365638 0 0 0 0 -86.072413651869283 214.08033133348999 0 214.08033133348999 585.12142258711356 0 0 0 0 -190.52093862969195 -454.19456485765659 0 -454.19456485765659 -441.88452977922861 0 0 0 0 -1425.5748164672405 -1930.3278933137644 0 -1930.3278933137644 -695.59274168344655 0 0 0 0 -21.523288250091554 -21.679154917605473 0 -21.679154917605473 5.5594841002831714 0 0 0 0 -1122.9416470777724 -359.59355556614901 0 -359.59355556614901 63.170342820103542 0 0 0 0 -379.01502970572074 -1026.7969414050276 0 -1026.7969414050276 -1869.4434493974113 0 0 0 0 -1028.9976574029351 -1114.1950930730154 0 -1114.1950930730154 -345.488578040422 0 0 0 0 -1849.3720653616183 -1740.7805727427694 0 -1740.7805727427694 -822.81439837477865 0 0 0 0 -526.20587729851104 -631.13241272825235 0 -631.13241272825235 -361.90738721262824 0 0 0 0 -275.83529874046508 -558.26407221895352 0 -558.26407221895352 -753.1263157243684 0 0 0 0 -487.24208827519033 -402.08632728856264 0 -402.08632728856264 -345.64053301184322 0 0 0 0 -372.53017803832336 -308.78735597509149 0 -308.78735597509149 -999.88325168501115 0 0 0 0 -459.62061485800223 -786.59899173167923 0 -786.59899173167923 -1663.776302139288 0 0 0 0 -844.91558266429638 -1022.1486584510621 0 -1022.1486584510621 -765.27827599283228 0 0 0 0 -841.27294501545839 -1007.6907490892472 0 -1007.6907490892472 -835.26592683991839 0 0 0 0 551.3505955268447 180.17198746457814 0 180.17198746457814 -417.65652656718521 0 0 0 0 -0.93930491092491764 -0.43080836555718349 0 -0.43080836555718349 -11.621086885293476 0 0 0 0 -2695.8150549221391 -1472.8671472247579 0 -1472.8671472247579 -546.72657997121496 0 0 0 0 -1159.0473795912221 -1595.3885899251318 0 -1595.3885899251318 -1574.8612098666308 0 0 0 0 -1182.488757108239 -485.98618925288895 0 -485.98618925288895 -613.50130822627943 0 0 0 0 -271.41090315269685 -933.73284139526913 0 -933.73284139526913 -841.76411844782524 0 0 0 0 -875.95206954675086 -1511.7431287489562 0 -1511.7431287489562 -1319.2224973396965 0 0 0 0 -27.000753991145757 -251.40409441279189 0 -251.40409441279189 -262.96421209982054 0 0 0 0 266.94526681209391 -485.057523160036 0 -485.057523160036 -1585.1855796019161 0 0 0 0 -14.86627617553313 -205.48085792429947 0 -205.48085792429947 -268.23234289319407 0 0 0 0 -22.25242126608282 -448.89272345268046 0 -448.89272345268046 -509.7860124413528 0 0 0 0 -193.16878963219642 -940.34656292413001 0 -940.34656292413001 -1905.7412938094985 0 0 0 0 -424.94262795124814 -1010.7225108460898 0 -1010.7225108460898 -859.78978446909969 0 0 0 0 -307.00715726962881 -398.84099741736031 0 -398.84099741736031 -625.42844809899179 0 0 0 0 -689.18898703590094 -968.15332746811782 0 -968.15332746811782 -730.48307868700795 0 0 0 0 -491.21066831890494 -433.6795282899111 0 -433.6795282899111 -40.328787863065372 0 0 0 0 51.819040564616444 -496.85633155744472 0 -496.85633155744472 -28.813147428302273 0 0 0 0 -5.3292512640593088 -10.241503688562439 0 -10.241503688562439 1.3072582599381812 0 0 0 0 -288.6000880574411 66.214002247804729 0 66.214002247804729 149.80495316495944 0 0 0 0 -113.3035061105802 -583.48287757729167 0 -583.48287757729167 -449.71858769610299 0 0 0 0 -129.04930583212627 -180.26859107917471 0 -180.26859107917471 -3.204540108979927 0 0 0 0 43.325050929706777 -175.73476273008964 0 -175.73476273008964 -643.39446844386021 0 0 0 0 209.6521085607892 -52.431962718481827 0 -52.431962718481827 -76.96594974108848 0 0 0 0 -2.8739434329420988 -7.1366828574998351 0 -7.1366828574998351 0.67994933378404454 0 0 0 0 -289.12574060903717 -105.40130863958984 0 -105.40130863958984 468.1780910049165 0 0 0 0 183.21788266079238 -308.95935634062334 0 -308.95935634062334 -910.15995146841647 0 0 0 0 65.598078209916821 -105.16801730479767 0 -105.16801730479767 -445.21051065159736 0 0 0 0 -7.1526891789144429 -304.1303117693792 0 -304.1303117693792 -232.0363534050357 0 0 0 0 -187.43233650766706 -26.136672272159103 0 -26.136672272159103 -426.36200339605966 0 0 0 0 343.96672846880392 -252.83721449765835 0 -252.83721449765835 -479.21173169049234 0 0 0 0 171.38389150748117 -328.09438113061606 0 -328.09438113061606 -386.39163614835616 0 0 0 0 -186.33458388975123 -658.08020944446707 0 -658.08020944446707 577.47896068262344 0 0 0 0 452.83889349492529 6.931760932614452 0 6.931760932614452 -616.619872457366 0 0 0 0 2.6796906225492592 -6.4310335783485613 0 -6.4310335783485613 1.7411209804044336 0 0 0 0 -283.36519417327509 -296.92529119595019 0 -296.92529119595019 888.03584144693468 0 0 0 0 -37.887944085734489 -187.7800523539654 0 -187.7800523539654 366.69522378570491 0 0 0 0 545.88913956369288 -572.28026442628243 0 -572.28026442628243 -1528.1092189055234 0 0 0 0 -282.02857544537255 -243.22724569873662 0 -243.22724569873662 -403.54707627104835 0 0 0 0 4.2319710686281837 -11.341505209867222 0 -11.341505209867222 2.9912129693200322 0 0 0 0 63.62680073633237 -716.90490060827051 0 -716.90490060827051 -640.21210083456117 0 0 0 0 64.117429960140726 -547.45737787051621 0 -547.45737787051621 -499.18948954893085 0 0 0 0 18.392006831270919 -1.4386575843773244 0 -1.4386575843773244 160.3511146656183 0 0 0 0 253.35652067168849 -312.15283052719496 0 -312.15283052719496 -47.077954665935522 0 0 0 0 148.29158023000491 -195.64499554098074 0 -195.64499554098074 -243.2599290305825 0 0 0 0 145.65427385628573 -186.08626720146276 0 -186.08626720146276 -49.927820141627308 0 0 0 0 227.19137900155329 -166.84689580845225 0 -166.84689580845225 -61.114553673090995 0 0 0 0 240.0525656521786 -218.44989605077353 0 -218.44989605077353 21.694024039193664 0 0 0 0 280.81451440810633 -101.43046570638217 0 -101.43046570638217 9.3140503922491007 0 0 0 0 188.35168080031872 -203.89001840855599 0 -203.89001840855599 51.8474540732077 0 0 0 0 1.86732216278142 -34.540231264820022 0 -34.540231264820022 -26.003689234235935 0 0 0 0 -2.0501782725722251 -20.808425661802005 0 -20.808425661802005 -29.843630853818414 0 0 0 0 191.02679725556663 -274.01780005244655 0 -274.01780005244655 350.15219724467534 0 0 0 0 0.68115572530490454 -2.1772771629994843 0 -2.1772771629994843 -4.5967142156282055 0 0 0 0 -130.05892946386302 -203.15013147104401 0 -203.15013147104401 -321.0807144242317 0 0 0 0 4.0339562450305095 1.8544038848962074 0 1.8544038848962074 -4.8286427910966978 0 0 0 0 106.92085598636186 -85.20139760407983 0 -85.20139760407983 -471.84405537301791 0 0 0 0 250.9624102570524 -247.98580120626502 0 -247.98580120626502 -443.38230745304645 0 0 0 0 5.7108870669326279 -26.610955519099662 0 -26.610955519099662 -78.626019273295924 0 0 0 0 31.1195543822503 -14.865302747872224 0 -14.865302747872224 -31.974040097064321 0 0 0 0 -41.967221281025559 -134.92548089599586 0 -134.92548089599586 -186.42031083963957 0 0 0 0 -80.878476053476334 -179.21714750781939 0 -179.21714750781939 -183.04991594036983 0 0 0 0 -10.259436161126359 -161.71225711440457 0 -161.71225711440457 -189.30665672199029 0 0 0 0 -76.275951249250284 -77.789310569577083 0 -77.789310569577083 -321.83627719401557 0 0 0 0 -100.0776311422087 -244.36439963333942 0 -244.36439963333942 -265.36384417237969 0 0 0 0 83.572217251756229 -262.67888305850283 0 -262.67888305850283 -203.9072220179969 0 0 0 0 16.708830717921956 -200.1562379674433 0 -200.1562379674433 -231.30760241871394 0 0 0 0 77.740949392667972 -269.38694973452039 0 -269.38694973452039 -207.17555477912538 0 0 0 0 150.94495772589289 -314.433686132199 0 -314.433686132199 -209.76090054799715 0 0 0 0 105.22501356915018 -263.63071184517685 0 -263.63071184517685 -251.96451929841714 0 0 0 0 123.57540564058581 -240.10841392043949 0 -240.10841392043949 -222.78598231446722 0 0 0 0 97.157018889894971 -281.94565375213369 0 -281.94565375213369 57.099565964006615 0 0 0 0 281.31401518732309 -468.6612585585317 0 -468.6612585585317 -138.84986254503019 0 0 0 0 103.3752319562318 -292.08468943392882 0 -292.08468943392882 -95.983277726965753 0 0 0 0 112.50543999058573 -345.4593844961355 0 -345.4593844961355 -105.99784733821798 0 0 0 0 105.98170515402308 -303.93943028491412 0 -303.93943028491412 -177.36177107553522 0 0 0 0 112.41905142809264 -295.12940723377142 0 -295.12940723377142 -20.103261351821857 0 0 0 0 113.54525251136511 -324.49774550561779 0 -324.49774550561779 -130.78783482788094 0 0 0 0 105.69548327467055 -298.41299289791823 0 -298.41299289791823 -98.433183484390611 0 0 0 0 211.03648708837136 -158.15986856515337 0 -158.15986856515337 -73.077651642004639 0 0 0 0 -0.95100033326687594 -2.4621664832122718 0 -2.4621664832122718 0.0074231345492803413 0 0 0 0 -77.809689692523534 -42.493151593877428 0 -42.493151593877428 637.97011573285818 0 0 0 0 62.342326363941538 -202.34075443785423 0 -202.34075443785423 -1100.1272407861859 0 0 0 0 3.6035329104124685 -143.8346420680773 0 -143.8346420680773 -159.58702619792302 0 0 0 0 116.30559916507264 -305.56596023978227 0 -305.56596023978227 -174.99250555217259 0 0 0 0 -108.93604875631718 -279.82951515207833 0 -279.82951515207833 -294.57401176555322 0 0 0 0 -57.176829973888744 19.381318063729509 0 19.381318063729509 -252.97707159082893 0 0 0 0 46.608219995570835 -91.775405704820514 0 -91.775405704820514 -410.87527079526035 0 0 0 0 148.09431619258976 -61.625873740373208 0 -61.625873740373208 -260.80416470688237 0 0 0 0 -83.363213401506073 -139.99792766602604 0 -139.99792766602604 -275.61628847185239 0 0 0 0 4.7261175918392837 -55.235665337987029 0 -55.235665337987029 -185.31265551773504 0 0 0 0 -5.5119208407704718 -27.803627175586371 0 -27.803627175586371 -220.4449583425112 0 0 0 0 53.486411025405687 -39.18769666326898 0 -39.18769666326898 -230.0914825326945 0 0 0 0 136.64045747930868 -118.01402765055718 0 -118.01402765055718 -201.90909318233025 0 0 0 0 149.47863258994039 -95.084479920686135 0 -95.084479920686135 -234.89477321505649 0 0 0 0 144.90096797403021 -82.61925891616329 0 -82.61925891616329 -141.11478866470497 0 0 0 0 258.35170371353161 -165.7313346134797 0 -165.7313346134797 -174.29610074076845 0 0 0 0 47.652722356546519 -67.73860275819294 0 -67.73860275819294 -186.63024222465901 0 0 0 0 475.87334431061026 -83.710601003647753 0 -83.710601003647753 -187.78766262110184 0 0 0 0 -15.208027377213885 -9.8173166443594937 0 -9.8173166443594937 -2.8289436604493545 0 0 0 0 322.84618467252949 -201.78372123056943 0 -201.78372123056943 -237.01248395472612 0 0 0 0 -18.171703217121831 -202.5770991134732 0 -202.5770991134732 -87.319734861368488 0 0 0 0 48.679127884533955 -209.83880319903255 0 -209.83880319903255 -237.12335520483762 0 0 0 0 27.363282622267434 -122.58690555585372 0 -122.58690555585372 -194.22426248542433 0 0 0 0 2.1360724690021016 -109.58346066351623 0 -109.58346066351623 -137.83653912675527 0 0 0 0 34.721135363066665 -19.623346839992003 0 -19.623346839992003 9.8020254940911755 0 0 0 0 -12.775795782723435 -98.265630763351055 0 -98.265630763351055 373.66346943227563 0 0 0 0 -48.740926055754244 -28.865035146937544 0 -28.865035146937544 244.31665096305915 0 0 0 0 -45.584197246957046 199.84000932177969 0 199.84000932177969 615.78194245351369 0 0 0 0 6.438169722481689 -105.221442424212 0 -105.221442424212 -200.61933024898815 0 0 0 0 9.3747818816550534 -65.515747229674332 0 -65.515747229674332 -175.50807265048388 0 0 0 0 -60.445149258353922 -108.85710504411236 0 -108.85710504411236 -52.750777921205099 0 0 0 0 -17.553982815246854 14.474425333012277 0 14.474425333012277 -107.04192820614026 0 0 0 0 231.655628573586 -58.905812877098924 0 -58.905812877098924 -275.14873767884092 0 0 0 0 6.5468203653101398 -6.1443010880893567 0 -6.1443010880893567 4.641513707611054 0 0 0 0 -27.836055351472169 -109.87882359283913 0 -109.87882359283913 -223.30360860144992 0 0 0 0 159.15986309883738 -37.090019461523298 0 -37.090019461523298 614.98181106334141 0 0 0 0 20.373953284086468 -15.540039668176362 0 -15.540039668176362 8.7734024853802666 0 0 0 0 579.12074908531213 167.94965132034122 0 167.94965132034122 678.42325361116036 0 0 0 0 671.15944321532152 -467.25542879319255 0 -467.25542879319255 323.49222479085802 0 0 0 0 72.717530224836082 -62.779452767178554 0 -62.779452767178554 749.23930922618092 0 0 0 0 -534.72571211219474 -586.39443356155334 0 -586.39443356155334 1149.4284335105167 0 0 0 0 -458.51235668975642 -12.187515593920125 0 -12.187515593920125 2027.7000844459089 0 0 0 0 -278.30290796980989 336.43768940327902 0 336.43768940327902 170.92694559399752 0 0 0 0 675.68429312207445 120.38509117887861 0 120.38509117887861 -1.8425520670025435 0 0 0 0 2.0254164591119945 -3.778570745276383 0 -3.778570745276383 6.4388508226420349 0 0 0 0 223.25620497921045 213.69268207407913 0 213.69268207407913 -6.5877359171799981 0 0 0 0 396.86641669068922 -163.40116909094559 0 -163.40116909094559 -3.6450248651199217 0 0 0 0 -14.34359121297166 -286.05166104236923 0 -286.05166104236923 -5.7913427198038789 0 0 0 0 94.208599568417412 -207.6636215881972 0 -207.6636215881972 -373.10772855205869 0 0 0 0 1.5551142336298653 -414.27986264870424 0 -414.27986264870424 595.537858877291 0 0 0 0 -9.406369132353575 -318.77580693650089 0 -318.77580693650089 111.29369068799269 0 0 0 0 -98.20649630319167 -164.18827208208631 0 -164.18827208208631 -610.40989745277875 0 0 0 0 -110.48140038527345 -413.48323954468651 0 -413.48323954468651 169.80053622648575 0 0 0 0 -367.10985189212806 -256.21214057671114 0 -256.21214057671114 266.81214132887635 0 0 0 0 12.670548847000461 -13.035364425926485 0 -13.035364425926485 7.2645591711490471 0 0 0 0 -223.70106623409083 -370.90564092118075 0 -370.90564092118075 339.55534301229636 0 0 0 0 -187.6984242402159 -206.39438036191063 0 -206.39438036191063 344.64759709282225 0 0 0 0 -141.37892605425805 -279.63932158027455 0 -279.63932158027455 431.2893574097734 0 0 0 0 -167.27893460552696 -133.52841308503707 0 -133.52841308503707 571.27864411271003 0 0 0 0 -167.82554995856481 -193.44067926896059 0 -193.44067926896059 705.07972080150489 0 0 0 0 -133.97339159763942 -24.723927909770282 0 -24.723927909770282 1253.6456707092048 0 0 0 0 293.81416446196454 -649.98258540495863 0 -649.98258540495863 779.1682970069196 0 0 0 0 -337.64261976236958 -335.0844471305054 0 -335.0844471305054 615.39246471490151 0 0 0 0 -126.24806794381902 -423.60109527099326 0 -423.60109527099326 735.92527566568606 0 0 0 0 751.10944174273027 -622.36685227349517 0 -622.36685227349517 -275.206645126495 0 0 0 0 472.36775288794888 -662.14320596548714 0 -662.14320596548714 892.2747386352039 0 0 0 0 289.54235986983258 -340.03413963729054 0 -340.03413963729054 1110.7244638249231 0 0 0 0 542.02991908612239 -98.260171385353715 0 -98.260171385353715 -403.89062412492785 0 0 0 0 301.84726053731538 -44.17997192333678 0 -44.17997192333678 645.68301304406305 0 0 0 0 344.88627192296553 92.682212154291847 0 92.682212154291847 -110.00565968893989 0 0 0 0 131.08576165935301 -79.298788093120493 0 -79.298788093120493 -218.27437466789706 0 0 0 0 452.99089808994904 -475.83930781334857 0 -475.83930781334857 390.77197066371355 0 0 0 0 741.16684749812703 -641.08206474755389 0 -641.08206474755389 999.65069829434469 0 0 0 0 493.96023144930223 172.06895200436634 0 172.06895200436634 751.84722797580253 0 0 0 0 446.9305755022433 -363.28948322607175 0 -363.28948322607175 -544.63355777991637 0 0 0 0 703.73990461140056 110.76415065156016 0 110.76415065156016 52.220590211418312 0 0 0 0 766.21334655631654 -16.729236808540918 0 -16.729236808540918 67.739252694196693 0 0 0 0 517.86984710423712 96.391901882470847 0 96.391901882470847 17.174012955569196 0 0 0 0 -165.05856752477848 104.66699914510627 0 104.66699914510627 497.13839966327896 0 0 0 0 1.3900852662280343 0.45921054413133788 0 0.45921054413133788 9.9328383100017348 0 0 0 0 1200.7649291860434 -382.94806423266891 0 -382.94806423266891 400.01519328084396 0 0 0 0 -7.0575397750500066 -8.7342796507447815 0 -8.7342796507447815 24.78767620647443 0 0 0 0 -66.294771568384022 -100.1817816282055 0 -100.1817816282055 74.506287907106525 0 0 0 0 720.28277413536853 91.270095419532481 0 91.270095419532481 -30.502647822973813 0 0 0 0 -28.163643607089568 -35.915851045740496 0 -35.915851045740496 -28.503046998887143 0 0 0 0 -189.6824096117416 65.003642361880338 0 65.003642361880338 44.930916954765053 0 0 0 0 1.1848376265843399 -41.0917728364293 0 -41.0917728364293 48.012380752590616 0 0 0 0 53.066030149326252 -174.7439402153941 0 -174.7439402153941 -51.624447096214681 0 0 0 0 7.8038739254698157 -209.41322035949452 0 -209.41322035949452 -28.757356303514825 0 0 0 0 80.450790868984768 -197.95351245216352 0 -197.95351245216352 -36.303122787699976 0 0 0 0 -116.81437528842071 -212.58788771803847 0 -212.58788771803847 -6.6758698672238097 0 0 0 0 -27.402603463451669 -141.57990946427299 0 -141.57990946427299 -8.5459744575200602 0 0 0 0 38.352126298806979 -131.44051748739071 0 -131.44051748739071 -37.788080178344899 0 0 0 0 14.693243630391947 -3.2026439053176006 0 -3.2026439053176006 -6.7795371060272771 0 0 0 0 772.67617472517304 56.098281991851763 0 56.098281991851763 -7.754151955821726 0 0 0 0 854.87814126066223 258.9561642541903 0 258.9561642541903 -70.531598049790773 0 0 0 0 693.74915687477915 -18.942509451797378 0 -18.942509451797378 59.494304488391208 0 0 0 0 723.71765431518725 -88.516794525110527 0 -88.516794525110527 -51.082290552869381 0 0 0 0 1190.7935991752602 11.542370149298222 0 11.542370149298222 -24.340176855885147 0 0 0 0 617.46459425452849 -40.261670172499635 0 -40.261670172499635 -28.963242812937096 0 0 0 0 3.3340247544150117 -39.461124925425892 0 -39.461124925425892 -23.709584652743011 0 0 0 0 738.5979394836686 -90.131578252023246 0 -90.131578252023246 -129.04547674808418 0 0 0 0 73.377827076059475 -156.41908287985325 0 -156.41908287985325 -44.207717348092046 0 0 0 0 602.37755276607641 -257.00365157510987 0 -257.00365157510987 -106.57517963868122 0 0 0 0 621.14243715857265 -158.76429300091149 0 -158.76429300091149 318.01813735668475 0 0 0 0 395.86821553564732 135.17781150855444 0 135.17781150855444 -225.71389663194714 0 0 0 0 709.07583969627376 -148.10746828154288 0 -148.10746828154288 -173.5998527509073 0 0 0 0 691.82125294308935 -165.51522705969546 0 -165.51522705969546 -31.500945985306316 0 0 0 0 702.35131578618893 -12.381356834323924 0 -12.381356834323924 -70.781145516528341 0 0 0 0 661.30898341841385 -56.085957498271455 0 -56.085957498271455 -91.948053357475146 0 0 0 0 750.16059139283971 125.61623341370387 0 125.61623341370387 -167.69037795058466 0 0 0 0 521.61355366528733 87.555291950273386 0 87.555291950273386 -215.59092156767292 0 0 0 0 -175.33343151170993 -16.452083841433705 0 -16.452083841433705 6.3132732439080428 0 0 0 0 7.9518827174293421 -9.9569244650541577 0 -9.9569244650541577 8.8962608620121273 0 0 0 0 596.69108251912257 104.33164361011404 0 104.33164361011404 -240.01292581863891 0 0 0 0 314.44717822172242 -197.38678573393963 0 -197.38678573393963 -201.54386008043366 0 0 0 0 -197.58094575527502 -611.75789559452187 0 -611.75789559452187 -234.93443050317273 0 0 0 0 -510.75200094092634 254.60202350712234 0 254.60202350712234 -453.14784066268476 0 0 0 0 -278.07777531115607 -966.53518813335643 0 -966.53518813335643 730.78997014769629 0 0 0 0 127.46991437375891 -590.78868146098557 0 -590.78868146098557 -218.67769033303921 0 0 0 0 95.981390089326851 -497.10047681118476 0 -497.10047681118476 237.68142703389822 0 0 0 0 -50.799217900232179 -302.48415993201888 0 -302.48415993201888 512.1441236328119 0 0 0 0 222.00211871416104 -301.10055508600453 0 -301.10055508600453 -16.980874122848945 0 0 0 0 122.21110539791698 -302.09755701537688 0 -302.09755701537688 -5.637953538021975 0 0 0 0 615.85190016495471 -414.57433720128211 0 -414.57433720128211 -158.66276008972272 0 0 0 0 218.45108274929225 -216.51122252356799 0 -216.51122252356799 -233.84378334378926 0 0 0 0 5.4547981067662477 -21.444044663330715 0 -21.444044663330715 -179.57536096132026 0 0 0 0 685.72126682965791 319.79421762717129 0 319.79421762717129 -257.05860480354022 0 0 0 0 4.0998278883216415 -4.9567531955643602 0 -4.9567531955643602 4.8719184593257907 0 0 0 0 1096.580543214739 25.517345162089441 0 25.517345162089441 -212.67314624619212 0 0 0 0 377.81768692618789 -593.28355733155331 0 -593.28355733155331 695.23948016772556 0 0 0 0 1119.5195767496164 -529.85485333625047 0 -529.85485333625047 -191.47946064561256 0 0 0 0 7.2351080438174264 -34.07327581907569 0 -34.07327581907569 -29.280915600748415 0 0 0 0 -12.536532550489937 119.6810892351823 0 119.6810892351823 -1181.8952446411713 0 0 0 0 -69.071769683978346 -525.20658269190244 0 -525.20658269190244 124.79470220637813 0 0 0 0 429.14174320460006 -286.01680806309719 0 -286.01680806309719 -887.0034326998757 0 0 0 0 -317.671795594797 616.42152896454536 0 616.42152896454536 -9.4666713982423971 0 0 0 0 0.75659148886242633 1.3023560099723639 0 1.3023560099723639 -10.289166657997569 0 0 0 0 -379.68745126366048 343.19015756569615 0 343.19015756569615 915.91510575653592 0 0 0 0 223.51130575800198 74.218764310257939 0 74.218764310257939 -84.69122253065575 0 0 0 0 240.73345589099335 -29.339227803806807 0 -29.339227803806807 -71.106072732083987 0 0 0 0 243.78918192223136 0.96430555590745826 0 0.96430555590745826 -206.20460461054972 0 0 0 0 323.62730562204342 -10.913814518600304 0 -10.913814518600304 -181.09017682614103 0 0 0 0 202.44640965986764 -25.058095349542782 0 -25.058095349542782 -26.157984778112677 0 0 0 0 152.77188740561542 -177.74760966203758 0 -177.74760966203758 -262.2123472742569 0 0 0 0 -341.2690370062046 -28.752637762167069 0 -28.752637762167069 -265.79906380988541 0 0 0 0 -338.682931779733 -240.95850809510804 0 -240.95850809510804 -39.073567675572122 0 0 0 0 -206.0389918495639 -162.15938442461629 0 -162.15938442461629 -169.01702716691943 0 0 0 0 -385.07354657519318 -157.75404189381334 0 -157.75404189381334 -13.993981083276594 0 0 0 0 -204.89652683647 -186.07165778035414 0 -186.07165778035414 -16.228223795491431 0 0 0 0 -192.53293325466802 -99.340037011621462 0 -99.340037011621462 -38.470450265302134 0 0 0 0 -225.61399675658322 -197.75734352606196 0 -197.75734352606196 -65.401926429742161 0 0 0 0 -212.42690726496585 -99.535048158907102 0 -99.535048158907102 -66.878775404293265 0 0 0 0 -158.81267642213788 -155.99292037742271 0 -155.99292037742271 -11.16777738280507 0 0 0 0 -143.48443932126975 -66.274452456047584 0 -66.274452456047584 40.310829964530058 0 0 0 0 -30.561826677585486 -29.124605543187499 0 -29.124605543187499 36.829620645889008 0 0 0 0 -136.83668265689175 -52.920063622659654 0 -52.920063622659654 71.876528626133222 0 0 0 0 -61.469738586224594 13.549015513970744 0 13.549015513970744 119.741074320802 0 0 0 0 -127.4661592327393 -221.72994573367487 0 -221.72994573367487 -58.320935005406682 0 0 0 0 -82.218386998676579 -177.60201629982112 0 -177.60201629982112 -257.22158593648965 0 0 0 0 -357.34228652829916 -353.080530621859 0 -353.080530621859 -111.56902759840659 0 0 0 0 -237.3699733924268 -21.827254500048639 0 -21.827254500048639 -306.20087319473168 0 0 0 0 40.198936698325269 -741.988603147096 0 -741.988603147096 -727.22691523953836 0 0 0 0 109.72875754233974 34.245956234701225 0 34.245956234701225 -133.96455376518134 0 0 0 0 10.516049602809531 -12.841211544786773 0 -12.841211544786773 8.1752256807551209 0 0 0 0 -56.489507739504916 -640.20120152336858 0 -640.20120152336858 -617.56762069537763 0 0 0 0 -195.76667103484942 -423.44500623421709 0 -423.44500623421709 -439.6477008616489 0 0 0 0 4.7880367346746198 -2.2639534714145952 0 -2.2639534714145952 -1.9400638018710019 0 0 0 0 -254.9071655357111 -388.2431450086824 0 -388.2431450086824 -382.69296705412853 0 0 0 0 -436.80237494134053 -349.43372497184828 0 -349.43372497184828 -362.75311237954156 0 0 0 0 -49.397297751085716 -156.54166432287093 0 -156.54166432287093 -135.64229147303195 0 0 0 0 211.42262647048483 -176.2710792103353 0 -176.2710792103353 -605.49230755867757 0 0 0 0 73.445160511357244 -3.4436699353955191 0 -3.4436699353955191 -427.4554134211503 0 0 0 0 90.172058024189027 -301.43549210441779 0 -301.43549210441779 -668.0477466987586 0 0 0 0 -240.32638095415678 -6.1560017905117093 0 -6.1560017905117093 -646.31502456790622 0 0 0 0 36.066013502015267 -224.53572936736646 0 -224.53572936736646 -494.14802382326889 0 0 0 0 23.577510952731245 -269.12178125154333 0 -269.12178125154333 -443.95358444502926 0 0 0 0 2.5256339440526006 -4.0400386351456063 0 -4.0400386351456063 3.3131811759340266 0 0 0 0 -86.109884888661327 -197.87576251982318 0 -197.87576251982318 497.94107381990034 0 0 0 0 -117.58281016739056 -134.3042615996892 0 -134.3042615996892 374.72254128410714 0 0 0 0 -1.8009550723330108 -1.4358719463645571 0 -1.4358719463645571 3.299647330334416 0 0 0 0 128.27284270922974 -255.17017317369391 0 -255.17017317369391 -808.48037024449741 0 0 0 0 -208.76497989771451 -331.63153005805179 0 -331.63153005805179 -60.593777661219065 0 0 0 0 9.8753707115224643 -9.0964715490454253 0 -9.0964715490454253 5.7804502918157485 0 0 0 0 -73.018014035649685 -144.57098365134243 0 -144.57098365134243 8.1388145198397979 0 0 0 0 188.16943619428639 105.66583904947947 0 105.66583904947947 -134.87443306405839 0 0 0 0 -272.66234154463746 -278.9517213463605 0 -278.9517213463605 -18.936339613443124 0 0 0 0 -119.84312889959074 -214.84755602319683 0 -214.84755602319683 28.63434958558355 0 0 0 0 -215.99480016125017 -284.79950002759506 0 -284.79950002759506 -20.01101370960896 0 0 0 0 -92.299450180835265 -318.95174280912397 0 -318.95174280912397 -78.67178510807571 0 0 0 0 28.834827662474709 -208.83955743637489 0 -208.83955743637489 13.739717597025447 0 0 0 0 -84.748689395259134 -232.5344454368078 0 -232.5344454368078 122.99785435670492 0 0 0 0 -55.084870588503691 -183.91981878358547 0 -183.91981878358547 86.649378152913414 0 0 0 0 -150.60852291935589 -231.62331517150778 0 -231.62331517150778 64.48889507173044 0 0 0 0 -61.603811890701763 -261.18825203862434 0 -261.18825203862434 369.90394959941329 0 0 0 0 27.987848121534626 -195.30872412479403 0 -195.30872412479403 236.00560944972494 0 0 0 0 123.79468997505319 -322.42051571518823 0 -322.42051571518823 108.53347629831296 0 0 0 0 59.467949670855887 -257.46622452883094 0 -257.46622452883094 47.859799963795012 0 0 0 0 60.12068147779064 -249.89283628766134 0 -249.89283628766134 106.64487920038846 0 0 0 0 8.0205064203901202 -148.60882530189519 0 -148.60882530189519 121.03469536437478 0 0 0 0 -3.1896888690844207 -200.29138747858542 0 -200.29138747858542 83.884279264690122 0 0 0 0 23.920132801868021 -84.320887720587052 0 -84.320887720587052 120.90242248417417 0 0 0 0 20.980352174374275 -137.60294997056189 0 -137.60294997056189 95.724860481670476 0 0 0 0 15.293669620965375 -33.166055053439777 0 -33.166055053439777 118.46005785354282 0 0 0 0 -3.0868212554196361 -88.022193099703145 0 -88.022193099703145 133.17098709064885 0 0 0 0 -9.6969184536574176 -45.423017291617725 0 -45.423017291617725 142.02507029604385 0 0 0 0 -5.641971783938061 -39.974184371083538 0 -39.974184371083538 148.76950235588447 0 0 0 0 -61.323528388140403 -57.668722471244109 0 -57.668722471244109 161.12354113183392 0 0 0 0 -45.087417115988501 -85.998956383024961 0 -85.998956383024961 139.89018004863465 0 0 0 0 -113.35906415784848 -150.69734868778323 0 -150.69734868778323 134.48091140280849 0 0 0 0 -38.130898721406993 -155.60465133144316 0 -155.60465133144316 132.2750268592572 0 0 0 0 -63.279689944349229 -94.454815287179372 0 -94.454815287179372 144.58535752161333 0 0 0 0 -156.86404603751726 -142.81384544154389 0 -142.81384544154389 107.05135239852643 0 0 0 0 -88.636475890001748 -150.34050900829607 0 -150.34050900829607 105.17179941482755 0 0 0 0 -123.75727445866505 -100.17630610005472 0 -100.17630610005472 147.09155700896463 0 0 0 0 -88.041738115745829 -73.845136782741974 0 -73.845136782741974 154.52993106543727 0 0 0 0 -80.784290080038772 -72.67880944542776 0 -72.67880944542776 130.17975519855099 0 0 0 0 -121.21308605335798 -118.30447487315178 0 -118.30447487315178 117.37417736839416 0 0 0 0 -154.89542031566089 -82.521146731636691 0 -82.521146731636691 80.428924977404677 0 0 0 0 -176.60244287064961 -150.61593094930731 0 -150.61593094930731 52.35865624739381 0 0 0 0 -250.8615162676615 -173.72365526457088 0 -173.72365526457088 57.458655088175874 0 0 0 0 -157.41505692768578 -173.87886635873588 0 -173.87886635873588 55.178737528091006 0 0 0 0 197.44156486512657 28.789355755492579 0 28.789355755492579 8.3834100995918561 0 0 0 0 -27.658419552789383 -2.6072958113232971 0 -2.6072958113232971 160.25484912259344 0 0 0 0 14.168167050633201 -95.83820378783912 0 -95.83820378783912 128.76517776904075 0 0 0 0 -112.49487017706997 -108.68963897433605 0 -108.68963897433605 96.510171036417887 0 0 0 0 -93.66239201836288 -36.95468134784096 0 -36.95468134784096 112.70280818914352 0 0 0 0 -37.961633715611242 -76.610118861855881 0 -76.610118861855881 136.74009856411431 0 0 0 0 -56.861525904547307 -29.401867750421843 0 -29.401867750421843 165.54879114415962 0 0 0 0 94.821304627599602 -26.503756490263186 0 -26.503756490263186 144.382734471199 0 0 0 0 -13.16331079788506 -20.096579334342096 0 -20.096579334342096 210.05660723555047 0 0 0 0 50.157765878990176 27.315967527265457 0 27.315967527265457 184.72289737855499 0 0 0 0 -36.615069750041584 -47.746646424959181 0 -47.746646424959181 152.49553914866556 0 0 0 0 -39.585597957877326 -33.824707686828333 0 -33.824707686828333 180.57334791785252 0 0 0 0 -13.553892160532996 -35.881810159418819 0 -35.881810159418819 152.48247478109988 0 0 0 0 3.3503423077490879 -2.7095807487094135 0 -2.7095807487094135 170.12700967391538 0 0 0 0 -15.623652137612225 -26.459444092137346 0 -26.459444092137346 150.80981525002426 0 0 0 0 8.8291869523018249 -9.5399180528629586 0 -9.5399180528629586 167.61613185408351 0 0 0 0 26.967277651157929 23.93540145690713 0 23.93540145690713 172.58837919248663 0 0 0 0 24.865892544199596 -7.0738590120599838 0 -7.0738590120599838 149.81786157619945 0 0 0 0 20.337867705355166 5.79266394087972 0 5.79266394087972 123.1850273920063 0 0 0 0 37.113700794507167 33.577768482933607 0 33.577768482933607 226.84728508751687 0 0 0 0 46.924111231521238 35.588594798327904 0 35.588594798327904 119.12483290868113 0 0 0 0 127.32955680601663 17.332108298828643 0 17.332108298828643 223.23575319568045 0 0 0 0 240.15503753441226 -187.94787912294487 0 -187.94787912294487 586.33890501904079 0 0 0 0 285.68115465328447 201.08037718296328 0 201.08037718296328 228.43854421636024 0 0 0 0 91.497593265990872 -24.893147985606447 0 -24.893147985606447 188.51246089916458 0 0 0 0 1.5369542850983322 -1.5487476537582126 0 -1.5487476537582126 6.4565537850077348 0 0 0 0 514.53188400711952 -32.973678628681228 0 -32.973678628681228 -52.232143554374034 0 0 0 0 883.66118569969512 -207.69871859260365 0 -207.69871859260365 25.478388219507906 0 0 0 0 500.07716537099623 -198.45414547067412 0 -198.45414547067412 74.507288258082554 0 0 0 0 264.04171423735534 -69.600942524162747 0 -69.600942524162747 5.8619240694170003 0 0 0 0 113.170133622104 -101.05798364675684 0 -101.05798364675684 307.32697832662598 0 0 0 0 77.191223129168065 -197.94976569622258 0 -197.94976569622258 88.665272556619584 0 0 0 0 -30.118733388066879 -48.123637880231449 0 -48.123637880231449 82.170644122753231 0 0 0 0 -139.47924673850775 -93.287643771066541 0 -93.287643771066541 168.10953694039563 0 0 0 0 -97.068799195209067 -200.31111623562083 0 -200.31111623562083 432.3803987253641 0 0 0 0 7.0089081627529595 113.45184797646948 0 113.45184797646948 146.41577033516478 0 0 0 0 27.635210697171715 -148.50874428795851 0 -148.50874428795851 156.7018614099843 0 0 0 0 210.36596905736224 -68.841000328354312 0 -68.841000328354312 -13.761541554248652 0 0 0 0 160.01126655380722 -111.45887019604561 0 -111.45887019604561 100.68772357253147 0 0 0 0 147.2152639948763 -70.119762395848738 0 -70.119762395848738 -16.012230111449753 0 0 0 0 89.083015996347967 -84.265534378472694 0 -84.265534378472694 51.914649255402765 0 0 0 0 80.311505277418291 -95.395896946189623 0 -95.395896946189623 42.424688631326717 0 0 0 0 117.27203024893242 -108.58825063832558 0 -108.58825063832558 40.127565025541116 0 0 0 0 254.58729376411611 -144.55961342284263 0 -144.55961342284263 3.865201734326547 0 0 0 0 -24.252982335582523 -55.691134309358496 0 -55.691134309358496 57.931285556111469 0 0 0 0 -16.340369387031632 -3.4388751996397176 0 -3.4388751996397176 22.488912790712604 0 0 0 0 -108.17024190096345 4.0672888467024677 0 4.0672888467024677 64.389438151672493 0 0 0 0 171.34174928966604 -33.809187345672854 0 -33.809187345672854 90.518089574374244 0 0 0 0 28.755423192493602 -33.077871192399144 0 -33.077871192399144 21.985353951692197 0 0 0 0 -174.43337221327965 112.36524011326583 0 112.36524011326583 115.96464287371145 0 0 0 0 38.994924184120762 -61.87244017455685 0 -61.87244017455685 31.768797713681902 0 0 0 0 98.984714393489412 -44.41370938365435 0 -44.41370938365435 80.158925015024579 0 0 0 0 -5.5779448658213369 -43.91429701233551 0 -43.91429701233551 16.046770928018304 0 0 0 0 18.053824309748304 -65.083754895267475 0 -65.083754895267475 47.860059585482901 0 0 0 0 80.585053162714757 -33.269707284143806 0 -33.269707284143806 125.01290350329873 0 0 0 0 27.479370331853715 1.0401651427919205 0 1.0401651427919205 5.1887154555893176 0 0 0 0 60.022781304549952 -30.914949302672952 0 -30.914949302672952 14.220608624114377 0 0 0 0 794.46649505505047 -88.370514866045596 0 -88.370514866045596 -136.88159656617768 0 0 0 0 371.99845318319421 -87.999339843365306 0 -87.999339843365306 -14.374462720203155 0 0 0 0 319.51125939910708 9.3579583657574403 0 9.3579583657574403 -8.8594174985100835 0 0 0 0 476.43973688984261 -31.244866778492906 0 -31.244866778492906 -117.07289694708743 0 0 0 0 231.09307305822949 -93.901821103765542 0 -93.901821103765542 26.930715881258948 0 0 0 0 132.28987787109236 -231.16069972598768 0 -231.16069972598768 184.67179111985752 0 0 0 0 469.68048049299978 -37.120663663798041 0 -37.120663663798041 -52.596679143655138 0 0 0 0 193.22806997200314 -197.90462830749129 0 -197.90462830749129 307.04618636312171 0 0 0 0 8.1738873800303793 -6.486272971552566 0 -6.486272971552566 4.0181991419221044 0 0 0 0 587.95925568485472 -314.7859709486338 0 -314.7859709486338 134.26147211163152 0 0 0 0 303.10735410538473 104.31185631890185 0 104.31185631890185 -46.32419260867573 0 0 0 0 -80.513018303528952 27.901469023539903 0 27.901469023539903 124.03464072673523 0 0 0 0 154.32428283778427 -5.8352941431421641 0 -5.8352941431421641 -110.57351876594294 0 0 0 0 749.90479960394441 96.660675425807312 0 96.660675425807312 -347.10904507461237 0 0 0 0 -30.028968154641916 -246.60703076017307 0 -246.60703076017307 -72.730805022926234 0 0 0 0 198.17589903088447 262.32411697387261 0 262.32411697387261 533.82204257863123 0 0 0 0 -97.878985360330262 -648.84947250854748 0 -648.84947250854748 -169.03492629527773 0 0 0 0 -2.0894206075172406 49.302353891849634 0 49.302353891849634 -23.434703374994569 0 0 0 0 -0.20080214607997959 -0.37062195653630425 0 -0.37062195653630425 -1.1266294987236307 0 0 0 0 -226.13969026864288 -439.34869310317936 0 -439.34869310317936 260.22714908717171 0 0 0 0 739.71357012066437 168.73725935771881 0 168.73725935771881 -738.41415592820522 0 0 0 0 930.07048294038395 -174.76711145758964 0 -174.76711145758964 -837.52582602438088 0 0 0 0 268.49779793035486 -434.9363265498996 0 -434.9363265498996 837.11679720426037 0 0 0 0 5.3912666311515665 -4.9820630852796768 0 -4.9820630852796768 3.2930309825103699 0 0 0 0 103.53898374528217 -368.40334037124921 0 -368.40334037124921 274.14843876460372 0 0 0 0 142.16035208498579 -284.67086130858843 0 -284.67086130858843 347.24787946098513 0 0 0 0 150.92139143427994 -274.40892767123933 0 -274.40892767123933 206.34613265696134 0 0 0 0 372.7712028954702 -396.296361216072 0 -396.296361216072 253.19044685445215 0 0 0 0 -80.305576595470484 -372.09070473780866 0 -372.09070473780866 343.67231789204106 0 0 0 0 47.534574529032398 86.601878789260809 0 86.601878789260809 290.72756080903878 0 0 0 0 132.72736676490604 -75.405531880022863 0 -75.405531880022863 118.51555639925027 0 0 0 0 343.41785526147578 27.775924266080438 0 27.775924266080438 113.27161888029491 0 0 0 0 1037.8923813753645 -111.95034717452472 0 -111.95034717452472 134.29023555203457 0 0 0 0 610.31118637040345 -684.3335671026116 0 -684.3335671026116 676.78813505211292 0 0 0 0 36.601698185211717 450.00923342536362 0 450.00923342536362 561.83394081857477 0 0 0 0 439.63279672544741 -890.66432191209969 0 -890.66432191209969 167.52035905209414 0 0 0 0 -605.87719569716864 -300.91380893399946 0 -300.91380893399946 132.16266153693141 0 0 0 0 1162.1923023263007 -485.12171738369307 0 -485.12171738369307 -548.30818270367308 0 0 0 0 401.36565595702996 -209.80454664918216 0 -209.80454664918216 -616.33128364339063 0 0 0 0 10.431129074476406 -7.4590522264659782 0 -7.4590522264659782 -3.2228397218299634 0 0 0 0 190.81114295666885 -171.62814376406959 0 -171.62814376406959 -7.1561372345822747 0 0 0 0 78.186080089342795 -107.6296111609779 0 -107.6296111609779 35.093510362141387 0 0 0 0 48.333303852190511 -90.3008186645487 0 -90.3008186645487 29.125089649402071 0 0 0 0 39.068515659026161 -230.21966334299213 0 -230.21966334299213 -25.045326042176384 0 0 0 0 35.681866690752848 -47.383027433126976 0 -47.383027433126976 46.456167051133782 0 0 0 0 27.852290409350644 -42.490014084826726 0 -42.490014084826726 45.962946579332765 0 0 0 0 13.455262588410275 -7.7896276470547274 0 -7.7896276470547274 3.9544233497433154 0 0 0 0 -76.06794611947862 101.39797207360743 0 101.39797207360743 67.972087913125506 0 0 0 0 -65.556370164958025 -105.32038140892382 0 -105.32038140892382 194.95406728158923 0 0 0 0 72.892211556789334 7.7092035155919802 0 7.7092035155919802 3.8986508241951014 0 0 0 0 -18.083687522579964 7.9021967991871929 0 7.9021967991871929 9.1626999143571624 0 0 0 0 -105.69932471201128 -148.1398293072898 0 -148.1398293072898 245.37187539288061 0 0 0 0 -117.55201190365551 -38.40959582820642 0 -38.40959582820642 145.13015538897844 0 0 0 0 -39.658506496979065 -22.715748843783864 0 -22.715748843783864 42.88813459351195 0 0 0 0 -19.653266286489725 30.686167775435933 0 30.686167775435933 140.68163438335614 0 0 0 0 -360.57909323235435 -174.92835844493493 0 -174.92835844493493 331.8064190076293 0 0 0 0 -131.27041563915554 -272.95512520224656 0 -272.95512520224656 15.87632139316247 0 0 0 0 -47.829676707697217 -141.12664111073809 0 -141.12664111073809 58.209058383159118 0 0 0 0 -116.01055326081951 -54.901712547842578 0 -54.901712547842578 171.01018692086473 0 0 0 0 121.13816990458236 -192.95234229071502 0 -192.95234229071502 -6.1868391417619932 0 0 0 0 79.966543141439161 -339.39604926317679 0 -339.39604926317679 273.54731928193723 0 0 0 0 148.27588396688225 -97.85278084001402 0 -97.85278084001402 135.04988612775014 0 0 0 0 59.83008952291425 -137.74286430448046 0 -137.74286430448046 342.18172856080855 0 0 0 0 -86.155379489186089 -91.506049489532415 0 -91.506049489532415 214.32230155264187 0 0 0 0 21.166517048035075 -12.403424170335711 0 -12.403424170335711 -162.2368407304275 0 0 0 0 60.036377695455016 -55.325546270903459 0 -55.325546270903459 -25.94307361085017 0 0 0 0 135.33059513922672 -107.88656443868558 0 -107.88656443868558 7.4760268839499986 0 0 0 0 150.28743279755236 -309.75319865253186 0 -309.75319865253186 235.85513756603723 0 0 0 0 -18.004354959873638 -26.208328167978614 0 -26.208328167978614 8.9683720657108594 0 0 0 0 80.274330318646292 -145.99274872450383 0 -145.99274872450383 184.95179231483053 0 0 0 0 116.33457646445777 -197.28034072379523 0 -197.28034072379523 137.58858927023175 0 0 0 0 26.413090959975534 -143.71447117788284 0 -143.71447117788284 216.11559498866518 0 0 0 0 37.071979090143969 -72.993208084921037 0 -72.993208084921037 -56.698100488648606 0 0 0 0 -2.6321031610423233 60.99144240176156 0 60.99144240176156 10.737539413505147 0 0 0 0 -12.384879764773359 -54.267186231188589 0 -54.267186231188589 51.125470360733743 0 0 0 0 -34.2021889954393 -32.087803670036109 0 -32.087803670036109 51.524172408034282 0 0 0 0 45.792509699268351 -108.33412494215378 0 -108.33412494215378 -36.171390687953817 0 0 0 0 -4.1281124406996241 -119.7843235335406 0 -119.7843235335406 -35.983483906786205 0 0 0 0 62.936828683705244 -97.319710351867798 0 -97.319710351867798 6.0688908078996064 0 0 0 0 39.266907466820527 -33.592882626408624 0 -33.592882626408624 14.806252293867885 0 0 0 0 -2.0172673973756901 -77.873869240307613 0 -77.873869240307613 99.832758440123143 0 0 0 0 51.129874701389781 -164.29918957790551 0 -164.29918957790551 227.53888300070685 0 0 0 0 203.46965705457114 -90.697642730476218 0 -90.697642730476218 42.432761944732192 0 0 0 0 72.35747148241353 -17.297666379214206 0 -17.297666379214206 116.53441495617528 0 0 0 0 84.70398663386004 -33.682031177585031 0 -33.682031177585031 -15.594652233294255 0 0 0 0 61.24517845225273 -100.44833011198352 0 -100.44833011198352 123.84481048746056 0 0 0 0 57.457617753587328 -69.994249500062324 0 -69.994249500062324 48.938323591975859 0 0 0 0 76.404313044195078 -53.936059112123985 0 -53.936059112123985 -34.309979440895404 0 0 0 0 47.932524657493083 -18.502742603419509 0 -18.502742603419509 -20.042222701000046 0 0 0 0 89.327112721377489 -86.124343633607168 0 -86.124343633607168 -28.533299767083008 0 0 0 0 95.356821032928565 -149.71248215741798 0 -149.71248215741798 -50.190985896016173 0 0 0 0 9.6625189152327948 -42.906055163795827 0 -42.906055163795827 -12.029221118801615 0 0 0 0 86.524216331614753 -150.62907304254895 0 -150.62907304254895 -7.0908028409030521 0 0 0 0 29.442196874893163 -53.717326283557611 0 -53.717326283557611 10.917944509079106 0 0 0 0 23.605636719779795 -57.946953710830257 0 -57.946953710830257 -27.014543406853591 0 0 0 0 54.499359107939171 -65.664255744501858 0 -65.664255744501858 24.597112135637772 0 0 0 0 25.045884743133684 -144.9329791843993 0 -144.9329791843993 51.472691549701267 0 0 0 0 29.95303139987794 -63.787761723672823 0 -63.787761723672823 1.9283838536872882 0 0 0 0 142.87878400799309 -168.04777690072478 0 -168.04777690072478 -199.46021184140773 0 0 0 0 11.768987276185726 -53.216803440973308 0 -53.216803440973308 -88.953294251882653 0 0 0 0 182.3640154973109 -7.4047457138658501 0 -7.4047457138658501 -317.03092051008935 0 0 0 0 173.55183375707202 -73.946091023926783 0 -73.946091023926783 -181.22220414409117 0 0 0 0 45.970962606614719 -55.549508662940781 0 -55.549508662940781 -8.406891005731886 0 0 0 0 32.209449419611701 -70.736279707319227 0 -70.736279707319227 -131.20984984363167 0 0 0 0 444.57610732658054 66.543961975577076 0 66.543961975577076 -62.823953247461759 0 0 0 0 -164.51317753683543 -225.52863601622994 0 -225.52863601622994 142.8836440683026 0 0 0 0 -7.5316983679659337 -6.0609393990902287 0 -6.0609393990902287 -3.2143678799448736 0 0 0 0 -87.794642585527527 -110.82575232340889 0 -110.82575232340889 27.551255990576465 0 0 0 0 34.704161844962073 -258.02185265494882 0 -258.02185265494882 134.06110441116653 0 0 0 0 38.001931910890562 -291.09574613550649 0 -291.09574613550649 -109.04669381199346 0 0 0 0 318.11135950903554 -178.26016396361229 0 -178.26016396361229 -90.938636700340794 0 0 0 0 304.1882094891663 -27.898296669888396 0 -27.898296669888396 -126.05744367358056 0 0 0 0 254.5782174707947 -112.2415415705409 0 -112.2415415705409 396.80118667563147 0 0 0 0 1274.9987839950008 459.57223414392138 0 459.57223414392138 619.91303855425213 0 0 0 0 631.80995195187279 -403.84520220774357 0 -403.84520220774357 618.3216870288968 0 0 0 0 693.53653103717079 -1802.2350401819294 0 -1802.2350401819294 -465.90010383697518 0 0 0 0 1138.9111729455472 -530.12827673518768 0 -530.12827673518768 -480.73517918628932 0 0 0 0 358.09476286209247 -389.64147017459982 0 -389.64147017459982 -82.486524219581042 0 0 0 0 -0.56134724568983074 -407.16357266176601 0 -407.16357266176601 246.96760550060935 0 0 0 0 -355.13399174307415 -366.38588423654437 0 -366.38588423654437 133.92078109697104 0 0 0 0 -436.94190473040362 -943.92202910816559 0 -943.92202910816559 103.73748829354008 0 0 0 0 -463.95223426088342 -538.44100854717544 0 -538.44100854717544 327.82404693892568 0 0 0 0 -1230.0365247317786 640.13820114618284 0 640.13820114618284 2408.4268302106611 0 0 0 0 117.1721720263813 -142.25297111377586 0 -142.25297111377586 596.95430337863218 0 0 0 0 -14.810304646505301 -34.09191430116789 0 -34.09191430116789 -171.6023974574216 0 0 0 0 12.0927807052412 -8.2495451887140376 0 -8.2495451887140376 5.8939485533830229 0 0 0 0 -35.385598383051729 -35.706595802927495 0 -35.706595802927495 -48.549612249007623 0 0 0 0 68.443781049621975 -91.596258934589059 0 -91.596258934589059 -142.98844525728782 0 0 0 0 63.287218776404188 -12.649543360425014 0 -12.649543360425014 -46.305312577840141 0 0 0 0 42.047394068773428 -140.43805014993995 0 -140.43805014993995 633.0680242608978 0 0 0 0 -33.747160776070814 -21.675061548086887 0 -21.675061548086887 457.96448084674194 0 0 0 0 -37.772569430235308 55.136773598485888 0 55.136773598485888 190.49122912259736 0 0 0 0 -3.23064483181588 -114.96550464145457 0 -114.96550464145457 340.83674518096814 0 0 0 0 106.94016552867106 -208.1447712405934 0 -208.1447712405934 307.99267758518636 0 0 0 0 -27.517460139668401 -124.70091728533407 0 -124.70091728533407 356.59966492376407 0 0 0 0 102.45576399065419 -172.05688035650047 0 -172.05688035650047 309.46752935263794 0 0 0 0 223.13710812501085 -220.88728867644841 0 -220.88728867644841 328.86160968351032 0 0 0 0 57.923459827121405 -228.38367793149155 0 -228.38367793149155 482.41640635875478 0 0 0 0 14.555493130337709 -144.26279729283124 0 -144.26279729283124 264.18741903744831 0 0 0 0 13.182076925636466 -37.483249395721941 0 -37.483249395721941 651.88172748088255 0 0 0 0 -26.55563902711765 -176.88765529188368 0 -176.88765529188368 163.43032072986534 0 0 0 0 78.087939946321058 -56.739864347535331 0 -56.739864347535331 398.72023086183617 0 0 0 0 489.44300458554062 -38.134679502902145 0 -38.134679502902145 237.45113453109298 0 0 0 0 212.80851265490855 -269.21554443135756 0 -269.21554443135756 496.76159719062343 0 0 0 0 213.2787922623902 -41.38436012427519 0 -41.38436012427519 146.36421843348944 0 0 0 0 253.59637553829089 -215.38969290722434 0 -215.38969290722434 203.55692328682107 0 0 0 0 125.06659215232139 -51.819774567593413 0 -51.819774567593413 239.71827463751833 0 0 0 0 167.66458863029402 -91.971741393103912 0 -91.971741393103912 91.985405487417665 0 0 0 0 94.739185216258193 -95.741337429898977 0 -95.741337429898977 176.59431947897065 0 0 0 0 74.921675501280333 1.7277936258669797 0 1.7277936258669797 66.729170683411212 0 0 0 0 -3.8502809325586895 -43.563970114751555 0 -43.563970114751555 60.944637876216802 0 0 0 0 152.36345906886436 -123.42882792629848 0 -123.42882792629848 106.28198676340617 0 0 0 0 49.128015025857167 -40.085321520765319 0 -40.085321520765319 76.9747411067043 0 0 0 0 57.098327246891131 10.408961886911584 0 10.408961886911584 6.0526697133211655 0 0 0 0 65.200674029258153 -51.153420505673012 0 -51.153420505673012 124.84293334558356 0 0 0 0 115.7492768384609 -83.143782631287763 0 -83.143782631287763 85.739610870814545 0 0 0 0 134.64240095136302 -160.0650088487846 0 -160.0650088487846 205.32090574637277 0 0 0 0 122.03856210025333 -112.31918863467945 0 -112.31918863467945 142.99618679801551 0 0 0 0 1.9865612262165087 -53.724455586077966 0 -53.724455586077966 273.27280988057009 0 0 0 0 14.584504672230594 -145.53483842603708 0 -145.53483842603708 301.85435321892146 0 0 0 0 -21.145314499479355 -60.769640664781491 0 -60.769640664781491 198.16821047893609 0 0 0 0 12.922593991726899 -156.1238651406893 0 -156.1238651406893 287.93269492344007 0 0 0 0 58.61819732893855 -195.16532590429597 0 -195.16532590429597 195.49072174925914 0 0 0 0 32.038265528005923 -102.1920618759857 0 -102.1920618759857 274.42836403304682 0 0 0 0 16.690375416364986 -109.33417621868512 0 -109.33417621868512 475.83784537838517 0 0 0 0 143.70479202315619 -197.1616442334398 0 -197.1616442334398 354.74525897139301 0 0 0 0 28.809360398362514 -17.623959991195495 0 -17.623959991195495 3.3149486490468432 0 0 0 0 101.95340152776771 -499.1261579819743 0 -499.1261579819743 -696.50455311113103 0 0 0 0 -124.57497921148479 -397.11257020570167 0 -397.11257020570167 -235.87331727016499 0 0 0 0 321.15656508638131 -589.87005063806464 0 -589.87005063806464 -180.7937218049683 0 0 0 0 29.562456893479975 39.228524031375855 0 39.228524031375855 51.456597925410648 0 0 0 0 34.136103599354101 48.616835920560789 0 48.616835920560789 -17.939447149818079 0 0 0 0 45.390024318034662 -18.796806473850069 0 -18.796806473850069 2.3280357380854491 0 0 0 0 -309.55889326620218 -77.311909254542797 0 -77.311909254542797 -88.131789633996959 0 0 0 0 -88.847461850731634 -181.22004791734344 0 -181.22004791734344 -70.389480396330327 0 0 0 0 -92.355431403957482 -328.34196396814104 0 -328.34196396814104 -272.80272549223582 0 0 0 0 71.935928338902158 5.0906352462261566 0 5.0906352462261566 -96.657716908575821 0 0 0 0 64.112568675847342 -158.8369858775294 0 -158.8369858775294 -98.638861688707038 0 0 0 0 21.476571426472219 -202.65955976160603 0 -202.65955976160603 -58.003176818591783 0 0 0 0 -124.82150160131278 -151.39725953237303 0 -151.39725953237303 33.505671468108631 0 0 0 0 -644.70785953305312 -387.10325964905314 0 -387.10325964905314 110.50223750616533 0 0 0 0 -395.19604810201599 -316.81458453955429 0 -316.81458453955429 -106.90614269984508 0 0 0 0 -417.81549383491438 -362.48723468555136 0 -362.48723468555136 88.999580392021016 0 0 0 0 -340.93089274472914 -198.17316391685881 0 -198.17316391685881 244.24574197604761 0 0 0 0 -78.965847780711556 -36.802953141627313 0 -36.802953141627313 337.53775202064298 0 0 0 0 58.433794701059014 -339.54495840655068 0 -339.54495840655068 439.03401180177752 0 0 0 0 -2.9245735453232129 -2.5886705832830401 0 -2.5886705832830401 -2.5978722270146442 0 0 0 0 -674.07990876543681 -65.817660772835552 0 -65.817660772835552 90.326327628192303 0 0 0 0 -73.930656340733549 -10.768239893317514 0 -10.768239893317514 66.316261629992141 0 0 0 0 -7.8127842324649919 -8.2731561896102406 0 -8.2731561896102406 0.33840163860724459 0 0 0 0 46.074726676715727 -114.85103287468382 0 -114.85103287468382 -17.391365228739232 0 0 0 0 130.42095765445265 31.690916223687054 0 31.690916223687054 -16.008202520759369 0 0 0 0 0.1145803094295843 -97.806762899966998 0 -97.806762899966998 -57.112391055557055 0 0 0 0 -4.165579256479667 -21.221146388576074 0 -21.221146388576074 31.192912659291878 0 0 0 0 -67.559086168512295 -123.32727235648008 0 -123.32727235648008 4.3472972139015837 0 0 0 0 3.141873230133271 -21.557399669323665 0 -21.557399669323665 43.404736268893558 0 0 0 0 143.47257649482708 193.02334629401957 0 193.02334629401957 10.121151857584962 0 0 0 0 -21.004390974604576 -45.057062098297592 0 -45.057062098297592 -71.626099182409234 0 0 0 0 -81.870594408057514 -162.77232954140254 0 -162.77232954140254 -8.630577290947258 0 0 0 0 -287.77464889347539 -556.28811261783676 0 -556.28811261783676 -622.39405868391077 0 0 0 0 -8.2875792722059884 -9.7453242567214673 0 -9.7453242567214673 17.003143345260945 0 0 0 0 -518.39689321495462 -413.68012251587197 0 -413.68012251587197 -193.2600558598333 0 0 0 0 -108.38190816576389 -47.465215764734239 0 -47.465215764734239 -128.9760739179556 0 0 0 0 -95.971655029119574 23.997008745545827 0 23.997008745545827 -198.64722563980123 0 0 0 0 -70.165970300131448 -126.45910922599387 0 -126.45910922599387 106.79707952267836 0 0 0 0 -219.76357641185859 -254.06880937574124 0 -254.06880937574124 -88.513347528911254 0 0 0 0 -472.47422300616017 -603.93836117790124 0 -603.93836117790124 -604.0577652814286 0 0 0 0 -175.74616835029155 -43.798600929828353 0 -43.798600929828353 -717.23579024173523 0 0 0 0 -180.1960516431609 64.837284572454337 0 64.837284572454337 84.008560106422465 0 0 0 0 -80.518503439468532 -125.76905399371662 0 -125.76905399371662 307.29844088298796 0 0 0 0 6.2357173374496568 -32.182433816775003 0 -32.182433816775003 44.013963898647262 0 0 0 0 -0.43281914931094434 173.43707796840181 0 173.43707796840181 158.01370005204535 0 0 0 0 -138.34070753067863 -40.613288996340998 0 -40.613288996340998 55.861926910351031 0 0 0 0 0.45678289959339224 -4.7959661984294897 0 -4.7959661984294897 11.541224867108355 0 0 0 0 -7.9774767362144132 -35.043242787967756 0 -35.043242787967756 -3.9647284412153425 0 0 0 0 -10.252466761725373 -47.218131930681011 0 -47.218131930681011 4.5236556437866966 0 0 0 0 19.000635151335956 -19.126907729475874 0 -19.126907729475874 7.9650696576092912 0 0 0 0 -4.094604078662087 -154.79638771720056 0 -154.79638771720056 -1.9348590256486204 0 0 0 0 4.0119612364264867 -95.922534336250692 0 -95.922534336250692 -2.2383911697834264 0 0 0 0 -59.191897953045554 -114.55180793806358 0 -114.55180793806358 -16.763936446629486 0 0 0 0 -140.31251096708365 -138.35803327078247 0 -138.35803327078247 22.842221475195402 0 0 0 0 -62.814780834094563 -155.44219235768287 0 -155.44219235768287 -23.939943599565595 0 0 0 0 -22.769362574785191 -102.46216972315051 0 -102.46216972315051 -0.23848155781888636 0 0 0 0 140.95742150010119 -99.192624896219058 0 -99.192624896219058 -22.152027967800677 0 0 0 0 34.940807320919703 -157.34105585792713 0 -157.34105585792713 30.292961762352206 0 0 0 0 43.233550822806137 -87.667308374517233 0 -87.667308374517233 16.049678190160193 0 0 0 0 -39.303864547702688 -133.51605761144128 0 -133.51605761144128 75.554541219382372 0 0 0 0 -102.63475957875562 -51.708392205226119 0 -51.708392205226119 67.667543190909782 0 0 0 0 -126.57416646327511 -152.81797064423699 0 -152.81797064423699 -48.27348840884224 0 0 0 0 4.0288202830633963 -179.92515948098298 0 -179.92515948098298 90.521500675524294 0 0 0 0 -77.594360377379417 -74.952994944165766 0 -74.952994944165766 69.351712886760652 0 0 0 0 -288.5490232671691 -55.718324630735879 0 -55.718324630735879 88.856765869508308 0 0 0 0 -227.38774922637094 32.67014005512101 0 32.67014005512101 31.134501774607998 0 0 0 0 -150.61156842606579 -76.892879756298498 0 -76.892879756298498 91.004370222500711 0 0 0 0 -170.26361591784735 -42.945344518953789 0 -42.945344518953789 43.210944019327144 0 0 0 0 -208.64526757597559 -83.278901690032399 0 -83.278901690032399 51.997763461502473 0 0 0 0 -117.40811571307859 -40.521734907790233 0 -40.521734907790233 -22.63847844806881 0 0 0 0 -38.592245630657999 -108.23749757183396 0 -108.23749757183396 -94.943442112264165 0 0 0 0 6.3996062887272274 -56.928552470217255 0 -56.928552470217255 -31.027112690052491 0 0 0 0 -5.7585237608909665 -37.498831459474786 0 -37.498831459474786 -18.187583002538304 0 0 0 0 -23.679068282902257 -24.254478240775434 0 -24.254478240775434 -11.413964600205247 0 0 0 0 1.2010968702106766 -67.493355999693449 0 -67.493355999693449 1.6953809794722474 0 0 0 0 -59.027999262172671 -9.265480451991607 0 -9.265480451991607 34.722932112639683 0 0 0 0 -64.570416685546661 -23.884746177154739 0 -23.884746177154739 31.520127563693677 0 0 0 0 -18.133570747214009 -13.194630023936611 0 -13.194630023936611 -10.264260988706994 0 0 0 0 -32.155949976415286 -83.516302415679093 0 -83.516302415679093 55.935011274231329 0 0 0 0 -22.126664508844271 -67.049211142083138 0 -67.049211142083138 85.303999919131456 0 0 0 0 -21.777908592874155 -93.021742753855506 0 -93.021742753855506 -72.5226384118032 0 0 0 0 3.518542474215792 -325.80887173696101 0 -325.80887173696101 192.77305371508737 0 0 0 0 10.773109610363463 -349.07416975833257 0 -349.07416975833257 -421.23368916724212 0 0 0 0 15.643073781040584 -92.972129249830687 0 -92.972129249830687 -80.388295130724146 0 0 0 0 19.416235986900574 -222.05423734809847 0 -222.05423734809847 -984.86192087901873 0 0 0 0 -6.21132705667398 -4.9430603433341247 0 -4.9430603433341247 -4.3697582766564409 0 0 0 0 78.278632687597565 -276.9494149973998 0 -276.9494149973998 -583.10785909442347 0 0 0 0 -14.985226172238981 -514.22971336921546 0 -514.22971336921546 -1176.1226203337319 0 0 0 0 -330.82414970615173 -223.45219558568897 0 -223.45219558568897 -19.40881388917478 0 0 0 0 23.228838397801155 -521.28139808150991 0 -521.28139808150991 -708.66618612661114 0 0 0 0 -593.18754214308501 48.340518534665534 0 48.340518534665534 44.819566617457895 0 0 0 0 -11.0250972994113 28.482190016051391 0 28.482190016051391 -41.516273307475785 0 0 0 0 -743.42631560511654 -556.42426699162024 0 -556.42426699162024 -285.69090916214554 0 0 0 0 1249.71012645878 -637.23927580144664 0 -637.23927580144664 754.57352102336881 0 0 0 0 657.46093645967994 -940.35321056481189 0 -940.35321056481189 667.88435670302715 0 0 0 0 91.907432206657177 481.20065101922955 0 481.20065101922955 648.26521315751597 0 0 0 0 1255.6494015477274 106.34710971377353 0 106.34710971377353 402.64518726798997 0 0 0 0 233.38384856988341 141.29690503309757 0 141.29690503309757 576.2461759385551 0 0 0 0 -70.703725370130996 14.619266835539747 0 14.619266835539747 584.47442690071694 0 0 0 0 814.61607829067907 -112.3586135417936 0 -112.3586135417936 370.68987682295119 0 0 0 0 225.90565272911567 113.20750961713611 0 113.20750961713611 588.88017415825743 0 0 0 0 293.00341889867377 -120.2019513725827 0 -120.2019513725827 373.4267036836909 0 0 0 0 914.60395452558714 -479.91100593626106 0 -479.91100593626106 298.1070957036427 0 0 0 0 396.11716680506106 -508.56574656228986 0 -508.56574656228986 322.42751444729947 0 0 0 0 613.34305055740697 -189.74574245951953 0 -189.74574245951953 629.70742390952364 0 0 0 0 12.119898003011258 -224.2999494116666 0 -224.2999494116666 446.4575646367266 0 0 0 0 8.3226676336435048 -134.53930542484522 0 -134.53930542484522 -5.7778893847280415 0 0 0 0 5.97062348239524 -36.852707751617345 0 -36.852707751617345 132.79634000997976 0 0 0 0 40.137222906156239 -337.82732255309747 0 -337.82732255309747 914.09733766327918 0 0 0 0 1.3356482692474323 -2.4060650192858049 0 -2.4060650192858049 4.8316236135065367 0 0 0 0 506.88111158257198 -106.66609597459683 0 -106.66609597459683 12.502048967246083 0 0 0 0 16.469691541531574 97.471176251690849 0 97.471176251690849 58.284177680579887 0 0 0 0 -59.125552417386643 -2.2982003424031063 0 -2.2982003424031063 -30.552031613427971 0 0 0 0 4.4331720154186769 -21.643083741242663 0 -21.643083741242663 16.39679954789608 0 0 0 0 -1.9247453217230941 -87.043719406414311 0 -87.043719406414311 76.903553420706885 0 0 0 0 0.29770660104476576 -12.867251369644464 0 -12.867251369644464 1.9421540472095842 0 0 0 0 -0.10149846928834449 -52.233904316803091 0 -52.233904316803091 -11.0770023217774 0 0 0 0 16.877469799585356 -26.606721396681316 0 -26.606721396681316 9.8921849138781468 0 0 0 0 -7.100957575628307 -28.887372589915614 0 -28.887372589915614 -19.886594517345394 0 0 0 0 10.577627535361898 -39.758326786382895 0 -39.758326786382895 -21.904691316284243 0 0 0 0 2.8558028149163874 -44.690181292138732 0 -44.690181292138732 1.9172475307896093 0 0 0 0 -3.9160449981432066 -83.540002920722145 0 -83.540002920722145 -147.66396751650609 0 0 0 0 8.2376160969083791 -21.674858318815858 0 -21.674858318815858 22.892523547516049 0 0 0 0 725.55635620236262 -128.32320177113979 0 -128.32320177113979 -40.919398661160812 0 0 0 0 -272.25506729155768 -319.16632915668561 0 -319.16632915668561 293.21234102227027 0 0 0 0 4.574720808593014 -5.7676381316075194 0 -5.7676381316075194 8.2581191712742026 0 0 0 0 150.38128058913753 56.579671896975924 0 56.579671896975924 -108.70350482993399 0 0 0 0 2107.50736424958 302.01111411242528 0 302.01111411242528 -251.68157086121209 0 0 0 0 526.01752222961204 -1434.4727057231248 0 -1434.4727057231248 -295.85332386328082 0 0 0 0 -39.563413661277082 -501.70512799107564 0 -501.70512799107564 -149.14909451837957 0 0 0 0 -64.20765383858361 -77.718915504302913 0 -77.718915504302913 -228.33116767792308 0 0 0 0 153.41661263805872 -511.23282568353352 0 -511.23282568353352 -105.57865834937911 0 0 0 0 196.10308160724708 -296.7160669905752 0 -296.7160669905752 20.36290200563235 0 0 0 0 -174.40283578926392 -336.11901599352313 0 -336.11901599352313 144.56573796698285 0 0 0 0 205.62622795640073 -421.27999831188026 0 -421.27999831188026 128.9126400665109 0 0 0 0 13.667436897101283 -53.831859463573892 0 -53.831859463573892 8.701957614695857 0 0 0 0 59.371151757778534 -2.0831095782923512 0 -2.0831095782923512 -158.99255129762241 0 0 0 0 2.8336143459795675 -4.4958359575343003 0 -4.4958359575343003 7.2359556413043862 0 0 0 0 -36.090255629234889 -242.32591875585331 0 -242.32591875585331 -670.27744117949396 0 0 0 0 116.65878673459883 -178.06373682523918 0 -178.06373682523918 -92.837582007649871 0 0 0 0 8.9050372578324186 -170.46260081486071 0 -170.46260081486071 109.58996966293125 0 0 0 0 -36.866250688736429 -20.217179108454673 0 -20.217179108454673 -3.13179079626304 0 0 0 0 709.65321016260896 -134.83115545074907 0 -134.83115545074907 -2576.2699533272335 0 0 0 0 -13.842115485806204 -2.5775422335693499 0 -2.5775422335693499 -1.9396911624685167 0 0 0 0 -189.1093701235277 -205.4951673547439 0 -205.4951673547439 411.84644394542102 0 0 0 0 36.88955389793864 -147.42161871517965 0 -147.42161871517965 301.444311670959 0 0 0 0 -2.4806537565709732 -45.921632381388918 0 -45.921632381388918 23.437772918292467 0 0 0 0 -0.65541551175192581 -37.797849656259132 0 -37.797849656259132 0.028303947914537275 0 0 0 0 4.2061636627986445 -48.329386204253751 0 -48.329386204253751 2.80842058467897 0 0 0 0 11.834891733517384 -36.187203781535246 0 -36.187203781535246 4.1834865316336334 0 0 0 0 479.56060318816526 -32.322868305716838 0 -32.322868305716838 -189.51709313095489 0 0 0 0 -5.2664346357628027 -5.5730188019171862 0 -5.5730188019171862 -6.2495186459514116 0 0 0 0 62.751873231922218 -252.70716242892195 0 -252.70716242892195 -57.657869402222786 0 0 0 0 -2.451562822039179 -34.520310806495985 0 -34.520310806495985 -15.068171944643701 0 0 0 0 29.234930737064133 -246.21155089410331 0 -246.21155089410331 195.94645707567634 0 0 0 0 -381.5436902975307 -172.00429338972754 0 -172.00429338972754 -71.306934490745334 0 0 0 0 186.89433434529747 -496.74897541022892 0 -496.74897541022892 -843.47132136619985 0 0 0 0 363.74510734559226 -71.512358887728624 0 -71.512358887728624 -822.15128691546875 0 0 0 0 -352.55435318850505 -482.00919234915727 0 -482.00919234915727 -482.89231172360451 0 0 0 0 163.49033744745975 -540.81520689460558 0 -540.81520689460558 -528.22320745701745 0 0 0 0 128.129536319615 -275.05918441986432 0 -275.05918441986432 -142.63249934393207 0 0 0 0 -106.27795803470599 -33.1740313349801 0 -33.1740313349801 -91.288352486626536 0 0 0 0 108.49450639613175 -73.325189862959036 0 -73.325189862959036 25.412287366499054 0 0 0 0 15.401914177041117 -18.034406673536953 0 -18.034406673536953 5.4136646233466337 0 0 0 0 123.78356236612041 -65.347594077956501 0 -65.347594077956501 16.596408332850476 0 0 0 0 -213.58287385890435 -45.714456586972119 0 -45.714456586972119 414.37176846751208 0 0 0 0 176.89651264325948 13.547967495658668 0 13.547967495658668 362.38005767937284 0 0 0 0 1.4494477514292825 -32.841545171325947 0 -32.841545171325947 19.47749592676097 0 0 0 0 26.872106086939311 -1259.9468999350611 0 -1259.9468999350611 -1359.9973043999744 0 0 0 0 819.07974786248997 -79.618721659581752 0 -79.618721659581752 -594.22363105129625 0 0 0 0 -152.5198802185987 278.73529354727634 0 278.73529354727634 -958.58833545779089 0 0 0 0 202.26065107806971 -815.25311637649929 0 -815.25311637649929 -399.98544345397022 0 0 0 0 -138.33001634604989 -260.69445401604548 0 -260.69445401604548 -565.84779051502665 0 0 0 0 306.82181792196752 -41.011337029227434 0 -41.011337029227434 -487.92530375797151 0 0 0 0 220.77437505982016 -453.3164808339734 0 -453.3164808339734 154.71086477913013 0 0 0 0 452.3361590800705 178.08058302642758 0 178.08058302642758 -207.12650089483577 0 0 0 0 185.78650248863414 4.9255691214530088 0 4.9255691214530088 -132.50750604610948 0 0 0 0 377.01029714130709 -74.145490141449045 0 -74.145490141449045 -351.93019963155439 0 0 0 0 14.586754240001028 -29.598941733864194 0 -29.598941733864194 -17.965010399893799 0 0 0 0 209.24221773691534 -63.653083767087082 0 -63.653083767087082 -174.33768186616362 0 0 0 0 57.724221228359966 -133.08333661813958 0 -133.08333661813958 -131.48108059819242 0 0 0 0 190.11953759380208 126.7972810183191 0 126.7972810183191 74.353274556277029 0 0 0 0 103.57912185967143 -4.5296126490939059 0 -4.5296126490939059 -36.057281689416413 0 0 0 0 46.362693881514133 22.919614232196182 0 22.919614232196182 113.16775872089602 0 0 0 0 47.366912815312389 57.783139095405204 0 57.783139095405204 76.196844802027044 0 0 0 0 55.373821389192017 4.4481719045870705 0 4.4481719045870705 121.77026910212771 0 0 0 0 46.749461014827375 30.942384176791961 0 30.942384176791961 83.684457476381795 0 0 0 0 75.978382957968279 7.5339972323490656 0 7.5339972323490656 60.320434550198115 0 0 0 0 76.350204537884565 11.611402338661719 0 11.611402338661719 56.913886076687049 0 0 0 0 118.05185912728484 4.323615751498437 0 4.323615751498437 11.843244768162549 0 0 0 0 79.317902278195106 17.381577900285265 0 17.381577900285265 8.3885545590164838 0 0 0 0 86.823733868761337 -11.831141641003342 0 -11.831141641003342 -29.408842168428237 0 0 0 0 104.06402389412688 6.953390583552391 0 6.953390583552391 -25.896658356548869 0 0 0 0 126.17784320506325 -24.422402057563886 0 -24.422402057563886 18.047176576234051 0 0 0 0 163.7549754040956 -23.316056058967661 0 -23.316056058967661 -4.308513367883279 0 0 0 0 68.757833225274226 -42.486659690177476 0 -42.486659690177476 -35.427647177977633 0 0 0 0 31.149645277881064 32.848415733409638 0 32.848415733409638 3.5597292730235495 0 0 0 0 -67.23524106903642 -43.923572547009826 0 -43.923572547009826 -22.360633862830582 0 0 0 0 682.15415767046215 -511.85007753644095 0 -511.85007753644095 1655.130021366127 0 0 0 0 625.81470438351244 -309.07909734365876 0 -309.07909734365876 -362.57904365505055 0 0 0 0 -123.72301310607872 491.15579238806458 0 491.15579238806458 976.83100869979353 0 0 0 0 23.367270658971393 29.525497635833744 0 29.525497635833744 -53.440059511667641 0 0 0 0 -383.06116613910126 334.38304220812006 0 334.38304220812006 889.42001968392105 0 0 0 0 95.110428016676451 7.4524625200137962 0 7.4524625200137962 -95.33048198416509 0 0 0 0 155.31197891483316 -58.878109356395726 0 -58.878109356395726 -119.71854471728875 0 0 0 0 145.95561471294539 -57.965558794083677 0 -57.965558794083677 -22.686780975386309 0 0 0 0 -564.16385597033695 492.88337282079738 0 492.88337282079738 989.72384432014042 0 0 0 0 139.64515883271815 -46.791048921397305 0 -46.791048921397305 -56.093630331721215 0 0 0 0 139.58833207972202 -49.141373362370359 0 -49.141373362370359 14.46011340233963 0 0 0 0 168.58459564088844 -65.66504609855474 0 -65.66504609855474 -18.004940861707837 0 0 0 0 -884.11221380066854 -384.50091330339637 0 -384.50091330339637 245.98938172934766 0 0 0 0 112.10565204854356 -5.9233394238981418 0 -5.9233394238981418 239.56362477747462 0 0 0 0 209.23835474968655 -116.32258167241889 0 -116.32258167241889 -140.829913476743 0 0 0 0 126.7569051179424 -107.26697166201126 0 -107.26697166201126 2.8571983656530118 0 0 0 0 180.06243011460174 -184.65770896043978 0 -184.65770896043978 -10.513689387124032 0 0 0 0 160.34809090351337 -223.75873981299083 0 -223.75873981299083 142.52719456335763 0 0 0 0 5.5720827677082774 -30.811931123419015 0 -30.811931123419015 11.846849562589405 0 0 0 0 164.79132927837782 -62.446001021322445 0 -62.446001021322445 140.23466802231565 0 0 0 0 133.35074223076663 -138.52535911726045 0 -138.52535911726045 114.74852586288762 0 0 0 0 172.02524451868885 -86.920027574726191 0 -86.920027574726191 180.60685308817483 0 0 0 0 228.63243110674375 -35.184611288452288 0 -35.184611288452288 26.950854485810851 0 0 0 0 173.19685488002506 -59.618931602397424 0 -59.618931602397424 37.223700972564984 0 0 0 0 166.87093485888909 -35.660771579452557 0 -35.660771579452557 23.940134009688336 0 0 0 0 221.07413995593743 -105.25742041621925 0 -105.25742041621925 41.063094573793933 0 0 0 0 105.8589727331273 -71.580705612865131 0 -71.580705612865131 68.507077869023306 0 0 0 0 159.02880848263158 -92.955989842223062 0 -92.955989842223062 72.731011779840628 0 0 0 0 118.86001071010833 -27.613544524258032 0 -27.613544524258032 50.750817523115984 0 0 0 0 135.08427278592717 -32.462805143773949 0 -32.462805143773949 52.15544320877234 0 0 0 0 107.51954410952749 -78.681440884392941 0 -78.681440884392941 85.108883280532609 0 0 0 0 90.923174197829212 -17.695028823492976 0 -17.695028823492976 83.459931381563365 0 0 0 0 45.93215756108475 -76.897270795121585 0 -76.897270795121585 99.098957898670051 0 0 0 0 64.85804376869055 -34.172309181412857 0 -34.172309181412857 110.90686855756212 0 0 0 0 48.151772265297041 -12.460227739917173 0 -12.460227739917173 82.837376427749405 0 0 0 0 66.103863747212017 -124.03854990136642 0 -124.03854990136642 117.04577701763264 0 0 0 0 81.92178728467843 -172.80736663629432 0 -172.80736663629432 75.035160102650934 0 0 0 0 125.38489988718356 -138.46560119576861 0 -138.46560119576861 96.9828309834229 0 0 0 0 60.268510426518333 -115.95328401058941 0 -115.95328401058941 107.5087673619073 0 0 0 0 137.42780047046108 -180.96748266256691 0 -180.96748266256691 -15.974797460914488 0 0 0 0 117.78380278246186 -183.55109258702942 0 -183.55109258702942 -8.2869222927729425 0 0 0 0 139.91030885341752 -240.83358654981384 0 -240.83358654981384 49.032009864273277 0 0 0 0 136.17526245853213 -101.47285267058706 0 -101.47285267058706 1.5722850383852394 0 0 0 0 153.1526363387577 -164.4975053619346 0 -164.4975053619346 -37.179061133603682 0 0 0 0 91.570193988700339 -128.63663286420706 0 -128.63663286420706 136.81298265395344 0 0 0 0 155.0905068184129 -103.41070529627223 0 -103.41070529627223 -51.067147980291338 0 0 0 0 140.30620680020303 -186.03852418145743 0 -186.03852418145743 44.82216064039676 0 0 0 0 123.99814670797264 -224.05490682070376 0 -224.05490682070376 106.40434480664044 0 0 0 0 179.78525591408015 -183.87683581754391 0 -183.87683581754391 43.945570080608377 0 0 0 0 223.99153564705148 -158.16765415619921 0 -158.16765415619921 81.826146589126438 0 0 0 0 181.28158729924507 -215.04617212114681 0 -215.04617212114681 107.35981057536264 0 0 0 0 256.82016799877692 -195.11391672570971 0 -195.11391672570971 107.75571592793131 0 0 0 0 406.95280685628313 -214.84219570314599 0 -214.84219570314599 51.671902744863473 0 0 0 0 -8.2808523924367901 -17.135416484806637 0 -17.135416484806637 -46.527832330909618 0 0 0 0 -197.91904292022537 -274.17831913771306 0 -274.17831913771306 354.36595483420388 0 0 0 0 -353.99274729649005 -412.85435042145764 0 -412.85435042145764 231.1486543474457 0 0 0 0 421.35590588826744 233.17932710868899 0 233.17932710868899 -1703.4205364465452 0 0 0 0 -236.70299558027546 -267.57315207673673 0 -267.57315207673673 355.37297235936967 0 0 0 0 20.492351842449274 -39.308901917344372 0 -39.308901917344372 -74.345149848828257 0 0 0 0 242.91900996471577 -89.968443377703807 0 -89.968443377703807 -43.291408131291973 0 0 0 0 214.26490031965386 -188.42648196936716 0 -188.42648196936716 49.85778768671662 0 0 0 0 173.38284906342051 -116.50351563485765 0 -116.50351563485765 -48.639968465453421 0 0 0 0 91.024054301997239 -77.440601340263129 0 -77.440601340263129 2.265809344175068 0 0 0 0 84.643879325648442 -47.364038590447073 0 -47.364038590447073 -1.1049204953083878 0 0 0 0 144.58805025520269 -135.71410475425819 0 -135.71410475425819 64.311909322652355 0 0 0 0 20.858079464054278 -27.385121992103009 0 -27.385121992103009 -5.2331254716663125 0 0 0 0 17.156257109791646 -46.553974004650243 0 -46.553974004650243 -29.751525388018482 0 0 0 0 109.24660598942501 58.92686305631014 0 58.92686305631014 105.68397221036503 0 0 0 0 123.67512458901183 96.190313337355974 0 96.190313337355974 199.75625897303053 0 0 0 0 273.33971396862762 158.8071791234795 0 158.8071791234795 51.871379633725155 0 0 0 0 285.95274539394086 -192.13454534687935 0 -192.13454534687935 -235.52084825355632 0 0 0 0 19.614328029159502 -38.780244359132055 0 -38.780244359132055 -2.4458242527268794 0 0 0 0 9.1316223166722921 -120.30333474283361 0 -120.30333474283361 79.923042488659121 0 0 0 0 10.651896416253294 -103.30744810110809 0 -103.30744810110809 37.708338791352674 0 0 0 0 19.932048436674876 -71.285214064526627 0 -71.285214064526627 11.16306808525054 0 0 0 0 -20.491390480099653 -82.390933189877614 0 -82.390933189877614 114.80201195155678 0 0 0 0 173.21041526465501 -182.58223360972261 0 -182.58223360972261 95.093237383452077 0 0 0 0 -37.008892910359606 -71.389531042802133 0 -71.389531042802133 59.581597240040111 0 0 0 0 144.47427858185182 -111.52975414389232 0 -111.52975414389232 -1.6696936318923705 0 0 0 0 128.8565223980695 55.805230964750081 0 55.805230964750081 -244.80287155132282 0 0 0 0 207.73553703545076 -148.09288123949136 0 -148.09288123949136 -159.48637877226793 0 0 0 0 126.19384496881685 -157.33508855045693 0 -157.33508855045693 -58.223988000114332 0 0 0 0 192.97682975366479 -129.24012729952483 0 -129.24012729952483 -181.47392946173386 0 0 0 0 147.2890898388805 -228.74122313845942 0 -228.74122313845942 -81.795620923836395 0 0 0 0 139.33663226315963 -157.91924738295893 0 -157.91924738295893 95.946716949278198 0 0 0 0 92.910756207216309 -196.36248690004504 0 -196.36248690004504 97.750779739906193 0 0 0 0 -54.163556537543712 -52.15936432791684 0 -52.15936432791684 40.307432944896803 0 0 0 0 107.64691400967786 -180.22733621472344 0 -180.22733621472344 21.255362583418901 0 0 0 0 35.58206859944039 -95.905133596973428 0 -95.905133596973428 64.539174280227599 0 0 0 0 21.483473072072229 -127.588779751115 0 -127.588779751115 92.099143957340857 0 0 0 0 -8.0671769344990025 -127.29631306451665 0 -127.29631306451665 99.623711555474074 0 0 0 0 -9.8207355143040331 -124.1909842205755 0 -124.1909842205755 108.10278151043167 0 0 0 0 -87.707442334925872 -66.289741042335663 0 -66.289741042335663 54.974206071456138 0 0 0 0 -39.725095422825689 -166.98672984187215 0 -166.98672984187215 -2.512731984783386 0 0 0 0 46.414741229647916 -52.57386370902077 0 -52.57386370902077 71.297328129912785 0 0 0 0 72.688427402812522 -82.60718117268334 0 -82.60718117268334 53.549692058293203 0 0 0 0 430.75027253439112 -138.37004127416185 0 -138.37004127416185 -106.15590174205136 0 0 0 0 150.8154256559792 -51.059563549502855 0 -51.059563549502855 42.028741205744154 0 0 0 0 205.44045040057608 -224.32123229400986 0 -224.32123229400986 -64.240222019689099 0 0 0 0 38.194645060717448 1.3787678680955651 0 1.3787678680955651 -33.714688165080588 0 0 0 0 -3.1997351051821852 0.14950578623738409 0 0.14950578623738409 -0.085486307307419906 0 0 0 0 -113.05247711491756 -125.20129018353964 0 -125.20129018353964 74.684329817895559 0 0 0 0 -68.292797859630809 -3.2710411205875971 0 -3.2710411205875971 57.072310427713091 0 0 0 0 6.1778739758810843 -14.540562059235526 0 -14.540562059235526 23.259295693418153 0 0 0 0 -8.5320514769764486 -58.848029373563122 0 -58.848029373563122 25.856760176011448 0 0 0 0 38.484679770059302 -42.070088479875267 0 -42.070088479875267 -168.77273963824155 0 0 0 0 23.748866669832751 -62.829034924017833 0 -62.829034924017833 64.528336366620351 0 0 0 0 106.42394792108098 -88.399085993588415 0 -88.399085993588415 13.306007545354078 0 0 0 0 -45.248283253705296 -60.563487108835069 0 -60.563487108835069 40.384025676029282 0 0 0 0 0.82637629289926906 -10.923964361678671 0 -10.923964361678671 3.0825514269207375 0 0 0 0 41.888588722766144 -44.064183995666099 0 -44.064183995666099 44.806486005705665 0 0 0 0 -17.677007756341311 -64.843674547058569 0 -64.843674547058569 27.031160569080896 0 0 0 0 -11.469117724322132 -52.739579711713304 0 -52.739579711713304 33.780460665868304 0 0 0 0 -34.935970650829489 -82.918381523430071 0 -82.918381523430071 41.655643426569775 0 0 0 0 -26.70801277816463 -43.226391309456631 0 -43.226391309456631 -8.8848622354271356 0 0 0 0 -37.307804839205346 -61.465736208680028 0 -61.465736208680028 26.65895897108021 0 0 0 0 -51.592660559026626 -25.892900688020745 0 -25.892900688020745 -8.7463300255622016 0 0 0 0 1.838020222374837 -13.308222489654568 0 -13.308222489654568 8.9471934962960589 0 0 0 0 -43.170329366301303 -44.106444088373792 0 -44.106444088373792 -22.923562861455139 0 0 0 0 -52.182798242776698 -6.8661287017807808 0 -6.8661287017807808 -1.7510323029346182 0 0 0 0 -18.183192934291583 -24.832304759891031 0 -24.832304759891031 20.562691457107576 0 0 0 0 -5.9813655249599833 15.941271768677325 0 15.941271768677325 46.979990347452258 0 0 0 0 -25.396359188205679 -16.953832368912117 0 -16.953832368912117 24.065375207255784 0 0 0 0 8.0065089194035721 -5.2718492937120249 0 -5.2718492937120249 3.803751034672338 0 0 0 0 23.163996028168185 -34.913274838778989 0 -34.913274838778989 -51.389801352099312 0 0 0 0 15.474667122471146 -66.830396060777275 0 -66.830396060777275 -36.960590556178431 0 0 0 0 2.1909807007521067 -2.0540754509284991 0 -2.0540754509284991 2.0546997404678535 0 0 0 0 275.70787642229698 21.674324298421197 0 21.674324298421197 -52.406331035968833 0 0 0 0 0.36145098719134694 -41.782562898442848 0 -41.782562898442848 295.37776073005443 0 0 0 0 290.48806496677616 -182.34676534444725 0 -182.34676534444725 -238.95132641932287 0 0 0 0 80.308570730339852 -167.5181263279228 0 -167.5181263279228 -46.115104286333008 0 0 0 0 86.418289443030517 -115.41643939151618 0 -115.41643939151618 50.820415978247183 0 0 0 0 263.19592130463343 -315.84225960563799 0 -315.84225960563799 132.58963427271374 0 0 0 0 -1962.1442364835711 -382.37797480035988 0 -382.37797480035988 581.77220873447368 0 0 0 0 -2.7137381602681163 -8.2867447484551811 0 -8.2867447484551811 -13.438501995068606 0 0 0 0 865.64117614527368 -526.4343309069518 0 -526.4343309069518 -131.15058552580376 0 0 0 0 260.3303820028741 -220.2049348786677 0 -220.2049348786677 166.17588719518244 0 0 0 0 350.37790780254272 -189.13966404180064 0 -189.13966404180064 160.91861022815283 0 0 0 0 195.59552884675986 -191.48858979504257 0 -191.48858979504257 237.20004517673806 0 0 0 0 135.30339894971166 -241.58927075225074 0 -241.58927075225074 250.14342945669978 0 0 0 0 211.15186670612184 -154.35795300475002 0 -154.35795300475002 122.01397037261904 0 0 0 0 -75.16040263743389 -82.345817155161058 0 -82.345817155161058 247.67815561385214 0 0 0 0 186.55340855712075 -224.10633272266568 0 -224.10633272266568 99.001357751098112 0 0 0 0 -21.274155013878435 -10.892489689210798 0 -10.892489689210798 10.445136197105313 0 0 0 0 178.57346891015095 -93.348983674779447 0 -93.348983674779447 7.7550522498786449 0 0 0 0 132.85714188990005 -68.716228732966556 0 -68.716228732966556 26.594659425147256 0 0 0 0 -80.518974057327796 -25.13598166727752 0 -25.13598166727752 26.680119150221799 0 0 0 0 -27.77560930374506 -28.687872691097308 0 -28.687872691097308 17.397886890408074 0 0 0 0 243.54343924520822 -242.33518840066245 0 -242.33518840066245 86.398679665639065 0 0 0 0 68.294588389635464 -138.75419080862048 0 -138.75419080862048 88.161549512582724 0 0 0 0 34.486981618454593 -166.31709139606028 0 -166.31709139606028 184.5832132225587 0 0 0 0 30.69917677089461 20.672678673221526 0 20.672678673221526 130.1318303454027 0 0 0 0 -119.70421139596965 -228.94342205286375 0 -228.94342205286375 -251.00136707074125 0 0 0 0 -2.2473060704925807 -0.42153937777372619 0 -0.42153937777372619 0.95389496646283334 0 0 0 0 -56.879291265088042 -54.130692181798793 0 -54.130692181798793 23.280894717778182 0 0 0 0 -107.11324167284693 -18.839288227471116 0 -18.839288227471116 8.1489712994207366 0 0 0 0 129.85162971619775 -109.06428598655111 0 -109.06428598655111 -7.0080496877853875 0 0 0 0 12.640995230494141 -21.199811091334968 0 -21.199811091334968 2.8315004314987036 0 0 0 0 -106.49005685248267 -41.955144896885031 0 -41.955144896885031 26.532104614083437 0 0 0 0 -257.20556242630119 -357.36462501851929 0 -357.36462501851929 257.01760549248502 0 0 0 0 -360.68736796909798 -147.02099019993693 0 -147.02099019993693 127.75845917928314 0 0 0 0 -394.39837200449892 -225.3728015716988 0 -225.3728015716988 355.53962547193987 0 0 0 0 -149.4505669279115 -325.22004288374592 0 -325.22004288374592 -21.182285919399874 0 0 0 0 4.6525141285865175 -543.54508561923467 0 -543.54508561923467 286.90629777061986 0 0 0 0 196.01966801905382 -495.75337843387933 0 -495.75337843387933 -26.455056841259648 0 0 0 0 -58.041824743144389 -380.07393673095976 0 -380.07393673095976 123.49814601095704 0 0 0 0 -658.4515372885744 -698.1755845119078 0 -698.1755845119078 233.23502508487945 0 0 0 0 -706.3972384536155 43.230558300834673 0 43.230558300834673 858.16156197587406 0 0 0 0 75.05988587210868 -769.13926800151876 0 -769.13926800151876 -204.85493074050464 0 0 0 0 -107.91799488704964 -109.0530783713948 0 -109.0530783713948 708.63135207779487 0 0 0 0 126.17516006220103 -160.12841188870152 0 -160.12841188870152 566.79834775534255 0 0 0 0 139.64331711593331 -9.7064489787026105 0 -9.7064489787026105 36.910040482853219 0 0 0 0 -2.5946066915717174 -0.26697094288568479 0 -0.26697094288568479 2.9304899808147127 0 0 0 0 115.91782111556859 -295.42718353822784 0 -295.42718353822784 406.88086062513321 0 0 0 0 -22.059895465241425 -15.727054243558086 0 -15.727054243558086 14.558976246473321 0 0 0 0 -2.1460227402687515 -6.2742705742862057 0 -6.2742705742862057 -2.2196867538244973 0 0 0 0 -21.259374667841712 -18.802665953584437 0 -18.802665953584437 -2.2266936362357228 0 0 0 0 0.028810772047380029 -2.1940183887530509 0 -2.1940183887530509 7.237805967801819 0 0 0 0 -178.45164086905424 30.46287473684788 0 30.46287473684788 -57.163665807045618 0 0 0 0 -133.2345034441264 -3.4941057113392162 0 -3.4941057113392162 -45.238472600816749 0 0 0 0 -234.86638514918513 -2.4849116567311285 0 -2.4849116567311285 -6.0975104972458212 0 0 0 0 -138.41724824592939 -156.61763285642701 0 -156.61763285642701 134.71169770840788 0 0 0 0 -3.5841479175991395 -2.9764974035100238 0 -2.9764974035100238 0.79993962483014514 0 0 0 0 -269.19505022001431 318.45967957878747 0 318.45967957878747 -41.0002054690558 0 0 0 0 -6.7921381983032916 85.722282761245879 0 85.722282761245879 578.23745415082431 0 0 0 0 23.980164911807151 -239.17953526024576 0 -239.17953526024576 -324.54284421213742 0 0 0 0 -533.40170094800487 158.51057440307341 0 158.51057440307341 195.41407071342837 0 0 0 0 -145.52114913698824 5.5611721966852201 0 5.5611721966852201 17.34043881802063 0 0 0 0 -50.559067783681478 -57.582188252407235 0 -57.582188252407235 18.872407168456149 0 0 0 0 -83.620176823613292 -10.895603915476386 0 -10.895603915476386 -8.9423475235544174 0 0 0 0 -110.34882282363833 -60.208525643415214 0 -60.208525643415214 23.746158061388996 0 0 0 0 -34.724308242559509 2.2333691750514859 0 2.2333691750514859 1.3221182617237446 0 0 0 0 -52.036361599374423 -59.388406294810949 0 -59.388406294810949 18.520803144772941 0 0 0 0 -162.44938820192874 12.278753033016983 0 12.278753033016983 17.499856601316424 0 0 0 0 -264.26044750344681 6.8768123131249013 0 6.8768123131249013 199.35997183837725 0 0 0 0 -118.99081267489237 -41.243655612743169 0 -41.243655612743169 -9.3854488303641119 0 0 0 0 -280.80365473068014 -10.277025183500882 0 -10.277025183500882 43.055824716608186 0 0 0 0 -35.914307843681186 0.53162061386260717 0 0.53162061386260717 7.3974818928692798 0 0 0 0 29.379135324776144 -41.864571820927267 0 -41.864571820927267 -22.458028167526209 0 0 0 0 -85.484621636645898 7.7565770986757343 0 7.7565770986757343 22.92362433929884 0 0 0 0 28.744400930881966 -84.163580284914133 0 -84.163580284914133 -16.705596862148013 0 0 0 0 75.359559319802429 4.0269982887530205 0 4.0269982887530205 150.11207624286908 0 0 0 0 -71.454916287228116 -64.817194038590969 0 -64.817194038590969 35.501719270813737 0 0 0 0 -24.077801460261981 5.5687189299496822 0 5.5687189299496822 -30.789385235627378 0 0 0 0 -129.6349622651851 49.263913976837102 0 49.263913976837102 -14.849904088332551 0 0 0 0 -185.0233840035944 -17.131468892046541 0 -17.131468892046541 -18.263715225573833 0 0 0 0 -33.295836634350664 -62.246595124319086 0 -62.246595124319086 13.440297936636156 0 0 0 0 -155.43435379247876 0.49215245657069318 0 0.49215245657069318 -14.666700221965584 0 0 0 0 -14.562261892162757 -0.50118776373807705 0 -0.50118776373807705 -2.9237305340924138 0 0 0 0 -79.148589938678015 -27.713761185284966 0 -27.713761185284966 -11.527105238194054 0 0 0 0 -102.73310986747356 -54.895994333785893 0 -54.895994333785893 -7.2991127098430297 0 0 0 0 -58.587064250802541 -62.386823845721665 0 -62.386823845721665 -26.802495180432743 0 0 0 0 -49.747795159419638 -71.044099176386226 0 -71.044099176386226 -26.980371960751654 0 0 0 0 -28.710304360315263 -44.656528161530218 0 -44.656528161530218 -34.141141491709277 0 0 0 0 -27.192461141995096 -12.033192554446487 0 -12.033192554446487 -8.7774407370889094 0 0 0 0 -179.60880371730627 -40.610899068060462 0 -40.610899068060462 9.4666859140925226 0 0 0 0 -293.27439737958412 -9.1055175343171868 0 -9.1055175343171868 4.9276451444602571 0 0 0 0 -52.433724599839849 -60.135098371605075 0 -60.135098371605075 14.58356636628379 0 0 0 0 -171.18130917167309 -7.7946816125768237 0 -7.7946816125768237 28.846459176391363 0 0 0 0 338.90029069760931 -191.24463938180634 0 -191.24463938180634 39.992642224369774 0 0 0 0 151.20412278084405 -205.70667386067362 0 -205.70667386067362 154.6991365460126 0 0 0 0 142.87212805615491 -180.70927064332864 0 -180.70927064332864 137.37119715856534 0 0 0 0 -0.064458116438816049 -0.91751601191344889 0 -0.91751601191344889 2.4228429432590275 0 0 0 0 -270.59932287376432 140.50091093459923 0 140.50091093459923 504.40977513174948 0 0 0 0 49.853886420227354 -153.26634157831177 0 -153.26634157831177 166.14207384384645 0 0 0 0 47.995138640606228 -123.15221083701681 0 -123.15221083701681 75.711305036933481 0 0 0 0 109.26946444196983 -219.5075101784978 0 -219.5075101784978 238.8801321161227 0 0 0 0 97.647204769440577 -184.9787456160393 0 -184.9787456160393 88.566523413637697 0 0 0 0 94.40560842344712 -173.6689963275021 0 -173.6689963275021 51.687306863204867 0 0 0 0 145.40479335056443 -184.52814203318849 0 -184.52814203318849 82.491079361574521 0 0 0 0 33.99507179370994 -141.80268617177535 0 -141.80268617177535 98.030048256678128 0 0 0 0 -1.2864976399869192 -104.39567960767454 0 -104.39567960767454 124.69953181920755 0 0 0 0 -38.390195260762994 -58.377064284120934 0 -58.377064284120934 1.121399018646116 0 0 0 0 -42.134245677681974 -46.972936988225229 0 -46.972936988225229 60.283410803149309 0 0 0 0 39.566587840839929 -115.43167243311336 0 -115.43167243311336 28.388449411420879 0 0 0 0 75.315458917684737 -130.59763691593616 0 -130.59763691593616 3.5058763591150637 0 0 0 0 1.2199619310194976 -117.99195042046085 0 -117.99195042046085 47.928609574371876 0 0 0 0 235.28621675510658 -192.56626136445084 0 -192.56626136445084 24.467731426170758 0 0 0 0 88.045230291493681 -183.17506380134932 0 -183.17506380134932 61.584391599903029 0 0 0 0 -40.245264788107306 -111.68714007052586 0 -111.68714007052586 66.11426623011539 0 0 0 0 83.117773663179833 -163.39671704326429 0 -163.39671704326429 87.606296744363135 0 0 0 0 137.77567148791422 -77.403228786117324 0 -77.403228786117324 5.952756608377058 0 0 0 0 79.222938726264147 -98.58383308915063 0 -98.58383308915063 -1.2006713452465192 0 0 0 0 132.09965365586822 -109.73022340013176 0 -109.73022340013176 -3.5222962050465867 0 0 0 0 144.33446824948442 -93.631816526563853 0 -93.631816526563853 -39.437797460581351 0 0 0 0 181.13922771543366 -171.30572043522261 0 -171.30572043522261 10.269721088945516 0 0 0 0 130.03311139906145 -128.69365213961828 0 -128.69365213961828 11.615485909762356 0 0 0 0 140.95394548284094 -143.35987543617739 0 -143.35987543617739 29.464985041617183 0 0 0 0 99.733742141939729 -190.63299012244715 0 -190.63299012244715 139.22409211981358 0 0 0 0 274.31959766038017 -6.6160701997382603 0 -6.6160701997382603 16.111426611951174 0 0 0 0 59.568684313078847 -41.449165218301459 0 -41.449165218301459 10.785358831932172 0 0 0 0 -83.667031584715005 -17.162049975497212 0 -17.162049975497212 268.30321318260394 0 0 0 0 -432.55840101770991 -157.25662189303148 0 -157.25662189303148 155.44842233386589 0 0 0 0 -75.490710533485981 -45.995462390499597 0 -45.995462390499597 -127.19600380359407 0 0 0 0 30.974033786726068 -217.57588592580623 0 -217.57588592580623 154.34815936525411 0 0 0 0 598.6594034256068 97.493191722065603 0 97.493191722065603 131.97433299176555 0 0 0 0 1.9472750276342907 -2.870802063599335 0 -2.870802063599335 1.8328386833847787 0 0 0 0 12.993908962062051 -105.10148627352464 0 -105.10148627352464 221.43948745606758 0 0 0 0 146.3468222898664 -103.93749130572905 0 -103.93749130572905 -47.953985285352246 0 0 0 0 94.491245622692077 -228.68143506394335 0 -228.68143506394335 -116.82969952806889 0 0 0 0 155.12497559317853 -50.036799746838369 0 -50.036799746838369 -470.2993867108969 0 0 0 0 103.65365105790261 -323.02155978583323 0 -323.02155978583323 -462.73979530474026 0 0 0 0 -222.50089980399935 -727.14805137668372 0 -727.14805137668372 -4.508242590736927 0 0 0 0 -613.08471550623835 654.52182006895328 0 654.52182006895328 -40.240397495199431 0 0 0 0 5.875601866744887 -6.1983353493598017 0 -6.1983353493598017 7.3125534212731083 0 0 0 0 -567.16192292759297 -220.36604489198544 0 -220.36604489198544 16.095861464920745 0 0 0 0 -163.20991162691644 -354.98229062186874 0 -354.98229062186874 -80.729242636261006 0 0 0 0 540.72306228630259 360.98497915752432 0 360.98497915752432 -179.45338832589914 0 0 0 0 -58.169595041510547 7.6000008620549124 0 7.6000008620549124 -159.0480404510381 0 0 0 0 199.12543820283827 -267.12069584492565 0 -267.12069584492565 -68.443929873210436 0 0 0 0 34.924450381346105 -168.02554939757465 0 -168.02554939757465 -56.162135825303267 0 0 0 0 -246.60631623502195 200.53066927154578 0 200.53066927154578 -313.86572164712561 0 0 0 0 507.8255737543077 -241.24314351009161 0 -241.24314351009161 -668.09657297830199 0 0 0 0 139.57654739308055 -418.43697573451118 0 -418.43697573451118 143.3029629779121 0 0 0 0 134.37738014866045 -150.16210388642139 0 -150.16210388642139 -136.94097497447729 0 0 0 0 77.747429558316071 -113.14412510339753 0 -113.14412510339753 18.050604189875742 0 0 0 0 122.15611149258802 -136.28728781365862 0 -136.28728781365862 -133.13812046584644 0 0 0 0 0.61602463475658453 -0.51345587587456265 0 -0.51345587587456265 3.5313300548624085 0 0 0 0 -82.572995112113858 -66.137699233590865 0 -66.137699233590865 84.450703821155912 0 0 0 0 372.0333587239129 71.316697091999231 0 71.316697091999231 -48.143753366453893 0 0 0 0 -160.89663422875174 -88.639419993645788 0 -88.639419993645788 32.006636345322477 0 0 0 0 -334.13304622256328 -33.612760544000594 0 -33.612760544000594 20.615836239321652 0 0 0 0 -1.7927549125521143 -67.209349015096564 0 -67.209349015096564 2.2869787643755473 0 0 0 0 -116.18877183591076 -117.33902450001187 0 -117.33902450001187 19.673176019092352 0 0 0 0 -20.332233826946322 -67.170956680331074 0 -67.170956680331074 -3.1607444485271117 0 0 0 0 -101.15686044069844 -69.185712518708897 0 -69.185712518708897 -1.5987181922901073 0 0 0 0 -120.6470620722198 -38.614840556325362 0 -38.614840556325362 -18.767658944510913 0 0 0 0 -50.300338897321126 -69.789941253904544 0 -69.789941253904544 -28.400099573460466 0 0 0 0 -35.632116798052266 -43.821807863369031 0 -43.821807863369031 -14.158106303264503 0 0 0 0 -72.421111926175399 -82.35918812640557 0 -82.35918812640557 -35.221388082194608 0 0 0 0 -95.552921762352526 -52.493195565792121 0 -52.493195565792121 -16.569927718897816 0 0 0 0 -90.703768496364319 -58.743631810213628 0 -58.743631810213628 -61.100090341773466 0 0 0 0 -91.398649007951462 -55.154646642109583 0 -55.154646642109583 -21.701966104606981 0 0 0 0 -272.64785383300477 -37.043448374883155 0 -37.043448374883155 6.2187120039052388 0 0 0 0 -162.21181157230421 -81.082913797923538 0 -81.082913797923538 -9.3436056577447744 0 0 0 0 -252.34619630304951 -95.610000266227871 0 -95.610000266227871 -24.984754775749025 0 0 0 0 13.066364144746361 2.0445535735464837 0 2.0445535735464837 -4.0437274478103404 0 0 0 0 -242.67323212334168 -73.872516620923989 0 -73.872516620923989 159.45166202024484 0 0 0 0 119.51247494028212 -127.4995568912891 0 -127.4995568912891 -66.454728375447303 0 0 0 0 1.4559511765460318 -1.6544328418613503 0 -1.6544328418613503 5.7159012017777684 0 0 0 0 278.90609363518161 -356.01945809703284 0 -356.01945809703284 225.00375874427391 0 0 0 0 100.9444100771434 -136.4204248112037 0 -136.4204248112037 158.48327003769009 0 0 0 0 7.6916297614588984 -205.87393656802487 0 -205.87393656802487 219.7220512115091 0 0 0 0 -305.6139611375711 3.9560138940081515 0 3.9560138940081515 69.214301024530869 0 0 0 0 -0.22856842191653648 -0.44129445297447489 0 -0.44129445297447489 2.3271198272425124 0 0 0 0 24.172614557646739 -280.30800908646779 0 -280.30800908646779 251.98471636236718 0 0 0 0 153.15046785827144 -251.34455150169379 0 -251.34455150169379 135.9181441020628 0 0 0 0 19.617406397839204 -364.58985527859841 0 -364.58985527859841 95.480334259933443 0 0 0 0 -32.299048425215005 -262.11899047725638 0 -262.11899047725638 -38.91450655918743 0 0 0 0 57.652050749967202 -128.51658322587355 0 -128.51658322587355 72.725712161176489 0 0 0 0 126.74291200448351 -257.36932971037641 0 -257.36932971037641 58.313298043329269 0 0 0 0 6.664187698996102 -66.179595487337792 0 -66.179595487337792 -176.29385617825756 0 0 0 0 144.24685595832125 -173.68959424112109 0 -173.68959424112109 -325.22677996224593 0 0 0 0 161.68676088329448 -158.3588360784197 0 -158.3588360784197 -374.14802136541766 0 0 0 0 35.96194108383861 -216.20319334927717 0 -216.20319334927717 -238.14278450974598 0 0 0 0 -124.58791784864491 -67.940473051956587 0 -67.940473051956587 22.469774594585033 0 0 0 0 -21.564497915595624 -14.283835867146642 0 -14.283835867146642 1.6557127771324005 0 0 0 0 -117.39820084709936 -247.06086059895733 0 -247.06086059895733 -4.7126881805961602 0 0 0 0 22.136493277182097 -66.405600483903527 0 -66.405600483903527 -10.891168140952701 0 0 0 0 -60.98202341661181 -56.391314488680109 0 -56.391314488680109 126.23484573005408 0 0 0 0 -66.273148267086981 -27.087253786670772 0 -27.087253786670772 -16.649858132717327 0 0 0 0 0.22646891551346826 -0.56745587329655933 0 -0.56745587329655933 0.036608116296321214 0 0 0 0 41.846269121255318 -52.34517736761336 0 -52.34517736761336 -33.044110625925441 0 0 0 0 -15.481603967745286 -33.679191957099647 0 -33.679191957099647 -26.789494326923887 0 0 0 0 23.380882896663024 -11.016713144743335 0 -11.016713144743335 -30.609296267214404 0 0 0 0 25.747335596660378 -31.394134554895572 0 -31.394134554895572 -2.985166120568465 0 0 0 0 18.270095289031467 -6.5443721902679073 0 -6.5443721902679073 3.4840348147887248 0 0 0 0 24.5632513425262 -34.026726759127996 0 -34.026726759127996 6.2369512028490135 0 0 0 0 2.7605728925100266 -24.720959863077042 0 -24.720959863077042 34.434815978853294 0 0 0 0 14.605437063463796 -34.168793446651762 0 -34.168793446651762 39.904976169753354 0 0 0 0 2.6997028368223255 -21.439211273415822 0 -21.439211273415822 37.6484795051947 0 0 0 0 59.262877708714768 -5.999268034567649 0 -5.999268034567649 8.0007457168321707 0 0 0 0 38.000962651865848 -74.764129902938294 0 -74.764129902938294 29.932416389658101 0 0 0 0 -5.0427660120112705 -19.322629296082596 0 -19.322629296082596 83.121493192085836 0 0 0 0 17.147133722246508 -29.353058314092777 0 -29.353058314092777 -6.2259912392692058 0 0 0 0 -29.503460784095296 -57.029747494265393 0 -57.029747494265393 -4.9984895087363839 0 0 0 0 28.183663127385444 -17.055992936251641 0 -17.055992936251641 8.3462835281006846 0 0 0 0 4.1848242067226238 -23.294789626809688 0 -23.294789626809688 37.838046459106408 0 0 0 0 51.207251093976083 -42.689996729594895 0 -42.689996729594895 25.467842068203026 0 0 0 0 35.11303986949315 2.9625223005687076 0 2.9625223005687076 34.409913977124233 0 0 0 0 0.0053157489219302079 -26.90281737872283 0 -26.90281737872283 10.418718521625124 0 0 0 0 -29.76350652266774 -59.321136572161777 0 -59.321136572161777 4.8682515294822224 0 0 0 0 -22.595081492498139 -55.463354872372292 0 -55.463354872372292 -6.7454952232287155 0 0 0 0 -35.797140203698291 -77.633624232621514 0 -77.633624232621514 -26.66558123876348 0 0 0 0 8.8628792839290327 -39.376861791331066 0 -39.376861791331066 -11.327198027458508 0 0 0 0 43.110480998884668 4.7671719148384 0 4.7671719148384 83.165371249382588 0 0 0 0 47.375187820303836 2.1684039887441031 0 2.1684039887441031 -3.2145089937594093 0 0 0 0 75.572696178625847 -17.457627023337409 0 -17.457627023337409 -11.902071918373622 0 0 0 0 9.6857135579575697 -28.495875330014314 0 -28.495875330014314 -53.766991173099086 0 0 0 0 82.054050565213402 -3.2694305246559452 0 -3.2694305246559452 -94.169393923315511 0 0 0 0 100.45221686098193 19.792484768160648 0 19.792484768160648 -52.640437810554431 0 0 0 0 77.5683437637108 -69.363226673657664 0 -69.363226673657664 -287.29042788334846 0 0 0 0 110.24873071124603 -167.27935549254835 0 -167.27935549254835 -37.361514353052371 0 0 0 0 11.199501747145405 -67.6229437264019 0 -67.6229437264019 168.37888459713213 0 0 0 0 -380.38071912384294 -183.10900015426341 0 -183.10900015426341 -394.61084578241753 0 0 0 0 3.636114535691334 -3.8312078026268708 0 -3.8312078026268708 1.5059414813387768 0 0 0 0 116.14127201431438 -679.55980486620501 0 -679.55980486620501 -971.87993100380845 0 0 0 0 -390.48519240910537 -67.12174249977943 0 -67.12174249977943 -185.06058275151918 0 0 0 0 -492.87123356329903 -418.38836921014263 0 -418.38836921014263 -294.90883250925253 0 0 0 0 -179.3208834499892 -263.18259571242379 0 -263.18259571242379 379.94823139333312 0 0 0 0 -28.799344149311686 -6.2052664293815241 0 -6.2052664293815241 12.779385718507534 0 0 0 0 -742.54345232403648 -78.811506833459134 0 -78.811506833459134 435.06141587007005 0 0 0 0 -149.09852460224647 -265.71624925157812 0 -265.71624925157812 -341.73164441663903 0 0 0 0 -269.10762794898255 255.57011672719818 0 255.57011672719818 401.73644888867057 0 0 0 0 -580.50425409278614 -165.67446273619862 0 -165.67446273619862 481.61777374479789 0 0 0 0 -236.46972365189504 -543.08504120281123 0 -543.08504120281123 -669.17892760854011 0 0 0 0 -166.5492124974553 -220.07353645262265 0 -220.07353645262265 -506.02171236625509 0 0 0 0 -265.91833266494177 -283.91238937125217 0 -283.91238937125217 -227.62136136738627 0 0 0 0 -99.132721304606093 -178.58358264043636 0 -178.58358264043636 -351.45819868336093 0 0 0 0 -239.79437635005888 -106.52275673710938 0 -106.52275673710938 -146.95915057879392 0 0 0 0 -9.0306523742553537 -21.74359745202527 0 -21.74359745202527 13.355614524520462 0 0 0 0 -0.14905940948301577 -36.985420304243235 0 -36.985420304243235 7.4945835548023751 0 0 0 0 -30.408270544168772 -37.112267610142226 0 -37.112267610142226 7.0419786623788241 0 0 0 0 -3.4723038798147172 -297.40329790986652 0 -297.40329790986652 38.403540269413497 0 0 0 0 15.181650941495139 -15.198150099028105 0 -15.198150099028105 1.2464284809039015 0 0 0 0 -187.31182371999967 -268.72917847100689 0 -268.72917847100689 51.602441926821484 0 0 0 0 -25.895015302241518 68.202587800213223 0 68.202587800213223 -125.95821824105951 0 0 0 0 310.57493451805931 -0.10084656425897265 0 -0.10084656425897265 -123.17558042566452 0 0 0 0 -259.52001103859766 -333.4903649820817 0 -333.4903649820817 -239.90432809331833 0 0 0 0 -151.7929412039357 -3.0468567527350388 0 -3.0468567527350388 91.474042292457852 0 0 0 0 -280.3394214650325 -318.37681282935228 0 -318.37681282935228 -232.72499170402443 0 0 0 0 -45.003514017381548 -6.6263910122659127 0 -6.6263910122659127 16.838576932955611 0 0 0 0 -13.79446709907279 -54.986991855455926 0 -54.986991855455926 -9.6064609883906087 0 0 0 0 9.6597771819851062 -23.677239764642252 0 -23.677239764642252 6.0181737918789224 0 0 0 0 -455.01464896940888 -306.64529243700599 0 -306.64529243700599 -223.91011934930793 0 0 0 0 3.1618408979818184 -4.5766203136305634 0 -4.5766203136305634 -7.3145473802809704 0 0 0 0 -796.53728788677654 -259.12789942517065 0 -259.12789942517065 -73.56519116536947 0 0 0 0 -44.181518311655964 20.385215458110906 0 20.385215458110906 18.646065892811748 0 0 0 0 -222.37823272297828 -374.04339747835184 0 -374.04339747835184 -217.75070682288788 0 0 0 0 -81.121610965525178 -370.97984329948667 0 -370.97984329948667 -230.21764684065056 0 0 0 0 -209.32080408747242 -313.84744852909694 0 -313.84744852909694 -236.7356389131055 0 0 0 0 -227.97399144122892 -233.04148427668315 0 -233.04148427668315 -12.236183476055885 0 0 0 0 126.57604085789717 -192.99909906329412 0 -192.99909906329412 -99.540806875676935 0 0 0 0 -142.71903149789523 -519.78145983418608 0 -519.78145983418608 -391.29581463130671 0 0 0 0 -643.02039607303232 -484.01752421366837 0 -484.01752421366837 -149.632898824515 0 0 0 0 54.513063270804196 -34.727114607286239 0 -34.727114607286239 -175.32162622269971 0 0 0 0 120.46911258871842 -63.875977187351964 0 -63.875977187351964 -92.884215460577707 0 0 0 0 -167.52061608138683 -113.81444982238281 0 -113.81444982238281 -86.097771760934847 0 0 0 0 -59.380428763986856 -137.04792862074464 0 -137.04792862074464 -116.3171583828298 0 0 0 0 -30.835239607495168 -222.0819783116749 0 -222.0819783116749 -255.59492875035266 0 0 0 0 205.15108499186681 -57.975306527590874 0 -57.975306527590874 -5.6268005656254445 0 0 0 0 -76.455513645245446 -177.53235473451423 0 -177.53235473451423 -15.248861662017589 0 0 0 0 11.651906344482995 -5.0288124726303067 0 -5.0288124726303067 72.776252550655045 0 0 0 0 170.79686282196599 -32.520553523203489 0 -32.520553523203489 71.206324416636903 0 0 0 0 39.815237274939136 -85.286089044348046 0 -85.286089044348046 367.59811948356946 0 0 0 0 190.9891984628448 53.017475256519901 0 53.017475256519901 434.88737390272581 0 0 0 0 284.9988059221173 -298.86926630050357 0 -298.86926630050357 457.2257066519378 0 0 0 0 -29.199547465101205 -102.13840591432745 0 -102.13840591432745 370.05618488944674 0 0 0 0 130.40193396935138 -109.21169487716907 0 -109.21169487716907 1149.3786047057474 0 0 0 0 230.82094825085551 -569.98450098303147 0 -569.98450098303147 1058.43245626102 0 0 0 0 -73.433244390587788 -42.623349324621813 0 -42.623349324621813 526.0091301477969 0 0 0 0 -335.36675365006522 104.99582956479571 0 104.99582956479571 -231.86956535839909 0 0 0 0 -272.66685737725129 -270.7669390455103 0 -270.7669390455103 509.2610133228518 0 0 0 0 -79.924988379894785 -9.0289530795780593 0 -9.0289530795780593 1111.5411665711254 0 0 0 0 -35.596797886689274 -308.07781547437457 0 -308.07781547437457 954.67999134114507 0 0 0 0 100.70167353310535 59.200997653733793 0 59.200997653733793 1134.8183207877337 0 0 0 0 -7.1894945178355556 -463.9823202717962 0 -463.9823202717962 1276.9547077745156 0 0 0 0 -78.960946050534403 -299.17526417803856 0 -299.17526417803856 986.52238248590584 0 0 0 0 -464.21725471608806 -468.25578673371911 0 -468.25578673371911 953.67294386359572 0 0 0 0 -113.05548688484851 137.79610577479798 0 137.79610577479798 2060.8626420153305 0 0 0 0 -153.0275174132712 -77.030458409802122 0 -77.030458409802122 1060.7863582290593 0 0 0 0 0.3468592433306128 -1.9118104584087376 0 -1.9118104584087376 -1.4816482712166419 0 0 0 0 -80.396431082652271 -149.53686267911326 0 -149.53686267911326 1634.0792768550855 0 0 0 0 10.775754298537123 -15.44410874961325 0 -15.44410874961325 5.7871546009887043 0 0 0 0 44.1308191439457 -254.43484928645194 0 -254.43484928645194 1600.777295431868 0 0 0 0 -464.35112685218883 -244.47932793041764 0 -244.47932793041764 219.51410087640761 0 0 0 0 -584.80142226793168 -706.313787127355 0 -706.313787127355 -463.96636614057206 0 0 0 0 -70.945580810885076 -283.85173787591702 0 -283.85173787591702 -153.31492997780515 0 0 0 0 -691.18634172978386 65.721645988419596 0 65.721645988419596 -179.9089387156273 0 0 0 0 92.245934946702619 -191.38765860878084 0 -191.38765860878084 -111.32718648004447 0 0 0 0 89.359117747470009 -713.13314751179132 0 -713.13314751179132 -823.86860689363857 0 0 0 0 -192.4398666095658 -61.187570927013439 0 -61.187570927013439 2254.9487062716071 0 0 0 0 2.2412274252629629 -6.3247021623112261 0 -6.3247021623112261 1.6936671447514442 0 0 0 0 -109.10163806589799 -411.98326467100924 0 -411.98326467100924 -345.75002602498353 0 0 0 0 152.31943259318541 -389.39811770719643 0 -389.39811770719643 21.024204905843362 0 0 0 0 80.195049122733508 -809.04901702744155 0 -809.04901702744155 274.7379787994505 0 0 0 0 102.78059900335938 -515.81399135041647 0 -515.81399135041647 536.66975326806642 0 0 0 0 301.08563005835822 -422.69991821467192 0 -422.69991821467192 328.2827383065578 0 0 0 0 87.564987136476702 -472.56414681489514 0 -472.56414681489514 458.21753175939375 0 0 0 0 315.60237569147694 -444.95755586593623 0 -444.95755586593623 309.44729679554439 0 0 0 0 259.2408307213118 -551.18834965792303 0 -551.18834965792303 243.28920930234472 0 0 0 0 214.29640578695398 -254.55202250048569 0 -254.55202250048569 253.63870338884794 0 0 0 0 613.76752959605074 -299.61450736432562 0 -299.61450736432562 246.17877579427295 0 0 0 0 35.680121298117228 -130.83964625194858 0 -130.83964625194858 363.64416532966789 0 0 0 0 319.45793890063578 -84.201982704345937 0 -84.201982704345937 367.00316254046993 0 0 0 0 0.37501557286180542 -4.2140470193230897 0 -4.2140470193230897 -3.6669421589303752 0 0 0 0 6.308467084516451 -18.662198355912551 0 -18.662198355912551 -14.865799787985452 0 0 0 0 271.83775849062295 -219.82051675572347 0 -219.82051675572347 127.5610519222937 0 0 0 0 4.2573682543152245 -38.681611093063111 0 -38.681611093063111 -56.670985044283952 0 0 0 0 27.095138167884215 -53.115623915713513 0 -53.115623915713513 -47.575899437910266 0 0 0 0 25.778492967890543 -22.186181842446842 0 -22.186181842446842 -241.56459934994564 0 0 0 0 -14.425153830601062 -68.937608014739453 0 -68.937608014739453 -52.597671730080037 0 0 0 0 -18.030168089610015 -49.40035661838192 0 -49.40035661838192 -32.179165816609384 0 0 0 0 -17.212225600234888 -87.686318058928009 0 -87.686318058928009 -33.214050095521088 0 0 0 0 -28.528858616503385 -63.783622507849486 0 -63.783622507849486 77.371440402090229 0 0 0 0 7.5458065504208207 -166.62143830681089 0 -166.62143830681089 -64.752224944444606 0 0 0 0 7.2471101316914428 -169.49668530133567 0 -169.49668530133567 361.3512177446737 0 0 0 0 93.021950528639536 71.589210822268797 0 71.589210822268797 144.10549118659765 0 0 0 0 150.70937907446159 -218.43996958384264 0 -218.43996958384264 241.86877004268899 0 0 0 0 1.1906622037357408 -2.4085327800920311 0 -2.4085327800920311 -1.9757957206599457 0 0 0 0 -121.60057671485993 213.50852277772174 0 213.50852277772174 -1006.6000143908932 0 0 0 0 112.45331639748474 -64.821910455373654 0 -64.821910455373654 15.680436014220049 0 0 0 0 -4.0454299196670149 -3.2931552506305053 0 -3.2931552506305053 -1.2420760603841643 0 0 0 0 130.99446777581034 404.93135793813235 0 404.93135793813235 -1850.1112092195053 0 0 0 0 -46.569199467936414 -258.92857913613625 0 -258.92857913613625 75.613569972863502 0 0 0 0 172.30260984771303 3.6459378002673475 0 3.6459378002673475 78.08570864080987 0 0 0 0 57.496763577189995 -132.1357656436212 0 -132.1357656436212 243.75307831124564 0 0 0 0 0.87726142129119467 0.60152584565258138 0 0.60152584565258138 -1.2333916401655731 0 0 0 0 60.956409493126557 -74.534987692873983 0 -74.534987692873983 91.684697074580981 0 0 0 0 -0.029660732041520532 -45.045262806105711 0 -45.045262806105711 143.18340373152387 0 0 0 0 28.32736790128547 -111.4156190166932 0 -111.4156190166932 154.53894299575586 0 0 0 0 25.789844731829362 -69.397677595133246 0 -69.397677595133246 158.45027433956784 0 0 0 0 -7.4965246756892157 -3.9109876990599304 0 -3.9109876990599304 0.13552358970972023 0 0 0 0 6.5948526941065211 -9.8729366337629472 0 -9.8729366337629472 12.588288092802031 0 0 0 0 9.7295205344562419 -7.8430441009513743 0 -7.8430441009513743 -21.954600659813877 0 0 0 0 -12.91498316822981 -36.185109798500889 0 -36.185109798500889 25.653661533564446 0 0 0 0 4.3485074587661074 -27.780704485652677 0 -27.780704485652677 11.475544611325176 0 0 0 0 -3.9651761096538394 -30.396135621745088 0 -30.396135621745088 -57.420859009254855 0 0 0 0 -17.854139128386038 -9.0856504559952782 0 -9.0856504559952782 -5.6659720336126114 0 0 0 0 -0.66723226236308619 -2.7641893796564609 0 -2.7641893796564609 -6.1547539747001618 0 0 0 0 0.52278874268813524 -88.285102936237308 0 -88.285102936237308 -117.97891392031306 0 0 0 0 7.428078263168743 -10.143207696786163 0 -10.143207696786163 -3.7727703590384003 0 0 0 0 -8.6663447419268778 -12.563714234244799 0 -12.563714234244799 8.2837411074251577 0 0 0 0 21.186668098307564 -64.57549586924597 0 -64.57549586924597 -60.741198294193964 0 0 0 0 -4.2097336111749115 -17.801236760509425 0 -17.801236760509425 -6.7080292603212186 0 0 0 0 -15.423912261227088 -477.30288737424644 0 -477.30288737424644 -540.99093059468214 0 0 0 0 -50.30118551448686 -495.81115346598017 0 -495.81115346598017 -501.73683666943543 0 0 0 0 -261.53496079760225 36.461861349559967 0 36.461861349559967 84.832321706948278 0 0 0 0 -739.98293342458783 -362.97990565127839 0 -362.97990565127839 -206.29464395352625 0 0 0 0 -1.781882314090268 -2.9772642584951612 0 -2.9772642584951612 -0.23566276786851859 0 0 0 0 74.255170540243853 -53.674656527318803 0 -53.674656527318803 -647.44362947169566 0 0 0 0 1.0620042712566544 -7.5366466059384862 0 -7.5366466059384862 -3.9133852112483583 0 0 0 0 16.148508740050602 -59.530301950549983 0 -59.530301950549983 -165.45365140669674 0 0 0 0 14.04949983442043 -126.89027349312937 0 -126.89027349312937 -736.44561475340561 0 0 0 0 354.17815207581589 -301.55289154075854 0 -301.55289154075854 -909.44078606845142 0 0 0 0 228.36233704582264 -311.57847609795954 0 -311.57847609795954 -877.69628651394669 0 0 0 0 158.11134805907204 -384.51431556263196 0 -384.51431556263196 -844.89541552856463 0 0 0 0 154.59702279337216 -363.11943687216808 0 -363.11943687216808 -831.4329608108128 0 0 0 0 276.36220454992144 -400.73417018755617 0 -400.73417018755617 -927.7222237262049 0 0 0 0 -767.45158998496481 -758.09970752828031 0 -758.09970752828031 -467.54625241620852 0 0 0 0 3.1086199613476992 -0.98966088933588026 0 -0.98966088933588026 -1.3486207175558746 0 0 0 0 249.90196460166771 -65.569247342646122 0 -65.569247342646122 -379.07627096171927 0 0 0 0 156.97100621374557 -476.17625451409913 0 -476.17625451409913 -1160.3891452961034 0 0 0 0 -395.03339510182559 -791.8287604986017 0 -791.8287604986017 -703.89683467593932 0 0 0 0 -162.41072229016572 -854.31133273282467 0 -854.31133273282467 -1593.4741975166344 0 0 0 0 -5.6196695584878853 -6.1319971215272489 0 -6.1319971215272489 -5.0268564162192 0 0 0 0 -523.82863054778136 -982.64336690903247 0 -982.64336690903247 862.72280875588558 0 0 0 0 155.02961312128173 -164.92007139200723 0 -164.92007139200723 -1719.0907084344235 0 0 0 0 279.45054688456003 22.544631406720328 0 22.544631406720328 -1446.9603322339124 0 0 0 0 122.61680608151073 -196.58451921471988 0 -196.58451921471988 65.478977978606054 0 0 0 0 318.78421674140554 -579.3015889760818 0 -579.3015889760818 119.86483644819782 0 0 0 0 280.35885462234728 192.28132121893032 0 192.28132121893032 -738.38088930958338 0 0 0 0 38.55789522822306 -240.74287145367953 0 -240.74287145367953 -159.3900646403381 0 0 0 0 368.53402682737214 -248.84498776131568 0 -248.84498776131568 -809.82847886773015 0 0 0 0 278.98414008581312 -127.66332659610634 0 -127.66332659610634 -819.24472928347541 0 0 0 0 259.31300064704919 -264.2984178653162 0 -264.2984178653162 -1130.8294775980739 0 0 0 0 -158.12967122931877 -359.2365230252135 0 -359.2365230252135 -975.94903631821035 0 0 0 0 -0.022965848576859571 -30.819052105498031 0 -30.819052105498031 -1664.7754419789926 0 0 0 0 154.49221083853627 -290.01256076510981 0 -290.01256076510981 -1690.2136639699779 0 0 0 0 79.254502947689616 -4.1659588558864016 0 -4.1659588558864016 -1001.6265891575385 0 0 0 0 77.744334254064597 -351.91893876339782 0 -351.91893876339782 -679.82530169411075 0 0 0 0 -0.4823374073166633 -346.11155263018509 0 -346.11155263018509 16.438245718311464 0 0 0 0 11.427574785349861 -39.271299326931512 0 -39.271299326931512 -536.7581281545572 0 0 0 0 -102.77861627851962 -235.90245774170717 0 -235.90245774170717 535.68349814057819 0 0 0 0 450.81845841839095 -92.929303240634908 0 -92.929303240634908 -111.2886539279416 0 0 0 0 437.24829611236055 43.846046007225738 0 43.846046007225738 -1177.9387725098236 0 0 0 0 359.5805459742769 -769.94986515854623 0 -769.94986515854623 -1400.2418725005568 0 0 0 0 425.0215996048446 -108.45069276338296 0 -108.45069276338296 -2377.8100732291032 0 0 0 0 -4.6533912570770894 -5.8628457988564833 0 -5.8628457988564833 -5.7779452270556115 0 0 0 0 -54.834189817978768 -1034.5830577262932 0 -1034.5830577262932 210.94513124744958 0 0 0 0 -0.3050234028705745 -472.7253723449918 0 -472.7253723449918 -2439.9860987091497 0 0 0 0 152.11526409885846 -1041.7090643749589 0 -1041.7090643749589 -2108.2283225878641 0 0 0 0 -305.86186787665793 -1017.1053209399136 0 -1017.1053209399136 -1437.7019386563584 0 0 0 0 25.751505106920376 -769.31442919761741 0 -769.31442919761741 -1283.7062457098186 0 0 0 0 281.7331193536811 -685.22081306726568 0 -685.22081306726568 -1452.1070594026216 0 0 0 0 221.84779865044402 -839.01690176282557 0 -839.01690176282557 -1047.8105958452331 0 0 0 0 114.44067401860957 -1039.0827460176574 0 -1039.0827460176574 -1343.6553630290791 0 0 0 0 209.24428311824886 -938.50195604209296 0 -938.50195604209296 -1042.8807983243055 0 0 0 0 -58.875297913575196 -909.47012485875598 0 -909.47012485875598 -570.86476994118561 0 0 0 0 0.025717864296068038 -1051.570354381038 0 -1051.570354381038 -973.86085467634337 0 0 0 0 -222.91552095883526 -687.8422717084361 0 -687.8422717084361 -703.56020753900327 0 0 0 0 134.65765877693684 -660.91095951939917 0 -660.91095951939917 -937.44458599623113 0 0 0 0 148.0997119936801 -763.54595652044281 0 -763.54595652044281 -961.14145764180375 0 0 0 0 138.03098410675011 -927.2057443205606 0 -927.2057443205606 -754.09688838308352 0 0 0 0 248.2827716076863 -847.64260869656698 0 -847.64260869656698 -1150.0972507801293 0 0 0 0 478.84531714876357 -625.51106230724508 0 -625.51106230724508 -1232.6796516426634 0 0 0 0 95.136061714583775 -607.24783767787289 0 -607.24783767787289 -955.88020352817466 0 0 0 0 54.135428788322315 -208.899885760583 0 -208.899885760583 -344.67163947613517 0 0 0 0 244.43674138071219 -468.34583519320734 0 -468.34583519320734 -958.42828413352947 0 0 0 0 443.32136080843338 -494.08242863867895 0 -494.08242863867895 -956.61473646962907 0 0 0 0 -9.2228571071477461 -12.708017312566042 0 -12.708017312566042 -11.027555269347364 0 0 0 0 179.7638512234189 -291.52216523257596 0 -291.52216523257596 -83.931718934328728 0 0 0 0 535.25580138995429 -807.17161114042881 0 -807.17161114042881 -40.28489236867199 0 0 0 0 -399.32728840860364 -688.01931804198466 0 -688.01931804198466 -216.7132584997205 0 0 0 0 214.32525059082764 56.249515223822527 0 56.249515223822527 655.15986068975144 0 0 0 0 -642.52237278343091 -215.93604499202684 0 -215.93604499202684 260.54898145848165 0 0 0 0 -1113.3113844280742 -727.7676908767844 0 -727.7676908767844 -225.09104914393589 0 0 0 0 265.82575286902284 -104.99270817534148 0 -104.99270817534148 7.7868168949071332 0 0 0 0 2.1264601065510931 -4.1275120587605443 0 -4.1275120587605443 -19.227690936608937 0 0 0 0 -2041.0167123972424 -1084.2961812554724 0 -1084.2961812554724 -557.01669259809057 0 0 0 0 0.60041297196210053 -2.5852938331397866 0 -2.5852938331397866 -6.9075664017676219 0 0 0 0 789.98183468031129 4.9492079490250944 0 4.9492079490250944 -269.1024377299218 0 0 0 0 -838.76629772663 -348.10941581729787 0 -348.10941581729787 -277.04940262201336 0 0 0 0 -431.53164119127905 -694.48714124786545 0 -694.48714124786545 -825.42343580042075 0 0 0 0 -179.65318943084276 -341.42343118095636 0 -341.42343118095636 -877.61047706007082 0 0 0 0 -528.71453711847062 -836.7814957467026 0 -836.7814957467026 -1079.0429259381276 0 0 0 0 -469.23609331407351 -530.43279866345824 0 -530.43279866345824 -819.89413611079738 0 0 0 0 -622.86799829249867 -692.61478452481094 0 -692.61478452481094 -505.93070567846507 0 0 0 0 -473.18864191609464 -749.73755575033942 0 -749.73755575033942 -505.26925463773841 0 0 0 0 -238.64638913583258 -762.81537871003297 0 -762.81537871003297 -604.65355657012969 0 0 0 0 -439.30850209275377 -526.96704937603954 0 -526.96704937603954 -515.76852823233912 0 0 0 0 -409.26688343616115 -879.68572707314763 0 -879.68572707314763 -734.32859610457126 0 0 0 0 -198.77390028625086 -559.23695242099598 0 -559.23695242099598 -689.4759489312612 0 0 0 0 -226.5254424361483 -591.43025968091092 0 -591.43025968091092 -656.01625278661231 0 0 0 0 -93.514563505290425 -411.06611341904272 0 -411.06611341904272 -84.468879887082039 0 0 0 0 -49.376590847934494 -61.733309953243705 0 -61.733309953243705 -104.17662707206046 0 0 0 0 -20.165897102633608 -257.33946313893125 0 -257.33946313893125 -254.06011830879424 0 0 0 0 171.35909087320033 -626.26812538512195 0 -626.26812538512195 -913.08367034675518 0 0 0 0 24.965291018495918 -209.37222919737042 0 -209.37222919737042 3.6844473205719623 0 0 0 0 15.043075098636109 -193.07207135835898 0 -193.07207135835898 149.31271735242171 0 0 0 0 -85.954620552121924 -63.462316479049889 0 -63.462316479049889 569.01221921453498 0 0 0 0 -53.993337499516201 -127.6491942712405 0 -127.6491942712405 99.465042812913907 0 0 0 0 118.30942064413102 44.804744660488034 0 44.804744660488034 -93.416040807762741 0 0 0 0 113.59643583302386 -69.453437080728236 0 -69.453437080728236 29.730446853868671 0 0 0 0 -20.177528615800838 -7.0453778966648315 0 -7.0453778966648315 15.045797128465892 0 0 0 0 -12.513478242864494 -104.63586657159709 0 -104.63586657159709 -83.812105710306014 0 0 0 0 12.16021097668272 -1.2283118321142865 0 -1.2283118321142865 15.974465147737874 0 0 0 0 18.177899398999898 -8.1228458145700912 0 -8.1228458145700912 4.2024600471602289 0 0 0 0 36.741711895578192 -119.82817043994328 0 -119.82817043994328 71.605015871648675 0 0 0 0 2.9222357848721003 -36.314000927500899 0 -36.314000927500899 -6.8478495172680596 0 0 0 0 -395.15905559022212 -903.20375097991109 0 -903.20375097991109 18.166151004412313 0 0 0 0 53.787888725579251 12.398637223342121 0 12.398637223342121 -45.786656879918155 0 0 0 0 330.67583631860907 -613.10849237254843 0 -613.10849237254843 -1581.8715466616377 0 0 0 0 8.8043775929912087 -5.0297148214327194 0 -5.0297148214327194 -32.81910112570452 0 0 0 0 -197.67329017876182 78.290074446325889 0 78.290074446325889 52.667961637331246 0 0 0 0 3.0007462877163107 -5.5181253803810861 0 -5.5181253803810861 -8.5921999846879693 0 0 0 0 -1292.6268587133964 -1508.8421541572943 0 -1508.8421541572943 -1561.4618718784786 0 0 0 0 226.99973527825205 2.5990427252490917 0 2.5990427252490917 40.852156817387367 0 0 0 0 0.7617635460337624 -1.9382997399707165 0 -1.9382997399707165 7.3088904137011923 0 0 0 0 8.5398753340123221 -16.369809707437526 0 -16.369809707437526 -19.63481065425367 0 0 0 0 34.256359658712825 -15.032255462807441 0 -15.032255462807441 -22.645320505361337 0 0 0 0 5.680186637029351 -21.829922731114493 0 -21.829922731114493 -18.080692774957782 0 0 0 0 22.266104643417179 -30.281952222732528 0 -30.281952222732528 -20.581074632441087 0 0 0 0 -245.71351752258488 -195.69842223337582 0 -195.69842223337582 76.947338429914453 0 0 0 0 26.661023402666103 -15.6020572247864 0 -15.6020572247864 -1.6049002334450959 0 0 0 0 78.374491871458304 -51.531048166626306 0 -51.531048166626306 -69.106533373112143 0 0 0 0 -13.8514389883494 -75.107414684324112 0 -75.107414684324112 -2.6899079706909106 0 0 0 0 7.6173698350175982 -20.29932858560278 0 -20.29932858560278 -16.988193770263024 0 0 0 0 -5.4509984151400204 -12.588419063025434 0 -12.588419063025434 -5.0480157905072751 0 0 0 0 7.6496649794280529 -20.744338525530111 0 -20.744338525530111 -13.036148805417724 0 0 0 0 -1.3900879794528009 -25.827006026723211 0 -25.827006026723211 -16.781160402795649 0 0 0 0 32.392825431743404 3.5221466650291404 0 3.5221466650291404 17.011469445854345 0 0 0 0 110.64078364557645 -20.403283104865295 0 -20.403283104865295 -66.200075811739225 0 0 0 0 4.4615636798481546 -1.4421883415860037 0 -1.4421883415860037 -1.737760553030931 0 0 0 0 -13.428748341932078 -35.297959248256802 0 -35.297959248256802 -16.435235044449655 0 0 0 0 22.157197924382643 -9.8375654644036459 0 -9.8375654644036459 -7.793459202619724 0 0 0 0 76.877052438096143 -52.690374935507862 0 -52.690374935507862 -91.747509553359123 0 0 0 0 4.6135338200401748 -17.933711135943668 0 -17.933711135943668 -15.261921531929829 0 0 0 0 105.7756166345207 -15.031822242313865 0 -15.031822242313865 -20.984770471186494 0 0 0 0 -16.549061166530009 -21.480455771753441 0 -21.480455771753441 28.189104152068467 0 0 0 0 5.0714477896867507 -4.5786378091161311 0 -4.5786378091161311 1.534167721352123 0 0 0 0 22.030667590930534 -41.679719055759051 0 -41.679719055759051 -23.547074991245609 0 0 0 0 39.398904036032036 -25.508136331854075 0 -25.508136331854075 0.53924738510681891 0 0 0 0 12.064683342498029 -39.86945716998116 0 -39.86945716998116 19.889638574248238 0 0 0 0 -8.884365952926089 -19.297343607966297 0 -19.297343607966297 -1.9340551453898627 0 0 0 0 0.062050680395032032 -13.011121241962798 0 -13.011121241962798 -7.1789877778462952 0 0 0 0 9.7932444067251936 -32.384463408243718 0 -32.384463408243718 -16.930228192659978 0 0 0 0 -61.880321374512278 -31.165333172535611 0 -31.165333172535611 61.870123713080829 0 0 0 0 38.80024891490973 -18.152091146133834 0 -18.152091146133834 -9.2014351930952252 0 0 0 0 8.707912558777025 -29.570789880215671 0 -29.570789880215671 14.147446014695106 0 0 0 0 24.494646640522348 -3.4972371213539848 0 -3.4972371213539848 -1.0456257313424697 0 0 0 0 80.671064992493484 -42.169327271712973 0 -42.169327271712973 -120.54096091580141 0 0 0 0 37.518601535834023 -31.052087386171024 0 -31.052087386171024 -44.349599633073012 0 0 0 0 1.1467804494783422 -3.3861124858766125 0 -3.3861124858766125 0.68502848042893749 0 0 0 0 -19.46628557863005 -103.39137269285129 0 -103.39137269285129 -62.43775552878833 0 0 0 0 62.142699696152704 -45.598889047851117 0 -45.598889047851117 -37.255418367478342 0 0 0 0 62.456029874876776 -72.743777452486228 0 -72.743777452486228 -78.221560859110468 0 0 0 0 21.422702595773444 -39.244193977238638 0 -39.244193977238638 -218.17210555035945 0 0 0 0 15.984946455311729 -67.7601325626365 0 -67.7601325626365 -85.464975381528347 0 0 0 0 -40.695034260166722 -35.415340215610286 0 -35.415340215610286 -58.559207720467384 0 0 0 0 -17.662675955856685 -87.118879403882602 0 -87.118879403882602 -104.25899866169493 0 0 0 0 -44.169207455794094 15.409807846894182 0 15.409807846894182 -110.73178113320682 0 0 0 0 9.7383187632804038 -45.903317513537331 0 -45.903317513537331 67.400348872284212 0 0 0 0 28.625778793997597 -20.298119551974082 0 -20.298119551974082 78.845557849327633 0 0 0 0 7.6949699457591123 -3.3623397741624999 0 -3.3623397741624999 -2.0638013947658571 0 0 0 0 2.6865205638459884 11.923635618575645 0 11.923635618575645 -0.92371356066519184 0 0 0 0 6.3817358887501143 -1.8841734839723028 0 -1.8841734839723028 -1.0241463000707398 0 0 0 0 20.19829756571562 -19.37371382134188 0 -19.37371382134188 -18.090326786612422 0 0 0 0 6.0916857021318833 2.4311643697357477 0 2.4311643697357477 0.14224370188356883 0 0 0 0 126.67143130478507 0.92971488562807281 0 0.92971488562807281 -241.57853745252669 0 0 0 0 -17.535494414776622 -206.01039176069662 0 -206.01039176069662 671.10431180757951 0 0 0 0 70.304365688192775 -91.343583345475054 0 -91.343583345475054 258.24046686291877 0 0 0 0 51.179577952600084 -68.893691780730023 0 -68.893691780730023 169.52760010898197 0 0 0 0 17.91401000727646 1.2567325370518265 0 1.2567325370518265 -1.9448989644988168 0 0 0 0 71.691155364868791 -87.403425125598233 0 -87.403425125598233 119.94497884513748 0 0 0 0 -20.108264285416226 -78.105011171794104 0 -78.105011171794104 -20.797878459228173 0 0 0 0 10.723906031911611 59.854736017221512 0 59.854736017221512 -211.22649692791856 0 0 0 0 467.86834601775627 -131.43875875766753 0 -131.43875875766753 -750.97002327433438 0 0 0 0 -5.7116790955278702 -1.5082805987182013 0 -1.5082805987182013 2.0696255271776245 0 0 0 0 -716.38884932541987 337.23716778924427 0 337.23716778924427 53.254576431167152 0 0 0 0 -64.685388513389626 -106.92602417840317 0 -106.92602417840317 98.552442989136125 0 0 0 0 -5.0573919037633459 -110.04840993335119 0 -110.04840993335119 -416.63992571941344 0 0 0 0 -3.7351842496573227 -75.157432105318549 0 -75.157432105318549 -285.90413735050242 0 0 0 0 79.233198021654971 66.912238410732243 0 66.912238410732243 -589.6782071672169 0 0 0 0 85.024079943745164 107.12572355124348 0 107.12572355124348 -336.22828049264717 0 0 0 0 133.4109236804361 33.817128195649275 0 33.817128195649275 -231.98148389193739 0 0 0 0 262.61324763255834 -26.608714086533837 0 -26.608714086533837 -269.07747989102154 0 0 0 0 129.80630035889044 -11.352291094597604 0 -11.352291094597604 -86.18058329232008 0 0 0 0 114.19855808094871 -548.36577134460094 0 -548.36577134460094 166.86600139079383 0 0 0 0 41.740117537592525 -73.755553652833441 0 -73.755553652833441 42.082171356719293 0 0 0 0 56.588239410142705 -152.35184989130903 0 -152.35184989130903 -3.9560609854052018 0 0 0 0 28.952059650272645 -20.383092874864502 0 -20.383092874864502 13.144238916960958 0 0 0 0 -8.4196039635353372 -91.132607776089571 0 -91.132607776089571 78.028226640504727 0 0 0 0 -158.80602085569262 -88.366356466312936 0 -88.366356466312936 78.591660024103476 0 0 0 0 1.7448751696702516 -37.434199770508798 0 -37.434199770508798 -17.290233436128901 0 0 0 0 252.46449782011769 297.46348014297081 0 297.46348014297081 -61.743118018326044 0 0 0 0 131.67943691091932 -362.82181034064996 0 -362.82181034064996 265.42786377704249 0 0 0 0 28.590716200051745 -64.268251877701445 0 -64.268251877701445 92.082989341216859 0 0 0 0 37.756699413679598 -194.54923462200327 0 -194.54923462200327 96.462979037516106 0 0 0 0 -166.65393146710267 -102.76870942095138 0 -102.76870942095138 172.70306704157247 0 0 0 0 37.300870759572717 -63.369159159014089 0 -63.369159159014089 37.603466904456809 0 0 0 0 185.22983891356125 -145.54381107159725 0 -145.54381107159725 43.7024660639172 0 0 0 0 223.38976809494488 -269.3763424947665 0 -269.3763424947665 155.72418762251709 0 0 0 0 -14.748419823844671 -13.75053997843645 0 -13.75053997843645 -16.67234516017837 0 0 0 0 -293.10710875541554 -68.545306917700145 0 -68.545306917700145 54.039948735037342 0 0 0 0 124.53064102037024 -540.9755676895295 0 -540.9755676895295 218.48490675800986 0 0 0 0 182.66862343170214 -161.5793611934655 0 -161.5793611934655 -122.89978403464556 0 0 0 0 124.54135637891886 -218.5913558456075 0 -218.5913558456075 7.2953164026321247 0 0 0 0 111.93737727103871 -263.01554700146653 0 -263.01554700146653 250.28927158374535 0 0 0 0 117.33976986496418 -197.30168003654342 0 -197.30168003654342 13.622847872639795 0 0 0 0 203.75308273668634 -285.67417070842362 0 -285.67417070842362 -59.234618105341269 0 0 0 0 110.24238180506654 -89.569556787990336 0 -89.569556787990336 -35.555972031636429 0 0 0 0 130.97507438671892 -151.0175646459104 0 -151.0175646459104 128.58705503403175 0 0 0 0 201.39515092077636 -242.18070152328278 0 -242.18070152328278 -131.70399140581702 0 0 0 0 335.42740813241107 -98.723147701695311 0 -98.723147701695311 -49.971931784998731 0 0 0 0 412.4624372904218 21.336059363496361 0 21.336059363496361 -123.86807960935687 0 0 0 0 7.1226595580085643 -2.3519225611788031 0 -2.3519225611788031 0.85366227246200888 0 0 0 0 615.37779296589724 -273.77604559649626 0 -273.77604559649626 -129.33750495250089 0 0 0 0 173.18747490081296 502.10468130974209 0 502.10468130974209 88.452838328659737 0 0 0 0 226.0647740613349 -317.32303338153815 0 -317.32303338153815 118.7368816044675 0 0 0 0 -6.2422093658234274 -8.6661133281079401 0 -8.6661133281079401 -9.238235549413659 0 0 0 0 354.80611895971379 -167.05946534877421 0 -167.05946534877421 63.571632592820606 0 0 0 0 399.95805381986065 -335.70471136658415 0 -335.70471136658415 88.884745230400767 0 0 0 0 185.12160157270409 -222.60743802297429 0 -222.60743802297429 189.35074663960313 0 0 0 0 406.1913154439826 -193.51331533047096 0 -193.51331533047096 -470.44134839910112 0 0 0 0 -434.74475912233174 -220.61069760305799 0 -220.61069760305799 -158.7319103417426 0 0 0 0 -1.6641868516143745 -2.7437753124343089 0 -2.7437753124343089 -4.1214478247991302 0 0 0 0 348.88260675093625 -490.89043075439031 0 -490.89043075439031 -649.05307698654519 0 0 0 0 347.3170908579923 -382.30030316478724 0 -382.30030316478724 -287.62320581289401 0 0 0 0 391.04871238100168 -99.069297297856224 0 -99.069297297856224 -228.31105090466917 0 0 0 0 238.53743164236221 -348.84507027591633 0 -348.84507027591633 -76.505222405181485 0 0 0 0 -104.37645406235242 -196.66878596817992 0 -196.66878596817992 -37.44507543957161 0 0 0 0 -460.80743503293888 -629.84641723884022 0 -629.84641723884022 -12.084736604626414 0 0 0 0 -163.95338827202795 -110.75820644303326 0 -110.75820644303326 -94.286656504024904 0 0 0 0 -216.32527787812433 -225.09135603895334 0 -225.09135603895334 -173.10889310351115 0 0 0 0 -34.82077371662308 -119.74102824690544 0 -119.74102824690544 -210.47883953051405 0 0 0 0 -77.503964932227973 -131.50670008991324 0 -131.50670008991324 -160.35699198637212 0 0 0 0 38.706271678725898 -268.45505018659969 0 -268.45505018659969 -126.01061268632111 0 0 0 0 -39.404773880494758 -161.20866473828391 0 -161.20866473828391 112.77653569869528 0 0 0 0 -222.32037846484855 -137.10971466894352 0 -137.10971466894352 117.37220724892359 0 0 0 0 176.32243702091682 -116.58969241745231 0 -116.58969241745231 35.579003806769833 0 0 0 0 181.86529508259264 -257.09425136421305 0 -257.09425136421305 88.902862527935213 0 0 0 0 197.52715002259356 -129.42293735886869 0 -129.42293735886869 137.78380395863223 0 0 0 0 33.391915833462235 -123.73009196165184 0 -123.73009196165184 107.43022019674208 0 0 0 0 31.284914474745165 -187.11359957867444 0 -187.11359957867444 171.48137351246714 0 0 0 0 -135.21303090271249 -129.49423083296415 0 -129.49423083296415 164.62934508550006 0 0 0 0 -52.53140468838501 -137.23007226448183 0 -137.23007226448183 121.21356513554383 0 0 0 0 -53.154626048257342 -142.86853835370084 0 -142.86853835370084 190.06111296527888 0 0 0 0 -23.417409177257866 -4.6070600203971424 0 -4.6070600203971424 28.646704086204601 0 0 0 0 -168.76899506559676 -136.85037513205174 0 -136.85037513205174 165.56247507493208 0 0 0 0 -132.46472249292492 -117.99589211923484 0 -117.99589211923484 33.182820408017506 0 0 0 0 37.841333462420153 -83.81293524278226 0 -83.81293524278226 66.526259280860359 0 0 0 0 28.658084988317569 -47.696724402921973 0 -47.696724402921973 85.599982217821889 0 0 0 0 29.58502605285446 -38.870163729032072 0 -38.870163729032072 45.996669200525837 0 0 0 0 3.9451280871144263 -37.831030331697548 0 -37.831030331697548 30.736840544823281 0 0 0 0 -174.20349068335781 -16.777544222415088 0 -16.777544222415088 70.314517741518102 0 0 0 0 -62.841842507055844 -56.15369456635699 0 -56.15369456635699 83.217608823540104 0 0 0 0 24.959433306979435 -30.970558159101373 0 -30.970558159101373 33.009238135949936 0 0 0 0 -40.873502115609881 2.5212041501645217 0 2.5212041501645217 34.027298671947392 0 0 0 0 -3.3197113046836364 -4.1019649958422679 0 -4.1019649958422679 5.3659926323706193 0 0 0 0 -131.67720174325223 -255.65802059369344 0 -255.65802059369344 -137.00734327226976 0 0 0 0 25.618951150667272 -41.842112666514367 0 -41.842112666514367 30.793173044588933 0 0 0 0 17.244262545730066 -27.085831189806797 0 -27.085831189806797 35.760083062978318 0 0 0 0 56.626697228366538 -108.0626960240217 0 -108.0626960240217 385.88683205149709 0 0 0 0 6.6711178977886902 -5.6826836957749549 0 -5.6826836957749549 -3.9081538766255299 0 0 0 0 -13.009728257748066 90.361029531258509 0 90.361029531258509 497.14389083237165 0 0 0 0 -109.22072264428789 -505.92261881766399 0 -505.92261881766399 52.510252339264298 0 0 0 0 79.310640826515737 66.178904680035089 0 66.178904680035089 82.521095245630022 0 0 0 0 -144.05625473774126 -333.72849111687992 0 -333.72849111687992 -50.240008563568153 0 0 0 0 -94.583320756704779 -387.35308038102357 0 -387.35308038102357 -306.5471223945878 0 0 0 0 118.27727438941656 229.63785473339476 0 229.63785473339476 483.76000942539031 0 0 0 0 18.682425512124496 2.3859834669869571 0 2.3859834669869571 -21.280480015981922 0 0 0 0 307.5242827603106 -39.391292807623074 0 -39.391292807623074 50.903030457071509 0 0 0 0 -29.105122328775906 -55.855162115589565 0 -55.855162115589565 90.249817836206603 0 0 0 0 -261.7668974928747 -87.515657018079992 0 -87.515657018079992 407.53025322058534 0 0 0 0 164.87007872856339 108.99003229111622 0 108.99003229111622 96.317451714223552 0 0 0 0 34.347513833454968 -22.676337780968659 0 -22.676337780968659 9.6322307867591803 0 0 0 0 40.175155722252384 -33.286546830257976 0 -33.286546830257976 17.850595340249583 0 0 0 0 47.545175787326485 -35.149604550830247 0 -35.149604550830247 21.5370223873269 0 0 0 0 216.65729746283614 -84.76180554002508 0 -84.76180554002508 -45.144158303327913 0 0 0 0 62.8738557387951 -64.111415642102656 0 -64.111415642102656 50.599257904348633 0 0 0 0 57.708344698190558 -45.079081949161719 0 -45.079081949161719 21.270899710154481 0 0 0 0 63.561201719992823 -54.105590829651192 0 -54.105590829651192 30.412062902643811 0 0 0 0 27.454706561351486 -55.73315830030333 0 -55.73315830030333 34.614259323275292 0 0 0 0 70.65818056752687 -69.797802061251787 0 -69.797802061251787 29.708886148357124 0 0 0 0 83.199540021978464 -52.162604503691909 0 -52.162604503691909 14.499319939568522 0 0 0 0 0.038553595183039135 -1.0579575420915006 0 -1.0579575420915006 0.97089278805025003 0 0 0 0 -152.26710380521354 -28.090666418196975 0 -28.090666418196975 10.943913207585865 0 0 0 0 4.2514604259777116 -99.170806979507688 0 -99.170806979507688 23.453824805561453 0 0 0 0 -19.77784888594033 -134.87756585949319 0 -134.87756585949319 22.097038525009339 0 0 0 0 23.613987673699739 -112.43729663250087 0 -112.43729663250087 0.21644519711480825 0 0 0 0 26.562235027544375 -108.11722402877422 0 -108.11722402877422 22.836297695195753 0 0 0 0 30.836705974733377 -74.457813066286917 0 -74.457813066286917 56.252147077746486 0 0 0 0 55.316732005310769 -71.34967761021926 0 -71.34967761021926 56.46640884025328 0 0 0 0 35.428902418541171 -61.490369217699453 0 -61.490369217699453 90.883306457698978 0 0 0 0 33.611052320764429 -84.517575476967977 0 -84.517575476967977 73.719090904154655 0 0 0 0 5.7415229467660538 -123.07892313762022 0 -123.07892313762022 46.328274242219777 0 0 0 0 41.495252092068768 -142.59324840455429 0 -142.59324840455429 42.454585229188524 0 0 0 0 18.335488177275693 -141.55842372797269 0 -141.55842372797269 48.983387706939538 0 0 0 0 57.017894440152304 -121.50851675330841 0 -121.50851675330841 -0.13821614640983171 0 0 0 0 -16.616430137313728 -139.2383613285856 0 -139.2383613285856 56.690533284963749 0 0 0 0 18.184352741445764 -139.71884004434651 0 -139.71884004434651 53.269900513943867 0 0 0 0 11.989785733130702 -124.67286250880352 0 -124.67286250880352 26.01958123798704 0 0 0 0 -77.583137626712414 -192.39932675563978 0 -192.39932675563978 48.683832857332163 0 0 0 0 74.053651630427339 -166.6159512160848 0 -166.6159512160848 59.909321916145927 0 0 0 0 12.468259400680836 -96.969856471310777 0 -96.969856471310777 162.00603324243821 0 0 0 0 89.954183884070517 -117.02820900996539 0 -117.02820900996539 104.9206780560271 0 0 0 0 69.125646783873435 -113.89917281689083 0 -113.89917281689083 58.924273643904598 0 0 0 0 137.49066846796632 -197.05285794289557 0 -197.05285794289557 133.36985285237824 0 0 0 0 175.12235667645655 -47.73818354253126 0 -47.73818354253126 -2.8827214393277245 0 0 0 0 -15.882639388844837 -43.884376970226185 0 -43.884376970226185 39.646236182776192 0 0 0 0 72.351474777176918 -94.287660186222638 0 -94.287660186222638 13.773232685289258 0 0 0 0 -0.20992889514635138 -2.005635574214125 0 -2.005635574214125 3.3997838013740704 0 0 0 0 44.501132464443799 -138.46944613800042 0 -138.46944613800042 48.200171971341661 0 0 0 0 54.67802219310397 -177.17654801166827 0 -177.17654801166827 -342.57670511345793 0 0 0 0 9.1694727694593894 -183.53893073001564 0 -183.53893073001564 540.5235754291225 0 0 0 0 -1.6681818424255823 -1.9380660954835918 0 -1.9380660954835918 0.27783978587461555 0 0 0 0 -8.6557435102222371 -148.86195030145609 0 -148.86195030145609 62.581079186573334 0 0 0 0 191.01779355102553 -1.9498083673634028 0 -1.9498083673634028 168.55311297376466 0 0 0 0 59.727312310351408 -350.75729510241945 0 -350.75729510241945 376.83343588588559 0 0 0 0 70.192347757320476 -220.77670012989347 0 -220.77670012989347 438.05348216118 0 0 0 0 378.08011561724106 -287.36028949637353 0 -287.36028949637353 194.41220461510966 0 0 0 0 224.49420658740564 -115.18897175497841 0 -115.18897175497841 33.581664618137438 0 0 0 0 188.34666837399163 -218.90197551196297 0 -218.90197551196297 192.24697207982535 0 0 0 0 43.437677643558345 -135.37660755998922 0 -135.37660755998922 482.90688526885788 0 0 0 0 39.785337031687959 -48.119707182003367 0 -48.119707182003367 258.93138274414105 0 0 0 0 58.402758740121499 -115.11418187297022 0 -115.11418187297022 311.04517992124602 0 0 0 0 43.38547663252757 -83.611414001664343 0 -83.611414001664343 146.81347634821486 0 0 0 0 6.1875954371935222 -30.47847620567336 0 -30.47847620567336 101.49807151456844 0 0 0 0 -52.096075338697119 -94.406365019965961 0 -94.406365019965961 129.98051790748286 0 0 0 0 -10.813796282833209 -73.312879351497031 0 -73.312879351497031 -134.0847507688195 0 0 0 0 -5.0090734871961899 -1.5723921839470947 0 -1.5723921839470947 -0.23317187183892196 0 0 0 0 -16.651532701776887 -68.953061438723125 0 -68.953061438723125 277.42103635506282 0 0 0 0 -58.059358040725783 -68.92538536844495 0 -68.92538536844495 -57.151140617892452 0 0 0 0 -11.156037845052197 -41.383056186719841 0 -41.383056186719841 -69.462872010122737 0 0 0 0 -41.162774083967633 -76.076698393282868 0 -76.076698393282868 -9.2800302683826885 0 0 0 0 -11.334214460392104 -74.221283056912398 0 -74.221283056912398 -10.306482873020286 0 0 0 0 -32.317962553787766 -52.556826981803624 0 -52.556826981803624 -49.091141047771089 0 0 0 0 -25.527558852962102 -90.702803642681829 0 -90.702803642681829 -10.414469987099437 0 0 0 0 -26.864279165798507 -72.585498591703072 0 -72.585498591703072 17.113190246618615 0 0 0 0 7.2823054702457739 -108.6240770517652 0 -108.6240770517652 -37.685180239688634 0 0 0 0 -5.2334846675876179 -35.264271521961746 0 -35.264271521961746 -159.14720488659077 0 0 0 0 186.13153358565614 -110.87670202029312 0 -110.87670202029312 -57.380728198262659 0 0 0 0 60.336246697959723 -60.478411910011346 0 -60.478411910011346 -36.232577125967509 0 0 0 0 49.667117882265302 -83.778918602745762 0 -83.778918602745762 -10.065457460525067 0 0 0 0 45.955418760720931 -71.481921760947444 0 -71.481921760947444 -34.737063168220402 0 0 0 0 25.99708410751191 -95.776479517720873 0 -95.776479517720873 54.836011709470768 0 0 0 0 20.906813673581382 -71.594010741824377 0 -71.594010741824377 9.6328222231459222 0 0 0 0 -15.936805682728846 -86.674128683467643 0 -86.674128683467643 16.029560654329543 0 0 0 0 -11.305761110350431 -61.779229928066343 0 -61.779229928066343 40.764860983574181 0 0 0 0 1.8184813190164277 -58.018373861286818 0 -58.018373861286818 33.393890551740697 0 0 0 0 10.805818045300839 -72.019482937592329 0 -72.019482937592329 40.496117001402126 0 0 0 0 5.860769157519826 -69.228689835810655 0 -69.228689835810655 60.387943766996614 0 0 0 0 -21.530748054803553 -8.6324483133575995 0 -8.6324483133575995 -37.662016493795818 0 0 0 0 -12.979613721705391 -34.064221911175991 0 -34.064221911175991 34.194098052375921 0 0 0 0 23.51038424818762 -45.490356873606288 0 -45.490356873606288 8.3569806633713597 0 0 0 0 12.138956047066131 -29.217169548460788 0 -29.217169548460788 -8.7050695365287538 0 0 0 0 13.878390158050024 -32.884399408777426 0 -32.884399408777426 -31.644336730205396 0 0 0 0 48.870054768674891 -45.50877812426188 0 -45.50877812426188 -11.252121854558936 0 0 0 0 6.0745586023569729 -16.624995571229434 0 -16.624995571229434 -23.635258062343652 0 0 0 0 8.1743563260097289 -32.557955801024946 0 -32.557955801024946 -38.388626497333462 0 0 0 0 -12.727675102368892 -26.549961403288862 0 -26.549961403288862 -23.363616731347882 0 0 0 0 -17.029802834091242 -39.396504561891561 0 -39.396504561891561 2.7068561444702937 0 0 0 0 85.830901487297979 -55.048209315093118 0 -55.048209315093118 -22.56302282516117 0 0 0 0 -25.565212156354391 -66.074382399259775 0 -66.074382399259775 -19.254040681852075 0 0 0 0 0.51483637317640785 -11.022461460046383 0 -11.022461460046383 0.60421216175029713 0 0 0 0 11.443971961642092 -88.364150131686074 0 -88.364150131686074 -43.971128472789133 0 0 0 0 10.439695109409513 -45.914840159573941 0 -45.914840159573941 -24.559394250754849 0 0 0 0 -8.9518002536206041 -69.693013340489415 0 -69.693013340489415 -14.630262695638521 0 0 0 0 -16.07505924349325 -36.696156439968306 0 -36.696156439968306 -11.86395002857833 0 0 0 0 -117.56087070846115 -60.159788030602613 0 -60.159788030602613 63.759317082523921 0 0 0 0 16.985403955670336 -74.018460487282937 0 -74.018460487282937 -22.520691087527666 0 0 0 0 -4.1705440338871931 -5.3179018067334596 0 -5.3179018067334596 1.6893843159911199 0 0 0 0 -32.471983171866185 -37.801792724409438 0 -37.801792724409438 -32.9900225336836 0 0 0 0 -7.3359890558886036 -105.74931236267093 0 -105.74931236267093 48.138885090596887 0 0 0 0 -2.976191593981639 -79.450797434343258 0 -79.450797434343258 -8.1973577105200093 0 0 0 0 45.237877975510855 -77.170984020965989 0 -77.170984020965989 16.037393011993117 0 0 0 0 -54.492775767903368 -68.782112168815729 0 -68.782112168815729 17.599663404971579 0 0 0 0 -48.318422948683292 -58.131948169764655 0 -58.131948169764655 14.570682526438759 0 0 0 0 -6.1653486736940977 -62.864722557507775 0 -62.864722557507775 14.42723177787866 0 0 0 0 10.110980830731933 -84.99830256500627 0 -84.99830256500627 -4.603963580349955 0 0 0 0 7.393810874214978 -85.174804631713414 0 -85.174804631713414 12.627297318696947 0 0 0 0 -20.362355279028307 -34.380921395173331 0 -34.380921395173331 -26.577857588020755 0 0 0 0 2.095916473561374 -27.46788612898672 0 -27.46788612898672 2.1476158164623484 0 0 0 0 -26.037494689735468 -76.296586886923251 0 -76.296586886923251 39.984545020533915 0 0 0 0 -33.948977876684523 -31.751983144591591 0 -31.751983144591591 -28.199851628211803 0 0 0 0 -28.969232743438624 -111.60671533224013 0 -111.60671533224013 40.069989956646168 0 0 0 0 -40.964779857429676 -60.321009431580023 0 -60.321009431580023 17.236344152042875 0 0 0 0 -28.144829539545754 -47.703229213144368 0 -47.703229213144368 -20.736164951198589 0 0 0 0 -136.54217450653232 -57.767915683143656 0 -57.767915683143656 14.540473077788192 0 0 0 0 -0.64652590904712781 -1.4767730409307376 0 -1.4767730409307376 -3.3821644694173187 0 0 0 0 -292.67435378891969 -89.499745294269815 0 -89.499745294269815 -11.05740497493025 0 0 0 0 -0.419977012071584 -1.5518183231932312 0 -1.5518183231932312 -0.99821559178079156 0 0 0 0 400.24011180258094 -97.58352016884055 0 -97.58352016884055 -150.89234052304528 0 0 0 0 20.91679381974609 -107.59071298221352 0 -107.59071298221352 -101.73360620789026 0 0 0 0 101.22281037888388 -176.96984353850166 0 -176.96984353850166 -151.97266310491977 0 0 0 0 -0.99892413063892604 -1.3176567182498076 0 -1.3176567182498076 -1.2604238298756627 0 0 0 0 66.475948239618447 -23.054983151188935 0 -23.054983151188935 -207.00954689145328 0 0 0 0 140.47403886560642 25.54919586206961 0 25.54919586206961 -146.94043538617507 0 0 0 0 170.28106103630125 -17.588317030722465 0 -17.588317030722465 51.359737904138456 0 0 0 0 38.706217131031735 -192.38264092434474 0 -192.38264092434474 -129.46113550309337 0 0 0 0 223.85821551470508 -150.57036129779772 0 -150.57036129779772 -4.9956035779250669 0 0 0 0 -159.16507322227335 -5.2164707084757538 0 -5.2164707084757538 43.351807682607614 0 0 0 0 41.415865449689591 -60.721436827778234 0 -60.721436827778234 25.504391401744215 0 0 0 0 40.705552935032756 -53.447997257782845 0 -53.447997257782845 26.865076604110072 0 0 0 0 51.829545577580575 -46.640382726636744 0 -46.640382726636744 31.110206429293612 0 0 0 0 77.072881615473307 -85.415542379487306 0 -85.415542379487306 36.140399735697883 0 0 0 0 2.2977037832030121 -11.975258219444214 0 -11.975258219444214 -0.83308565876689045 0 0 0 0 50.971910033913446 -50.158128085113276 0 -50.158128085113276 6.3986142471721905 0 0 0 0 45.958394296714687 -53.045481864242902 0 -53.045481864242902 7.7845928717360948 0 0 0 0 43.321583704714101 -17.530851629082619 0 -17.530851629082619 -31.279470504937649 0 0 0 0 98.954608802639996 -76.581675533772795 0 -76.581675533772795 12.150410952715902 0 0 0 0 123.47857872269378 -96.284440432726115 0 -96.284440432726115 -11.181705453720497 0 0 0 0 9.9586404047779808 5.3998320767244365 0 5.3998320767244365 -17.036157837739491 0 0 0 0 13.304908640566282 -120.6815783558759 0 -120.6815783558759 -12.356807669108093 0 0 0 0 73.567932829842903 -74.212852754044434 0 -74.212852754044434 9.3776448166754562 0 0 0 0 75.815981286585156 -73.921994335983072 0 -73.921994335983072 114.04010039056448 0 0 0 0 101.11015588330338 -103.58536885958893 0 -103.58536885958893 11.668556750460993 0 0 0 0 78.393673526996281 -97.814424772204802 0 -97.814424772204802 13.950474468438188 0 0 0 0 112.01082271589985 -147.71813528881921 0 -147.71813528881921 108.46803449026083 0 0 0 0 98.765767032833537 -80.011964833152888 0 -80.011964833152888 7.1708302142924367 0 0 0 0 11.198245679277512 -28.570600806514278 0 -28.570600806514278 15.795271648102442 0 0 0 0 75.462083441940194 -63.378040002847229 0 -63.378040002847229 35.646838689979631 0 0 0 0 6.6035196821503632 -27.57960871812702 0 -27.57960871812702 8.3161616557663365 0 0 0 0 6.9919609277698527 -16.30541671734764 0 -16.30541671734764 8.4994569527095294 0 0 0 0 -9.7011589778515983 -49.580138333330709 0 -49.580138333330709 16.132891951916875 0 0 0 0 3.1496488097272959 -77.315629115830234 0 -77.315629115830234 4.0234388973985915 0 0 0 0 35.342225330343354 -99.218074925383917 0 -99.218074925383917 78.524728679243708 0 0 0 0 92.849015183222946 -43.619943127407169 0 -43.619943127407169 28.711352670816268 0 0 0 0 -17.549163758447108 2.75295291457806 0 2.75295291457806 4.6228394240074238 0 0 0 0 180.05406073670019 -49.027498254981765 0 -49.027498254981765 -18.140004123502877 0 0 0 0 9.2663715422822861 -63.574408039097762 0 -63.574408039097762 16.522689804403853 0 0 0 0 9.1222272961531417 -60.947052764708133 0 -60.947052764708133 -20.483939929619737 0 0 0 0 -8.5414265859726584 -56.751601354979357 0 -56.751601354979357 -6.7481756421821046 0 0 0 0 23.977931332112348 -43.723996928534689 0 -43.723996928534689 -6.8816214296657563 0 0 0 0 13.063533019862007 -58.459563473481012 0 -58.459563473481012 -21.075565723529508 0 0 0 0 -8.6195693140908247 -11.916394431725152 0 -11.916394431725152 3.9554996298125293 0 0 0 0 -27.069228564178047 -90.653075244283173 0 -90.653075244283173 96.063578989990958 0 0 0 0 -42.975557355801811 -141.97979077419836 0 -141.97979077419836 26.328466034519806 0 0 0 0 -56.072942693266668 -74.766952807704001 0 -74.766952807704001 88.165844209754141 0 0 0 0 138.93258106811845 -4.8071975558250415 0 -4.8071975558250415 -29.507787415735947 0 0 0 0 51.002929084135488 -60.578244436134334 0 -60.578244436134334 21.165735401490267 0 0 0 0 74.859998380445177 60.299776107007347 0 60.299776107007347 -66.884996253174904 0 0 0 0 129.05096334770496 -68.991318629620764 0 -68.991318629620764 0.032413406059276895 0 0 0 0 57.838634138926864 85.638293678948685 0 85.638293678948685 -92.502631805804413 0 0 0 0 1.1190733553850052 -3.0395322341565105 0 -3.0395322341565105 7.7382976212630723 0 0 0 0 29.524674491804035 -9.0405248794813815 0 -9.0405248794813815 -18.238994962543075 0 0 0 0 54.209608948920504 -8.2051791503217828 0 -8.2051791503217828 -137.14864533105174 0 0 0 0 30.072323459229665 -61.02986368672191 0 -61.02986368672191 -79.688025293246028 0 0 0 0 29.604698521652608 26.010365633310357 0 26.010365633310357 59.784570420153614 0 0 0 0 2.4731872457942643 1.5034674614559229 0 1.5034674614559229 3.7061298114558183 0 0 0 0 49.649230645147327 -111.66860384162646 0 -111.66860384162646 191.43058443891823 0 0 0 0 93.442056244974083 -38.577794017508495 0 -38.577794017508495 65.979451770264859 0 0 0 0 42.172055184614749 -20.958820453523309 0 -20.958820453523309 8.4210723327374293 0 0 0 0 0.33367661797092296 -61.592734191888667 0 -61.592734191888667 66.534609417618412 0 0 0 0 -21.510161353107833 -32.72350042859307 0 -32.72350042859307 34.769260173397925 0 0 0 0 -27.524228920934547 -37.449886120944029 0 -37.449886120944029 212.91097367875409 0 0 0 0 119.48244901151338 0.36420726768483291 0 0.36420726768483291 -39.771539463223235 0 0 0 0 95.348983481439063 -141.55462271623765 0 -141.55462271623765 27.556620754809956 0 0 0 0 20.264444965258008 -50.111406453175505 0 -50.111406453175505 -78.733165352407013 0 0 0 0 9.4386226807419007 -108.87053939598024 0 -108.87053939598024 -13.174676790535159 0 0 0 0 17.014391100165085 -93.906565802790283 0 -93.906565802790283 -39.866502660821425 0 0 0 0 24.901332377630752 -71.155387488838642 0 -71.155387488838642 1.1155660995573271 0 0 0 0 3.2959093311656034 -77.414759606279404 0 -77.414759606279404 4.332567736043984 0 0 0 0 22.246521653942182 -59.402511808961208 0 -59.402511808961208 -42.021553052460149 0 0 0 0 -16.016976146720708 -25.137595387277671 0 -25.137595387277671 -5.9567565365202206 0 0 0 0 36.647226263135963 -52.221303288959007 0 -52.221303288959007 7.1472732146175986 0 0 0 0 50.32874063080817 -116.04156308251549 0 -116.04156308251549 46.285130088519509 0 0 0 0 23.621889045585704 -48.514852032800263 0 -48.514852032800263 1.8128887169877999 0 0 0 0 -0.36482579659787007 -63.80377449124353 0 -63.80377449124353 2.9331216053742537 0 0 0 0 -25.83319426695337 -37.765734704445066 0 -37.765734704445066 11.724817640802772 0 0 0 0 46.73627020402273 -76.329043132004699 0 -76.329043132004699 4.9682492520296364 0 0 0 0 -21.037882577162449 -35.511914634515591 0 -35.511914634515591 11.473251458402729 0 0 0 0 50.091236849111738 -84.83088036576919 0 -84.83088036576919 25.557664533778734 0 0 0 0 -1.9029704985146338 -21.873825156996318 0 -21.873825156996318 -20.370380922679555 0 0 0 0 25.181220176891657 -38.611161927881767 0 -38.611161927881767 35.276977709203493 0 0 0 0 6.9873586736071331 -6.2239869689478411 0 -6.2239869689478411 3.5378210771300616 0 0 0 0 4.6522079792848672 -73.290345177863855 0 -73.290345177863855 15.273828331266486 0 0 0 0 -101.72089643742947 -6.3248371233385114 0 -6.3248371233385114 26.572057061377564 0 0 0 0 193.0912899094692 -71.351333785120914 0 -71.351333785120914 -57.388881795417547 0 0 0 0 149.66337303244654 -71.147703663889843 0 -71.147703663889843 74.42577606003033 0 0 0 0 20.094246279782965 -20.719765304726025 0 -20.719765304726025 2.42245847472077 0 0 0 0 -58.125260677814367 7.909400107255351 0 7.909400107255351 4.2067184530678787 0 0 0 0 60.003325732555822 -72.383228434860939 0 -72.383228434860939 4.6836092994235514 0 0 0 0 15.731513199876645 -67.273253639381437 0 -67.273253639381437 62.414823019789765 0 0 0 0 108.35785602087344 -86.007365585825028 0 -86.007365585825028 3.8208210029770271 0 0 0 0 31.017141675729363 -44.177428846748626 0 -44.177428846748626 4.3003098039553151 0 0 0 0 100.65911798611705 -67.763951909184016 0 -67.763951909184016 64.992309218403534 0 0 0 0 -1.3514651096757007 -0.39019587830534874 0 -0.39019587830534874 0.35654684199937492 0 0 0 0 -5.4672832303500911 -39.934824533220919 0 -39.934824533220919 6.4350623643827163 0 0 0 0 85.642562503606314 -110.03024565835585 0 -110.03024565835585 19.944845322097535 0 0 0 0 -118.40469717129599 -74.937420468399068 0 -74.937420468399068 -35.708955804177094 0 0 0 0 -113.5272003482678 -57.491986046705279 0 -57.491986046705279 17.564150266160141 0 0 0 0 37.005690276615496 -40.411715332718813 0 -40.411715332718813 -17.020065580545634 0 0 0 0 51.596050033622305 -58.359825824059953 0 -58.359825824059953 -51.806948559473994 0 0 0 0 -116.82853439597966 -91.558060199929969 0 -91.558060199929969 31.553312513460696 0 0 0 0 6.8431263555976898 -9.7183573063845756 0 -9.7183573063845756 9.9363905828550827 0 0 0 0 22.459454823459964 -48.26967937651807 0 -48.26967937651807 -20.68552866945538 0 0 0 0 33.820975354377879 -21.59785208448011 0 -21.59785208448011 -16.431751170830466 0 0 0 0 34.235536611342269 -26.164908394484179 0 -26.164908394484179 14.379007355468602 0 0 0 0 -40.245239488285733 -99.313720522040967 0 -99.313720522040967 -51.092033654254692 0 0 0 0 17.473818200945971 -43.448317186457643 0 -43.448317186457643 -17.803769928461406 0 0 0 0 -27.392599640152184 -69.945167888392461 0 -69.945167888392461 -18.279097362295715 0 0 0 0 -50.202577022922924 -26.665125321604137 0 -26.665125321604137 18.019196455643396 0 0 0 0 -28.086231692104775 -49.275922089640517 0 -49.275922089640517 49.031943432444677 0 0 0 0 4.4835328436347481 -80.156013353405115 0 -80.156013353405115 43.148892122120742 0 0 0 0 -7.0634097760910208 -12.884091259763892 0 -12.884091259763892 -14.885031096303969 0 0 0 0 -9.4351110823918134 -43.455902468765998 0 -43.455902468765998 19.779020099776062 0 0 0 0 10.238623715325957 -29.280244086728999 0 -29.280244086728999 24.734444062385592 0 0 0 0 67.025050489846763 20.068805335303068 0 20.068805335303068 -38.21899419014153 0 0 0 0 2.4117734239264621 -15.160982435702223 0 -15.160982435702223 -9.8071905483180331 0 0 0 0 187.19306846258041 -59.913797994548077 0 -59.913797994548077 -54.046565592689149 0 0 0 0 39.743467328993887 -24.723223910314168 0 -24.723223910314168 4.2804608156078103 0 0 0 0 34.80748407288047 -45.979949284021131 0 -45.979949284021131 -0.26833861747581977 0 0 0 0 52.411272505732086 -41.599393468690096 0 -41.599393468690096 -0.89016391585755628 0 0 0 0 29.383028871190618 -41.513935962593678 0 -41.513935962593678 16.082073093861254 0 0 0 0 1.8987122960907925 -10.839291665184447 0 -10.839291665184447 -0.1785372564286547 0 0 0 0 51.569781646749107 -71.748585026601177 0 -71.748585026601177 41.102413554821396 0 0 0 0 28.913121645106003 -37.945179809870751 0 -37.945179809870751 20.203686266690056 0 0 0 0 49.253915842779861 -49.971986548851191 0 -49.971986548851191 35.711484870014829 0 0 0 0 37.466810496051039 -46.674021432139853 0 -46.674021432139853 56.725365108448386 0 0 0 0 40.832237695547519 -50.694483610714087 0 -50.694483610714087 14.817941152665298 0 0 0 0 -9.2078834071799065 -40.232461846087972 0 -40.232461846087972 33.788359332111213 0 0 0 0 -3.1308951689878768 -2.9539713440876909 0 -2.9539713440876909 -4.0481395462336138 0 0 0 0 97.128962257607782 -93.709245015985289 0 -93.709245015985289 48.459114586359647 0 0 0 0 18.62937722892093 -53.240185297960124 0 -53.240185297960124 79.843549449982675 0 0 0 0 -14.752283551286382 -25.518253023843499 0 -25.518253023843499 45.605355069688812 0 0 0 0 39.37554230544265 -49.346153331152891 0 -49.346153331152891 19.426646848114615 0 0 0 0 146.00039746167386 50.892325690033431 0 50.892325690033431 -74.612491905325442 0 0 0 0 30.500786935270298 -11.824532265054586 0 -11.824532265054586 16.156614309124961 0 0 0 0 0.40209606577610657 -4.9343628438961389 0 -4.9343628438961389 -0.23036936259113361 0 0 0 0 0.58226184380873747 18.76737084784736 0 18.76737084784736 -77.570134866618901 0 0 0 0 2.4482390796524598 -3.6813311530090118 0 -3.6813311530090118 1.3228996433066129 0 0 0 0 34.589719300369325 -28.456898867634663 0 -28.456898867634663 -18.655827878421405 0 0 0 0 -15.330100392442546 -163.94901829837181 0 -163.94901829837181 -34.539370134763885 0 0 0 0 10.436458666583349 -19.709490042048856 0 -19.709490042048856 54.148167467970779 0 0 0 0 0.71621461635702843 -25.535994548718591 0 -25.535994548718591 23.969687418812001 0 0 0 0 -45.083495223014324 -15.924650370481686 0 -15.924650370481686 59.325390195590444 0 0 0 0 6.9891306432255078 -27.315402694315708 0 -27.315402694315708 14.535233621911175 0 0 0 0 148.45112020493252 10.7631591266545 0 10.7631591266545 -41.187516562655219 0 0 0 0 81.365754220780218 105.5485359754166 0 105.5485359754166 43.900942327672965 0 0 0 0 -16.588574654200841 -18.222986139550898 0 -18.222986139550898 -13.198775421672934 0 0 0 0 2.8818020860489924 -122.84551969800305 0 -122.84551969800305 39.126976912521059 0 0 0 0 -63.786510226447717 -23.949692746638902 0 -23.949692746638902 49.182463147291855 0 0 0 0 83.505278405764329 50.355364730527981 0 50.355364730527981 97.740344329708023 0 0 0 0 45.061879506640253 -24.253433649464569 0 -24.253433649464569 38.142697942472296 0 0 0 0 31.848284872990916 -39.727959081137669 0 -39.727959081137669 20.023034210462356 0 0 0 0 239.4970582241076 -170.74141643669282 0 -170.74141643669282 299.79478097992251 0 0 0 0 62.200641119707143 -15.614660530707624 0 -15.614660530707624 23.248499698187516 0 0 0 0 2.9780908352967401 -1.9561621946175052 0 -1.9561621946175052 -1.0212479617204906 0 0 0 0 63.161695961855003 -16.541312655495858 0 -16.541312655495858 -4.0504404399325722 0 0 0 0 -5.1762419693600208 -17.704889754283485 0 -17.704889754283485 12.944240739823556 0 0 0 0 56.8334434483113 -28.786043566444278 0 -28.786043566444278 2.0232513748960628 0 0 0 0 0.77385492147095647 -17.980772288988987 0 -17.980772288988987 -0.69924463236714018 0 0 0 0 64.216854315040109 -17.349609469465577 0 -17.349609469465577 14.429898694666917 0 0 0 0 51.567164844280342 -27.837074866387411 0 -27.837074866387411 9.2209522808916518 0 0 0 0 61.121259208332049 -20.630758501290984 0 -20.630758501290984 11.551455352819175 0 0 0 0 29.005870932102198 -6.8000711991458189 0 -6.8000711991458189 -9.3863676343715952 0 0 0 0 4.4604528258994023 -26.36105827666097 0 -26.36105827666097 25.513060627744181 0 0 0 0 2.4155379685544176 -24.611110472455039 0 -24.611110472455039 26.379683127579483 0 0 0 0 -6.6784731384977931 -44.856100481691101 0 -44.856100481691101 27.515666100967792 0 0 0 0 36.10556867998676 -20.923795459920058 0 -20.923795459920058 -0.28924445600344484 0 0 0 0 -8.8981414520458202 -29.24356668367227 0 -29.24356668367227 34.38700673168205 0 0 0 0 60.548051759629743 -122.88318271720709 0 -122.88318271720709 29.834382460054258 0 0 0 0 60.89621879029437 -19.480955709223053 0 -19.480955709223053 1.6905903428014426 0 0 0 0 16.210146090394119 -27.216820226221898 0 -27.216820226221898 -7.1510543374088229 0 0 0 0 7.4745922308629815 -14.756398386367437 0 -14.756398386367437 5.1416113011910056 0 0 0 0 -0.15053455965505691 -12.251906733972419 0 -12.251906733972419 8.3461706003671878 0 0 0 0 14.360887137975624 -21.804604569259027 0 -21.804604569259027 9.7887889943012851 0 0 0 0 6.6893712432241941 -14.694104384141724 0 -14.694104384141724 5.2935942090255566 0 0 0 0 15.919337916890697 -14.647521443984928 0 -14.647521443984928 7.2669447602106629 0 0 0 0 11.986603481632393 -17.138241560677841 0 -17.138241560677841 1.8346468084475021 0 0 0 0 2.792657054513576 -23.313096763627556 0 -23.313096763627556 20.108289376563803 0 0 0 0 35.990467198385886 -33.583069094078837 0 -33.583069094078837 21.037288148982043 0 0 0 0 24.75211043303716 -51.087212821885259 0 -51.087212821885259 45.802938797489333 0 0 0 0 41.732581419841154 -39.319172801762761 0 -39.319172801762761 9.3885329726508644 0 0 0 0 169.8335915261996 -50.882943296315716 0 -50.882943296315716 -22.19143312127926 0 0 0 0 38.106004817876965 -39.054599675815552 0 -39.054599675815552 10.644529870653059 0 0 0 0 42.878549504417606 -37.335579847537318 0 -37.335579847537318 12.721499330765994 0 0 0 0 16.896643835528891 -33.711224411166711 0 -33.711224411166711 24.482865953824763 0 0 0 0 8.4867360096541233 -24.958247921824295 0 -24.958247921824295 36.814054327172926 0 0 0 0 -2.8187471825622197 -36.244454439030051 0 -36.244454439030051 14.941391299944371 0 0 0 0 12.554765159164695 -5.2044002375494074 0 -5.2044002375494074 -0.98853364091181106 0 0 0 0 16.050024148338707 -28.07336287664657 0 -28.07336287664657 -7.3088895763648907 0 0 0 0 16.050024148367811 -28.073362876632018 0 -28.073362876632018 -7.3088895763430628 0 0 0 0 16.050024148309603 -28.07336287664657 0 -28.07336287664657 -7.3088895763467008 0 0 0 0 44.903902245488524 -36.838907850116883 0 -36.838907850116883 9.174409492677853 0 0 0 0 13.713458339116187 -33.657825222842803 0 -33.657825222842803 12.524458013849653 0 0 0 0 6.3912568294181256 -23.10192581287356 0 -23.10192581287356 5.3086354617589677 0 0 0 0 -3.1187176626553992 -30.646062011364847 0 -30.646062011364847 -0.65168502206506673 0 0 0 0 17.280620819044998 -37.477603175884724 0 -37.477603175884724 -15.269422517259954 0 0 0 0 16.720071036223089 -10.42149550598333 0 -10.42149550598333 -10.328153105263482 0 0 0 0 23.02210175228538 -15.74984906759164 0 -15.74984906759164 -10.097521618714381 0 0 0 0 4.9386017027572962 -21.964226046169642 0 -21.964226046169642 -3.864485699680472 0 0 0 0 -1.6586947887408314 -11.33819136900911 0 -11.33819136900911 -6.221700869173219 0 0 0 0 8.7184210228297161 -22.675249016259841 0 -22.675249016259841 -17.097988137058564 0 0 0 0 7.8284746312150162 -7.2983475228735077 0 -7.2983475228735077 5.3846253819846979 0 0 0 0 -10.060680990602123 -30.350174936502299 0 -30.350174936502299 -4.1129477800316181 0 0 0 0 11.523882445413619 -23.644824064085697 0 -23.644824064085697 -5.4295226813101181 0 0 0 0 13.903769548720447 -23.457663204510027 0 -23.457663204510027 -42.379088215166121 0 0 0 0 0.26543757805089285 -1.993687915490014 0 -1.993687915490014 5.3890356748728223 0 0 0 0 -4.7587851283296914 -7.6784122744338674 0 -7.6784122744338674 65.121786263305694 0 0 0 0 -16.873408194544027 -33.510048299209302 0 -33.510048299209302 46.448761359686614 0 0 0 0 12.895601009837264 16.988855970977966 0 16.988855970977966 52.585783922222618 0 0 0 0 -14.402529019527719 -43.479406461498002 0 -43.479406461498002 23.352163407464104 0 0 0 0 -3.1226145098771667 -29.064155498963373 0 -29.064155498963373 28.386494376201881 0 0 0 0 -5.6660955946863396 -37.484687836458761 0 -37.484687836458761 25.393825309289241 0 0 0 0 -0.93837371129484382 -194.55372128242379 0 -194.55372128242379 300.63138773906758 0 0 0 0 0.97663773718208802 -2.9048301988565299 0 -2.9048301988565299 -0.21467026890606178 0 0 0 0 20.422435072789085 -86.431323250908463 0 -86.431323250908463 350.88423871244959 0 0 0 0 2.1251855877617629 0.6131368849546277 0 0.6131368849546277 -2.3202301170719437 0 0 0 0 -95.223471785939182 -120.46697300056621 0 -120.46697300056621 54.239508855763347 0 0 0 0 -132.18466464498488 -31.377825236784702 0 -31.377825236784702 205.39163164244883 0 0 0 0 106.4197502580937 133.22259291880619 0 133.22259291880619 175.73253180076517 0 0 0 0 -36.223035715025617 49.178147534414165 0 49.178147534414165 126.226337780623 0 0 0 0 4.0639117307560184 -4.8232156476592944 0 -4.8232156476592944 3.7926403892674685 0 0 0 0 14.271029661140346 -12.130212322568696 0 -12.130212322568696 -14.42220819386057 0 0 0 0 1.5330028129523612 -2.1672224762381944 0 -2.1672224762381944 -6.7945167903436783 0 0 0 0 -3.2782584455198958 -9.2083307369302929 0 -9.2083307369302929 -13.518120601172996 0 0 0 0 -0.0049060177261708304 -5.2968317837603536 0 -5.2968317837603536 -9.3755920157000219 0 0 0 0 -22.987015018850798 -16.800402542990923 0 -16.800402542990923 -11.039266471828341 0 0 0 0 23.574635638640757 -4.9774214527324148 0 -4.9774214527324148 -6.391987125374726 0 0 0 0 1.0621912669002498 -1.868895244004392 0 -1.868895244004392 -4.5512438323974749 0 0 0 0 -39.357550464803353 -35.082557567832737 0 -35.082557567832737 -27.858792725757667 0 0 0 0 44.281799263364519 -4.7591677795790019 0 -4.7591677795790019 -14.370797371435401 0 0 0 0 -0.054279810989100952 -22.24435687064215 0 -22.24435687064215 -38.983283031786414 0 0 0 0 -13.91446789175825 -34.254841781817959 0 -34.254841781817959 -47.98004422336453 0 0 0 0 -59.392072228678444 -58.227700663537689 0 -58.227700663537689 -50.911240040211851 0 0 0 0 -17.310881075340149 -42.032772337404822 0 -42.032772337404822 -46.133308151433084 0 0 0 0 -0.00016255499940598384 -64.205280967737963 0 -64.205280967737963 -108.00172198666223 0 0 0 0 -1.3962264703368419 -80.769663927272632 0 -80.769663927272632 -138.51203848530167 0 0 0 0 -135.28390431711887 -121.32861129023149 0 -121.32861129023149 -71.256779132207157 0 0 0 0 0.93323427227606714 -1.9409350849473697 0 -1.9409350849473697 -2.2097910157272906 0 0 0 0 63.243341219436843 8.8944394964009916 0 8.8944394964009916 -7.6162298359631677 0 0 0 0 40.809931087140285 -19.662444950070494 0 -19.662444950070494 -36.155137088266201 0 0 0 0 54.398561195179354 -63.277244857141341 0 -63.277244857141341 5.1149554390613048 0 0 0 0 31.37552779132966 -25.64207563923992 0 -25.64207563923992 4.731324429824781 0 0 0 0 19.225428199089947 -34.633215271302106 0 -34.633215271302106 5.7724549975537229 0 0 0 0 59.991708695199122 -71.818099124670681 0 -71.818099124670681 -17.745372038865753 0 0 0 0 61.681268446802278 -88.591227970033287 0 -88.591227970033287 -4.1175441519299056 0 0 0 0 51.262191790010547 -46.17007778208972 0 -46.17007778208972 -72.681857127961848 0 0 0 0 48.901644598168787 -109.35893703691909 0 -109.35893703691909 -75.488176010736765 0 0 0 0 7.2768755957804387 -134.26770799868245 0 -134.26770799868245 -22.286202367373335 0 0 0 0 11.974927007962833 -114.51737733176196 0 -114.51737733176196 29.90406879674083 0 0 0 0 58.875526413452462 -79.085389584384757 0 -79.085389584384757 -22.264606699907745 0 0 0 0 51.285908903926384 -81.862790756884692 0 -81.862790756884692 46.091741527678096 0 0 0 0 38.662123456837435 -136.23323493063253 0 -136.23323493063253 114.85196927804282 0 0 0 0 20.973916513990844 -70.522819629237574 0 -70.522819629237574 115.1562638821415 0 0 0 0 14.335702259799291 -109.55900454353741 0 -109.55900454353741 44.644415835162363 0 0 0 0 -9.1172825715111685 -38.585241104317902 0 -38.585241104317902 78.49759812033426 0 0 0 0 0.028576424369493897 -77.784283953412015 0 -77.784283953412015 -9.696216309817828 0 0 0 0 -40.691381479446136 -51.200744993073386 0 -51.200744993073386 6.6591849014803302 0 0 0 0 -9.9730086615309119 -28.245340424138703 0 -28.245340424138703 -20.696794730974943 0 0 0 0 -6.742238230566727 -3.9030224420421291 0 -3.9030224420421291 10.402675734570948 0 0 0 0 1.6231296284548762 -0.26859877947363842 0 -0.26859877947363842 -2.4354526671876471 0 0 0 0 -21.969298103678739 -16.014782935097173 0 -16.014782935097173 -17.979577501297172 0 0 0 0 -8.1009911651490256 -17.124927413053229 0 -17.124927413053229 -15.864885727562068 0 0 0 0 -0.037139887768717017 -22.668287711010635 0 -22.668287711010635 -31.037627051558957 0 0 0 0 -1.6451130024361191 9.1313466200954281 0 9.1313466200954281 49.370833930675872 0 0 0 0 2.4149118357163388 0.71248139881097572 0 0.71248139881097572 -2.1960027010458845 0 0 0 0 -7.3080287341581425 -6.5373802072572289 0 -6.5373802072572289 8.2964240656074253 0 0 0 0 19.758589956807555 -0.34334802988814772 0 -0.34334802988814772 -90.171481003955705 0 0 0 0 20.511374379580957 -42.772540270001628 0 -42.772540270001628 -120.04459044299438 0 0 0 0 6.961255448666634 -5.3124706414419052 0 -5.3124706414419052 60.930134582711617 0 0 0 0 11.130838071592734 -28.645668164685048 0 -28.645668164685048 16.959702034168004 0 0 0 0 2.6201440874813855 -18.997125902499448 0 -18.997125902499448 -13.021541518912784 0 0 0 0 40.935793708529673 -1.9760717751378252 0 -1.9760717751378252 -15.098769589691074 0 0 0 0 0.13434409943950953 -1.5570848551110146 0 -1.5570848551110146 -0.10276035624156066 0 0 0 0 20.211228649379336 -53.183051373896888 0 -53.183051373896888 -77.985849158285419 0 0 0 0 47.410420439438894 -30.074828176228039 0 -30.074828176228039 -207.7615354629288 0 0 0 0 32.111334886096301 2.0074395350311534 0 2.0074395350311534 -131.8652574660955 0 0 0 0 -12.77001635270426 38.49013273192395 0 38.49013273192395 -83.934402196908195 0 0 0 0 -24.605367668002145 6.0947955727970111 0 6.0947955727970111 39.515918375393085 0 0 0 0 -19.409842510976887 24.458069385716954 0 24.458069385716954 23.834002729454369 0 0 0 0 -11.249805658277182 -3.2780545375062502 0 -3.2780545375062502 32.837011994211935 0 0 0 0 -7.7988834291318199 3.7777257193993137 0 3.7777257193993137 22.199069411159144 0 0 0 0 -21.270341922507214 15.927830868728051 0 15.927830868728051 24.00149494993093 0 0 0 0 22.138276058161864 -0.81218086340231821 0 -0.81218086340231821 24.737849423581793 0 0 0 0 8.058441715373192 -1.0629692486363638 0 -1.0629692486363638 4.6047352446985315 0 0 0 0 1.415517314258623 -1.4207983489256861 0 -1.4207983489256861 -0.14066072145615749 0 0 0 0 28.825243487561238 -8.9340577472976292 0 -8.9340577472976292 1.5625618074845988 0 0 0 0 0.59360386150251543 -9.9857267622834911 0 -9.9857267622834911 1.5294848793112408 0 0 0 0 28.552561563425115 -3.5352340962963353 0 -3.5352340962963353 -25.130593908776063 0 0 0 0 1.9043413058733023 -2.6347281487664418 0 -2.6347281487664418 -6.11204854442326 0 0 0 0 8.7263300970541877 -4.4097457874010288 0 -4.4097457874010288 -7.1501318016360358 0 0 0 0 11.990752453595633 -3.2403105541015975 0 -3.2403105541015975 -0.080623151956388028 0 0 0 0 1.4938654250563133 -1.7282096163139045 0 -1.7282096163139045 0.4570246502845805 0 0 0 0 10.462682283221511 -0.31588868304243078 0 -0.31588868304243078 1.8652891781421204 0 0 0 0 8.3265324489791226 -2.9001820085626093 0 -2.9001820085626093 -5.7148369346991501 0 0 0 0 -9.7650421516568713 -27.065458801695968 0 -27.065458801695968 93.931748414834146 0 0 0 0 47.070401610675617 -17.400375650599017 0 -17.400375650599017 -53.937361563483137 0 0 0 0 -9.819025285934913 -24.505574626466114 0 -24.505574626466114 -17.844884914826252 0 0 0 0 -0.10109248103174195 -0.069638079753140403 0 -0.069638079753140403 -1.8174653659657878 0 0 0 0 198.17938376545499 -73.889226915227482 0 -73.889226915227482 -97.92180785783421 0 0 0 0 -24.303194157793769 19.820963897032925 0 19.820963897032925 48.147845686398796 0 0 0 0 164.80074705263542 56.951676534135913 0 56.951676534135913 -18.621895421631052 0 0 0 0 2.4723107233054975 -0.61435705482305281 0 -0.61435705482305281 -1.4531071883273796 0 0 0 0 29.333077454290105 -92.867241128911701 0 -92.867241128911701 10.61583377221541 0 0 0 0 428.10208240397333 -87.047053700200195 0 -87.047053700200195 -35.394125818624161 0 0 0 0 27.108562339955824 -1.6304087341983404 0 -1.6304087341983404 -19.493121441308176 0 0 0 0 -73.924244447931414 -25.955261477734894 0 -25.955261477734894 61.120165830307087 0 0 0 0 1.8728274867602321 -7.9895388040357034 0 -7.9895388040357034 -3.664612926828795 0 0 0 0 -75.232818078307901 -173.19666526342189 0 -173.19666526342189 -203.74142934838164 0 0 0 0 -2.9523571699823492 -0.29075327652945049 0 -0.29075327652945049 -0.65625105409004547 0 0 0 0 48.436233783111675 0.8762333753547864 0 0.8762333753547864 -42.965390816883883 0 0 0 0 -3.4569898598274449 -15.742928814772313 0 -15.742928814772313 -13.112226144963643 0 0 0 0 15.670725430987659 -42.545023642778688 0 -42.545023642778688 -23.40805296075996 0 0 0 0 17.479179173358716 -44.456866432417883 0 -44.456866432417883 -80.211756718519609 0 0 0 0 -98.248279427643865 24.206899096578127 0 24.206899096578127 -39.293032615358243 0 0 0 0 -76.7548881119219 -41.081326394577445 0 -41.081326394577445 -0.43152885872405022 0 0 0 0 -14.008581730828155 -51.782670417858753 0 -51.782670417858753 -38.123943412094377 0 0 0 0 -29.210895700991387 -74.23041653225664 0 -74.23041653225664 -44.115101826559112 0 0 0 0 0.7582434165842038 -2.249210467504156 0 -2.249210467504156 -0.23916264291941047 0 0 0 0 -28.463710652460577 -47.192567520178272 0 -47.192567520178272 -16.316887620408124 0 0 0 0 5.6814466400974197 -25.222435554325784 0 -25.222435554325784 -22.170151644022553 0 0 0 0 -37.305346224373352 -30.670835194432584 0 -30.670835194432584 -13.21260731392249 0 0 0 0 -42.710701491829241 -14.057730514359719 0 -14.057730514359719 -12.10381919376232 0 0 0 0 -10.173686257632653 -18.618698490645329 0 -18.618698490645329 32.521994407281454 0 0 0 0 0.056822266851668246 -28.101751624544704 0 -28.101751624544704 -6.7045858876190323 0 0 0 0 42.892024434971972 -169.4004092226096 0 -169.4004092226096 -553.68008190667024 0 0 0 0 4.8067264217752381 37.168757548386566 0 37.168757548386566 67.237426605388464 0 0 0 0 -0.39920473519350708 1.5321438138283057 0 1.5321438138283057 -0.97830502924232121 0 0 0 0 -27.247430710922345 -108.28657898749952 0 -108.28657898749952 -150.13294306162061 0 0 0 0 -0.15246246138073827 -277.19229043210208 0 -277.19229043210208 -238.5202678554997 0 0 0 0 -63.172852019866696 -188.49889024498589 0 -188.49889024498589 -187.47906968509051 0 0 0 0 54.356917538170819 -236.86049109241867 0 -236.86049109241867 -182.80076255066024 0 0 0 0 0.019220325855712872 -288.94690407222879 0 -288.94690407222879 49.246796718663973 0 0 0 0 0.14671571742655942 -280.70343921732638 0 -280.70343921732638 423.31470421644735 0 0 0 0 16.122239907417679 -87.98598025116371 0 -87.98598025116371 254.80464468699574 0 0 0 0 59.063508004670439 -117.75120608576435 0 -117.75120608576435 323.17954613403708 0 0 0 0 -76.574500403956336 -271.14544893745642 0 -271.14544893745642 305.70015629484988 0 0 0 0 -0.20691557726482301 0.067872424782265739 0 0.067872424782265739 0.44571263769680086 0 0 0 0 272.47999550951499 -91.469281927651537 0 -91.469281927651537 -414.47231451322295 0 0 0 0 -90.408405035683245 -106.34577501768217 0 -106.34577501768217 843.30383942045955 0 0 0 0 -2.9452177789027587 -8.0149001731767981 0 -8.0149001731767981 3.9529890395802405 0 0 0 0 -42.479160532006063 -33.67739284093841 0 -33.67739284093841 159.99943481114747 0 0 0 0 11.065715763877961 -96.683473105098528 0 -96.683473105098528 152.22261749455356 0 0 0 0 4.4537709498254117 -40.809884547088586 0 -40.809884547088586 -8.4584848370577674 0 0 0 0 -1.3183409229466747 -1.3807597220335595 0 -1.3807597220335595 -0.021246973144638415 0 0 0 0 -35.20740588492481 -153.97622098942156 0 -153.97622098942156 447.13556137648067 0 0 0 0 -1.9581413501146017 -52.140782032120114 0 -52.140782032120114 -126.6938413426833 0 0 0 0 -0.79040861192333978 -229.62302821853518 0 -229.62302821853518 197.07985493472802 0 0 0 0 38.444461508392124 -98.993468353637581 0 -98.993468353637581 202.0307775488036 0 0 0 0 28.51178780794362 -131.27214973670834 0 -131.27214973670834 101.25168418144312 0 0 0 0 68.89085168755264 -149.69796741539903 0 -149.69796741539903 105.29414149692457 0 0 0 0 95.249096392566571 -180.86056063973228 0 -180.86056063973228 109.43073337074929 0 0 0 0 41.600171867656172 -253.10762867835001 0 -253.10762867835001 33.177136244215944 0 0 0 0 221.86165391058603 -261.42134895212803 0 -261.42134895212803 10.202173419253086 0 0 0 0 52.684224588963843 -236.03633709245332 0 -236.03633709245332 48.948409246469964 0 0 0 0 -146.96611957842833 -293.94551314880846 0 -293.94551314880846 44.157859895472939 0 0 0 0 -289.76542212858476 -170.61205869234072 0 -170.61205869234072 -61.595384904096136 0 0 0 0 -0.12453816159052344 -2.8165373307506627 0 -2.8165373307506627 -0.91186631328261569 0 0 0 0 288.77325256457038 -237.89548519816185 0 -237.89548519816185 186.70830218261835 0 0 0 0 385.36734458856517 -256.00098293531846 0 -256.00098293531846 -5.8785808783504763 0 0 0 0 174.26458584428474 -120.84474999871964 0 -120.84474999871964 87.826462552413432 0 0 0 0 282.86583414584493 -29.675513306920493 0 -29.675513306920493 163.72364668292721 0 0 0 0 -14.091499161478794 -25.888617224785477 0 -25.888617224785477 -9.0325123388775523 0 0 0 0 -52.271788167781779 127.90271898950596 0 127.90271898950596 44.450036685944951 0 0 0 0 64.639056825690204 -92.457513222172565 0 -92.457513222172565 -20.928645090196369 0 0 0 0 45.49006255180575 -336.3032093246984 0 -336.3032093246984 66.401512010579154 0 0 0 0 251.62045386407408 -65.928388100470329 0 -65.928388100470329 -21.880206732443185 0 0 0 0 95.550004559539957 -63.115516697762359 0 -63.115516697762359 24.202471689670347 0 0 0 0 123.09923734769836 -138.85242502619622 0 -138.85242502619622 64.760461932106409 0 0 0 0 -9.4085585216737115 -24.969459269325327 0 -24.969459269325327 6.1154078043916229 0 0 0 0 84.840744244866073 -80.323202276351367 0 -80.323202276351367 10.593121287940448 0 0 0 0 -98.521051475243439 29.130597075731202 0 29.130597075731202 161.12779582881922 0 0 0 0 -19.61598353413865 -70.22885028104065 0 -70.22885028104065 60.867968055870733 0 0 0 0 69.048171804301518 -89.885101955080017 0 -89.885101955080017 31.326251684309682 0 0 0 0 -5.9612116961860266 1.5296251001678627 0 1.5296251001678627 0.28530195118798929 0 0 0 0 81.425545152655104 30.581456579850055 0 30.581456579850055 -31.927262921410147 0 0 0 0 0.88707608924900683 1.1124626743905424 0 1.1124626743905424 2.4791590256035363 0 0 0 0 446.49585446449782 -102.05715889513522 0 -102.05715889513522 -41.969227948749904 0 0 0 0 -173.26611794087512 26.606035215429074 0 26.606035215429074 62.333169657809776 0 0 0 0 -87.971702538459795 40.370827559607278 0 40.370827559607278 -29.420734957435343 0 0 0 0 115.06536784474156 139.75765683934878 0 139.75765683934878 125.84503145597409 0 0 0 0 -16.808454704470932 -112.53061773027002 0 -112.53061773027002 202.57479446560319 0 0 0 0 -68.683359369326354 -30.236627356314784 0 -30.236627356314784 41.551185836171499 0 0 0 0 230.63051450717103 -100.75493717410427 0 -100.75493717410427 -79.549712683583493 0 0 0 0 -3.0553540956251055 -0.53598490116168307 0 -0.53598490116168307 10.896357661331393 0 0 0 0 -40.697099850338418 -41.185237011770369 0 -41.185237011770369 -16.694286990459659 0 0 0 0 72.684229423932265 -241.63052486273955 0 -241.63052486273955 -78.341117415489862 0 0 0 0 82.327577228716109 -59.392165958052601 0 -59.392165958052601 -15.768061157417833 0 0 0 0 -0.51170886431737017 -18.148968473625231 0 -18.148968473625231 5.4569879147021272 0 0 0 0 6.6006889024133386 -2.1841930313838134 0 -2.1841930313838134 0.55630025149352491 0 0 0 0 88.55452706333017 8.3043888695829082 0 8.3043888695829082 77.286283833309426 0 0 0 0 -51.263685068639461 -13.08649312803027 0 -13.08649312803027 43.543122450442752 0 0 0 0 -103.20361072585547 -187.732242738075 0 -187.732242738075 -55.137143446903792 0 0 0 0 -20.090321921074064 -181.19834881014685 0 -181.19834881014685 -141.04798366683275 0 0 0 0 -2.7250938262351241 -26.453609544276802 0 -26.453609544276802 12.413620893858365 0 0 0 0 58.696499262252473 -352.27567073073806 0 -352.27567073073806 16.534464252153157 0 0 0 0 5.3072844910396952 -5.285783793643688 0 -5.285783793643688 -7.5889030157130577 0 0 0 0 -14.941000858860207 -74.868183652426524 0 -74.868183652426524 90.796564291304094 0 0 0 0 3.2321043500887754 73.830757268401157 0 73.830757268401157 139.8998180921044 0 0 0 0 -19.227919678073022 -16.683796561202072 0 -16.683796561202072 -11.948986700470456 0 0 0 0 -8.4597123767016456 -80.239261843351414 0 -80.239261843351414 37.949299744184827 0 0 0 0 7.2188477741874522 -77.861759787552728 0 -77.861759787552728 29.837156137982674 0 0 0 0 -13.955191300105071 -7.9782039546007582 0 -7.9782039546007582 23.837105987910036 0 0 0 0 -22.309634221455781 -50.302999275249022 0 -50.302999275249022 9.2630201274951105 0 0 0 0 -31.511541478401341 -41.132559868521639 0 -41.132559868521639 46.545639888237929 0 0 0 0 -49.851222944183974 -17.860198111673526 0 -17.860198111673526 32.644657682947582 0 0 0 0 -49.530646715225885 -18.979644885144808 0 -18.979644885144808 23.942513596703066 0 0 0 0 -106.80636464228155 13.313799259787629 0 13.313799259787629 31.456364380239393 0 0 0 0 -55.424710830120603 -27.033142958938697 0 -27.033142958938697 41.725246134330519 0 0 0 0 -26.974113176329411 -16.974800680611224 0 -16.974800680611224 31.564914371912892 0 0 0 0 -54.291175647435011 -18.949045758199645 0 -18.949045758199645 44.960500917062745 0 0 0 0 -14.408979945757892 -37.139508439759084 0 -37.139508439759084 43.224854516418418 0 0 0 0 -5.9980791026318911 -24.952177668601507 0 -24.952177668601507 55.033417312901292 0 0 0 0 -11.625559577252716 -33.418471473756654 0 -33.418471473756654 48.178495215801831 0 0 0 0 28.622792761190794 -51.872106557424559 0 -51.872106557424559 48.686989031994017 0 0 0 0 10.413279951128061 -53.673413209169667 0 -53.673413209169667 50.493117916354095 0 0 0 0 -8.405594361567637 -33.417753292764246 0 -33.417753292764246 45.032098901123391 0 0 0 0 -18.039684926901828 -33.755971633407171 0 -33.755971633407171 26.979825415015512 0 0 0 0 -13.084997146375827 -42.837357492826413 0 -42.837357492826413 31.708889817826275 0 0 0 0 -25.157750605838373 -23.604618046032556 0 -23.604618046032556 36.979443800966692 0 0 0 0 -38.814599663259287 -37.702062250149538 0 -37.702062250149538 40.186373507574899 0 0 0 0 -25.217426586517831 -48.587417956136051 0 -48.587417956136051 5.930873387682368 0 0 0 0 -151.59121456259163 -25.331933018376731 0 -25.331933018376731 80.575407710915897 0 0 0 0 -118.2308275209798 -43.929291651955282 0 -43.929291651955282 76.398117345219362 0 0 0 0 -34.047408332815394 -27.762934001566464 0 -27.762934001566464 39.326273469203443 0 0 0 0 -49.235305887785216 -51.35825994894185 0 -51.35825994894185 22.434424706778373 0 0 0 0 -27.100778711916064 -96.077058972594386 0 -96.077058972594386 93.352063527037899 0 0 0 0 32.588345450705674 -61.73804797824414 0 -61.73804797824414 -50.095313042202179 0 0 0 0 -29.805851919372799 -69.405504126712913 0 -69.405504126712913 29.184016431279815 0 0 0 0 -34.458843742890167 -48.68093713980852 0 -48.68093713980852 6.5478264383527858 0 0 0 0 -26.254875125996477 -60.643841399252779 0 -60.643841399252779 -26.617170500590873 0 0 0 0 -58.6208254142839 -78.380328815484972 0 -78.380328815484972 -24.055521686837892 0 0 0 0 -40.391871871612238 -28.134625107988541 0 -28.134625107988541 29.367341220910021 0 0 0 0 -71.311258350324351 -61.449516117263556 0 -61.449516117263556 65.739952235147939 0 0 0 0 -118.07587595707446 23.532972637978673 0 23.532972637978673 103.37181219416743 0 0 0 0 -47.970953432286024 -26.655133207714197 0 -26.655133207714197 36.502002606265208 0 0 0 0 -47.952448263589758 -48.933099514959395 0 -48.933099514959395 -64.46925764734624 0 0 0 0 -14.100271064489789 -37.349274499649255 0 -37.349274499649255 -60.785374220980884 0 0 0 0 376.09466634271666 -275.43071702885209 0 -275.43071702885209 37.271006178219977 0 0 0 0 -16.695984001901266 -33.888426914019846 0 -33.888426914019846 -24.985128017105694 0 0 0 0 341.39768324507168 -296.40928088469809 0 -296.40928088469809 92.546026629583139 0 0 0 0 309.74827352797729 -204.96096005097934 0 -204.96096005097934 -25.586640765483025 0 0 0 0 397.70526407135185 -301.61880708934041 0 -301.61880708934041 17.0951516982459 0 0 0 0 187.41893049811188 -197.36598242179389 0 -197.36598242179389 72.790919514096458 0 0 0 0 336.40870710252784 -297.07938698633461 0 -297.07938698633461 63.687184157141019 0 0 0 0 239.09311761899153 -228.32855900935829 0 -228.32855900935829 102.25038671494622 0 0 0 0 251.39199678026489 -216.45370169116723 0 -216.45370169116723 59.857172394600639 0 0 0 0 355.01785844440383 -211.56659783511623 0 -211.56659783511623 41.717544562576222 0 0 0 0 339.56184224023309 -346.62887623262031 0 -346.62887623262031 226.91912851239613 0 0 0 0 354.3565261290787 -298.56613508601549 0 -298.56613508601549 291.46346783288755 0 0 0 0 762.48753815330565 -169.94091419778124 0 -169.94091419778124 277.99567442447005 0 0 0 0 860.51051426021149 -511.93242958169139 0 -511.93242958169139 416.85643649195845 0 0 0 0 895.23777885574964 -219.33142765973753 0 -219.33142765973753 -83.296503348654369 0 0 0 0 -8.6062457592531132 -8.702637847551479 0 -8.702637847551479 3.826257532474159 0 0 0 0 851.98093860402514 -561.81482114621213 0 -561.81482114621213 233.23644679054269 0 0 0 0 -12.528002017812696 -0.48851268091445377 0 -0.48851268091445377 17.441302580850305 0 0 0 0 796.0774231821124 -404.22616323483453 0 -404.22616323483453 246.32665647336398 0 0 0 0 805.22008727546199 -391.02260859847593 0 -391.02260859847593 258.16898168571061 0 0 0 0 388.99539842409285 -206.1021695193358 0 -206.1021695193358 148.76146185514517 0 0 0 0 345.14602190541336 -295.01618434586271 0 -295.01618434586271 304.48081537944381 0 0 0 0 144.80637621097776 -86.111055841329289 0 -86.111055841329289 320.81656164259766 0 0 0 0 220.24154087627539 -425.56809244579199 0 -425.56809244579199 384.23700049401668 0 0 0 0 617.49925900889502 -577.22126603656216 0 -577.22126603656216 416.01189105854428 0 0 0 0 334.03004750708351 2016.6883451816393 0 2016.6883451816393 1165.3825735103601 0 0 0 0 184.46361323454039 -131.32449439937955 0 -131.32449439937955 70.944288482176489 0 0 0 0 10.357959023895091 -103.27753481002583 0 -103.27753481002583 180.76440761386402 0 0 0 0 -146.87500936891593 -72.757745313203486 0 -72.757745313203486 80.362508004425763 0 0 0 0 -26.677870858220558 94.321796758831624 0 94.321796758831624 -120.63805321660038 0 0 0 0 528.78271080984268 -202.17561255430519 0 -202.17561255430519 -824.60640973709815 0 0 0 0 50.668089891920744 -66.971364203595328 0 -66.971364203595328 40.846474829484336 0 0 0 0 330.97406385879003 -350.01808661945688 0 -350.01808661945688 -610.54771839266323 0 0 0 0 -62.294236654583074 -5.1853987410613627 0 -5.1853987410613627 -319.60517115625771 0 0 0 0 48.310077993057547 -70.074082233602667 0 -70.074082233602667 44.303936836895105 0 0 0 0 -288.6069359985413 -614.75098251697636 0 -614.75098251697636 -196.5389180922939 0 0 0 0 127.1852495502244 65.488577002201055 0 65.488577002201055 70.905021885577298 0 0 0 0 -1266.6507174588041 -565.7402089087409 0 -565.7402089087409 2967.8962059543119 0 0 0 0 68.263187416821893 -253.7568656208532 0 -253.7568656208532 -597.74614840571303 0 0 0 0 -58.221405302338098 -40.546579259113059 0 -40.546579259113059 -179.35790989405359 0 0 0 0 29.181073062327528 -62.843217099469356 0 -62.843217099469356 43.113828911543791 0 0 0 0 192.40872302201024 -158.31196145291324 0 -158.31196145291324 -576.62197078063582 0 0 0 0 449.23244489343779 -105.4865367794846 0 -105.4865367794846 -585.65441417174407 0 0 0 0 162.98069683044741 138.26006165766739 0 138.26006165766739 -722.91226902967901 0 0 0 0 222.87562342197634 37.032729501152062 0 37.032729501152062 -564.06339721032418 0 0 0 0 167.87880019067961 114.37577272775525 0 114.37577272775525 -584.37614413790288 0 0 0 0 246.31778768368531 -7.7898506634519435 0 -7.7898506634519435 -411.26766181494168 0 0 0 0 49.129815366442926 268.2967092426552 0 268.2967092426552 -704.08212932152674 0 0 0 0 114.03102619612764 124.2555038539067 0 124.2555038539067 -386.09963547106599 0 0 0 0 20.78760569790029 158.7998429411673 0 158.7998429411673 -387.19717781419649 0 0 0 0 348.18877466928097 139.5539265605621 0 139.5539265605621 293.34758630651049 0 0 0 0 35.34553456421304 -152.18840157152704 0 -152.18840157152704 -57.202886754312203 0 0 0 0 -56.900172185352858 -85.334660019900184 0 -85.334660019900184 57.364758756215451 0 0 0 0 -152.57486793647695 142.69710266683978 0 142.69710266683978 26.231242291454691 0 0 0 0 33.348459395383543 -51.587456681467302 0 -51.587456681467302 -233.56691871937073 0 0 0 0 58.617418161124078 85.631067960461223 0 85.631067960461223 -256.93504214858694 0 0 0 0 -14.310914292116649 -103.46792044037647 0 -103.46792044037647 -72.578186146027292 0 0 0 0 -40.755357279896998 -235.8320917327801 0 -235.8320917327801 -280.76904063109396 0 0 0 0 5.0885325347771868 -30.824593001456378 0 -30.824593001456378 69.046666640380863 0 0 0 0 29.168616143538657 -51.425985798890224 0 -51.425985798890224 -54.502024558176345 0 0 0 0 11.145126513448957 -59.431728260117517 0 -59.431728260117517 37.234469006532478 0 0 0 0 -6.9370006010359262 -27.832989013329808 0 -27.832989013329808 -35.73676828191148 0 0 0 0 157.28630976245768 -171.29191474671097 0 -171.29191474671097 -212.54528807312818 0 0 0 0 354.72097737675358 -52.946837340161437 0 -52.946837340161437 -172.01990610398207 0 0 0 0 -3.1153152883268973 -8.9096553651491206 0 -8.9096553651491206 -1.6132888476881817 0 0 0 0 43.036205535543559 -83.552767435827263 0 -83.552767435827263 51.732945814743289 0 0 0 0 105.12696170668278 -192.19796970436073 0 -192.19796970436073 184.47199084686872 0 0 0 0 -19.174366398330292 -17.718094881605012 0 -17.718094881605012 27.93051430640449 0 0 0 0 23.715967161111621 -63.458235639005579 0 -63.458235639005579 46.917811094957869 0 0 0 0 -13.639123482942523 -47.919283631606959 0 -47.919283631606959 40.460684296256659 0 0 0 0 11.769946198779508 -75.30368963478395 0 -75.30368963478395 8.1412780105965794 0 0 0 0 -37.053202463474008 -55.094015476861387 0 -55.094015476861387 38.658244837359234 0 0 0 0 33.732721838401631 -77.236937548265814 0 -77.236937548265814 44.385956088903185 0 0 0 0 -49.533719231068972 -78.909592643831274 0 -78.909592643831274 55.083636229348485 0 0 0 0 -36.739948303862548 -107.55237909566767 0 -107.55237909566767 -88.780965136553277 0 0 0 0 -24.320971768421259 -36.928514342944581 0 -36.928514342944581 40.491904715118352 0 0 0 0 -34.049060786259361 -63.092452642678836 0 -63.092452642678836 59.710708709240862 0 0 0 0 -30.825573428548523 -65.830883029062534 0 -65.830883029062534 -45.39585433544562 0 0 0 0 -57.922650040309236 -99.423171889869991 0 -99.423171889869991 -32.493477836360398 0 0 0 0 -25.851101503027166 -78.922907221774039 0 -78.922907221774039 -32.790017311104748 0 0 0 0 -5.6485390942559661 -49.458949145321412 0 -49.458949145321412 53.271957716337887 0 0 0 0 -22.465384659783012 -143.53753302679343 0 -143.53753302679343 -42.936603814370756 0 0 0 0 8.1430975060357014 -167.35203495047972 0 -167.35203495047972 -60.074526224048896 0 0 0 0 59.921139514452079 -70.931743974098936 0 -70.931743974098936 -54.576172799264896 0 0 0 0 39.549927671629121 -107.24546004180593 0 -107.24546004180593 -102.96644504580763 0 0 0 0 11.22812358106421 -73.108204692909567 0 -73.108204692909567 -10.585062676269445 0 0 0 0 5.8752832542959368 -98.385085789755976 0 -98.385085789755976 -38.27662052535743 0 0 0 0 13.336681674976717 -75.85765450062172 0 -75.85765450062172 0.94892761464143405 0 0 0 0 -5.9344296526542166 -49.755564208553551 0 -49.755564208553551 -2.5255964851821773 0 0 0 0 -3.6431315348017961 -92.395075194268429 0 -92.395075194268429 -33.553589062497394 0 0 0 0 28.836411454947665 -76.432812009843474 0 -76.432812009843474 -10.565985729153908 0 0 0 0 2.683666094293585 -56.561785989339114 0 -56.561785989339114 22.591631291230442 0 0 0 0 -10.448824443601552 -59.55701105366461 0 -59.55701105366461 8.3451643014268484 0 0 0 0 11.153642753866734 -38.076780604940723 0 -38.076780604940723 24.394951228096033 0 0 0 0 9.0627732035645749 -22.860182191900094 0 -22.860182191900094 75.900045856040379 0 0 0 0 -9.6596646687215753 -6.9487644065626739 0 -6.9487644065626739 -3.8725144183081994 0 0 0 0 34.596103827527259 -11.584314573970914 0 -11.584314573970914 -12.831952099033515 0 0 0 0 8.7352408443948661 -77.316489499865384 0 -77.316489499865384 84.692333650120418 0 0 0 0 -6.6697849171771963 -8.803109329260252 0 -8.803109329260252 -7.1843206978726855 0 0 0 0 -9.3057700647404999 -51.052096070579864 0 -51.052096070579864 92.582843044212495 0 0 0 0 -1.2005761576292571 -53.348391168132366 0 -53.348391168132366 41.699270439123211 0 0 0 0 42.076654823249555 -25.328241902636364 0 -25.328241902636364 35.852116091686185 0 0 0 0 48.374610062557622 -52.569007017358672 0 -52.569007017358672 4.8521090122885653 0 0 0 0 -7.5419016966916388 -200.42150065409442 0 -200.42150065409442 345.10695319842125 0 0 0 0 38.477690823929152 -2.8708454846855602 0 -2.8708454846855602 -23.585422729891434 0 0 0 0 25.455155260344327 -73.387144102307502 0 -73.387144102307502 1.2482907889425405 0 0 0 0 -6.5200809798989781 -5.0491450299392682 0 -5.0491450299392682 -2.30726540959445 0 0 0 0 -4.5981480852329071 -5.1975256882396224 0 -5.1975256882396224 -4.7188672817166122 0 0 0 0 -53.883483938479912 -23.718765485875338 0 -23.718765485875338 28.525271569924371 0 0 0 0 75.902297008280584 -26.50540463176003 0 -26.50540463176003 225.0971193331643 0 0 0 0 202.06952826435372 -83.958553981081423 0 -83.958553981081423 -41.07260741724167 0 0 0 0 154.65552136459155 -112.9535963973558 0 -112.9535963973558 117.22798192774644 0 0 0 0 -60.602418880414916 -180.07935557427118 0 -180.07935557427118 363.32551382160455 0 0 0 0 -90.753413849561184 -22.240587023232365 0 -22.240587023232365 103.42799509547331 0 0 0 0 -14.963340943621006 -159.58867279085825 0 -159.58867279085825 81.019534736806236 0 0 0 0 -110.77956910456123 63.22812576402066 0 63.22812576402066 269.4220292476457 0 0 0 0 -11.952607622850337 -86.595532242494301 0 -86.595532242494301 -8.8020563058234984 0 0 0 0 -12.199155047717795 -5.8229816841867432 0 -5.8229816841867432 78.062644708654261 0 0 0 0 23.071588328893995 -14.106297777820146 0 -14.106297777820146 -63.984945099202378 0 0 0 0 31.071873144770507 -175.52130112132727 0 -175.52130112132727 23.468380359325238 0 0 0 0 -104.68578063676978 -55.219588032299725 0 -55.219588032299725 160.34528166517703 0 0 0 0 125.06189526652452 -127.9340467493148 0 -127.9340467493148 156.95236215653131 0 0 0 0 -0.69866822638141457 -3.2894527991975337 0 -3.2894527991975337 261.85631656985061 0 0 0 0 -7.2730832463712431 -79.39042069900097 0 -79.39042069900097 126.60268996432205 0 0 0 0 -2.3355551325729493 -2.100190462997702 0 -2.100190462997702 -1.1632603305109015 0 0 0 0 -80.713142799548223 -151.20466239068264 0 -151.20466239068264 369.84490315496805 0 0 0 0 499.21606709001935 -177.14983487685095 0 -177.14983487685095 -548.90389666875853 0 0 0 0 -467.14370445099485 -296.05156254450412 0 -296.05156254450412 -27.432314071498695 0 0 0 0 -121.88347937483923 16.835449962140046 0 16.835449962140046 4.6548821620635863 0 0 0 0 -1.0448645225585835 -2.0129635071808707 0 -2.0129635071808707 -2.3974194978776495 0 0 0 0 41.375534010453066 88.669141085664933 0 88.669141085664933 -339.38557327879971 0 0 0 0 274.48996708227787 -131.94280886399065 0 -131.94280886399065 -365.03728813605994 0 0 0 0 -10.313772147928539 -34.46526257836905 0 -34.46526257836905 10.947158848698791 0 0 0 0 -754.10126082750503 30.143203508050647 0 30.143203508050647 -190.78320040515973 0 0 0 0 64.854974663772737 -78.426100131360727 0 -78.426100131360727 43.692113106342731 0 0 0 0 56.115256783744883 -64.294138619085018 0 -64.294138619085018 33.566518338484528 0 0 0 0 97.128495143420878 -94.658796226685809 0 -94.658796226685809 29.39488063027602 0 0 0 0 -10.696428673596529 12.012585643598868 0 12.012585643598868 75.723591340676649 0 0 0 0 112.83888834187792 -8.2125254572720223 0 -8.2125254572720223 -15.853166411878192 0 0 0 0 14.106796664040303 44.661805586896662 0 44.661805586896662 -43.088733228883939 0 0 0 0 -44.994517247832846 -43.397178828075994 0 -43.397178828075994 -55.659041194104248 0 0 0 0 30.886508594092447 60.256500613657408 0 60.256500613657408 -46.801424071368274 0 0 0 0 9.3758608511016064 115.09533415783881 0 115.09533415783881 183.7454711284372 0 0 0 0 204.05006014423998 -167.59743784076272 0 -167.59743784076272 11.650179450714859 0 0 0 0 -37.759194762311381 -38.261018079319911 0 -38.261018079319911 258.39661525843258 0 0 0 0 42.444041127455421 -101.071042692638 0 -101.071042692638 0.56215235781564843 0 0 0 0 -15.134512573233224 -43.850131457358657 0 -43.850131457358657 64.850334092172488 0 0 0 0 -491.92551450675819 28.210538093902869 0 28.210538093902869 -141.92468166378967 0 0 0 0 54.26351385702776 -53.724447921519065 0 -53.724447921519065 40.864246190684327 0 0 0 0 -2.0821305401623249 -250.36118196038296 0 -250.36118196038296 -20.449250182326068 0 0 0 0 -75.029850916951546 -200.9894309034371 0 -200.9894309034371 171.41774967495439 0 0 0 0 -24.261974704742897 -65.954431983536779 0 -65.954431983536779 161.82311041541425 0 0 0 0 26.191683842334896 -58.294814242028224 0 -58.294814242028224 39.474024402225041 0 0 0 0 48.041387123760529 -56.535025168586628 0 -56.535025168586628 34.092830998921698 0 0 0 0 66.823703030509932 -61.482846088243605 0 -61.482846088243605 35.722856564825634 0 0 0 0 128.19684762429824 -128.85380942956908 0 -128.85380942956908 54.642469658036134 0 0 0 0 14.496030472582788 -90.99230560770593 0 -90.99230560770593 46.429909059629608 0 0 0 0 50.675778754048224 -72.862686344797112 0 -72.862686344797112 13.93978567780141 0 0 0 0 17.44479711112217 -48.513404666343831 0 -48.513404666343831 -0.21750941334903473 0 0 0 0 5.7035964614224213 -80.886721868097084 0 -80.886721868097084 38.549544607798452 0 0 0 0 8.7989877495056135 -72.433268316140129 0 -72.433268316140129 39.525133721908787 0 0 0 0 -3.2376617730405997 -47.077976513013709 0 -47.077976513013709 -32.418492232638528 0 0 0 0 -2.189469945988094 -66.016764574997069 0 -66.016764574997069 -15.098943359063924 0 0 0 0 16.73889342440971 -30.127065484308975 0 -30.127065484308975 -12.967918420019231 0 0 0 0 -7.0409588443437343 -34.77734698790124 0 -34.77734698790124 -12.339450237633692 0 0 0 0 -5.2963799402206675 -34.023527074779793 0 -34.023527074779793 12.094762379234027 0 0 0 0 -2.0042053792712977 -63.584304185667861 0 -63.584304185667861 3.2384652782291141 0 0 0 0 9.1925673121577347 -25.723447595790276 0 -25.723447595790276 6.3442965080976137 0 0 0 0 19.687666809950315 -50.904097321104928 0 -50.904097321104928 -7.6150380987673998 0 0 0 0 18.019643213983453 -36.744552340406003 0 -36.744552340406003 -20.138510999570144 0 0 0 0 -55.285868749728252 -13.073093552280625 0 -13.073093552280625 69.616672896139789 0 0 0 0 -24.791427433476201 -47.361535815805837 0 -47.361535815805837 10.766788439206721 0 0 0 0 -0.32939535455702185 -26.778970798887627 0 -26.778970798887627 25.638880156675555 0 0 0 0 -8.2194075449680355 -22.132539758140091 0 -22.132539758140091 34.39643123359923 0 0 0 0 -69.223720229536411 -55.345180620337487 0 -55.345180620337487 70.228280514711514 0 0 0 0 2.994986722897778 -44.115476973972804 0 -44.115476973972804 20.405352998584306 0 0 0 0 -49.206523430475499 -150.08995122818669 0 -150.08995122818669 -17.194504370403592 0 0 0 0 -159.9320446421516 -118.16950721059402 0 -118.16950721059402 70.862176169379381 0 0 0 0 -146.86155897259596 -92.438878822293191 0 -92.438878822293191 119.28205838170834 0 0 0 0 -6.071154205866037 -1.4802777011643116 0 -1.4802777011643116 5.1073018719156948 0 0 0 0 -143.17606612131931 -148.33108699346485 0 -148.33108699346485 114.6775094421464 0 0 0 0 -229.17581265569606 -252.99951759054966 0 -252.99951759054966 -88.221904804260703 0 0 0 0 -171.59421456078417 -85.59130927186925 0 -85.59130927186925 36.804681578709278 0 0 0 0 -209.78585308057518 -109.9748084501116 0 -109.9748084501116 142.64578836306464 0 0 0 0 -199.31590003994643 -98.022459815023467 0 -98.022459815023467 86.51625070621958 0 0 0 0 -216.80468456977542 -79.926478588473401 0 -79.926478588473401 117.67980098185944 0 0 0 0 -225.72152514016489 -94.627762376738247 0 -94.627762376738247 107.41439766366966 0 0 0 0 -213.93565577894333 -116.83754204312572 0 -116.83754204312572 67.257912381901406 0 0 0 0 -171.54274889026055 -56.007476884846255 0 -56.007476884846255 108.8643199976068 0 0 0 0 -127.38876125102979 -32.314693049818743 0 -32.314693049818743 121.26287038888404 0 0 0 0 -199.3088251939771 -47.495930813485757 0 -47.495930813485757 129.01077543667634 0 0 0 0 -134.93695268093143 -16.866360130632529 0 -16.866360130632529 128.64437921711942 0 0 0 0 -218.09072177796043 -43.802342854294693 0 -43.802342854294693 139.17227313376497 0 0 0 0 -227.23207740008365 -94.834702439955436 0 -94.834702439955436 107.96206013057963 0 0 0 0 -209.74616094128578 -82.172252677759388 0 -82.172252677759388 108.71259400359122 0 0 0 0 -241.96463231638245 -90.518262584538661 0 -90.518262584538661 121.35490079084411 0 0 0 0 -275.85593366232933 -114.36220123351086 0 -114.36220123351086 107.25939502666006 0 0 0 0 -245.0590205010958 -63.706155376770766 0 -63.706155376770766 114.27276056609116 0 0 0 0 -240.87851959170075 -120.50307181998505 0 -120.50307181998505 80.625203692703508 0 0 0 0 -225.25502921574366 -35.952919830172505 0 -35.952919830172505 155.91273778799223 0 0 0 0 -225.96383454749594 -76.266158462822204 0 -76.266158462822204 118.83916730263445 0 0 0 0 -239.60439789338852 -87.319598556641722 0 -87.319598556641722 36.263408056373009 0 0 0 0 -258.05116306828859 -91.206432222403237 0 -91.206432222403237 140.39998335262499 0 0 0 0 -318.98055806293269 -94.353551712381886 0 -94.353551712381886 119.47931954617889 0 0 0 0 -312.0445945871752 -169.41383320578007 0 -169.41383320578007 67.940713372488972 0 0 0 0 -232.25246002117638 -174.49206859990954 0 -174.49206859990954 6.7990349436295219 0 0 0 0 -202.39646904196707 -134.00542980106547 0 -134.00542980106547 23.77085454337066 0 0 0 0 -216.62595541893825 -151.68695686624415 0 -151.68695686624415 28.836079021275509 0 0 0 0 -239.09893011819804 -134.62519004690694 0 -134.62519004690694 75.446342427210766 0 0 0 0 -239.13714560796507 -115.83750601907377 0 -115.83750601907377 88.836522445344599 0 0 0 0 -241.1799308412792 -114.66242251938002 0 -114.66242251938002 88.21720167377498 0 0 0 0 118.80366751273687 59.286488040233962 0 59.286488040233962 72.644298044760944 0 0 0 0 -81.371175423992099 25.662270323111443 0 25.662270323111443 139.66894609894371 0 0 0 0 29.38966420522047 53.382944854194648 0 53.382944854194648 116.87800567602972 0 0 0 0 42.40212139885989 3.955375377117889 0 3.955375377117889 62.301169151673093 0 0 0 0 3.6511110197170638 -1.3194697160506621 0 -1.3194697160506621 64.982802317084861 0 0 0 0 -107.08107511980052 18.315282078874588 0 18.315282078874588 129.17083578911843 0 0 0 0 -76.78064040915342 -3.0159708635765128 0 -3.0159708635765128 91.307091245194897 0 0 0 0 -89.362003100075526 36.418122892384417 0 36.418122892384417 152.00533185456879 0 0 0 0 -141.83067778256373 -2.2500133328139782 0 -2.2500133328139782 137.37215369760816 0 0 0 0 -168.05485059405328 -32.157280840998283 0 -32.157280840998283 109.90255881007761 0 0 0 0 -178.18010236962436 -28.707229999366973 0 -28.707229999366973 197.71544762456324 0 0 0 0 -106.6968395387521 -15.075796153512783 0 -15.075796153512783 117.38026927039027 0 0 0 0 -203.45262742819614 -2.0299864361732034 0 -2.0299864361732034 150.38074165827129 0 0 0 0 -119.06121670499124 -12.285316005523782 0 -12.285316005523782 239.25270696892403 0 0 0 0 5.8825898755458184 122.60647546678956 0 122.60647546678956 194.97086090862285 0 0 0 0 150.526541686786 202.21522234191434 0 202.21522234191434 218.65869048246532 0 0 0 0 -51.027611892932327 110.80123818691209 0 110.80123818691209 414.47244281848543 0 0 0 0 4.188738099296387 -4.7181909575902345 0 -4.7181909575902345 -2.4055741624752898 0 0 0 0 -106.3254233292173 -477.73069704193767 0 -477.73069704193767 -318.90686667245473 0 0 0 0 0.19850650396286085 -4.0484780834474776 0 -4.0484780834474776 5.382360744093063 0 0 0 0 -98.934543570139795 -243.99883344906266 0 -243.99883344906266 366.90805268217264 0 0 0 0 333.80160567596613 -178.78149449454213 0 -178.78149449454213 -80.927026252655196 0 0 0 0 -121.87280326648033 -66.349301934169489 0 -66.349301934169489 -277.21092015624163 0 0 0 0 -72.374073227219924 -240.13015657422511 0 -240.13015657422511 -38.762515059061116 0 0 0 0 -319.12542676942394 -127.37185377626884 0 -127.37185377626884 -49.604768313714885 0 0 0 0 -1.6504395123120048 -1.0133382819549297 0 -1.0133382819549297 -10.754692860798968 0 0 0 0 -36.895074863339687 -17.646232797935227 0 -17.646232797935227 4.0288193862652406 0 0 0 0 -388.63605142095184 -203.69621064570674 0 -203.69621064570674 34.905314067087602 0 0 0 0 -378.44497577034053 -46.394454221794149 0 -46.394454221794149 24.208552790572867 0 0 0 0 6.4335987817715221 -6.1677004216872433 0 -6.1677004216872433 -4.0063684604860157 0 0 0 0 -159.87327317006566 -123.83721899299053 0 -123.83721899299053 -129.11965962058457 0 0 0 0 -35.880662865223712 -21.579776756130741 0 -21.579776756130741 0.82999093523540068 0 0 0 0 -112.04667441835045 -105.34171280837472 0 -105.34171280837472 -169.27106538656699 0 0 0 0 -176.27911272394704 -185.26618286911435 0 -185.26618286911435 -186.54914740271488 0 0 0 0 8.7790975891111884 -1.1094964529293065 0 -1.1094964529293065 -19.445611284405459 0 0 0 0 -293.12380477868282 -336.60193600244384 0 -336.60193600244384 -269.43414102805377 0 0 0 0 3.1247041100369586 -4.4660504631726141 0 -4.4660504631726141 4.2563218634160762 0 0 0 0 25.667239297010383 28.511563069594558 0 28.511563069594558 -261.76720962014952 0 0 0 0 349.19033044001844 -19.813981902530941 0 -19.813981902530941 -115.01185438338507 0 0 0 0 -193.23285292442597 69.927027117322723 0 69.927027117322723 72.730298328329809 0 0 0 0 280.74253285774466 -387.06812394395092 0 -387.06812394395092 -382.08086183155683 0 0 0 0 -88.859498234116472 138.87916769738513 0 138.87916769738513 599.9979540505301 0 0 0 0 2.9972862426299542 -1.7778765676850838 0 -1.7778765676850838 0.73749533334043349 0 0 0 0 456.56794259462185 -300.55165716651572 0 -300.55165716651572 -408.15433887703693 0 0 0 0 28.094213795173346 -49.153415349543138 0 -49.153415349543138 38.293077217444079 0 0 0 0 19.301919814002758 15.383823244068481 0 15.383823244068481 143.11112802253774 0 0 0 0 -43.596373566122566 -180.4192417956292 0 -180.4192417956292 128.37209609345882 0 0 0 0 11.527850318921992 -161.50099582446273 0 -161.50099582446273 134.68431649554987 0 0 0 0 -64.566096545313485 -137.43518295045942 0 -137.43518295045942 224.9575097058696 0 0 0 0 -45.952683709212579 -186.65920683695003 0 -186.65920683695003 144.31859350865125 0 0 0 0 -105.90816456874018 -104.50401459877321 0 -104.50401459877321 128.45858387056433 0 0 0 0 -217.99673367456126 -512.69116644705355 0 -512.69116644705355 383.41801307875721 0 0 0 0 -291.33648263507348 -278.4348272477655 0 -278.4348272477655 662.06944882340031 0 0 0 0 -67.447479095833842 -101.22401715438173 0 -101.22401715438173 247.83752717127209 0 0 0 0 15.845225461911468 -103.88457546372956 0 -103.88457546372956 -146.47361228855516 0 0 0 0 -29.133135560274241 -422.80460845751804 0 -422.80460845751804 -18.224783991696313 0 0 0 0 -221.63001765797799 459.0645368465166 0 459.0645368465166 -796.01626051974017 0 0 0 0 -430.30950144663075 -105.30697296545986 0 -105.30697296545986 -60.472733629590948 0 0 0 0 -2.6462928387289111 -4.6618470129325118 0 -4.6618470129325118 -16.407453268331636 0 0 0 0 -257.24191785790026 333.35342107236647 0 333.35342107236647 -301.24186078719504 0 0 0 0 23.331929489926551 237.37284901310341 0 237.37284901310341 -1323.6941705220961 0 0 0 0 108.46197084651794 120.02552691790333 0 120.02552691790333 -693.57212452131171 0 0 0 0 8.4404535183712142 266.11812194681261 0 266.11812194681261 -903.8476926573785 0 0 0 0 -294.73381476568466 -556.37087972318113 0 -556.37087972318113 -471.17252198778442 0 0 0 0 964.07746512602898 124.80965523386112 0 124.80965523386112 -678.73095441357873 0 0 0 0 295.19985778143746 23.468726997034537 0 23.468726997034537 43.361176602818887 0 0 0 0 2.3026728627606587 -2.4029597307880302 0 -2.4029597307880302 -2.4139849939722353 0 0 0 0 -730.00878770240888 -789.04789264388273 0 -789.04789264388273 -533.30065497601754 0 0 0 0 -285.91796859246824 -185.06061694666278 0 -185.06061694666278 -277.92882990290309 0 0 0 0 -115.40478804638406 -322.5813262702286 0 -322.5813262702286 -236.30657051035087 0 0 0 0 -277.93926551663208 -314.97551287116949 0 -314.97551287116949 -255.72268969214929 0 0 0 0 86.865814382668759 -107.84481771094579 0 -107.84481771094579 44.243754636649101 0 0 0 0 5.3736141467260978 -5.2707565984865035 0 -5.2707565984865035 -4.4439897768027947 0 0 0 0 -1.264700030790209 1.5331887959217596 0 1.5331887959217596 -1.6742650977591609 0 0 0 0 -327.72329056180752 69.48075186299684 0 69.48075186299684 247.76635436283686 0 0 0 0 -76.182599981046224 249.67390259909007 0 249.67390259909007 194.11646616729922 0 0 0 0 -86.341429330248872 -25.701695467446285 0 -25.701695467446285 17.480820971752109 0 0 0 0 161.35894485581639 211.87525191443274 0 211.87525191443274 -210.66787240929261 0 0 0 0 -0.68309202506341649 2.6517019858937232 0 2.6517019858937232 -5.0004149892626515 0 0 0 0 -81.399323472571268 -95.670311569614569 0 -95.670311569614569 -59.430336109315249 0 0 0 0 41.122852716202033 -296.56415219050541 0 -296.56415219050541 -346.40759888319735 0 0 0 0 128.62629674302661 -130.84419579018868 0 -130.84419579018868 -1015.5501148421899 0 0 0 0 -240.26055766986974 -74.666060211158765 0 -74.666060211158765 -226.70514605041535 0 0 0 0 -204.26465616804489 271.81957254293229 0 271.81957254293229 -304.99231460404553 0 0 0 0 754.58785091295249 -537.44223822028835 0 -537.44223822028835 -1498.0753103658208 0 0 0 0 -813.19642391236994 506.17572234293766 0 506.17572234293766 -796.82453707465902 0 0 0 0 126.34404830540734 -36.91663859844266 0 -36.91663859844266 -676.26552594357054 0 0 0 0 97.713621731731109 -173.48933195338759 0 -173.48933195338759 -998.54524468776071 0 0 0 0 87.914369815174723 -105.84292584643117 0 -105.84292584643117 -1456.2846279174191 0 0 0 0 -476.50235909999901 -656.8776797167593 0 -656.8776797167593 -850.93144806949567 0 0 0 0 154.95912132366357 -328.21297692241933 0 -328.21297692241933 -676.56351877650013 0 0 0 0 -224.20586455895682 -222.94535234141949 0 -222.94535234141949 -219.19210373441456 0 0 0 0 59.009991273247579 -317.4638088752763 0 -317.4638088752763 -209.64796912089514 0 0 0 0 -141.21977985043526 -403.56957601293703 0 -403.56957601293703 194.78182233218104 0 0 0 0 37.924536559643457 -198.14437558940699 0 -198.14437558940699 144.09507986040262 0 0 0 0 -100.64282960598939 -176.66042133401788 0 -176.66042133401788 403.08055246758158 0 0 0 0 -25.858822905716806 -263.14656981135704 0 -263.14656981135704 186.75844459497603 0 0 0 0 -206.90494730786304 -72.630450828313769 0 -72.630450828313769 567.89751826485735 0 0 0 0 -143.07471279892181 314.22836129622135 0 314.22836129622135 64.458909674358438 0 0 0 0 465.70587772998988 -478.34966782586707 0 -478.34966782586707 75.462783925773692 0 0 0 0 0.71471529254736055 1.4359751744909914 0 1.4359751744909914 3.7060002884397818 0 0 0 0 -41.560105585431302 53.601161520145979 0 53.601161520145979 146.21721458344837 0 0 0 0 181.66459388012652 -309.43469805702773 0 -309.43469805702773 207.02743744506733 0 0 0 0 -468.40955974320968 201.21084496629192 0 201.21084496629192 232.449920616702 0 0 0 0 -28.402408221147198 -80.22858385723157 0 -80.22858385723157 370.59276068070903 0 0 0 0 -108.82758921334607 -162.45600978834409 0 -162.45600978834409 394.40721640740958 0 0 0 0 171.63806212285067 52.042465899193246 0 52.042465899193246 -82.784298777070944 0 0 0 0 -4.3250940412577563 -5.1414173115974222 0 -5.1414173115974222 -4.7687614022560183 0 0 0 0 -29.907027739287514 -88.910365396353882 0 -88.910365396353882 -31.050885347620351 0 0 0 0 -284.71864449473651 92.245911915480974 0 92.245911915480974 98.957998776138993 0 0 0 0 -169.54904774102033 -193.69389225655323 0 -193.69389225655323 136.2836143066088 0 0 0 0 0.24543122882190715 2.8673125304054707 0 2.8673125304054707 11.994080684038835 0 0 0 0 107.96449317337829 -146.96414926405123 0 -146.96414926405123 160.64953781365693 0 0 0 0 -85.156126639078138 -33.272573447917239 0 -33.272573447917239 227.83036823065777 0 0 0 0 -52.285235645384091 -54.253216697026801 0 -54.253216697026801 90.5051131543878 0 0 0 0 -87.569831506538321 -115.73817207486718 0 -115.73817207486718 -63.088487984467065 0 0 0 0 -12.629941885406879 30.923239544703392 0 30.923239544703392 -6.9322357574710622 0 0 0 0 -38.178178451256827 -49.130721723009628 0 -49.130721723009628 27.168163909154828 0 0 0 0 -96.193748487385164 -52.08606515340216 0 -52.08606515340216 145.03569739905652 0 0 0 0 -81.571421467866458 -10.893123830272089 0 -10.893123830272089 116.8230090977886 0 0 0 0 -50.588081548688933 -58.50900934618403 0 -58.50900934618403 122.53181051848514 0 0 0 0 -74.121290002243768 -69.532076162657177 0 -69.532076162657177 131.68581290892325 0 0 0 0 -393.23508757803211 -253.82137677592982 0 -253.82137677592982 0.39476061736422707 0 0 0 0 -165.35433128976729 -90.852965399550158 0 -90.852965399550158 126.79960023009335 0 0 0 0 -130.74274918674018 -11.831391505109423 0 -11.831391505109423 106.03272794457735 0 0 0 0 -65.436487659768318 -24.743778737079992 0 -24.743778737079992 68.585836133774137 0 0 0 0 -17.392797853155571 -7.030180269792254 0 -7.030180269792254 86.653390762177878 0 0 0 0 -65.143397410174657 -17.168871796908206 0 -17.168871796908206 97.990136584754509 0 0 0 0 9.9669259304137086 -59.600137175628333 0 -59.600137175628333 22.84040094899683 0 0 0 0 -49.289680141606368 13.673264058677887 0 13.673264058677887 33.152158522629179 0 0 0 0 -1.9403705563888991 3.7654193297656491 0 3.7654193297656491 19.282043516625407 0 0 0 0 -402.10584938885404 -259.45316190391532 0 -259.45316190391532 26.357010107763926 0 0 0 0 -3.9975972942929587 -0.21073148299187494 0 -0.21073148299187494 4.1656348244445098 0 0 0 0 -46.565355121327229 71.720395361358896 0 71.720395361358896 3.2549365801532986 0 0 0 0 -273.16630993299623 26.159053003197187 0 26.159053003197187 84.677819620701484 0 0 0 0 -401.81429504844346 -515.08038355287135 0 -515.08038355287135 -29.250602623258601 0 0 0 0 -655.4080832680379 -548.72284167911221 0 -548.72284167911221 -33.594887667975854 0 0 0 0 -506.42708447741461 -363.11210303982807 0 -363.11210303982807 -249.37070873867924 0 0 0 0 -1.7453902365918594 -4.1494045161733766 0 -4.1494045161733766 -0.89880052880096173 0 0 0 0 -2.1562048408876962 -1.5207775315592329 0 -1.5207775315592329 2.5644569205962284 0 0 0 0 -696.13182065119327 -75.752281138222315 0 -75.752281138222315 100.75681206971058 0 0 0 0 9.1403735096237142 -2.9701109169045594 0 -2.9701109169045594 -87.502496893779607 0 0 0 0 -39.516925652307691 44.978470360125357 0 44.978470360125357 -76.769018665218027 0 0 0 0 -8.836019299019739 -13.563517423730516 0 -13.563517423730516 5.2278850061966153 0 0 0 0 16.387218436881085 -24.702362036405248 0 -24.702362036405248 -116.91021847548836 0 0 0 0 20.424103446333902 -83.733041994550149 0 -83.733041994550149 -136.51734828753979 0 0 0 0 148.53105859201241 -339.24788130530578 0 -339.24788130530578 164.59268569033884 0 0 0 0 -26.334157297445927 -133.31075115497515 0 -133.31075115497515 -31.139267287653638 0 0 0 0 -6.6165765223413473 -45.625927970686462 0 -45.625927970686462 -84.970628791095805 0 0 0 0 -25.75156218340635 -45.257609542812133 0 -45.257609542812133 -6.3192279695649631 0 0 0 0 -2.3329921920253014 -13.728413823749037 0 -13.728413823749037 0.83940774142860874 0 0 0 0 -34.393033728621958 -3.6323748937866185 0 -3.6323748937866185 22.556878271498135 0 0 0 0 -5.1953650208743056 -21.670389686376438 0 -21.670389686376438 2.4722257269640977 0 0 0 0 -3.1816510434364318 -27.135446680535097 0 -27.135446680535097 -43.56983094131283 0 0 0 0 4.4825825231819181 14.407300972005032 0 14.407300972005032 -30.027911749348277 0 0 0 0 -8.1932990645182144 -43.918171851233637 0 -43.918171851233637 197.94468778244482 0 0 0 0 2.3599196290066402 -1.1095170232933924 0 -1.1095170232933924 -0.045231369209346894 0 0 0 0 2.5151611899627824 -31.577908217152071 0 -31.577908217152071 1.1043597133975709 0 0 0 0 -7.3589139879704391 -14.168787329703306 0 -14.168787329703306 -13.021415724646857 0 0 0 0 0.91664116827087128 -24.352839028263588 0 -24.352839028263588 2.0863073936779983 0 0 0 0 -10.301890989925596 -20.245320754031127 0 -20.245320754031127 4.4639663443595055 0 0 0 0 -10.121718814651544 -11.37490714456797 0 -11.37490714456797 -4.5768041793635632 0 0 0 0 -56.871471043349629 -91.944567521048384 0 -91.944567521048384 79.252179810602684 0 0 0 0 -10.555113301234087 -26.26877746466198 0 -26.26877746466198 5.3871306904475205 0 0 0 0 103.88291039189062 -233.95706557137601 0 -233.95706557137601 31.890323264684412 0 0 0 0 69.355153111064283 100.6255212702963 0 100.6255212702963 -45.03314831316311 0 0 0 0 -7.5023941728761514 -7.7720355814696234 0 -7.7720355814696234 -7.0901126254417193 0 0 0 0 -55.226598267952795 9.0321852431661682 0 9.0321852431661682 27.500478679430671 0 0 0 0 40.668859181685548 -74.422811197720875 0 -74.422811197720875 -0.21928201435366645 0 0 0 0 3.4874551633256488 -13.999446076602908 0 -13.999446076602908 10.746732705087197 0 0 0 0 1.100495526989107 -22.098392084302759 0 -22.098392084302759 -12.068470527927275 0 0 0 0 -9.698315474468572 -13.382990086115782 0 -13.382990086115782 -13.773486316122188 0 0 0 0 23.163352842078893 -44.022152128563903 0 -44.022152128563903 23.523774368019076 0 0 0 0 190.64325712683058 -51.114441467550932 0 -51.114441467550932 -94.176826219962095 0 0 0 0 64.063893515092786 -46.610977731645107 0 -46.610977731645107 2.7615804402157664 0 0 0 0 36.719711852114415 -0.86700581568584312 0 -0.86700581568584312 79.835070898348931 0 0 0 0 3.9082375819931627 -0.54354284579463297 0 -0.54354284579463297 -3.310170715553113 0 0 0 0 162.01321186367568 -148.66949366538756 0 -148.66949366538756 49.320837722858414 0 0 0 0 138.75502108094224 -179.56807315625338 0 -179.56807315625338 38.491907674557297 0 0 0 0 381.53178789561207 -173.3462617149562 0 -173.3462617149562 -56.863356188820035 0 0 0 0 311.80333630421228 -439.43240605149185 0 -439.43240605149185 -5.0003870409200317 0 0 0 0 185.5011744499061 -231.31203296191234 0 -231.31203296191234 98.981297871532661 0 0 0 0 236.00797787409101 -129.65607715607621 0 -129.65607715607621 26.161878159691696 0 0 0 0 359.4867166824115 -352.22968157820287 0 -352.22968157820287 114.38335503953931 0 0 0 0 660.85964823671611 -535.47558791942674 0 -535.47558791942674 21.161224732451956 0 0 0 0 704.18044688880764 -149.04664394608335 0 -149.04664394608335 -119.78307883443722 0 0 0 0 635.13336513905233 -253.77850166843928 0 -253.77850166843928 -0.30421399269835092 0 0 0 0 1007.6564758108398 -368.12166522401094 0 -368.12166522401094 34.56849178570701 0 0 0 0 177.78028762627582 106.05300204162995 0 106.05300204162995 75.881457829615101 0 0 0 0 236.35069247391948 -308.27994394712732 0 -308.27994394712732 483.7274389521408 0 0 0 0 6.7145169709256436 -4.8891207275890167 0 -4.8891207275890167 -0.91105698368760102 0 0 0 0 409.2607638860718 -602.46295589110377 0 -602.46295589110377 199.22177630763872 0 0 0 0 357.68404006527089 -318.52801731751151 0 -318.52801731751151 -160.03275979803584 0 0 0 0 390.99089012460536 -183.80286620646802 0 -183.80286620646802 307.99633711170463 0 0 0 0 116.70517047677276 -693.98181221971026 0 -693.98181221971026 -93.599964028508111 0 0 0 0 305.65820025057837 -450.39335109215244 0 -450.39335109215244 64.9132510512718 0 0 0 0 340.01082634255363 -540.34891521954705 0 -540.34891521954705 286.58420488488628 0 0 0 0 340.9418466809293 -632.90959919498709 0 -632.90959919498709 37.016498593979122 0 0 0 0 380.03575513774558 -798.62424704085424 0 -798.62424704085424 636.75695408096362 0 0 0 0 49.888473570586939 -700.18624768074733 0 -700.18624768074733 1541.1862581536989 0 0 0 0 112.29225434573164 -210.80362650415191 0 -210.80362650415191 347.76623542077141 0 0 0 0 245.75439472810831 -374.89542245582925 0 -374.89542245582925 304.9022450306511 0 0 0 0 187.32777381316555 -317.03233117821947 0 -317.03233117821947 626.5412294076325 0 0 0 0 74.298022040258729 -207.51411773467726 0 -207.51411773467726 249.57877583321533 0 0 0 0 192.52644596352184 -204.14886313244278 0 -204.14886313244278 225.40123160637449 0 0 0 0 175.46468240182003 -219.16854055684598 0 -219.16854055684598 137.65622740838444 0 0 0 0 95.507799048435118 -86.570756178785814 0 -86.570756178785814 163.24674522962869 0 0 0 0 -5.2060985456450766 -7.8923271349708273 0 -7.8923271349708273 -9.8422078814976999 0 0 0 0 76.074303239976871 -216.70740381271753 0 -216.70740381271753 221.92618623755334 0 0 0 0 169.88318845504546 -305.90454923511425 0 -305.90454923511425 294.49353349764124 0 0 0 0 229.86123329381371 -301.48507075483212 0 -301.48507075483212 170.0918340790231 0 0 0 0 -43.745714893695549 -53.97106184985023 0 -53.97106184985023 49.0394350225979 0 0 0 0 -7.5499712383918052 -11.900907815392799 0 -11.900907815392799 -13.984366875888156 0 0 0 0 152.11078026193718 -94.134418628236745 0 -94.134418628236745 64.722041061919299 0 0 0 0 86.551371056804783 -130.79002435185248 0 -130.79002435185248 134.97228374464612 0 0 0 0 234.08955529225932 -202.40478255355265 0 -202.40478255355265 103.88412260334007 0 0 0 0 -61.755788714865048 109.25582860878058 0 109.25582860878058 -5.9016244237454885 0 0 0 0 -3.8762347326290723 -2.3696480554788053 0 -2.3696480554788053 -0.008953624102446156 0 0 0 0 101.92324506671503 -209.92948702122703 0 -209.92948702122703 16.868092086981051 0 0 0 0 -161.14132228407107 -85.840719006970176 0 -85.840719006970176 116.94747024113894 0 0 0 0 144.2903829803472 35.126991147801164 0 35.126991147801164 -85.393378726570518 0 0 0 0 32.940224991587456 -37.044224911107449 0 -37.044224911107449 271.83038063673303 0 0 0 0 192.23900030514051 -155.82295113058353 0 -155.82295113058353 19.995566108991625 0 0 0 0 135.97841317574785 227.29461128438925 0 227.29461128438925 -68.65679700615874 0 0 0 0 -129.42243762165708 -250.9718705733294 0 -250.9718705733294 156.02587664102612 0 0 0 0 233.10841894388432 -64.712687381557771 0 -64.712687381557771 300.65705944916408 0 0 0 0 -35.858548881660681 78.566358687487082 0 78.566358687487082 0.18743670905860199 0 0 0 0 -135.76855298607916 -600.84708521640641 0 -600.84708521640641 172.74123398857773 0 0 0 0 -0.028769271490602932 -2.2625099108560676 0 -2.2625099108560676 -6.9926702953438848 0 0 0 0 -168.91989951736468 204.20958287052053 0 204.20958287052053 251.2913142509733 0 0 0 0 17.230359586566919 -184.04514321927854 0 -184.04514321927854 139.62913568066142 0 0 0 0 366.40778488249634 -582.74913375720644 0 -582.74913375720644 130.50347510629217 0 0 0 0 477.08744947794185 -273.6575604058271 0 -273.6575604058271 56.427552759647369 0 0 0 0 0.5147532254043341 -1.3176563554364975 0 -1.3176563554364975 -3.2275432141458396 0 0 0 0 21.224381652631564 -352.43645936372923 0 -352.43645936372923 277.19894216237299 0 0 0 0 163.07346398732625 -375.52444416629442 0 -375.52444416629442 82.518671593541512 0 0 0 0 196.69160060242575 -277.33719168623793 0 -277.33719168623793 -195.79567452652554 0 0 0 0 94.992258922458859 -440.56786134345748 0 -440.56786134345748 19.98383907067182 0 0 0 0 119.94778355104791 -292.86064908457047 0 -292.86064908457047 -194.33562956050446 0 0 0 0 252.55441687183338 -121.19876142582143 0 -121.19876142582143 -522.74940741632599 0 0 0 0 162.80078578770917 -265.43603540840559 0 -265.43603540840559 -161.83329329040134 0 0 0 0 208.27122918248642 -95.81634302099701 0 -95.81634302099701 -164.17553670401685 0 0 0 0 270.77955314587962 13.314748247496027 0 13.314748247496027 -600.00176010420546 0 0 0 0 203.96107797753939 -58.345825233554933 0 -58.345825233554933 -481.48994920215046 0 0 0 0 233.49213931370468 -85.588894672880997 0 -85.588894672880997 -744.6489691666211 0 0 0 0 568.32346952691296 12.159871075411502 0 12.159871075411502 -491.92594782626838 0 0 0 0 421.09013831109041 199.28445319024468 0 199.28445319024468 -62.091249136050465 0 0 0 0 245.58530977450937 -26.097102678542797 0 -26.097102678542797 -432.56158734302153 0 0 0 0 247.46870038003544 -55.769489980659273 0 -55.769489980659273 -428.16846053901827 0 0 0 0 1.4213230326827215 -0.050546500669838679 0 -0.050546500669838679 -5.6590233920206288 0 0 0 0 -233.06658594439796 -52.880480241175974 0 -52.880480241175974 -116.84745290705177 0 0 0 0 -6.0541631637479441 -269.52133511087595 0 -269.52133511087595 -589.47018100468267 0 0 0 0 135.53871163378426 -57.187032880650804 0 -57.187032880650804 -476.44929753043107 0 0 0 0 -0.11431600073152026 -3.1148640415754869 0 -3.1148640415754869 -5.7529135447249473 0 0 0 0 -55.739626351583865 -42.852551133230008 0 -42.852551133230008 84.500134381240059 0 0 0 0 -31.919455823665999 -83.528286817314381 0 -83.528286817314381 109.03920987457968 0 0 0 0 -161.23115534021781 118.28645871413755 0 118.28645871413755 39.400275658008468 0 0 0 0 70.197171722098574 -404.82614665017172 0 -404.82614665017172 -148.559408988207 0 0 0 0 165.84572837666201 -117.80248512106482 0 -117.80248512106482 219.77109648549958 0 0 0 0 -152.71510553440385 -246.58146683595442 0 -246.58146683595442 320.28644050075673 0 0 0 0 150.18527185620042 -35.177379358920007 0 -35.177379358920007 -492.89497707674309 0 0 0 0 -145.69638063524144 -335.39899215019977 0 -335.39899215019977 -111.76154519293777 0 0 0 0 -359.05340946435035 -990.33413092772594 0 -990.33413092772594 902.54390566532675 0 0 0 0 899.96246176506247 -383.67291967936399 0 -383.67291967936399 -112.82161126470692 0 0 0 0 151.18764142729378 -77.686903979747512 0 -77.686903979747512 1010.0151917629846 0 0 0 0 197.8008926206021 -708.27812483465823 0 -708.27812483465823 937.42483399283219 0 0 0 0 -812.04473182693619 701.51873380029429 0 701.51873380029429 830.89475685587968 0 0 0 0 -955.2674674570153 -82.187609223903564 0 -82.187609223903564 1529.7780952725079 0 0 0 0 -0.48974531332893889 -2.7549404183497685 0 -2.7549404183497685 15.417236083552694 0 0 0 0 920.789333602228 -536.38073798019468 0 -536.38073798019468 135.82192754496646 0 0 0 0 152.59138140677624 -527.68533487822697 0 -527.68533487822697 558.51186337294348 0 0 0 0 7.8606674251423101 -438.78508027178759 0 -438.78508027178759 789.81891170684685 0 0 0 0 75.854011280513078 -293.0786322141139 0 -293.0786322141139 288.07379332862729 0 0 0 0 63.58527137017154 -339.63940218926655 0 -339.63940218926655 457.32628362624382 0 0 0 0 303.44845619134503 -489.38362891656834 0 -489.38362891656834 476.2544609982142 0 0 0 0 137.45755316378927 -356.91657968960862 0 -356.91657968960862 846.86975585093023 0 0 0 0 -74.005278002554405 -374.92687032933827 0 -374.92687032933827 0.83201726183688152 0 0 0 0 134.25910265956918 -419.64856750846229 0 -419.64856750846229 511.62665023263071 0 0 0 0 208.39668881794205 -379.80436436820673 0 -379.80436436820673 511.48137424274319 0 0 0 0 27.304819298224174 -140.60349600254631 0 -140.60349600254631 -504.09911533797276 0 0 0 0 1.5947384468752546 -10.33163051249926 0 -10.33163051249926 -2.8009885542021919 0 0 0 0 88.641532295558136 -260.79974050932287 0 -260.79974050932287 -1115.2909757094412 0 0 0 0 -94.857780118345545 -280.37111316709161 0 -280.37111316709161 -113.57402069011732 0 0 0 0 1.1977901914736151 -5.6829266637126636 0 -5.6829266637126636 -0.54794845851159835 0 0 0 0 -2.8169753302136087 -294.95081588516041 0 -294.95081588516041 -126.77866142982202 0 0 0 0 -170.19931211412768 -530.6083980845342 0 -530.6083980845342 968.40892917619931 0 0 0 0 104.96459158838661 -492.26873398021417 0 -492.26873398021417 70.289784522603441 0 0 0 0 93.117152200302371 -102.65739789130748 0 -102.65739789130748 -154.76961723426211 0 0 0 0 -65.540719419543166 -92.307413237635046 0 -92.307413237635046 73.168780966451095 0 0 0 0 74.37332827685168 -71.534073840710334 0 -71.534073840710334 172.6663900836329 0 0 0 0 3.8175930070587043 -16.276026616683474 0 -16.276026616683474 28.664438381727223 0 0 0 0 -0.94030945410563049 -15.843733944293547 0 -15.843733944293547 5.1817939324501197 0 0 0 0 76.419417817021895 -100.68240742512717 0 -100.68240742512717 101.29816302780819 0 0 0 0 -889.39378663350362 -1613.1990823212909 0 -1613.1990823212909 1202.4307943586755 0 0 0 0 573.89098357326293 288.56323596646689 0 288.56323596646689 -1806.9042028799231 0 0 0 0 1928.0530786077943 -1186.8557229420476 0 -1186.8557229420476 0.33475096208167088 0 0 0 0 0.018796063013979847 -13.549713787010901 0 -13.549713787010901 9.143476158645047 0 0 0 0 1139.5588977141269 -1474.7594560842481 0 -1474.7594560842481 1413.7555422396254 0 0 0 0 2.3327640671020049 -1.5808944175395538 0 -1.5808944175395538 -0.27552087578467166 0 0 0 0 348.37266514639487 127.16739750134002 0 127.16739750134002 -1729.2418305673809 0 0 0 0 -241.16385971928321 -811.12990059274125 0 -811.12990059274125 1228.1103176747711 0 0 0 0 385.53192366976873 -277.2537581961933 0 -277.2537581961933 198.75986118840228 0 0 0 0 7.1480402240930943 -19.904389376946064 0 -19.904389376946064 27.242117663138572 0 0 0 0 -92.943983329256298 -198.10043253722688 0 -198.10043253722688 154.98883697728161 0 0 0 0 424.37466301604582 -249.76522740617656 0 -249.76522740617656 146.61030183704952 0 0 0 0 4.830771372273702 -6.1693556881174914 0 -6.1693556881174914 11.301193372223821 0 0 0 0 -114.81018964490795 161.18356680519355 0 161.18356680519355 352.57377886553149 0 0 0 0 3460.5568754359483 -624.16739715106814 0 -624.16739715106814 -151.67990209365962 0 0 0 0 2292.3763248660034 -2132.0142018164242 0 -2132.0142018164242 622.5095104607899 0 0 0 0 -3.3019419876145548 -1720.8010202105961 0 -1720.8010202105961 1147.8180168148829 0 0 0 0 783.69189694121451 -2213.0139728143295 0 -2213.0139728143295 972.86671503421167 0 0 0 0 1067.0788388119254 -1805.0796849904436 0 -1805.0796849904436 563.65637722338579 0 0 0 0 967.57442898900626 -1672.0222838853115 0 -1672.0222838853115 870.45133156010343 0 0 0 0 288.76832334962819 -1221.7364758045733 0 -1221.7364758045733 632.64690216207964 0 0 0 0 1.4263022495579207 -1015.7552919232039 0 -1015.7552919232039 1015.3086714753226 0 0 0 0 109.6475426265024 -842.73937038460735 0 -842.73937038460735 1271.3483378446836 0 0 0 0 156.735754689842 -577.29408380531095 0 -577.29408380531095 1153.9321464137975 0 0 0 0 189.80282467288635 -867.55365842765241 0 -867.55365842765241 757.85850871431467 0 0 0 0 385.42667401078506 -576.0333310143651 0 -576.0333310143651 1126.6582572613843 0 0 0 0 662.50446594974346 -908.56516190838738 0 -908.56516190838738 761.22593393854913 0 0 0 0 686.87550232428475 -558.80664807152061 0 -558.80664807152061 634.58528908762673 0 0 0 0 661.43178857465159 -868.05207907104307 0 -868.05207907104307 352.32917677427758 0 0 0 0 0.16032912506752695 4.0436569110264031 0 4.0436569110264031 20.659633341591331 0 0 0 0 -1171.7958768290409 86.871211547128041 0 86.871211547128041 -162.94806759239873 0 0 0 0 991.88058260547405 -1325.4412523412284 0 -1325.4412523412284 726.97219202066663 0 0 0 0 -1694.1531411972574 660.67362978738674 0 660.67362978738674 581.38727854817989 0 0 0 0 -1025.1434928045919 521.2293442042901 0 521.2293442042901 -13.914384854550008 0 0 0 0 549.83199743967998 -872.69849415269346 0 -872.69849415269346 1015.9143799517333 0 0 0 0 595.8200358806771 -530.2091087877352 0 -530.2091087877352 501.11684827637509 0 0 0 0 64.023902664041088 113.4786886841066 0 113.4786886841066 175.4225641781486 0 0 0 0 -17.500110119348392 3.933194159901177 0 3.933194159901177 32.62202309910208 0 0 0 0 -1.9851633454092692 -0.51128256138116512 0 -0.51128256138116512 56.677135306018357 0 0 0 0 1.5119570835241234 -2.1895470527191492 0 -2.1895470527191492 8.2759641812818927 0 0 0 0 -395.53459188939632 -525.74603981635778 0 -525.74603981635778 76.062663926801179 0 0 0 0 -846.36627573316218 -302.4759059039061 0 -302.4759059039061 138.49729923975246 0 0 0 0 -92.975055523575065 -404.55029077673498 0 -404.55029077673498 -219.50601172768074 0 0 0 0 25.423299335580538 -56.452743961019699 0 -56.452743961019699 40.044712276495417 0 0 0 0 -1.1722107087783229 -10.655992596567927 0 -10.655992596567927 13.186629920088649 0 0 0 0 16.836720483528552 -23.245684748055282 0 -23.245684748055282 20.851584451142116 0 0 0 0 1.0724177040438292 -4.7709806178577097 0 -4.7709806178577097 24.671187260281613 0 0 0 0 -8.2496629377874342 -16.637079979714599 0 -16.637079979714599 21.190860255403095 0 0 0 0 7.9470446343866854 -3.4231638061493115 0 -3.4231638061493115 6.1438072634184522 0 0 0 0 -8.6896609070390696 -27.256879973261675 0 -27.256879973261675 6.1872368828408071 0 0 0 0 0.044742373198673267 -36.387698393510718 0 -36.387698393510718 -15.820277288330544 0 0 0 0 -11.503285720551503 -21.345510597922839 0 -21.345510597922839 37.407027985585955 0 0 0 0 -190.75337263544498 -465.38338085475698 0 -465.38338085475698 1793.9784125086808 0 0 0 0 4.2387375388860278 -0.93552296625407649 0 -0.93552296625407649 1.2020251722899076 0 0 0 0 423.63360727405234 -268.21663750564767 0 -268.21663750564767 113.77688211781788 0 0 0 0 -62.427853085573588 -244.21666414283573 0 -244.21666414283573 665.8387641448935 0 0 0 0 -75.585168497154882 -157.78820457678376 0 -157.78820457678376 5.4611858411371941 0 0 0 0 -57.155079979725997 -150.68305791582679 0 -150.68305791582679 -145.25360194614404 0 0 0 0 -203.26649165306026 -77.869345846200304 0 -77.869345846200304 167.68262397761282 0 0 0 0 40.357095611312616 -203.10199940324492 0 -203.10199940324492 -542.44580571135521 0 0 0 0 -82.256711636407999 -87.269429643551121 0 -87.269429643551121 -109.5151757816493 0 0 0 0 -74.189629821077688 -32.921563595971747 0 -32.921563595971747 -210.31588628179816 0 0 0 0 -7.728139523860591 -65.036244959977921 0 -65.036244959977921 -211.78062316475189 0 0 0 0 -32.464727327545916 -115.31624259446471 0 -115.31624259446471 -158.13188757459284 0 0 0 0 -67.261673751960188 -77.618067879891896 0 -77.618067879891896 -108.1609837806609 0 0 0 0 -67.862968199491263 -88.355588889275737 0 -88.355588889275737 -46.78417542893294 0 0 0 0 -41.298862602232475 -127.95297992871565 0 -127.95297992871565 -23.514503191239783 0 0 0 0 -12.374235934669414 -14.707660296380674 0 -14.707660296380674 -15.84500246623314 0 0 0 0 -83.177662839028926 -88.430613929092942 0 -88.430613929092942 11.32824504707969 0 0 0 0 -59.569792020777577 -53.949895115813057 0 -53.949895115813057 -29.247446204479488 0 0 0 0 -81.518671076895203 -75.998277860411918 0 -75.998277860411918 -53.127640538150445 0 0 0 0 -38.831696644216208 -129.96755841580307 0 -129.96755841580307 -18.140827768860618 0 0 0 0 -41.586185544096224 -124.7356848823656 0 -124.7356848823656 -127.53599807889441 0 0 0 0 -46.086481575868675 -133.51849313365165 0 -133.51849313365165 -19.580251420582499 0 0 0 0 16.838956459640031 -69.661121585821093 0 -69.661121585821093 -129.17593623331777 0 0 0 0 -26.274992005812237 -29.658604288732022 0 -29.658604288732022 -58.711829471118108 0 0 0 0 -72.092175032178602 -110.44112918383689 0 -110.44112918383689 50.186534965469036 0 0 0 0 -36.895876023923847 5.9267198690213263 0 5.9267198690213263 -18.067280355957337 0 0 0 0 -83.810919293860479 9.5657278843333842 0 9.5657278843333842 138.73003479880498 0 0 0 0 -4.8224042866506682 -10.007674698083534 0 -10.007674698083534 -2.2364794631757547 0 0 0 0 -12.205438977683116 -86.475436805252684 0 -86.475436805252684 -61.273520736525825 0 0 0 0 -42.433177456947305 -66.954433322753175 0 -66.954433322753175 -7.6484144276037114 0 0 0 0 -42.41489540946462 -40.078846367048584 0 -40.078846367048584 20.067821700633729 0 0 0 0 -10.495038017071323 -32.057902951224825 0 -32.057902951224825 6.8229260507254708 0 0 0 0 -47.965086236526233 -58.024926630194905 0 -58.024926630194905 -30.345050802460094 0 0 0 0 -36.619777304718809 -63.116452258414938 0 -63.116452258414938 -9.8983383490594861 0 0 0 0 -59.528369711154483 -75.2679644290547 0 -75.2679644290547 -2.7508550529018976 0 0 0 0 -55.282882626166156 -84.53882732989041 0 -84.53882732989041 -27.261830238378025 0 0 0 0 -51.593787330486521 -58.359971818281338 0 -58.359971818281338 -13.486370368365897 0 0 0 0 -43.735729853329758 -38.185913796747627 0 -38.185913796747627 4.7803002330474555 0 0 0 0 -27.145231578619132 -49.329302660342364 0 -49.329302660342364 -80.726443412360823 0 0 0 0 -2.451144074616959 -9.0510375755777517 0 -9.0510375755777517 -17.256505589754369 0 0 0 0 -35.657817536937728 11.338691016557277 0 11.338691016557277 73.470705761945283 0 0 0 0 -37.625198031177518 -70.339898050879924 0 -70.339898050879924 -1.245329444296658 0 0 0 0 -35.055974485567255 -33.420705681476761 0 -33.420705681476761 -11.875995402875105 0 0 0 0 15.912487208504899 -45.635156751843169 0 -45.635156751843169 120.59056665845856 0 0 0 0 -25.754729710985885 -42.804905480697926 0 -42.804905480697926 34.125402685269364 0 0 0 0 -15.833311338265 -29.806044489458387 0 -29.806044489458387 -7.2705315506739652 0 0 0 0 -37.877441185741134 -34.777840757197836 0 -34.777840757197836 13.454747293189261 0 0 0 0 -27.455799599558038 -32.091207103711994 0 -32.091207103711994 5.3698033791358881 0 0 0 0 -18.68902230105342 -16.992814272856435 0 -16.992814272856435 26.293665998477238 0 0 0 0 -22.665913900654687 -28.847262095379847 0 -28.847262095379847 30.526409268401039 0 0 0 0 -46.351982560008764 103.59264305233955 0 103.59264305233955 106.30209948014817 0 0 0 0 -14.378050269260939 -36.774365071771172 0 -36.774365071771172 7.8347060064188554 0 0 0 0 -25.044635153319859 -39.631173861384013 0 -39.631173861384013 14.465232150629163 0 0 0 0 -95.613253800656821 -130.95807270624209 0 -130.95807270624209 57.18924122559838 0 0 0 0 -12.428944851154483 -34.061067671063938 0 -34.061067671063938 7.4015676481790251 0 0 0 0 -15.135137112760503 -28.817951738750708 0 -28.817951738750708 -2.2738296193856513 0 0 0 0 -14.699465295122991 -27.107021942509164 0 -27.107021942509164 3.0762424537779225 0 0 0 0 -26.074009578610912 -17.976313390121504 0 -17.976313390121504 4.1666677095640807 0 0 0 0 -36.602970397892364 -25.61807963614865 0 -25.61807963614865 12.212767731849453 0 0 0 0 -21.856122060704365 -27.146721002165577 0 -27.146721002165577 8.1451065210435445 0 0 0 0 -22.805677386447542 -24.899307063471497 0 -24.899307063471497 17.8740543205422 0 0 0 0 383.18515502233595 425.47451246238052 0 425.47451246238052 -155.18160902653972 0 0 0 0 2.9610395602322397 -1.813062406639034 0 -1.813062406639034 2.3247224408574425 0 0 0 0 -49.806315847102269 -60.037271002191119 0 -60.037271002191119 22.98841434505448 0 0 0 0 39.193007742233476 0.61025494662317215 0 0.61025494662317215 -0.50647471027332358 0 0 0 0 -0.091589689393837492 -12.15074957768617 0 -12.15074957768617 14.984673565022092 0 0 0 0 26.79482947389306 24.479218710810528 0 24.479218710810528 -41.304736910598876 0 0 0 0 -1.0935124356801218 0.29743948532218667 0 0.29743948532218667 1.8609870134829976 0 0 0 0 -41.536297309695442 -78.783963124030379 0 -78.783963124030379 55.935587732878048 0 0 0 0 -50.599676622416155 0.023774650951963849 0 0.023774650951963849 43.678916165314149 0 0 0 0 6.7371464957718672 1.9458961461023137 0 1.9458961461023137 42.964289830066264 0 0 0 0 -8.3722155310379094 13.832692019037495 0 13.832692019037495 193.95918851332681 0 0 0 0 33.258121269127514 -40.024065435565717 0 -40.024065435565717 57.647766200025217 0 0 0 0 -21.023098350056102 -7.0155425777211349 0 -7.0155425777211349 84.970314544952998 0 0 0 0 -39.824795314884341 2.1051069793174975 0 2.1051069793174975 197.27727133184089 0 0 0 0 -1.4332227637992219 -1.2822448868150786 0 -1.2822448868150786 16.704615154990847 0 0 0 0 -36.093424626519926 -59.780091941682322 0 -59.780091941682322 48.298962281212994 0 0 0 0 21.520254685775598 21.435772543218263 0 21.435772543218263 104.01177110199933 0 0 0 0 60.886699214365308 -17.844170780296736 0 -17.844170780296736 31.764905793424987 0 0 0 0 -3.497766320602981 -29.43553339007201 0 -29.43553339007201 50.526633352916718 0 0 0 0 38.186299603401494 0.5840666198200779 0 0.5840666198200779 187.43337995916227 0 0 0 0 -50.162885355806338 -41.138845979042344 0 -41.138845979042344 44.816858925529232 0 0 0 0 -28.275023116811511 -36.423811217637052 0 -36.423811217637052 47.21191364830247 0 0 0 0 -11.455496500632762 -28.159665005954594 0 -28.159665005954594 44.335164534972137 0 0 0 0 -52.825388619814476 82.677399205480469 0 82.677399205480469 107.65396471018903 0 0 0 0 38.154415012385243 -84.148985967283807 0 -84.148985967283807 163.17282261058426 0 0 0 0 -30.071362345566286 69.784324649777773 0 69.784324649777773 117.17895946867793 0 0 0 0 -21.508217972715553 -27.883230190593508 0 -27.883230190593508 20.563576503324924 0 0 0 0 -23.20490535420037 -21.690148406265209 0 -21.690148406265209 10.880708381565427 0 0 0 0 -14.827831653410593 -27.850558868540787 0 -27.850558868540787 36.075379398410362 0 0 0 0 -27.679224951965629 -20.036096274336714 0 -20.036096274336714 23.713315570809897 0 0 0 0 25.997357240561541 -85.32918703413452 0 -85.32918703413452 99.765683615176386 0 0 0 0 23.976754154723039 33.785115771975143 0 33.785115771975143 -53.074504092550342 0 0 0 0 -13.156411475720233 48.546057340485277 0 48.546057340485277 160.46380544561544 0 0 0 0 -296.10715719766631 -184.50442983786706 0 -184.50442983786706 -27.241361159447479 0 0 0 0 -94.578388942310994 -216.51963358556168 0 -216.51963358556168 -117.41954868770154 0 0 0 0 54.912841213138563 -35.601589962207072 0 -35.601589962207072 -64.271932514104265 0 0 0 0 -84.888107802411923 -129.14164453289118 0 -129.14164453289118 38.852042006379634 0 0 0 0 -9.772871542507346 -123.84613470795739 0 -123.84613470795739 -162.84061005145486 0 0 0 0 14.124092608253704 -67.134148095821729 0 -67.134148095821729 72.780286709119537 0 0 0 0 -227.3017957416796 -105.22006801117459 0 -105.22006801117459 147.7184546383869 0 0 0 0 -232.85202265714361 -247.18911924715394 0 -247.18911924715394 83.535965580980701 0 0 0 0 -224.37090804516993 -186.24643198949707 0 -186.24643198949707 177.90659356195829 0 0 0 0 -31.48391818673872 -53.907022438541389 0 -53.907022438541389 62.946481670434878 0 0 0 0 16.206232115968305 -62.285765856257058 0 -62.285765856257058 40.978744904627092 0 0 0 0 -22.703874158243618 -16.483084873440745 0 -16.483084873440745 9.0121841857428109 0 0 0 0 18.204510641029628 -50.681933753388876 0 -50.681933753388876 24.985011206270428 0 0 0 0 29.817420922252495 -34.625775180193159 0 -34.625775180193159 47.092058657935922 0 0 0 0 -1.9605282128934194 -14.727111898221306 0 -14.727111898221306 53.388733391466474 0 0 0 0 -47.3553724828962 -79.741007404576521 0 -79.741007404576521 48.430953446761123 0 0 0 0 13.836564516365129 -101.7271974332352 0 -101.7271974332352 86.410432742137345 0 0 0 0 -19.056726405267909 -76.393547312585724 0 -76.393547312585724 6.76997300241419 0 0 0 0 -50.671049803462665 7.5192947101968457 0 7.5192947101968457 192.40323595138307 0 0 0 0 -8.378569847784938 -6.1732547211277691 0 -6.1732547211277691 8.8327809148822496 0 0 0 0 15.460126438041698 -89.661040874685568 0 -89.661040874685568 42.343180609517731 0 0 0 0 -48.495203011856574 -33.445343124050851 0 -33.445343124050851 86.629292290614103 0 0 0 0 -28.281759526078531 -84.55224048999662 0 -84.55224048999662 176.59291731393569 0 0 0 0 -16.378999055685945 -13.850235193031288 0 -13.850235193031288 10.476512155559362 0 0 0 0 11.039937679265222 -44.106889990363925 0 -44.106889990363925 48.965316747890029 0 0 0 0 12.725842754589394 -59.550658384068811 0 -59.550658384068811 56.888763042465143 0 0 0 0 -6.02382220750094 -30.276658739958755 0 -30.276658739958755 39.963161208840717 0 0 0 0 -72.532636118313349 -61.992681660689414 0 -61.992681660689414 115.26143835438415 0 0 0 0 -50.488813339447006 -66.066497119612904 0 -66.066497119612904 44.6421776915995 0 0 0 0 1.7443939235958261 -3.6426461793414759 0 -3.6426461793414759 6.7503014733941029 0 0 0 0 -21.283216940526472 8.763236751081422 0 8.763236751081422 43.329859553050483 0 0 0 0 -17.13122980346634 -16.239704021860234 0 -16.239704021860234 22.567462990293279 0 0 0 0 -10.541003359649871 -24.990010045176195 0 -24.990010045176195 35.84506385364358 0 0 0 0 -8.2006285633500298 -17.759615039233672 0 -17.759615039233672 32.305415944863569 0 0 0 0 -5.8148448829560948 -45.305761328701919 0 -45.305761328701919 23.484005232348864 0 0 0 0 7.0844034457556972 -28.569131306709522 0 -28.569131306709522 24.829991885095552 0 0 0 0 32.224340445041889 -64.758982923493022 0 -64.758982923493022 26.882826048982679 0 0 0 0 2.1735976456766366 -45.617898944208719 0 -45.617898944208719 23.368425721258973 0 0 0 0 -8.87293676871559 -38.810448934811575 0 -38.810448934811575 31.179972887606709 0 0 0 0 -19.795888869846749 -23.584911310264943 0 -23.584911310264943 25.627884310946683 0 0 0 0 -15.523703464641585 -31.427049488331249 0 -31.427049488331249 16.600500470289262 0 0 0 0 -15.738096397311892 -37.396600459745969 0 -37.396600459745969 24.831942643999355 0 0 0 0 -21.687429413100432 -16.418518490461679 0 -16.418518490461679 33.752357540482322 0 0 0 0 -10.73810500784748 -38.601658421910543 0 -38.601658421910543 -5.752372753842792 0 0 0 0 -16.192642550318851 -28.969254954708958 0 -28.969254954708958 34.088520299847005 0 0 0 0 -9.3439751770638395 -38.801852704578778 0 -38.801852704578778 22.381859802117106 0 0 0 0 -13.139933432510588 -42.661043691099621 0 -42.661043691099621 28.972424005129142 0 0 0 0 -18.009711053295351 -9.0301475578001664 0 -9.0301475578001664 13.019257626603718 0 0 0 0 -8.93450362045769 -23.318374754480828 0 -23.318374754480828 31.493169872228464 0 0 0 0 -17.195760867112767 1.3641593222419033 0 1.3641593222419033 44.023266556465387 0 0 0 0 -16.510433132812977 -36.627688105343623 0 -36.627688105343623 20.189912670117337 0 0 0 0 -52.23139254659327 31.436442047874152 0 31.436442047874152 133.04933831150265 0 0 0 0 3.1530460883786873 -23.582539989296492 0 -23.582539989296492 30.208452674771252 0 0 0 0 2.6169629790443096 -18.795344053571348 0 -18.795344053571348 25.962646091880771 0 0 0 0 14.598450221184976 -22.197751515072014 0 -22.197751515072014 22.562143050789018 0 0 0 0 69.293219343293458 27.069431654803338 0 27.069431654803338 88.476541964046191 0 0 0 0 4.1472750368861995 -5.5295278211969574 0 -5.5295278211969574 0.40332082814027359 0 0 0 0 -11.789574287577125 -28.407073221887913 0 -28.407073221887913 28.843726548875566 0 0 0 0 -3.8184030907707083 -17.365447942470773 0 -17.365447942470773 -2.0028594730646816 0 0 0 0 19.311797692096444 -27.39456382477627 0 -27.39456382477627 5.8169059274478059 0 0 0 0 -4.3515473832903808 -31.54761931401481 0 -31.54761931401481 47.627464713994414 0 0 0 0 -1.5698516749034752 -25.44441604687745 0 -25.44441604687745 34.763004240016016 0 0 0 0 5.4097313827005564 -44.119856307464943 0 -44.119856307464943 33.027202529683564 0 0 0 0 -5.0282770789937388 -17.919636108240539 0 -17.919636108240539 -3.2303632220637155 0 0 0 0 -5.6040115521936968 -47.039016971371893 0 -47.039016971371893 43.705597815220244 0 0 0 0 -289.79841635219054 -63.78124756055513 0 -63.78124756055513 131.44329790952906 0 0 0 0 -139.13878700601708 -128.33174591051829 0 -128.33174591051829 39.653215724709298 0 0 0 0 -438.01699695779826 -214.14241303909876 0 -214.14241303909876 47.518843525849661 0 0 0 0 -18.167268464153494 -61.578472493731169 0 -61.578472493731169 121.35052651712613 0 0 0 0 -2.2598929122076363 0.83821327401780366 0 0.83821327401780366 1.3428407139275578 0 0 0 0 -16.373439136954403 11.833109546623746 0 11.833109546623746 117.96471012997733 0 0 0 0 -485.49810482636894 -100.72142523472576 0 -100.72142523472576 -3.5113158778549405 0 0 0 0 -475.10028370204918 -314.61740087982707 0 -314.61740087982707 -149.82441484522133 0 0 0 0 -7.4890298465216389 -3.3806325566786626 0 -3.3806325566786626 2.6910273292243261 0 0 0 0 -520.97196155306301 -142.8211837396957 0 -142.8211837396957 47.696668692216917 0 0 0 0 5.0344318268562347 -13.067600073869471 0 -13.067600073869471 25.814737413238618 0 0 0 0 -609.12461978949432 -87.952217643585755 0 -87.952217643585755 14.167206479331071 0 0 0 0 -0.92992393992343025 -2.1258325731123193 0 -2.1258325731123193 4.3315185730228194 0 0 0 0 -444.2160804442683 -22.399923502860474 0 -22.399923502860474 179.46163864605478 0 0 0 0 -666.08679035231944 83.890558909213723 0 83.890558909213723 132.49302385537885 0 0 0 0 -10.438463974576734 19.264550739004335 0 19.264550739004335 -324.50183278468467 0 0 0 0 254.54477936584954 -259.79745613822888 0 -259.79745613822888 -72.562916586182837 0 0 0 0 347.94289833480616 106.13907890200835 0 106.13907890200835 -160.97944752522017 0 0 0 0 -192.2225244151814 -224.79328927770985 0 -224.79328927770985 -121.9520528107314 0 0 0 0 -65.282105686384966 16.729843538930254 0 16.729843538930254 114.59635968617658 0 0 0 0 -12.422890241685415 -9.0211578458145567 0 -9.0211578458145567 11.107683233959378 0 0 0 0 86.006032098689502 285.16443661287394 0 285.16443661287394 262.45489822702802 0 0 0 0 142.90598791930097 -360.39061163121733 0 -360.39061163121733 -981.23005223654036 0 0 0 0 122.61388311117662 -354.99729688198931 0 -354.99729688198931 504.36343811281768 0 0 0 0 -126.41870927688137 122.17624354664372 0 122.17624354664372 779.89622891568797 0 0 0 0 781.95224194946059 -242.50582307788864 0 -242.50582307788864 789.18149961098243 0 0 0 0 0.47004587930396013 -9.2409305918230231 0 -9.2409305918230231 8.2901550815116494 0 0 0 0 -96.288349268525053 16.848761366897634 0 16.848761366897634 311.96567867194608 0 0 0 0 -119.70351348712757 115.87219916410686 0 115.87219916410686 182.2263968907464 0 0 0 0 -237.552578796712 -139.6827870077779 0 -139.6827870077779 221.23362606215233 0 0 0 0 -41.509830706689172 -182.77641329293328 0 -182.77641329293328 185.04214869859788 0 0 0 0 -24.214139238259577 -108.66040235923265 0 -108.66040235923265 167.51682858866116 0 0 0 0 65.594828195156879 -140.20997635004824 0 -140.20997635004824 131.60029287199177 0 0 0 0 -51.691870570125502 -68.783000941388309 0 -68.783000941388309 152.52008652938821 0 0 0 0 -4.2367793890954104 0.89185031607053133 0 0.89185031607053133 -0.18595591249271992 0 0 0 0 -151.79091291070654 -136.0938599901383 0 -136.0938599901383 163.19379518809728 0 0 0 0 -0.63352217063534511 -12.174461869717319 0 -12.174461869717319 9.5414798979189754 0 0 0 0 -14.025265038277482 -2.2253634044652983 0 -2.2253634044652983 -1.1461232733346023 0 0 0 0 77.725242399976651 19.058485347884357 0 19.058485347884357 -25.871345572071732 0 0 0 0 -36.578001221660088 -25.504629856468455 0 -25.504629856468455 20.456773847046179 0 0 0 0 2.6995382259445648 -2.3029380201083143 0 -2.3029380201083143 5.6553360227216416 0 0 0 0 239.89695474453038 -182.272001437992 0 -182.272001437992 63.513828078353981 0 0 0 0 -150.65202244661486 365.99596048410422 0 365.99596048410422 1096.3659886064161 0 0 0 0 140.82154009472288 -167.81009123028343 0 -167.81009123028343 143.16132707413817 0 0 0 0 72.001275770655411 421.0227948797401 0 421.0227948797401 623.97043035590832 0 0 0 0 19.778662799955782 -560.06355355679625 0 -560.06355355679625 -928.02397183865378 0 0 0 0 -230.65913467715654 -66.911949447905499 0 -66.911949447905499 -714.80063681235879 0 0 0 0 2.5820596692763047 -3.748174476330405 0 -3.748174476330405 2.9742084762007508 0 0 0 0 33.937251437420855 769.39769287930903 0 769.39769287930903 563.14577453793754 0 0 0 0 -71.356517915330187 -637.97315989466006 0 -637.97315989466006 -981.33553245446092 0 0 0 0 -485.38454962871947 -411.49218820333954 0 -411.49218820333954 -524.30081032844464 0 0 0 0 108.69968131489327 -30.89629547440552 0 -30.89629547440552 -574.58515971126326 0 0 0 0 -270.9059507698712 -10.821296444784821 0 -10.821296444784821 -100.08424790924255 0 0 0 0 62.707105267545558 -353.44842648016311 0 -353.44842648016311 -459.60687736962791 0 0 0 0 33.277767278279427 -21.471132100080823 0 -21.471132100080823 -0.42137569850790868 0 0 0 0 126.12993559628649 -46.139176640535425 0 -46.139176640535425 -470.34134288192217 0 0 0 0 -11.567140060054953 -90.20061506793536 0 -90.20061506793536 -96.861426663661405 0 0 0 0 -214.75765737037727 -525.09218110022812 0 -525.09218110022812 -276.02927951216589 0 0 0 0 -117.08572794010252 -311.12642480825889 0 -311.12642480825889 186.39093478021096 0 0 0 0 68.064500490250794 -134.68401606878251 0 -134.68401606878251 -198.28453554191219 0 0 0 0 3.3081861244834272 -54.119742132219926 0 -54.119742132219926 -7.3850386027406785 0 0 0 0 -7.6401188817096095 -54.396768139104999 0 -54.396768139104999 -16.483275169062054 0 0 0 0 -124.48873485976947 -257.6238718404893 0 -257.6238718404893 -58.778424722255295 0 0 0 0 -2.1726875999885493 -51.815377439385088 0 -51.815377439385088 -26.417635519003028 0 0 0 0 3.4645185549661619 -41.445045721689894 0 -41.445045721689894 -31.16701282775648 0 0 0 0 -2.1662641354980039 -56.240896667081927 0 -56.240896667081927 -15.223341336276803 0 0 0 0 -6.5415093971023452 -64.11363507639544 0 -64.11363507639544 -12.540589705298771 0 0 0 0 -3.7478039790039475 -66.900686212873552 0 -66.900686212873552 -20.343693896225886 0 0 0 0 34.693219792990206 -32.247687412568055 0 -32.247687412568055 -25.478002364010479 0 0 0 0 -3.6974046182058373 -67.321836258222447 0 -67.321836258222447 -19.045674399429117 0 0 0 0 8.9599011004174827 -27.18149109445676 0 -27.18149109445676 -16.010656981146894 0 0 0 0 -107.46531185145068 -201.05616672130054 0 -201.05616672130054 -144.81667556129833 0 0 0 0 61.09179552947171 1.8626561745786603 0 1.8626561745786603 -154.43032941132969 0 0 0 0 29.684106278629059 -44.775251119197044 0 -44.775251119197044 -3.6467977868609083 0 0 0 0 10.423224113432596 -4.3504229379010724 0 -4.3504229379010724 -0.78834006886809505 0 0 0 0 18.712215508802871 -17.026797366936865 0 -17.026797366936865 1.9698675916443946 0 0 0 0 21.214102525372816 -42.522124293443973 0 -42.522124293443973 -6.7358663234260661 0 0 0 0 -8.1078335302518099 -60.157926442101598 0 -60.157926442101598 -21.271208951016888 0 0 0 0 24.335636698378948 -42.496285210014321 0 -42.496285210014321 -22.693662754525576 0 0 0 0 34.473227268710616 -13.447695298069448 0 -13.447695298069448 -35.514842346165096 0 0 0 0 134.54699376165081 -86.929833144884469 0 -86.929833144884469 -290.71056129873614 0 0 0 0 10.614799129515632 -120.11907899927337 0 -120.11907899927337 -197.69021335400612 0 0 0 0 31.190682070686307 15.491335562572203 0 15.491335562572203 -61.053198723042442 0 0 0 0 16.965048269245017 -38.742459084322036 0 -38.742459084322036 36.274356370799069 0 0 0 0 31.157917046337388 -37.507828480203898 0 -37.507828480203898 20.811632610882953 0 0 0 0 27.51345688406505 -32.150493850852442 0 -32.150493850852442 23.914264153695953 0 0 0 0 2.4530442650093391 -55.814943141434924 0 -55.814943141434924 -0.160656150757859 0 0 0 0 27.970072813361185 -57.100115840894432 0 -57.100115840894432 14.953620656164276 0 0 0 0 22.54722962987762 -10.569671210173055 0 -10.569671210173055 45.734959298031754 0 0 0 0 -5.8088985037920509 -8.0397930080264999 0 -8.0397930080264999 9.1146592296458664 0 0 0 0 8.0715525706109474 -64.363416593261718 0 -64.363416593261718 -22.370231057939236 0 0 0 0 -0.6491979864720463 -25.719228113757225 0 -25.719228113757225 8.9268583464947078 0 0 0 0 -15.79390274312027 -68.17300744671229 0 -68.17300744671229 -21.694407338811288 0 0 0 0 -25.082443469535065 -56.324344954984554 0 -56.324344954984554 -32.761519471612701 0 0 0 0 4.031609479112376 -70.997963973222795 0 -70.997963973222795 -30.474896288098535 0 0 0 0 -9.8612907122078468 -81.25263195909065 0 -81.25263195909065 -20.873504589588265 0 0 0 0 -15.357434207355254 -81.977741228580271 0 -81.977741228580271 -44.762151749586337 0 0 0 0 -13.954891963630871 -76.311785289577529 0 -76.311785289577529 -22.190626439303742 0 0 0 0 -7.4274403900635662 -89.096098497473577 0 -89.096098497473577 -29.185196937556611 0 0 0 0 -8.9667288938180718 -88.910320482249517 0 -88.910320482249517 -17.890736545494292 0 0 0 0 -3.2905470126133878 -95.02270897928247 0 -95.02270897928247 -20.745828551662271 0 0 0 0 -3.4164989670796047 -65.304617685506145 0 -65.304617685506145 -26.731215518535464 0 0 0 0 -7.3947528260714535 -72.589385866922385 0 -72.589385866922385 5.1180435704081901 0 0 0 0 -4.101245913618186 -78.204448403696006 0 -78.204448403696006 -17.141141446496476 0 0 0 0 -6.6482948526609107 -74.128333248874696 0 -74.128333248874696 -10.707766152481781 0 0 0 0 -12.070500894718862 -85.848599847609876 0 -85.848599847609876 -12.59149135176267 0 0 0 0 -5.4331655686546583 -81.858073120100016 0 -81.858073120100016 -13.446240121651499 0 0 0 0 -8.7614544328025659 -82.727650727028958 0 -82.727650727028958 -5.334276561938168 0 0 0 0 -6.2504422197971294 -17.929050688163898 0 -17.929050688163898 -9.8252871834419579 0 0 0 0 -25.531314531643147 -84.390025472399429 0 -84.390025472399429 -12.72508736162581 0 0 0 0 -30.816647416383603 -43.63805728006858 0 -43.63805728006858 -40.323304427925422 0 0 0 0 -109.66925868866383 -92.813664533536212 0 -92.813664533536212 68.385949936418911 0 0 0 0 50.106158880473231 -60.975994692584209 0 -60.975994692584209 -39.264795622075326 0 0 0 0 50.452984548940094 -62.209135084090576 0 -62.209135084090576 -36.383288270430057 0 0 0 0 45.176438355098071 -117.39892495717504 0 -117.39892495717504 -54.468826679323683 0 0 0 0 -14.310669085120026 -95.808117744607443 0 -95.808117744607443 -14.407035642179835 0 0 0 0 -50.768067002441967 -110.27252979599871 0 -110.27252979599871 -5.7200543068611296 0 0 0 0 -14.00396812568215 -100.7192654359169 0 -100.7192654359169 -23.509612083907996 0 0 0 0 56.258998314799101 -107.86177712187782 0 -107.86177712187782 -49.165865462447982 0 0 0 0 -8.5422836796917547 -24.598026703590001 0 -24.598026703590001 -3.9765540988722705 0 0 0 0 121.91433401800896 -134.32047457205044 0 -134.32047457205044 -49.224863205949077 0 0 0 0 118.69298029020138 -8.080001830108813 0 -8.080001830108813 -22.712910123693291 0 0 0 0 25.568616289762303 -64.147204392744243 0 -64.147204392744243 -29.640582014333631 0 0 0 0 -15.062134458571563 -65.758896045441361 0 -65.758896045441361 -18.17182843786577 0 0 0 0 -60.779380661944288 -49.225944888989034 0 -49.225944888989034 -0.85213273818226298 0 0 0 0 6.585860441548431 -41.812978482027788 0 -41.812978482027788 -26.549763184396596 0 0 0 0 -17.493891306749902 -23.198569730608142 0 -23.198569730608142 -16.078370646770054 0 0 0 0 -169.86325733857666 116.44229700025608 0 116.44229700025608 40.140101476850759 0 0 0 0 -41.036897486504834 -42.140993461927472 0 -42.140993461927472 -14.136208006347488 0 0 0 0 104.44056824099061 -56.150955379318475 0 -56.150955379318475 -246.29417874676437 0 0 0 0 252.23858543202914 -56.95305872481822 0 -56.95305872481822 -75.248560721425747 0 0 0 0 -51.567816493685314 -324.49984982889509 0 -324.49984982889509 915.20356086602987 0 0 0 0 -238.06889971978671 -80.880960865095403 0 -80.880960865095403 332.18997725381632 0 0 0 0 -239.71747863397104 -58.7410001627577 0 -58.7410001627577 120.1333676636059 0 0 0 0 5.0227863138155726 -75.65110662130337 0 -75.65110662130337 -13.24183622799319 0 0 0 0 -14.366472899652164 -47.012163866157408 0 -47.012163866157408 -17.770026973635211 0 0 0 0 -16.420809478017826 -45.753765455421401 0 -45.753765455421401 -29.943815831175002 0 0 0 0 -37.911580301639333 -79.675771748708939 0 -79.675771748708939 -20.558298683950852 0 0 0 0 -35.216266872957931 -147.50782189665188 0 -147.50782189665188 -27.132764184931148 0 0 0 0 -1.2633307149178563 -65.229311163262224 0 -65.229311163262224 -76.479636084323573 0 0 0 0 118.91943533138692 -34.094252601345943 0 -34.094252601345943 -216.72104461389245 0 0 0 0 -9.6729100108132116 -210.87547869262926 0 -210.87547869262926 72.022787721123393 0 0 0 0 184.70262510544853 -314.02605576871429 0 -314.02605576871429 67.757807896210579 0 0 0 0 -76.921257433248684 -216.54113359519397 0 -216.54113359519397 182.84587536395702 0 0 0 0 429.62688990312745 -355.7295064520149 0 -355.7295064520149 95.380203321081353 0 0 0 0 212.18598443613882 -212.73654490777699 0 -212.73654490777699 254.3059230640938 0 0 0 0 107.85330184851773 -264.35613795087556 0 -264.35613795087556 69.433234620955773 0 0 0 0 20.955488947751292 3.4556889373234299 0 3.4556889373234299 -53.301111218150254 0 0 0 0 -2.9774828398221871 -59.643486160308385 0 -59.643486160308385 16.178955251758225 0 0 0 0 -126.48469891116838 -72.537107105246832 0 -72.537107105246832 -128.05911787488731 0 0 0 0 57.005698910892534 -426.2140452608146 0 -426.2140452608146 196.73165441193851 0 0 0 0 4.1569963097953604 -7.4310093278866027 0 -7.4310093278866027 -23.322771621479685 0 0 0 0 7.6336344945706642 -25.212549898312918 0 -25.212549898312918 2.0013721861625129 0 0 0 0 395.06520997895495 0.12050475905198255 0 0.12050475905198255 -82.424786688861786 0 0 0 0 -8.4803059237383422 -121.50960007700269 0 -121.50960007700269 225.42225457301492 0 0 0 0 -12.749324579672248 -54.282684245263226 0 -54.282684245263226 76.936584904033225 0 0 0 0 -125.24359342356911 31.972782465571072 0 31.972782465571072 -232.98079388374754 0 0 0 0 17.149642293699983 -25.949234230599238 0 -25.949234230599238 -25.401439579724354 0 0 0 0 -99.824667412249255 -207.54626077505236 0 -207.54626077505236 153.44923823219142 0 0 0 0 260.82060254665339 -150.80084756754877 0 -150.80084756754877 -245.60658086559852 0 0 0 0 -66.174324532388709 16.906033257691888 0 16.906033257691888 -300.84082460292848 0 0 0 0 60.369439699628856 -302.4189399080642 0 -302.4189399080642 -24.752285150694661 0 0 0 0 289.2268176049547 -156.51536595118523 0 -156.51536595118523 3.0929547710111365 0 0 0 0 23.442798267496983 -62.813456291623879 0 -62.813456291623879 322.60732521049795 0 0 0 0 -57.468202626245329 -102.50603385277554 0 -102.50603385277554 212.90797195237246 0 0 0 0 67.51591082761297 -186.92134009848451 0 -186.92134009848451 37.929811229041661 0 0 0 0 -14.375306483368661 -59.465060569067759 0 -59.465060569067759 -55.254779446830327 0 0 0 0 69.324404822087672 -208.25896126943189 0 -208.25896126943189 -63.870811755430623 0 0 0 0 -142.38853005201236 -157.49742516460901 0 -157.49742516460901 68.75890351972339 0 0 0 0 361.54326251555904 -268.9516436238489 0 -268.9516436238489 -200.13299109598302 0 0 0 0 -659.25765084413797 -34.386051788843361 0 -34.386051788843361 178.0405563799286 0 0 0 0 -1.7504397374312077 -5.6812346355479946 0 -5.6812346355479946 -8.7750653439534716 0 0 0 0 39.713028712256346 27.035771373730313 0 27.035771373730313 -237.6477038658777 0 0 0 0 22.509487346338574 2.2027549418871786 0 2.2027549418871786 8.3315931495744735 0 0 0 0 28.110932402218168 -66.232645380507165 0 -66.232645380507165 88.476859702484944 0 0 0 0 -151.82134826274523 -62.067075255677992 0 -62.067075255677992 90.17749841089244 0 0 0 0 -116.08375433431047 27.447197610976446 0 27.447197610976446 -114.59000674165145 0 0 0 0 56.907775737141492 -88.439800652926351 0 -88.439800652926351 -90.211398853259197 0 0 0 0 7.8973615263096306 -18.010001592040368 0 -18.010001592040368 -20.146093883928302 0 0 0 0 46.476670132411527 -157.7067705072659 0 -157.7067705072659 40.512295469288802 0 0 0 0 0.0053301639325411543 -47.913303492666572 0 -47.913303492666572 -60.301079135333538 0 0 0 0 2.083833430931918 -155.14113956553228 0 -155.14113956553228 110.72451844147872 0 0 0 0 -21.493909434365779 -43.194946324446391 0 -43.194946324446391 24.800571006001164 0 0 0 0 136.07133743957093 -139.09474539515213 0 -139.09474539515213 14.288416702958784 0 0 0 0 173.79980550306209 -172.48047014148506 0 -172.48047014148506 -14.572472754196497 0 0 0 0 57.029859333211789 -160.48969548279274 0 -160.48969548279274 -34.815515206708369 0 0 0 0 41.089736976129643 -218.67838203292922 0 -218.67838203292922 15.240965931036044 0 0 0 0 40.649349948020244 -178.26616339798056 0 -178.26616339798056 61.738227230343909 0 0 0 0 15.1553037919075 -180.23209512991889 0 -180.23209512991889 100.51176355798088 0 0 0 0 -10.141219489269133 -73.692803500824084 0 -73.692803500824084 223.84086094675877 0 0 0 0 53.148410528272507 -271.68848506479117 0 -271.68848506479117 288.99413196792375 0 0 0 0 91.995254701017984 -209.78191037601209 0 -209.78191037601209 379.05053736209811 0 0 0 0 157.71777065687638 -63.050190666755952 0 -63.050190666755952 706.62917507512611 0 0 0 0 81.1838555686154 -193.89396358372687 0 -193.89396358372687 70.418633616995066 0 0 0 0 216.94955568236765 -249.45618498481781 0 -249.45618498481781 80.755784212291474 0 0 0 0 4.9560850265334011 -184.48735092563584 0 -184.48735092563584 132.74690036568791 0 0 0 0 25.143229037728815 -182.37442120525156 0 -182.37442120525156 26.860470728992368 0 0 0 0 99.607796838390641 -245.7496726790996 0 -245.7496726790996 65.055725825834088 0 0 0 0 89.252395657269517 -170.61349984912522 0 -170.61349984912522 -57.666832926886855 0 0 0 0 20.160835704213241 -155.04214884969406 0 -155.04214884969406 -7.7320247379620923 0 0 0 0 162.72985492066073 -183.15784886576876 0 -183.15784886576876 -10.023768785067659 0 0 0 0 6.758682580541894 -6.7868601897465517 0 -6.7868601897465517 -3.9027318888325055 0 0 0 0 103.0901530978299 -62.58466562833928 0 -62.58466562833928 -15.165542773989728 0 0 0 0 -48.530718245958269 -77.343319642575807 0 -77.343319642575807 4.2756343662622385 0 0 0 0 51.515156988552917 -86.31967580653145 0 -86.31967580653145 -24.349695695564151 0 0 0 0 17.509702684561489 -105.73153523873771 0 -105.73153523873771 -7.9890430878003826 0 0 0 0 -26.435212618947844 -116.03940432684612 0 -116.03940432684612 -31.669786889731768 0 0 0 0 -25.802902521318174 -59.785473001073115 0 -59.785473001073115 -52.790912144148024 0 0 0 0 -58.102049872395582 -144.0239464356564 0 -144.0239464356564 -208.81876101664966 0 0 0 0 -151.46080119724502 -185.86757377933827 0 -185.86757377933827 -128.03376116132131 0 0 0 0 -80.604772803606465 64.830350846459623 0 64.830350846459623 -284.86314089399821 0 0 0 0 -59.158368579381204 -24.788821179849037 0 -24.788821179849037 51.212384914862923 0 0 0 0 161.45675175564247 -80.57860223116586 0 -80.57860223116586 -10.396366362896515 0 0 0 0 466.15608573412464 -124.12595468082873 0 -124.12595468082873 -86.82206770736957 0 0 0 0 213.22584099974483 -266.49212149565574 0 -266.49212149565574 160.29276097094407 0 0 0 0 -10.56427211206028 84.872553524270188 0 84.872553524270188 17.23564917157637 0 0 0 0 217.19681297149509 96.120275204710197 0 96.120275204710197 -122.3102641015721 0 0 0 0 558.19314879042213 -82.105081654677633 0 -82.105081654677633 -145.48141345079057 0 0 0 0 117.20353441085899 244.69048944210226 0 244.69048944210226 496.69240420270944 0 0 0 0 -0.31232617085252912 -0.73644476916386381 0 -0.73644476916386381 -0.78739806771801568 0 0 0 0 -1.0118216454048365 -2.6945014723160412 0 -2.6945014723160412 1.0741848494049577 0 0 0 0 -43.544869359873701 -274.3707754611969 0 -274.3707754611969 1072.0693758199923 0 0 0 0 -157.91857561086363 -72.414641927243792 0 -72.414641927243792 762.23049427114893 0 0 0 0 526.8819913334155 -577.08502061173203 0 -577.08502061173203 370.19901242398191 0 0 0 0 864.41882199012616 -228.61686761802412 0 -228.61686761802412 254.68970632908167 0 0 0 0 50.568153893065755 -379.41077117546229 0 -379.41077117546229 385.05451979549252 0 0 0 0 263.61364074767334 -423.39403715505614 0 -423.39403715505614 382.62989754468435 0 0 0 0 424.22998667458887 -692.22341211081948 0 -692.22341211081948 810.04042728531931 0 0 0 0 39.150990985857788 -307.05110138087184 0 -307.05110138087184 249.35813781438628 0 0 0 0 -106.69059638200997 -239.70861701380636 0 -239.70861701380636 264.55771946691675 0 0 0 0 -145.64605175016914 -186.88339849702606 0 -186.88339849702606 431.23791775442078 0 0 0 0 -153.80867614943418 -97.152530041523278 0 -97.152530041523278 104.52008466797997 0 0 0 0 -182.53024112296407 -114.60659428991494 0 -114.60659428991494 94.14344864001032 0 0 0 0 -96.439805873844307 -48.604928038315848 0 -48.604928038315848 -16.262836181325838 0 0 0 0 -95.487565912451828 -78.693148140708217 0 -78.693148140708217 33.304223146347795 0 0 0 0 -238.84463296827744 148.07314607476292 0 148.07314607476292 194.29931628145278 0 0 0 0 -159.98061625444097 -0.39607607070502127 0 -0.39607607070502127 100.28736593649955 0 0 0 0 -113.04943765651842 -112.6556782493135 0 -112.6556782493135 207.35848048346816 0 0 0 0 -115.22053840206354 -95.764322238974273 0 -95.764322238974273 -138.98543527456059 0 0 0 0 -134.84687426488745 -66.504266551513865 0 -66.504266551513865 -52.971302278863732 0 0 0 0 -69.674787329080573 -129.6880104458287 0 -129.6880104458287 -115.36735244235024 0 0 0 0 -27.513507186347852 -83.795973971078638 0 -83.795973971078638 -65.675725221721223 0 0 0 0 -71.138345648825634 -198.87641210220136 0 -198.87641210220136 -174.38789185753558 0 0 0 0 0.10669871509890072 -179.68513660112512 0 -179.68513660112512 -57.271267423217068 0 0 0 0 1.4457451551352278 -124.77459828520659 0 -124.77459828520659 -115.14854026387184 0 0 0 0 38.504591214190441 -143.74350737579152 0 -143.74350737579152 -318.78742237829283 0 0 0 0 77.059017563249654 -177.50210337906537 0 -177.50210337906537 -157.63003030783148 0 0 0 0 18.321757487992727 -110.14283838834672 0 -110.14283838834672 -151.52913449365587 0 0 0 0 39.989928438297284 -207.20704038704025 0 -207.20704038704025 -100.09884892728587 0 0 0 0 71.182183420996807 -193.63427584563215 0 -193.63427584563215 -21.434419426121167 0 0 0 0 143.15677454444813 -115.87444067923207 0 -115.87444067923207 -101.8508061882967 0 0 0 0 141.4491525096355 -112.81696088588751 0 -112.81696088588751 35.077097886736738 0 0 0 0 222.16255656682915 -121.11087319474609 0 -121.11087319474609 -242.95079258619808 0 0 0 0 231.31598812970242 -76.278751890292369 0 -76.278751890292369 -231.07838807033841 0 0 0 0 305.89638522465248 -116.69351639963133 0 -116.69351639963133 -216.98592126823496 0 0 0 0 196.56794168161287 -187.58989928583833 0 -187.58989928583833 -233.30327260783815 0 0 0 0 193.69359895833986 -133.11333166882469 0 -133.11333166882469 -30.585995727131376 0 0 0 0 157.52874787900873 -41.246680478165217 0 -41.246680478165217 -10.182566865667468 0 0 0 0 187.46706809951866 20.011441878566984 0 20.011441878566984 19.836208362467005 0 0 0 0 158.13631043666828 -40.867600897581724 0 -40.867600897581724 -12.598219125282412 0 0 0 0 153.10674414169262 -60.843058155696781 0 -60.843058155696781 -64.012059745422448 0 0 0 0 153.79511674508831 -18.335395527188666 0 -18.335395527188666 -45.967580537642789 0 0 0 0 185.21175159121412 -41.553970146196662 0 -41.553970146196662 -103.02260641171597 0 0 0 0 201.92314725281904 -73.039759419618349 0 -73.039759419618349 -210.35129086764573 0 0 0 0 -182.26575348685947 -316.78141433092969 0 -316.78141433092969 -344.57219060968146 0 0 0 0 195.39031756371651 32.30721886924357 0 32.30721886924357 -46.044500906689791 0 0 0 0 0.86077957239643865 0.22538266590061795 0 0.22538266590061795 -2.2991605576093548 0 0 0 0 35.239161611913005 -14.529147408684366 0 -14.529147408684366 -58.664126240815676 0 0 0 0 0.71735268302572308 1.4553852715226938 0 1.4553852715226938 -4.8238170129569085 0 0 0 0 19.796398811351537 -73.205427131979377 0 -73.205427131979377 -80.605585034500109 0 0 0 0 -10.541558410783182 -137.53282258865511 0 -137.53282258865511 -272.93927188676298 0 0 0 0 -100.22922805689814 -199.4931177390572 0 -199.4931177390572 -281.08155482924485 0 0 0 0 13.676220419945821 -72.819777091375727 0 -72.819777091375727 -25.242809423343715 0 0 0 0 35.621230697114697 -55.97722364837864 0 -55.97722364837864 -38.777176575931662 0 0 0 0 -81.52367030044843 -85.218478702488937 0 -85.218478702488937 -31.003825454019534 0 0 0 0 33.940446309490653 -60.77758472856658 0 -60.77758472856658 -34.298023169087173 0 0 0 0 -7.2401508029541972 -14.801962642647617 0 -14.801962642647617 -15.019204813925711 0 0 0 0 -22.99363295051171 -23.251970737983356 0 -23.251970737983356 -52.150418380959309 0 0 0 0 -16.142996745971743 -88.516874834129112 0 -88.516874834129112 -43.874565907244687 0 0 0 0 -14.418291317278999 -37.973624434613157 0 -37.973624434613157 -45.776843883249967 0 0 0 0 0.10366428054153509 -20.509920310833543 0 -20.509920310833543 -16.94925397102719 0 0 0 0 -88.187648708522943 -73.026358015464211 0 -73.026358015464211 6.758950382405601 0 0 0 0 -48.022350453806006 -38.8678854360396 0 -38.8678854360396 -0.15312049627570445 0 0 0 0 -15.8371640448487 -9.5266397637985349 0 -9.5266397637985349 14.507365784197589 0 0 0 0 -9.5913426778957085 -35.882548447831816 0 -35.882548447831816 -6.2813715141253272 0 0 0 0 8.4765287724803784 -45.913979405726423 0 -45.913979405726423 -43.21595869101975 0 0 0 0 -1.8732238941117174 -36.714998917024516 0 -36.714998917024516 -41.621158020066133 0 0 0 0 -19.275999121830086 -64.398945202143068 0 -64.398945202143068 -5.8766483657274762 0 0 0 0 -131.66437182158188 -64.836687318602344 0 -64.836687318602344 -9.4442072555902996 0 0 0 0 129.18482441816013 -49.4286121505138 0 -49.4286121505138 17.425303102994803 0 0 0 0 -0.98436951927060079 -22.363824432154615 0 -22.363824432154615 -2.7588088131940323 0 0 0 0 -7.0143427958445734 -12.507992255453551 0 -12.507992255453551 -26.194988920450101 0 0 0 0 -13.59867186647277 -43.370301894542479 0 -43.370301894542479 -33.731959806988399 0 0 0 0 -36.93677777832545 -100.32763014815009 0 -100.32763014815009 78.455433393479325 0 0 0 0 131.41075838230608 6.6463682397115917 0 6.6463682397115917 -275.56030609982554 0 0 0 0 236.84108650654707 31.727519759924689 0 31.727519759924689 -282.96244656151976 0 0 0 0 233.36180969591078 9.8923298863082891 0 9.8923298863082891 -119.33401443656476 0 0 0 0 -240.76577498722327 193.99473495595885 0 193.99473495595885 733.43335967599705 0 0 0 0 -0.40840006786483229 -0.88193359531800297 0 -0.88193359531800297 -6.0296454852613124 0 0 0 0 -82.237257182710891 -57.456358753472159 0 -57.456358753472159 -105.96091649998561 0 0 0 0 0.45105187614717046 -50.373530256777293 0 -50.373530256777293 -25.236472168365111 0 0 0 0 1.4328622296333187 -3.4529051911272575 0 -3.4529051911272575 -18.710779257636403 0 0 0 0 -336.33815093464364 -91.946562969649676 0 -91.946562969649676 120.99275875066087 0 0 0 0 249.32496546077164 -171.28301507130891 0 -171.28301507130891 -1270.9225021547754 0 0 0 0 116.48431913945387 -238.77967421967332 0 -238.77967421967332 252.62512195873478 0 0 0 0 331.96131145147956 -88.602380280408397 0 -88.602380280408397 -464.14795560795756 0 0 0 0 140.08428092107351 -508.07792446322128 0 -508.07792446322128 -248.7482712911733 0 0 0 0 229.34938763377431 100.93326852654718 0 100.93326852654718 265.59413944458788 0 0 0 0 519.91810533586613 76.264804613860179 0 76.264804613860179 -96.795681368239457 0 0 0 0 0.26226706183396331 -2.6001311055272112 0 -2.6001311055272112 -7.3068368970421886 0 0 0 0 -91.748673138201411 -30.133652278298541 0 -30.133652278298541 -240.66009254944947 0 0 0 0 -640.83463207213936 -310.60843305476374 0 -310.60843305476374 233.85036112814851 0 0 0 0 13.82798673277621 -43.026554331724284 0 -43.026554331724284 -51.811645196042576 0 0 0 0 -45.720153798734827 -44.762385408641421 0 -44.762385408641421 -15.656220925236994 0 0 0 0 -32.308454530593735 -63.603515282677108 0 -63.603515282677108 -60.299299557133054 0 0 0 0 -31.268512310424285 -26.567146844384808 0 -26.567146844384808 17.297116042253293 0 0 0 0 -6.3618070473171002 -17.837422388562928 0 -17.837422388562928 5.3969651012987754 0 0 0 0 -24.158685545765366 -70.347950048650546 0 -70.347950048650546 -56.416786736095673 0 0 0 0 -22.121640422370547 -88.855351506925217 0 -88.855351506925217 -38.326839690446832 0 0 0 0 -21.618247038490153 -46.145537246899039 0 -46.145537246899039 -30.270767316847923 0 0 0 0 -69.263693572840566 -113.62260173632603 0 -113.62260173632603 -47.394555934995878 0 0 0 0 -59.726972005004427 -102.44209045870957 0 -102.44209045870957 -65.201997159343591 0 0 0 0 -37.366195162730946 -71.187985909924464 0 -71.187985909924464 -57.974012613682135 0 0 0 0 -10.844130366765711 -17.790474095640633 0 -17.790474095640633 19.086014304503578 0 0 0 0 -48.399026798604609 -62.036004462934216 0 -62.036004462934216 -36.282497939904715 0 0 0 0 -65.798304411771824 -62.589178237263695 0 -62.589178237263695 -20.509386901590915 0 0 0 0 -29.41828992482921 -18.687945070781353 0 -18.687945070781353 33.311430831315107 0 0 0 0 -2.3098859943661267 -20.351227698194322 0 -20.351227698194322 9.6258791775693453 0 0 0 0 -35.983840494505785 -116.58102463831528 0 -116.58102463831528 -107.56578152804286 0 0 0 0 -119.77757224796369 -39.005312637180396 0 -39.005312637180396 -59.949097588134464 0 0 0 0 -1.3511661936526878 -2.0133093301930387 0 -2.0133093301930387 1.52448692118422 0 0 0 0 -119.20851246135499 -86.614211907290155 0 -86.614211907290155 346.11108032995253 0 0 0 0 179.34685925812119 -121.8112297557127 0 -121.8112297557127 33.637158423021901 0 0 0 0 286.97827807682188 -111.67010469580418 0 -111.67010469580418 213.78189416556961 0 0 0 0 -1.0282103314895679 1.0939150051226996 0 1.0939150051226996 2.7748535150356588 0 0 0 0 -37.485812644478756 -268.4431211972078 0 -268.4431211972078 11.748745994642377 0 0 0 0 -88.294885377381433 -21.835440696529986 0 -21.835440696529986 55.584604758783826 0 0 0 0 74.100131706527463 157.88152670895943 0 157.88152670895943 180.22338642812429 0 0 0 0 -66.809106579101353 -63.115406240285665 0 -63.115406240285665 -25.417374034739623 0 0 0 0 -9.9978634657121077 -14.045773656715014 0 -14.045773656715014 32.166183369314325 0 0 0 0 -42.461551034586591 -68.403768910997314 0 -68.403768910997314 -39.664603993354831 0 0 0 0 -39.857436064256035 -52.355285769226612 0 -52.355285769226612 -24.737220705996151 0 0 0 0 -56.07260373209283 -61.178089154011104 0 -61.178089154011104 -30.463211348018376 0 0 0 0 -7.3617343046237629 -36.905899740572139 0 -36.905899740572139 -21.162373142837339 0 0 0 0 352.45388810586155 -73.525342675697175 0 -73.525342675697175 -575.15590372039878 0 0 0 0 -136.33975097561779 217.89015717500297 0 217.89015717500297 193.3249065639975 0 0 0 0 -12.404034152402481 -14.751109045966302 0 -14.751109045966302 12.874231322126946 0 0 0 0 301.05237278668938 13.198077232522337 0 13.198077232522337 -117.51299543271307 0 0 0 0 266.05698562411999 -172.40627536109241 0 -172.40627536109241 -334.95528316317359 0 0 0 0 -170.41984150991266 -394.51889271330219 0 -394.51889271330219 -189.79660290485481 0 0 0 0 53.043408649798948 -184.13635018866626 0 -184.13635018866626 8.2617169889854267 0 0 0 0 -342.62418351502129 -122.69225393913439 0 -122.69225393913439 157.89308331007487 0 0 0 0 182.41722936155566 -108.36623293101729 0 -108.36623293101729 -225.06153586915752 0 0 0 0 58.883502323871653 -166.81887057549466 0 -166.81887057549466 -59.008672826937982 0 0 0 0 77.549730272206943 -15.327645772602409 0 -15.327645772602409 20.459268445243652 0 0 0 0 97.194233736510796 -86.662201091818133 0 -86.662201091818133 21.729402892582584 0 0 0 0 -1.2950611609849147 -84.088564033867442 0 -84.088564033867442 60.545595907591633 0 0 0 0 7.9678340497193858 -49.13962007817463 0 -49.13962007817463 157.34826957238693 0 0 0 0 -118.957582285846 -192.97798606543802 0 -192.97798606543802 118.59026674297638 0 0 0 0 -51.030271587853349 10.475005316333409 0 10.475005316333409 213.4100852177362 0 0 0 0 -4.7173141990642762 -63.583730572172499 0 -63.583730572172499 237.589406611718 0 0 0 0 78.227057367483212 10.211649911529094 0 10.211649911529094 12.332208790583536 0 0 0 0 150.62828992604045 239.30118260745076 0 239.30118260745076 169.0706400675117 0 0 0 0 63.594153396596084 -17.307164872298017 0 -17.307164872298017 75.283872744701512 0 0 0 0 -163.01728136012389 -21.860797158064088 0 -21.860797158064088 -24.772092450544733 0 0 0 0 -51.267106697399868 -51.575703578215325 0 -51.575703578215325 -17.029295142507181 0 0 0 0 18.318466270535552 -35.34150998717292 0 -35.34150998717292 -11.280517545608689 0 0 0 0 -16.746738632128043 -8.863285023661021 0 -8.863285023661021 1.8711248464003631 0 0 0 0 279.28350231077638 315.73896936672099 0 315.73896936672099 157.98914437422718 0 0 0 0 224.6426047248533 -33.39191972714616 0 -33.39191972714616 153.72014779158053 0 0 0 0 -97.545420221407767 -15.900636584934546 0 -15.900636584934546 8.9163331442978233 0 0 0 0 23.820038718766128 -35.137568428150331 0 -35.137568428150331 12.783072174664625 0 0 0 0 -143.62341099971673 -291.62377161669428 0 -291.62377161669428 98.865211679920321 0 0 0 0 -39.128366192457179 -13.725938849704107 0 -13.725938849704107 22.624526110274019 0 0 0 0 -43.386309714801996 -13.842015291011194 0 -13.842015291011194 26.075178462415352 0 0 0 0 50.755907398503041 -16.22447830766032 0 -16.22447830766032 28.004843918432016 0 0 0 0 25.435849611603501 -22.242261679043018 0 -22.242261679043018 14.193478806510228 0 0 0 0 -45.328815299368216 -40.588478161513194 0 -40.588478161513194 12.450215427539661 0 0 0 0 -10.71000323185217 -30.304528767606826 0 -30.304528767606826 12.507133704857551 0 0 0 0 9.4805801734473789 -28.058190342359012 0 -28.058190342359012 2.9377908978058258 0 0 0 0 -27.204908498846635 -23.776521665738983 0 -23.776521665738983 13.696082832073444 0 0 0 0 -26.282777007803816 -5.3505427492200397 0 -5.3505427492200397 24.731434536586676 0 0 0 0 -5.7882260104743821 -4.4463534131353839 0 -4.4463534131353839 11.507895696846987 0 0 0 0 1.0811727398180828 -2.9902737837691653 0 -2.9902737837691653 -5.4362793983303277 0 0 0 0 -40.455083693464985 -31.861716470131796 0 -31.861716470131796 -15.692077250605507 0 0 0 0 -25.526208917646727 -17.768541841345723 0 -17.768541841345723 -16.715714574616868 0 0 0 0 -11.206757178013504 -29.94308457657462 0 -29.94308457657462 -20.790844371382263 0 0 0 0 -43.168260390828436 -76.002280064018123 0 -76.002280064018123 -29.085769895304111 0 0 0 0 -129.60112565658346 -83.292862806287303 0 -83.292862806287303 -1.3089758774076472 0 0 0 0 -69.467621678100841 -33.533439524610003 0 -33.533439524610003 0.60009536858706269 0 0 0 0 -46.923386139236754 -60.927843322679109 0 -60.927843322679109 17.255852664922713 0 0 0 0 -57.998901226768794 -44.781881747992884 0 -44.781881747992884 -6.2752146224956959 0 0 0 0 14.22703453698341 -36.311394370488415 0 -36.311394370488415 -15.184855994666577 0 0 0 0 -3.1534824143302629 -0.97621792658310369 0 -0.97621792658310369 5.4500007751894373 0 0 0 0 12.844187416048953 38.127296519014635 0 38.127296519014635 52.295831216193619 0 0 0 0 11.833004216936388 -56.433548911139951 0 -56.433548911139951 3.5917190252803266 0 0 0 0 14.90879006418254 -45.026853003750148 0 -45.026853003750148 -71.09909625290129 0 0 0 0 35.818265673788119 -26.011674351608235 0 -26.011674351608235 -84.873385150087415 0 0 0 0 48.203461045319273 -45.463695243681286 0 -45.463695243681286 -58.248382865087478 0 0 0 0 136.5590299905889 -25.498451696184929 0 -25.498451696184929 -87.981000966494321 0 0 0 0 136.5060640903248 -40.103125303834531 0 -40.103125303834531 -66.896125360135557 0 0 0 0 130.52891417467254 -13.77598813129589 0 -13.77598813129589 -52.163785747856309 0 0 0 0 153.57382954123068 -27.183869909988744 0 -27.183869909988744 -45.2040198151808 0 0 0 0 138.81671304184238 -34.913885989457413 0 -34.913885989457413 -63.832942478795303 0 0 0 0 162.36813185522624 -15.135396872472484 0 -15.135396872472484 -72.034584562665259 0 0 0 0 162.41090141469977 -26.788630097449641 0 -26.788630097449641 -66.15143372156308 0 0 0 0 207.04152942019573 -18.350281945924507 0 -18.350281945924507 -73.53331782008172 0 0 0 0 146.66196137387305 -47.751649314915994 0 -47.751649314915994 -87.822240709705511 0 0 0 0 102.81384621191501 -71.025660499255537 0 -71.025660499255537 -30.364966101333266 0 0 0 0 163.91877933517389 -20.71386204976443 0 -20.71386204976443 -52.698910662322305 0 0 0 0 151.12098493597296 8.4044699282821966 0 8.4044699282821966 -19.114845215444802 0 0 0 0 116.39588728403032 -25.519124870312226 0 -25.519124870312226 -52.231424564425652 0 0 0 0 116.14369852747041 -25.956500859785592 0 -25.956500859785592 -3.7413524989533471 0 0 0 0 70.574620789950131 -21.922590504647815 0 -21.922590504647815 29.23248279170366 0 0 0 0 106.00394800734648 41.878953965606343 0 41.878953965606343 43.477507540010265 0 0 0 0 99.623449097976845 20.184456149458128 0 20.184456149458128 30.427651541205705 0 0 0 0 57.756517698813695 -2.3360661977349082 0 -2.3360661977349082 24.594028656301816 0 0 0 0 115.81431670634265 9.9853992313510389 0 9.9853992313510389 -18.582940048378077 0 0 0 0 41.32024165338953 17.729463832700276 0 17.729463832700276 36.263272196913022 0 0 0 0 10.180272705794778 49.185268336732406 0 49.185268336732406 36.568921020254493 0 0 0 0 86.802586511883419 23.899633171240566 0 23.899633171240566 27.177339746558573 0 0 0 0 2.9822519616282976 -3.3947879373724845 0 -3.3947879373724845 0.37781228652283971 0 0 0 0 -10.89849943327863 1.7997715700039407 0 1.7997715700039407 60.090963686685427 0 0 0 0 3.3773149638596731 -11.477647410121563 0 -11.477647410121563 6.5464233368193163 0 0 0 0 -0.12928422108220161 -2.0704463199856491 0 -2.0704463199856491 3.3424972426830095 0 0 0 0 357.96793406773941 -55.422003471598146 0 -55.422003471598146 -3.834235384441854 0 0 0 0 286.68736356530644 115.25516757719379 0 115.25516757719379 59.835459041443755 0 0 0 0 181.17843631772485 0.010552166004345054 0 0.010552166004345054 2.8417910423522699 0 0 0 0 209.39569966197632 -10.258993870200356 0 -10.258993870200356 -44.390822057714104 0 0 0 0 185.21385180328798 54.573426721159194 0 54.573426721159194 5.8993454404189833 0 0 0 0 62.61472872077502 -43.801894025913498 0 -43.801894025913498 0.8307833346480038 0 0 0 0 162.26035429338026 -129.87553427410785 0 -129.87553427410785 49.41653920742101 0 0 0 0 185.54845806105368 -41.746223828216898 0 -41.746223828216898 38.885294683076609 0 0 0 0 -69.394471763531328 -65.91327689197351 0 -65.91327689197351 102.87738218246704 0 0 0 0 30.485178865856142 -88.07778315442556 0 -88.07778315442556 76.29309180706332 0 0 0 0 -14.37027893049526 -89.645643819851102 0 -89.645643819851102 94.013480117466315 0 0 0 0 88.589453626424074 -279.80774369195569 0 -279.80774369195569 -396.30254469507781 0 0 0 0 115.84262601352384 -123.99767750991305 0 -123.99767750991305 -113.9745933549566 0 0 0 0 -79.507934110981296 -129.90023401509097 0 -129.90023401509097 77.66464550022647 0 0 0 0 -55.928974630234734 -108.0362873235099 0 -108.0362873235099 71.882971757848281 0 0 0 0 49.064932317755847 -155.77061943273748 0 -155.77061943273748 43.417549462144962 0 0 0 0 -10.867646853448605 -171.52292352905351 0 -171.52292352905351 39.890741861818242 0 0 0 0 280.40489264205826 -71.894085787149379 0 -71.894085787149379 -104.72087686834857 0 0 0 0 257.19075023113328 -29.250459022368887 0 -29.250459022368887 -74.841553322592517 0 0 0 0 330.96394263825641 1.0651878161952482 0 1.0651878161952482 -148.6416729484481 0 0 0 0 242.72154560135823 3.5271326305592083 0 3.5271326305592083 -13.695364687300753 0 0 0 0 328.68951537683461 -13.144960179030022 0 -13.144960179030022 -90.300033284103847 0 0 0 0 413.21576320872555 -25.961427937465487 0 -25.961427937465487 -94.931471083884389 0 0 0 0 342.19650701325736 -111.21065695530342 0 -111.21065695530342 -33.698113715596264 0 0 0 0 216.17995052429069 -122.16178342526837 0 -122.16178342526837 217.23689260329411 0 0 0 0 350.31366526632337 45.323602334516181 0 45.323602334516181 -21.33486516684934 0 0 0 0 123.95105803640035 -134.36863422743772 0 -134.36863422743772 46.945839730840817 0 0 0 0 0.19505148208702394 -13.136712347322238 0 -13.136712347322238 -1.7757180956280365 0 0 0 0 -64.448541514251701 -44.95744352496331 0 -44.95744352496331 76.794915365491761 0 0 0 0 83.346047346887644 -6.7770301563650719 0 -6.7770301563650719 -27.462500274406921 0 0 0 0 -6.6556166178782092 -3.2809583253521595 0 -3.2809583253521595 2.0888329948065518 0 0 0 0 241.44801998748881 -10.764354608865688 0 -10.764354608865688 -38.528363768822601 0 0 0 0 17.832466648134869 69.351124592876658 0 69.351124592876658 101.69993661092303 0 0 0 0 7.1267326934837039 -20.011172644463379 0 -20.011172644463379 11.839567320727411 0 0 0 0 26.126843223450123 -4.3707830378189101 0 -4.3707830378189101 -5.8969952889165143 0 0 0 0 239.62569971193443 32.236917669419199 0 32.236917669419199 55.302292907203082 0 0 0 0 11.96363280014053 -10.139145158070917 0 -10.139145158070917 6.3374059287565956 0 0 0 0 17.285733864619033 -19.421507956976484 0 -19.421507956976484 -5.8969952889092383 0 0 0 0 3.6039176407016642 0.17846187646663481 0 0.17846187646663481 -0.58981355689809334 0 0 0 0 24.971998332162912 -16.690636531820928 0 -16.690636531820928 0.019273345620604232 0 0 0 0 54.385636699658789 -12.933709644839837 0 -12.933709644839837 -10.712558469735086 0 0 0 0 -3.2867951440457546 -8.1277099247963633 0 -8.1277099247963633 4.834836526424624 0 0 0 0 250.0652038097287 41.282410363062809 0 41.282410363062809 19.088381553912768 0 0 0 0 478.76238523357824 -84.011350991892868 0 -84.011350991892868 -302.91345785294834 0 0 0 0 426.65633708660607 104.17772265586245 0 104.17772265586245 -64.805449145977036 0 0 0 0 278.06985941800667 87.135186566483753 0 87.135186566483753 33.903103646764066 0 0 0 0 4.5745274980369288 -2.6193029150261324 0 -2.6193029150261324 2.9769130101782366 0 0 0 0 686.27594009923268 549.27845127393448 0 549.27845127393448 203.04387648539159 0 0 0 0 -4.6186613141292128 -19.826564232191913 0 -19.826564232191913 -0.026307511652703397 0 0 0 0 953.30954485080292 8.6823474943339534 0 8.6823474943339534 -314.58617071420304 0 0 0 0 260.11512841748481 -442.09187886326981 0 -442.09187886326981 -224.61533774876443 0 0 0 0 101.19334394984617 -141.52637297075125 0 -141.52637297075125 -124.57463039749564 0 0 0 0 -16.382020594668575 6.9708256981284649 0 6.9708256981284649 -245.21521190802741 0 0 0 0 -1.5609982788628258 -15.746360779798124 0 -15.746360779798124 -9.3761042007099604 0 0 0 0 0.21290140501878341 4.6474796013499144 0 4.6474796013499144 -2.2260098651786393 0 0 0 0 -130.23581643544458 -41.05557346400019 0 -41.05557346400019 16.982997784936742 0 0 0 0 -302.69499331470342 5.584067631736616 0 5.584067631736616 32.364576765728998 0 0 0 0 -153.90735653524462 -58.742967318314186 0 -58.742967318314186 9.0834543209784897 0 0 0 0 -101.18388884336355 -67.495073113909712 0 -67.495073113909712 7.096777355807717 0 0 0 0 0.075632964381007639 -2.3742596490204448 0 -2.3742596490204448 -6.7775503021317434 0 0 0 0 -92.147750434501177 -23.547047944969563 0 -23.547047944969563 -4.6409101602912415 0 0 0 0 -2.1318150418396051 0.33072473291097992 0 0.33072473291097992 2.3700526715557544 0 0 0 0 -142.02959067743541 -27.18391716979022 0 -27.18391716979022 1.3360594056211994 0 0 0 0 1.7463792610092845 1.0737505006100037 0 1.0737505006100037 -0.9469661361586077 0 0 0 0 4.7217670265672496 -31.737257526079702 0 -31.737257526079702 -21.414067014527973 0 0 0 0 -2.4724116403740481 12.359465053741587 0 12.359465053741587 -28.255599218246061 0 0 0 0 23.024367091773456 -3.4881262423150474 0 -3.4881262423150474 -19.111021211181651 0 0 0 0 -48.426450870332701 -35.51086502025646 0 -35.51086502025646 7.7449745306075783 0 0 0 0 -19.166008740212419 -24.064825952810679 0 -24.064825952810679 2.8069750237482367 0 0 0 0 -6.7529915870318007 -7.8806332902392171 0 -7.8806332902392171 13.657828774919437 0 0 0 0 -14.115352946246276 -59.024916143738665 0 -59.024916143738665 16.422896578791551 0 0 0 0 -8.6856756206325372 -20.330943431497872 0 -20.330943431497872 3.2790090587368468 0 0 0 0 -3.6034684997930526 -41.376382880198435 0 -41.376382880198435 22.010575038410025 0 0 0 0 -4.7455152768307016 -53.053012525393569 0 -53.053012525393569 -18.249644769704901 0 0 0 0 -5.4486675764222525 -1.334051743965901 0 -1.334051743965901 5.0233127603047478 0 0 0 0 -26.066893692494659 -14.198955402089268 0 -14.198955402089268 -32.402968096605036 0 0 0 0 -34.638123088427164 -23.801500920963008 0 -23.801500920963008 30.288921169078094 0 0 0 0 -1.1090080092837624 1.4205409101629343 0 1.4205409101629343 1.7501705764205155 0 0 0 0 91.648223908177897 0.56314086532802321 0 0.56314086532802321 4.4141687597475538 0 0 0 0 54.925861982632341 -69.173741424936452 0 -69.173741424936452 -4.2171385843103053 0 0 0 0 -14.451714312024706 -16.256509117971291 0 -16.256509117971291 6.1159349146328168 0 0 0 0 12.471892112298519 -43.807194667650037 0 -43.807194667650037 8.8621293191790755 0 0 0 0 66.542695266056398 -47.973581382862903 0 -47.973581382862903 -1.1891560360527365 0 0 0 0 -14.90877032327262 -22.470158256975992 0 -22.470158256975992 78.708094429181074 0 0 0 0 -78.934502678481749 -18.527949809860274 0 -18.527949809860274 29.853021274946514 0 0 0 0 -15.888085946349747 -34.713080481174984 0 -34.713080481174984 -6.741869178826164 0 0 0 0 0.12631533239773596 2.4544994808987326 0 2.4544994808987326 -0.40681031698949255 0 0 0 0 -120.54434832346465 1.4736503096924025 0 1.4736503096924025 26.140762880051625 0 0 0 0 -5.8066341730918793 -35.97780825967493 0 -35.97780825967493 -0.053247969510266557 0 0 0 0 24.270642747869715 -21.319223092359607 0 -21.319223092359607 -4.2070938398610451 0 0 0 0 54.121212486641525 -29.001852227400377 0 -29.001852227400377 6.5665225099437521 0 0 0 0 39.154837103417776 -38.916839937277473 0 -38.916839937277473 0.02866151493799407 0 0 0 0 23.54030235709979 -19.558257788907213 0 -19.558257788907213 10.389806929117185 0 0 0 0 -0.52298631306083365 -0.94554107143756028 0 -0.94554107143756028 -3.9820564985049316 0 0 0 0 13.450149504518777 -45.316675538655545 0 -45.316675538655545 39.202244506392162 0 0 0 0 10.52335615588936 -24.940395017795709 0 -24.940395017795709 8.8902991673821816 0 0 0 0 -175.42771313357844 -48.163159364761668 0 -48.163159364761668 -3.5248860091323877 0 0 0 0 -614.30603766544573 60.860895251584225 0 60.860895251584225 34.985660542821279 0 0 0 0 0.32684425431426334 0.88350951098939845 0 0.88350951098939845 -2.0764582631008466 0 0 0 0 -234.19901418150039 -209.41460461329552 0 -209.41460461329552 -0.034695120073663571 0 0 0 0 -45.887451462374884 18.603228466388828 0 18.603228466388828 1.4989928872382734 0 0 0 0 276.50324357705358 -208.7076198214636 0 -208.7076198214636 -0.21790275610798576 0 0 0 0 0.19810256026639195 1.1657397523680828 0 1.1657397523680828 -0.51417742605229932 0 0 0 0 -196.95064631831337 -107.80922061420279 0 -107.80922061420279 73.595786748202954 0 0 0 0 16.550295082888624 -187.18198367092555 0 -187.18198367092555 -0.21841883391818018 0 0 0 0 342.94556129876128 -263.76992289040936 0 -263.76992289040936 -68.50118909664161 0 0 0 0 -85.380005458971937 -273.95215738668048 0 -273.95215738668048 -62.616819290953572 0 0 0 0 -382.77370159102838 -21.764683970954138 0 -21.764683970954138 57.050464129191823 0 0 0 0 -136.49025053305741 -179.20127088559093 0 -179.20127088559093 25.394237518288719 0 0 0 0 -1.1939488192238059 -81.590451231102634 0 -81.590451231102634 -21.535693916066521 0 0 0 0 1.7323577202532761 -149.65255236833036 0 -149.65255236833036 38.136358376068529 0 0 0 0 132.17897220682244 -66.274421991271083 0 -66.274421991271083 -33.690608328906819 0 0 0 0 52.080869022905972 -115.46119777952845 0 -115.46119777952845 24.471217681042617 0 0 0 0 189.29284488568794 -114.11579767670673 0 -114.11579767670673 -26.136678982249578 0 0 0 0 36.445807542112789 -65.668758281983173 0 -65.668758281983173 -2.5324195278080879 0 0 0 0 -126.61018683919792 -81.439481633955438 0 -81.439481633955438 42.859601578173169 0 0 0 0 77.787918673953754 -92.743769286222232 0 -92.743769286222232 11.752091851070873 0 0 0 0 44.134550082570058 -83.609171557196532 0 -83.609171557196532 7.3797500012660748 0 0 0 0 108.09157473320556 -100.42826906667324 0 -100.42826906667324 10.835579933976987 0 0 0 0 -152.00582796312119 -84.956674842105713 0 -84.956674842105713 25.760103467189765 0 0 0 0 59.763084003012409 -105.29767434472888 0 -105.29767434472888 9.1880972020735499 0 0 0 0 -0.051810400534092693 -0.13102938532301067 0 -0.13102938532301067 -0.44229021060635887 0 0 0 0 67.160079043308087 -89.611590506894572 0 -89.611590506894572 29.259058144161827 0 0 0 0 -0.054770674727765645 -0.19658429262997146 0 -0.19658429262997146 -0.32678757965237537 0 0 0 0 -121.51197944625346 -91.60121785822048 0 -91.60121785822048 10.430974398288527 0 0 0 0 -130.51112623288304 -78.261658141578209 0 -78.261658141578209 -0.94926776006468572 0 0 0 0 -122.36286472707616 -175.00683934199333 0 -175.00683934199333 30.835065628387383 0 0 0 0 0.15102853327767463 0.75114204926947536 0 0.75114204926947536 -0.32452217655793447 0 0 0 0 -373.93724499661039 -70.660590207069617 0 -70.660590207069617 46.692020651775238 0 0 0 0 317.5122912916454 -125.3817546319824 0 -125.3817546319824 -30.472587895463221 0 0 0 0 54.722822549889315 -102.84990154485422 0 -102.84990154485422 36.403480733788456 0 0 0 0 81.102019147121609 -121.64277985280205 0 -121.64277985280205 39.091141409502598 0 0 0 0 116.79068780724083 -56.098681993833452 0 -56.098681993833452 36.859257120340772 0 0 0 0 31.244113353999182 -57.713647810327529 0 -57.713647810327529 14.98248439883173 0 0 0 0 58.323928246262767 -69.766908537152631 0 -69.766908537152631 20.320551755678025 0 0 0 0 20.779044241728116 -82.269819944180199 0 -82.269819944180199 33.896834924399627 0 0 0 0 -1.0597214389763394 -50.968056962854462 0 -50.968056962854462 29.346723343685881 0 0 0 0 -55.835282137139075 -32.766443091510155 0 -32.766443091510155 23.521212198102148 0 0 0 0 11.902797573001408 -70.740184154830786 0 -70.740184154830786 -19.585367077714182 0 0 0 0 122.93607253082519 -171.57039221825107 0 -171.57039221825107 15.75217418561806 0 0 0 0 -0.40646910387840762 -65.128029148283531 0 -65.128029148283531 38.252345531382616 0 0 0 0 31.85596113208203 -48.744987822185067 0 -48.744987822185067 -124.98545495037979 0 0 0 0 -20.978762488000939 -102.90446840360528 0 -102.90446840360528 1.5483590972562524 0 0 0 0 -63.493900352637866 29.708314197836444 0 29.708314197836444 -86.883185497426894 0 0 0 0 -71.289369430089209 -99.562289667905134 0 -99.562289667905134 -27.625288561979687 0 0 0 0 -93.662411390692341 -9.2946854120482385 0 -9.2946854120482385 2.5207183664897457 0 0 0 0 -104.16758335721534 -94.479871497806016 0 -94.479871497806016 105.06808847618231 0 0 0 0 -21.992546134945705 -24.520451773985329 0 -24.520451773985329 -24.568758336647477 0 0 0 0 -113.59805827604123 23.452952114585059 0 23.452952114585059 71.963847951614298 0 0 0 0 -78.557271739273347 -82.168910750602663 0 -82.168910750602663 -39.289244284562301 0 0 0 0 -13.626233034482539 -66.734742591657778 0 -66.734742591657778 -89.710309310452431 0 0 0 0 -1.3613214381886038 -1.6990547126931119 0 -1.6990547126931119 1.2209645784893439 0 0 0 0 -26.03982807362263 -95.172304373485531 0 -95.172304373485531 -96.564865283289691 0 0 0 0 -35.515882366504229 -38.1704977304762 0 -38.1704977304762 -24.107118760599406 0 0 0 0 -23.291894772426531 -36.222141779369849 0 -36.222141779369849 -29.728270393796265 0 0 0 0 -1.6074613559924487 -2.2200828672426383 0 -2.2200828672426383 1.6380561728529273 0 0 0 0 -53.222620672404446 -26.514354205683048 0 -26.514354205683048 14.246169104560977 0 0 0 0 -61.243466392981645 -24.239013160913601 0 -24.239013160913601 29.267674062386504 0 0 0 0 -40.640324491675301 -30.334687558764927 0 -30.334687558764927 7.9647510912327562 0 0 0 0 -117.96323824792489 -25.071272202578257 0 -25.071272202578257 27.412181474006502 0 0 0 0 -67.472997955233041 -66.248752920026163 0 -66.248752920026163 60.758646450107335 0 0 0 0 -57.766413339317296 -73.202801016203011 0 -73.202801016203011 -21.092055330882431 0 0 0 0 56.949436233594497 -42.822317217011005 0 -42.822317217011005 -89.627478694303136 0 0 0 0 63.697310822435156 -77.993822488533624 0 -77.993822488533624 -1.3360875387879787 0 0 0 0 -101.62371585586607 -158.17537079560861 0 -158.17537079560861 -0.52892518775479402 0 0 0 0 -409.47161010242917 -406.7871720291223 0 -406.7871720291223 73.734904539218405 0 0 0 0 -354.89943176729776 -388.45597270117287 0 -388.45597270117287 -96.135057118124678 0 0 0 0 -11.04153498962205 -287.71330581911025 0 -287.71330581911025 -211.53373975974682 0 0 0 0 84.574442123559038 -148.76584524622376 0 -148.76584524622376 -140.07600043118873 0 0 0 0 91.893507935325033 -231.26537181598542 0 -231.26537181598542 -109.75029951712349 0 0 0 0 -7.4108485054355242 -201.97410588576895 0 -201.97410588576895 -82.193676396767842 0 0 0 0 3.4691463971260292 -9.3713832810275335 0 -9.3713832810275335 4.3912678854918568 0 0 0 0 31.961125846980508 -23.377151270653485 0 -23.377151270653485 -45.20785262175923 0 0 0 0 244.62971590778017 62.870726048164443 0 62.870726048164443 -63.377741481133853 0 0 0 0 221.5684768073852 -194.00378922123491 0 -194.00378922123491 -155.61246546382608 0 0 0 0 -16.14659615616938 -24.840849876498396 0 -24.840849876498396 -0.24203001440037042 0 0 0 0 4.3244799156702944 -5.9055363965348846 0 -5.9055363965348846 -1.7023478114813599 0 0 0 0 0.56073097625903756 -10.213563690274896 0 -10.213563690274896 -5.8514997689053416 0 0 0 0 -8.1328210064957602 -27.911662502621766 0 -27.911662502621766 -2.8643328744874452 0 0 0 0 -10.592109828373074 -19.064404642777518 0 -19.064404642777518 -18.42870721742085 0 0 0 0 40.662878812504005 -120.74322679765464 0 -120.74322679765464 -9.6746604699583258 0 0 0 0 72.545258811929671 -120.18290433804214 0 -120.18290433804214 -161.20510832460423 0 0 0 0 57.343216628782102 -4.2530054126254981 0 -4.2530054126254981 -184.92509643472658 0 0 0 0 36.137092179998035 -12.018289454063051 0 -12.018289454063051 6.644932491122745 0 0 0 0 18.778237003792128 -10.848494634374219 0 -10.848494634374219 -27.131117381999502 0 0 0 0 -28.618489571981627 75.899572060778155 0 75.899572060778155 -116.83879681638064 0 0 0 0 0.43356659389736762 -0.7608365669499193 0 -0.7608365669499193 -2.1146651491506532 0 0 0 0 65.418667865464158 -69.586329214871512 0 -69.586329214871512 20.255635023931973 0 0 0 0 10.715653339544808 -16.479718210744558 0 -16.479718210744558 -13.225131414682977 0 0 0 0 8.2274448526713968 -13.475734011095483 0 -13.475734011095483 -14.568571308860555 0 0 0 0 10.200979287375386 -25.781388518323695 0 -25.781388518323695 -25.795940800342748 0 0 0 0 -4.8167643323654907 -22.85087159135135 0 -22.85087159135135 -12.483693888086293 0 0 0 0 -5.9195734733168255 -5.1406885695776765 0 -5.1406885695776765 -4.2204300691276728 0 0 0 0 94.950719764117821 26.300277253729291 0 26.300277253729291 -32.576931845018407 0 0 0 0 -39.875280744142401 -30.933203313579725 0 -30.933203313579725 -5.572488091114792 0 0 0 0 -5.8104402016006134 -54.854396041737346 0 -54.854396041737346 -42.361920552022639 0 0 0 0 10.014161846067525 -4.1814761744113298 0 -4.1814761744113298 -9.1585809695844489 0 0 0 0 3.5391963523026049 -17.656649419332396 0 -17.656649419332396 -20.707578304359231 0 0 0 0 14.19630601418794 -16.038045698407586 0 -16.038045698407586 -46.85265627867193 0 0 0 0 6.2415939297893601 -30.76471096503883 0 -30.76471096503883 -46.14644440941629 0 0 0 0 -20.936504917772254 -4.8212459728529211 0 -4.8212459728529211 -28.14172517399129 0 0 0 0 9.5006336430378724 -9.8136429850273998 0 -9.8136429850273998 -6.3857870952524536 0 0 0 0 -1.8624477380471944 -11.040449910055031 0 -11.040449910055031 2.5505258131643131 0 0 0 0 1.9563659913742413 -11.99955537931055 0 -11.99955537931055 0.37412143047549762 0 0 0 0 22.478828531164254 -3.2246371615765383 0 -3.2246371615765383 -31.170010720030405 0 0 0 0 5.5893736040505466 -4.4251846480724026 0 -4.4251846480724026 -6.2485297134413145 0 0 0 0 3.1719435850209265 -5.123720133837196 0 -5.123720133837196 -4.1563373354729265 0 0 0 0 16.34409115586277 -16.313446185187786 0 -16.313446185187786 -3.4411522137743304 0 0 0 0 23.490423202156308 -29.393288258979737 0 -29.393288258979737 7.0677633516825153 0 0 0 0 -13.277868776347411 -19.456812570806136 0 -19.456812570806136 -17.210527206791085 0 0 0 0 -24.305888893824886 -28.064174125960562 0 -28.064174125960562 57.532387238949013 0 0 0 0 -2.8646086281335217 -5.910381544652985 0 -5.910381544652985 6.8325568483904817 0 0 0 0 -223.31230716448681 -77.670863690131227 0 -77.670863690131227 -17.51407682801073 0 0 0 0 -232.66420172556619 -26.972899316428993 0 -26.972899316428993 16.703479101852281 0 0 0 0 -162.53016129475327 -221.1747678070642 0 -221.1747678070642 -35.102726646451629 0 0 0 0 -495.95180182877334 -74.315960922816885 0 -74.315960922816885 66.814924033737043 0 0 0 0 -49.86695573813904 -15.30685037553485 0 -15.30685037553485 -20.92106480889197 0 0 0 0 -756.31605915219711 -489.81224460419435 0 -489.81224460419435 65.900170432360028 0 0 0 0 -1129.1738770781467 -1016.0619605703305 0 -1016.0619605703305 -664.24709455302218 0 0 0 0 -1497.6477182459719 102.06305026918926 0 102.06305026918926 53.56253516218203 0 0 0 0 78.512743479454002 -220.31933032620509 0 -220.31933032620509 -734.11090690871788 0 0 0 0 -7.2758217512785421 -6.0440041020253545 0 -6.0440041020253545 -6.7628778242515182 0 0 0 0 -597.764010466728 -809.71790675626835 0 -809.71790675626835 -606.41275622543799 0 0 0 0 -1425.5935400618996 -530.10038019171043 0 -530.10038019171043 12.034893005184131 0 0 0 0 -873.84035073043833 18.272137223664686 0 18.272137223664686 -704.91118641548383 0 0 0 0 100.38030192140906 -31.001561043650781 0 -31.001561043650781 4.528182496476802 0 0 0 0 26.921114596064854 -26.004420864237545 0 -26.004420864237545 9.0389148125250358 0 0 0 0 -183.74041345051546 31.502927783018094 0 31.502927783018094 35.347214988636551 0 0 0 0 -317.10741245976351 -261.23377309392527 0 -261.23377309392527 -112.64639387546777 0 0 0 0 -57.032864629883989 -171.07364522944044 0 -171.07364522944044 -325.37614451901027 0 0 0 0 0.97553392056892108 -1.315606106302484 0 -1.315606106302484 2.9012990377354981 0 0 0 0 176.29434848494748 -48.374819315569766 0 -48.374819315569766 -9.4739352632968803 0 0 0 0 176.33892569656189 -10.636331968572449 0 -10.636331968572449 68.486437680214294 0 0 0 0 591.5580190831879 -12.650826348562987 0 -12.650826348562987 -130.57634772342863 0 0 0 0 -489.3774466963614 -368.19738464607508 0 -368.19738464607508 -133.50938937134197 0 0 0 0 -0.20338037779479912 0.1023195434045796 0 0.1023195434045796 0.67385049759474214 0 0 0 0 -543.81704431443495 -421.7760729975962 0 -421.7760729975962 -174.04498467582744 0 0 0 0 -635.23675530907167 -455.48871252989193 0 -455.48871252989193 -107.2527668043258 0 0 0 0 -595.79906976356187 -401.61892312791861 0 -401.61892312791861 -62.567010917671723 0 0 0 0 -172.35206798771105 -237.15595800188021 0 -237.15595800188021 -0.15256936320585104 0 0 0 0 -814.13665802362016 -418.71454208468276 0 -418.71454208468276 12.887350176724937 0 0 0 0 -711.44189647824089 -359.39031025831719 0 -359.39031025831719 0.052889577411406208 0 0 0 0 -900.29670326080679 -199.43669901364592 0 -199.43669901364592 103.10252657394449 0 0 0 0 -484.48882739761848 -296.82291231264389 0 -296.82291231264389 0.20044422904175008 0 0 0 0 -390.57993768818778 -215.70558272740891 0 -215.70558272740891 -138.06349711038638 0 0 0 0 124.19257115951297 -208.92427557592077 0 -208.92427557592077 -189.77187435810629 0 0 0 0 -363.17031795897174 -301.1602596618759 0 -301.1602596618759 119.77536366199638 0 0 0 0 -173.70044118835676 -16.556120401859516 0 -16.556120401859516 43.288333653144946 0 0 0 0 552.26749685358016 -77.325229068273757 0 -77.325229068273757 -21.522656090426608 0 0 0 0 171.75763695776004 -270.1847718218487 0 -270.1847718218487 -0.098378034343494569 0 0 0 0 526.7758682292191 -343.68978969944078 0 -343.68978969944078 59.076845790827065 0 0 0 0 191.44957693406468 -492.61219583329512 0 -492.61219583329512 707.20809708294109 0 0 0 0 838.93818917867281 -440.64674033478923 0 -440.64674033478923 56.532892112576519 0 0 0 0 812.53539193648157 -158.87235692988907 0 -158.87235692988907 -40.749924694506262 0 0 0 0 127.66571528341495 -264.31589045578221 0 -264.31589045578221 554.13320493549691 0 0 0 0 585.02838378713932 -757.28554837263073 0 -757.28554837263073 -5.7812266543623991 0 0 0 0 867.64216995235165 -283.9515255658298 0 -283.9515255658298 80.408359520719387 0 0 0 0 5.5179795782284202 -3.081478380769326 0 -3.081478380769326 -2.5672128284639086 0 0 0 0 1.8411718469190355 -5.3881207306661736 0 -5.3881207306661736 -0.58676213761934548 0 0 0 0 216.11212137521943 -94.945541060376854 0 -94.945541060376854 -568.5902454413017 0 0 0 0 55.474563227500767 169.16389263601013 0 169.16389263601013 -614.05169734877654 0 0 0 0 221.84978852461381 -376.51465035499314 0 -376.51465035499314 -301.78049605865817 0 0 0 0 -242.12609521626564 -467.71178052057803 0 -467.71178052057803 -750.89539239776786 0 0 0 0 -775.45173838730489 -534.97936793855479 0 -534.97936793855479 -40.989898636293219 0 0 0 0 -701.66808976429957 -349.50365684539065 0 -349.50365684539065 36.014421570784179 0 0 0 0 -238.68312537486145 -542.44950285667437 0 -542.44950285667437 47.292514311964624 0 0 0 0 -1919.6124604081233 -1045.4472703049214 0 -1045.4472703049214 0.80599437736236723 0 0 0 0 -6.7808622354065662 -3.8695099182881592 0 -3.8695099182881592 -3.3725164003442103 0 0 0 0 -2149.3430278814958 -723.88172347527689 0 -723.88172347527689 116.97533477628895 0 0 0 0 -1532.2480361434382 250.65389802520076 0 250.65389802520076 9.3310384269279893 0 0 0 0 -695.32257266265515 -468.70937375675567 0 -468.70937375675567 139.08168926982762 0 0 0 0 -131.57325741781824 212.4417752051304 0 212.4417752051304 -77.286721406486322 0 0 0 0 130.22365236088444 -136.5141537273521 0 -136.5141537273521 -20.240801236446714 0 0 0 0 166.22822672589427 -82.577080798733732 0 -82.577080798733732 -165.33024998228939 0 0 0 0 141.75867119883515 -124.98480926058619 0 -124.98480926058619 0.38239414388226578 0 0 0 0 223.03170536940024 -269.64212884246081 0 -269.64212884246081 199.91949869620294 0 0 0 0 416.03502835583276 -253.67412297263218 0 -253.67412297263218 -0.050772811409403158 0 0 0 0 194.57483555982071 -184.96508288295445 0 -184.96508288295445 185.57691405953301 0 0 0 0 -11.871314567754464 -13.084545074074455 0 -13.084545074074455 -7.5424048121101066 0 0 0 0 57.442361408483521 -68.423268589012878 0 -68.423268589012878 -297.44877242748043 0 0 0 0 -2.8419178059912156 -4.8306249342522278 0 -4.8306249342522278 -354.90086409036303 0 0 0 0 137.52001907793601 -102.51035257502372 0 -102.51035257502372 -416.77955336243394 0 0 0 0 35.242886845177964 -93.745702936612361 0 -93.745702936612361 -314.61302595691814 0 0 0 0 122.96405761010374 -189.14644263299124 0 -189.14644263299124 -230.8917478514486 0 0 0 0 -13.838949858697106 -143.83510818022296 0 -143.83510818022296 -178.33325426789816 0 0 0 0 34.902421631447396 -7.5094202255469895 0 -7.5094202255469895 -1.6465603341932962 0 0 0 0 44.797244570818293 -7.9089158238930395 0 -7.9089158238930395 29.229070298584702 0 0 0 0 -36.267963368627534 97.601680019761261 0 97.601680019761261 -102.32702969727688 0 0 0 0 -799.02693334009746 -61.985521185531979 0 -61.985521185531979 97.13854031356459 0 0 0 0 -130.1424595152921 -197.94403129654711 0 -197.94403129654711 -119.40711568381812 0 0 0 0 56.04363065551297 -21.894867236929713 0 -21.894867236929713 -11.961806520685059 0 0 0 0 34.486531002973713 -10.858184857424689 0 -10.858184857424689 0.36052436319862124 0 0 0 0 9.0767648866403761 -155.61587393482478 0 -155.61587393482478 -197.08719394862419 0 0 0 0 3.9971331970575861 -0.79787416285181223 0 -0.79787416285181223 0.13105410775779092 0 0 0 0 -10.999242617916025 -109.70081887261767 0 -109.70081887261767 -169.84442071459489 0 0 0 0 -19.121761385478749 -94.968481697458628 0 -94.968481697458628 -115.20134998485446 0 0 0 0 -13.787284523280817 -8.4524945925667225 0 -8.4524945925667225 5.5452282205860826 0 0 0 0 18.336802538109204 -39.561318095659203 0 -39.561318095659203 -8.7941573022509374 0 0 0 0 -555.0388498274624 195.86585550731979 0 195.86585550731979 -42.649830627138726 0 0 0 0 -53.588714925106615 -63.036601963452995 0 -63.036601963452995 2.8341949650784954 0 0 0 0 -24.318472472597932 -81.419920089114385 0 -81.419920089114385 -80.768489250709536 0 0 0 0 -2024.7203998731566 -1486.5926686311868 0 -1486.5926686311868 -890.58831886407279 0 0 0 0 -771.23564587699047 -1150.991418811197 0 -1150.991418811197 -1016.4510833209788 0 0 0 0 -1340.2195215481515 -1095.4551965111023 0 -1095.4551965111023 -238.92021416449279 0 0 0 0 -2258.7677844026693 -667.87189446031698 0 -667.87189446031698 -420.00679218410369 0 0 0 0 -1333.1956702630564 -1122.0141901586903 0 -1122.0141901586903 -797.3612337995437 0 0 0 0 -686.86627540284462 -192.57193986555649 0 -192.57193986555649 -352.84943822622881 0 0 0 0 -70.868586106112673 -99.390420768490685 0 -99.390420768490685 -89.474172994334367 0 0 0 0 -68.989929682418733 -118.57610301476961 0 -118.57610301476961 -57.544293971324805 0 0 0 0 -63.939795817856975 -127.51683724902432 0 -127.51683724902432 -55.620026761229383 0 0 0 0 -63.380068868980743 -123.39457273735025 0 -123.39457273735025 -70.713535243980004 0 0 0 0 -71.891450219276521 -114.00153963802586 0 -114.00153963802586 -64.756107797613367 0 0 0 0 -60.003800271260843 -113.25236390638747 0 -113.25236390638747 -76.71879409403482 0 0 0 0 -63.616324855724542 -123.1908525382114 0 -123.1908525382114 -70.883598139713285 0 0 0 0 -50.628879715154653 -108.35776251208517 0 -108.35776251208517 -72.920887216809206 0 0 0 0 -43.057075405102296 -122.79817144938352 0 -122.79817144938352 -91.4718935994606 0 0 0 0 -37.437233997534349 -133.74678586237133 0 -133.74678586237133 -93.294168702879688 0 0 0 0 -40.96700236081233 -128.70901208918076 0 -128.70901208918076 -100.45383168985427 0 0 0 0 -49.915341136582811 -135.46273425593972 0 -135.46273425593972 -93.459858685644576 0 0 0 0 -48.627984873515743 -129.16907728777733 0 -129.16907728777733 -73.977084097772604 0 0 0 0 -51.29389266889666 -146.01160337901092 0 -146.01160337901092 -68.290971932750836 0 0 0 0 -51.062017097325679 -145.16156015105116 0 -145.16156015105116 -75.375100890873 0 0 0 0 -25.09162625312274 -167.14778339094482 0 -167.14778339094482 -107.07465673143452 0 0 0 0 -23.233395515919256 -151.33339971184614 0 -151.33339971184614 -146.8243475753261 0 0 0 0 -25.896892628506976 -183.34061271265841 0 -183.34061271265841 -70.117920704229618 0 0 0 0 -49.146042899428721 -157.91242527091526 0 -157.91242527091526 -52.999767028813949 0 0 0 0 -53.84244104145273 -168.7937795004982 0 -168.7937795004982 -70.563741324775037 0 0 0 0 -67.304050166680099 -126.68572489307553 0 -126.68572489307553 -19.025877476640744 0 0 0 0 -67.974976928560864 -120.94051136635244 0 -120.94051136635244 -63.694699878717074 0 0 0 0 -96.720442610944701 -103.04791572577233 0 -103.04791572577233 -38.001418054904207 0 0 0 0 -97.431279905100837 -139.38682187467566 0 -139.38682187467566 41.512413510659826 0 0 0 0 -111.43332736061166 -130.71106909483933 0 -130.71106909483933 45.942914405735792 0 0 0 0 -112.90765146418335 -136.3321029463732 0 -136.3321029463732 214.27007913874695 0 0 0 0 -121.36055195299195 -11.661283580266172 0 -11.661283580266172 157.7086342485054 0 0 0 0 -46.016975364939526 -207.05929371727325 0 -207.05929371727325 51.179320151306456 0 0 0 0 -18.298280954348229 -236.48080300500442 0 -236.48080300500442 75.722132758368389 0 0 0 0 -41.957290442844169 -198.29003863863181 0 -198.29003863863181 -14.073351316481421 0 0 0 0 36.75310897473355 -198.48481696254021 0 -198.48481696254021 -173.04794003665484 0 0 0 0 26.236656559681023 -168.73384978308786 0 -168.73384978308786 -197.27038598590298 0 0 0 0 141.53467519692913 -291.6505662922209 0 -291.6505662922209 -101.70723426280165 0 0 0 0 124.41873374821006 -157.57699163849975 0 -157.57699163849975 -153.54286622535437 0 0 0 0 149.63386726515 -235.70767749475635 0 -235.70767749475635 -249.26414569737244 0 0 0 0 388.64030623167673 -305.96971920500437 0 -305.96971920500437 -82.006709344328556 0 0 0 0 -46.899818754696753 -18.673423168038426 0 -18.673423168038426 263.84261710980718 0 0 0 0 4.2502156212133286 -357.4113403708343 0 -357.4113403708343 424.90475017920835 0 0 0 0 328.72304926758898 -304.12521840552654 0 -304.12521840552654 152.28995592861611 0 0 0 0 -42.117739661123792 -24.67995815731993 0 -24.67995815731993 -17.148826309990866 0 0 0 0 -13.955672577242231 -15.635712405421742 0 -15.635712405421742 -10.731834084752535 0 0 0 0 -406.96316684295198 -693.147517843885 0 -693.147517843885 -180.57017166238802 0 0 0 0 -513.2317807233685 -879.38739117623845 0 -879.38739117623845 -491.67028935413691 0 0 0 0 -12.421058351845929 11.434686877059448 0 11.434686877059448 -53.254543947263898 0 0 0 0 -470.53119754081388 895.88692089345147 0 895.88692089345147 -390.66618466831278 0 0 0 0 36.378425899660215 -79.417354786924989 0 -79.417354786924989 -101.12355961095091 0 0 0 0 -125.13873218101435 -30.424582841194933 0 -30.424582841194933 -112.71034182543735 0 0 0 0 -89.407861423875147 -44.480117677128874 0 -44.480117677128874 -35.23181772272801 0 0 0 0 -45.69530487530983 -15.618031189563226 0 -15.618031189563226 -16.934342646214645 0 0 0 0 -52.744565869518844 -51.312580697029219 0 -51.312580697029219 -16.943907153302078 0 0 0 0 -4.3359834705892162 -9.4331717189990627 0 -9.4331717189990627 -6.0108130520885865 0 0 0 0 -49.237506975803626 -1.2328932343734778 0 -1.2328932343734778 16.668336379225366 0 0 0 0 -41.152345913441877 -40.7749476858462 0 -40.7749476858462 -29.597896077932091 0 0 0 0 -7.7346404804271458 8.2408453739872982 0 8.2408453739872982 17.339070836181179 0 0 0 0 -52.026143812941832 -41.430142152974 0 -41.430142152974 12.955989137781657 0 0 0 0 30.393717887014645 -110.48158896081804 0 -110.48158896081804 -152.77621091847686 0 0 0 0 -102.59427028961545 -71.895810938774957 0 -71.895810938774957 -5.0391879822818737 0 0 0 0 -65.842780047329143 -72.757052552151436 0 -72.757052552151436 -15.811429013752786 0 0 0 0 20.045483704478102 -169.482571172397 0 -169.482571172397 -2.3031653725993237 0 0 0 0 -58.882976224460435 -48.463511059202574 0 -48.463511059202574 -106.27474561861891 0 0 0 0 -109.04551384117076 -125.64080928945987 0 -125.64080928945987 157.32190942317538 0 0 0 0 -107.09800761855149 -94.626161318468803 0 -94.626161318468803 30.952692030325125 0 0 0 0 -70.883864874487699 -110.06297417359019 0 -110.06297417359019 -20.955021821391711 0 0 0 0 -111.82155986105499 -102.52232520389225 0 -102.52232520389225 36.959278486072435 0 0 0 0 -86.488709541332355 -107.41600863701751 0 -107.41600863701751 -93.361209842914832 0 0 0 0 -58.682916692747739 -51.008731824974177 0 -51.008731824974177 18.826121433165397 0 0 0 0 -59.069614710957467 -83.788479505252326 0 -83.788479505252326 -78.007392196286673 0 0 0 0 -447.40827840138627 -498.03168904797712 0 -498.03168904797712 -3.9757914752935903 0 0 0 0 -484.39840607117094 -556.31596059782169 0 -556.31596059782169 -88.506296885174379 0 0 0 0 -407.07486676163012 -454.12884560648126 0 -454.12884560648126 14.927420633699512 0 0 0 0 162.51939167437035 -217.40699091212082 0 -217.40699091212082 -172.61361660509283 0 0 0 0 -56.409663386616103 -495.03351430590192 0 -495.03351430590192 -343.05104530893004 0 0 0 0 117.33187946368889 -175.07276867863402 0 -175.07276867863402 253.86185836419463 0 0 0 0 134.75741475964514 -218.21590336093504 0 -218.21590336093504 -172.06987337266946 0 0 0 0 -288.90151270760452 -235.55240598346063 0 -235.55240598346063 188.55154114616744 0 0 0 0 180.78601036143027 -166.91798077446583 0 -166.91798077446583 197.30861292324698 0 0 0 0 107.46652534045279 -356.42483190195344 0 -356.42483190195344 210.3079764043614 0 0 0 0 298.43178945291584 -217.24958724919998 0 -217.24958724919998 -1109.2419215177215 0 0 0 0 227.8850336206342 -302.48723294719821 0 -302.48723294719821 -523.32274062821307 0 0 0 0 -672.14555729176027 -367.25746068077569 0 -367.25746068077569 660.19168278065627 0 0 0 0 362.70671026870514 -270.6537424029375 0 -270.6537424029375 -2330.4365640636934 0 0 0 0 -14.921912559750766 -10.677123297234473 0 -10.677123297234473 -5.4358474072091951 0 0 0 0 -913.76733405950426 -973.39101499967728 0 -973.39101499967728 -112.57437228547133 0 0 0 0 -532.93806105341514 -516.49518668808923 0 -516.49518668808923 76.71421281228686 0 0 0 0 72.828180936438685 -387.84603136733222 0 -387.84603136733222 -1020.590842991056 0 0 0 0 52.438755320097698 -121.27275554113476 0 -121.27275554113476 70.849486656370573 0 0 0 0 -467.62604749669845 447.23024046354476 0 447.23024046354476 -548.79207829646839 0 0 0 0 -1185.0325961070187 -260.49625377674784 0 -260.49625377674784 41.406648646283429 0 0 0 0 -652.26510440172706 -952.40554199702456 0 -952.40554199702456 -959.87142014199344 0 0 0 0 -516.72370640261033 -335.76099157041608 0 -335.76099157041608 293.85132177553896 0 0 0 0 -211.96555504004755 54.167347415394033 0 54.167347415394033 12.788874304581896 0 0 0 0 25.195338483441446 490.68219252903509 0 490.68219252903509 166.92685092944066 0 0 0 0 -229.89550902483143 -34.474038229282087 0 -34.474038229282087 307.18496505019721 0 0 0 0 -50.080301497353503 -26.998491040190856 0 -26.998491040190856 302.36907507818614 0 0 0 0 -129.78400535688252 -145.21811009132216 0 -145.21811009132216 471.70909795102489 0 0 0 0 -19.25705836147413 -41.364428512071513 0 -41.364428512071513 -19.28008034731667 0 0 0 0 27.40116172269154 -83.402422822793596 0 -83.402422822793596 86.32420950470987 0 0 0 0 -27.339596860596842 -16.849471678288786 0 -16.849471678288786 17.485472341011302 0 0 0 0 -4.4674778085541007 -72.077153249983596 0 -72.077153249983596 -15.733158371916751 0 0 0 0 -9.7659054193662769 -49.863652922447841 0 -49.863652922447841 19.588570014793177 0 0 0 0 -60.51967877102652 5.5887449169167667 0 5.5887449169167667 209.27277215351933 0 0 0 0 -2.1483846152023034 -51.233211357990513 0 -51.233211357990513 71.143640541158675 0 0 0 0 -4.4755227642635873 -29.312888657714211 0 -29.312888657714211 18.270558748889016 0 0 0 0 -85.716471874093259 -23.411947729000531 0 -23.411947729000531 34.855722960135608 0 0 0 0 -0.81017314815653663 -59.158343459446769 0 -59.158343459446769 32.471600533666788 0 0 0 0 -15.044743462072802 -36.938323131074867 0 -36.938323131074867 26.997966029908639 0 0 0 0 177.43327370085535 -168.35793849384208 0 -168.35793849384208 267.49149443951319 0 0 0 0 33.589362955644901 -65.293892593275814 0 -65.293892593275814 38.705933327993989 0 0 0 0 -32.79684202513576 -32.331436596965858 0 -32.331436596965858 -27.117123388217664 0 0 0 0 10.164983468852384 -4.1990427023403782 0 -4.1990427023403782 -9.4593065572236554 0 0 0 0 -101.05605134715734 -127.79242572115618 0 -127.79242572115618 -45.096779212588444 0 0 0 0 69.501262603300347 -726.42086326545541 0 -726.42086326545541 336.41361378959846 0 0 0 0 -70.44294763468497 8.2647002854137099 0 8.2647002854137099 45.479625330532144 0 0 0 0 16.487094779892686 -2.4977933352483888 0 -2.4977933352483888 31.627478621623595 0 0 0 0 -2.4856572432106248 1.0489228592096254 0 1.0489228592096254 2.5233757321839221 0 0 0 0 30.353103566172649 -116.99854135025817 0 -116.99854135025817 17.107797997159651 0 0 0 0 639.68712968381442 431.07793937767565 0 431.07793937767565 -181.45183759179781 0 0 0 0 -530.37878109852318 -27.669222105512745 0 -27.669222105512745 -121.10911610065705 0 0 0 0 -186.21541416491345 -293.92115366536018 0 -293.92115366536018 407.82358504792956 0 0 0 0 -73.876168047485407 -234.67589835514082 0 -234.67589835514082 -286.73222685981455 0 0 0 0 551.88528243259134 -80.689703883093898 0 -80.689703883093898 -1045.6003582501507 0 0 0 0 493.6059700508913 -331.03071352874667 0 -331.03071352874667 -1407.4247976607148 0 0 0 0 -56.489152963098604 -794.85433420255504 0 -794.85433420255504 -1375.5977400287375 0 0 0 0 -11.132437548432243 -12.215803544313424 0 -12.215803544313424 -14.332212006140139 0 0 0 0 -1412.1569003254262 -547.63967346852587 0 -547.63967346852587 -121.83501488211914 0 0 0 0 -1331.8648452029229 -1243.3826481251235 0 -1243.3826481251235 -477.6396327441762 0 0 0 0 -264.04236001697427 -1430.4622284259385 0 -1430.4622284259385 -1175.4928734766545 0 0 0 0 157.84581955269459 -953.58200525270149 0 -953.58200525270149 -953.02679674148385 0 0 0 0 -467.96706150711293 -788.02001712850711 0 -788.02001712850711 -248.70633611493395 0 0 0 0 -475.59088291851617 -942.44934561996911 0 -942.44934561996911 -604.03536879029707 0 0 0 0 -315.95823545265011 -786.56512769614346 0 -786.56512769614346 -457.93578606630763 0 0 0 0 -644.62169897940475 -675.81164974449348 0 -675.81164974449348 -319.23015402332385 0 0 0 0 -995.20103054425272 -130.69117690964777 0 -130.69117690964777 -136.7036348315014 0 0 0 0 -454.48288536670589 -226.74731544320093 0 -226.74731544320093 8.6386304318002658 0 0 0 0 -120.67862523723306 124.73306086186494 0 124.73306086186494 78.920966640314873 0 0 0 0 -438.95093523934702 -207.80834074325685 0 -207.80834074325685 -80.792812160740141 0 0 0 0 -781.42432355934579 -20.019183765631169 0 -20.019183765631169 145.14465593783098 0 0 0 0 -607.97288788500919 -379.62471693081716 0 -379.62471693081716 -135.60081909617293 0 0 0 0 -88.810925680005312 20.390531851477135 0 20.390531851477135 146.55664515316312 0 0 0 0 -77.944293803991059 -46.7202394960741 0 -46.7202394960741 102.32191635981144 0 0 0 0 -149.04653605537897 -30.234278617819655 0 -30.234278617819655 104.50518845896295 0 0 0 0 -2.8114112122647299 18.212768552875048 0 18.212768552875048 -43.837586594234836 0 0 0 0 -144.12088754614888 -67.403967904690944 0 -67.403967904690944 153.96192094752701 0 0 0 0 703.99332085687638 335.08359897149057 0 335.08359897149057 -912.22835611146729 0 0 0 0 104.6023458195134 -558.25912550615885 0 -558.25912550615885 -749.6792888186319 0 0 0 0 -422.39486295029928 -546.52015282629145 0 -546.52015282629145 -657.20254416814714 0 0 0 0 -330.5941650695313 227.8956340122968 0 227.8956340122968 357.18322942986561 0 0 0 0 185.63754849423549 -1289.1379980144102 0 -1289.1379980144102 -1220.1960481180358 0 0 0 0 -6.2444122096396057 -1.1971699895941867 0 -1.1971699895941867 -0.0038466276929725041 0 0 0 0 -1400.0393930140185 -1484.0162831650805 0 -1484.0162831650805 -873.81086863970268 0 0 0 0 354.31291648234037 746.89042982966566 0 746.89042982966566 -287.83106370961468 0 0 0 0 -4.8579865969986216 7.2404686384860213 0 7.2404686384860213 -16.424671539098057 0 0 0 0 -604.73451050833683 -366.718016107734 0 -366.718016107734 -641.7746465616674 0 0 0 0 -1239.9241183952126 -530.90945183659278 0 -530.90945183659278 -482.41830221746932 0 0 0 0 -446.68662613532797 -700.57081396420836 0 -700.57081396420836 -743.88386440140312 0 0 0 0 -513.68451451400506 -556.18001720118264 0 -556.18001720118264 -335.53163953394687 0 0 0 0 -317.34665905882503 -39.331926899238169 0 -39.331926899238169 105.37550304805336 0 0 0 0 -383.59534500999689 -495.92409659196346 0 -495.92409659196346 -595.53017664852086 0 0 0 0 -212.4189461895221 185.16937384432094 0 185.16937384432094 -534.90085521024594 0 0 0 0 -418.54136691755957 227.48424525127848 0 227.48424525127848 283.79642021694599 0 0 0 0 -425.4677281363106 -1226.5245976067226 0 -1226.5245976067226 -1596.210927335851 0 0 0 0 316.42545916219024 165.68469563041799 0 165.68469563041799 -1650.0886364940525 0 0 0 0 -161.80429793688018 -2.05592132723541 0 -2.05592132723541 64.608781183800602 0 0 0 0 -79.755618353592581 -27.177714954710609 0 -27.177714954710609 -67.128300875454443 0 0 0 0 51.877554119051638 -330.40762429332972 0 -330.40762429332972 -351.24436490678636 0 0 0 0 -347.03712196982815 -437.59899045029306 0 -437.59899045029306 -152.28674162903917 0 0 0 0 -267.55710160505987 -637.33929550236644 0 -637.33929550236644 -626.26316350283014 0 0 0 0 -172.81439466923621 -237.77558820507329 0 -237.77558820507329 -550.74783607816789 0 0 0 0 -295.51236572580456 -265.89189995174092 0 -265.89189995174092 84.003786464600125 0 0 0 0 82.756744524558599 124.63225363306265 0 124.63225363306265 -149.98796362230496 0 0 0 0 -0.25625419532008209 -1.0257753162151744 0 -1.0257753162151744 2.062681762716295 0 0 0 0 -13.50494279270788 -110.3340901605734 0 -110.3340901605734 10.352340869838372 0 0 0 0 -78.640705804988102 -60.573699114953342 0 -60.573699114953342 97.228233071276918 0 0 0 0 -23.047200012219491 -44.97316934116725 0 -44.97316934116725 -24.34822854212689 0 0 0 0 -20.55624866924714 -31.929555920106708 0 -31.929555920106708 9.5843440238962785 0 0 0 0 -54.43620131866237 -63.664975525596674 0 -63.664975525596674 -39.677449514332693 0 0 0 0 -53.429690693606972 -56.086742402087111 0 -56.086742402087111 -28.142082479163946 0 0 0 0 -14.39328337379964 -16.388472608456681 0 -16.388472608456681 -3.8090527162617605 0 0 0 0 -33.875255505256064 -40.236130249319103 0 -40.236130249319103 12.205093652621144 0 0 0 0 -37.255307244092478 -37.154577077490742 0 -37.154577077490742 4.7261364656326421 0 0 0 0 -21.642083639251084 -26.901454902287412 0 -26.901454902287412 6.9172557502685663 0 0 0 0 -19.112070339408092 -36.623784918003366 0 -36.623784918003366 37.982203889841912 0 0 0 0 -34.715502572884361 -29.896758849394246 0 -29.896758849394246 24.147552898277354 0 0 0 0 -30.050442990689149 -16.212222955057776 0 -16.212222955057776 -0.1076528781213355 0 0 0 0 57.059195756235567 -165.85259792972283 0 -165.85259792972283 -33.968911824224051 0 0 0 0 -196.85941886405635 -460.23002085100597 0 -460.23002085100597 23.992737360695173 0 0 0 0 -459.41681682076887 -113.5591611424752 0 -113.5591611424752 543.51696702959816 0 0 0 0 -75.595058588105147 -47.547020805209584 0 -47.547020805209584 -19.258535673461324 0 0 0 0 -205.20375064934342 6.6627194097600295 0 6.6627194097600295 106.0814228036694 0 0 0 0 -259.12262527267012 -119.84394231975966 0 -119.84394231975966 -118.20717810215865 0 0 0 0 -10.638476348656624 -38.916202990391966 0 -38.916202990391966 -15.938330862682193 0 0 0 0 -24.824188831014908 -29.170883238250099 0 -29.170883238250099 -0.25751771784416633 0 0 0 0 6.657747987261061 -15.786463794350581 0 -15.786463794350581 6.7025820455312015 0 0 0 0 4.8011139159060576 -17.26005164398299 0 -17.26005164398299 6.8144322696973774 0 0 0 0 -17.53920795180602 -31.030141497314617 0 -31.030141497314617 -6.855857425762224 0 0 0 0 -54.791114727740933 -500.20777572909356 0 -500.20777572909356 -434.33606215964028 0 0 0 0 -332.99297316779848 -393.65910867840284 0 -393.65910867840284 -128.57331209041149 0 0 0 0 3.0666490185903967 -19.964712730082283 0 -19.964712730082283 -1.2051522063848097 0 0 0 0 0.34346937962089896 -14.394088166602018 0 -14.394088166602018 11.683103370256333 0 0 0 0 -9.1154461196274497 -28.686610646585905 0 -28.686610646585905 0.70918501303731318 0 0 0 0 -22.450879504238401 -36.5130179621774 0 -36.5130179621774 2.9155966492435255 0 0 0 0 -22.84479281163658 -29.940955911550191 0 -29.940955911550191 5.286275519465562 0 0 0 0 -25.435575161744055 -31.864237182653596 0 -31.864237182653596 6.0971043320969329 0 0 0 0 -20.835888619025354 -30.168479575895617 0 -30.168479575895617 5.0233925210413872 0 0 0 0 -22.382410048696329 -31.865430063095118 0 -31.865430063095118 6.0281510455452008 0 0 0 0 -19.633779150176565 -22.473968932996343 0 -22.473968932996343 -11.588188430871796 0 0 0 0 68.678498182365729 47.717812300961668 0 47.717812300961668 577.68064204035181 0 0 0 0 0.3510226762468136 -12.466282264205731 0 -12.466282264205731 9.8677525162632094 0 0 0 0 -26.404365635155045 -21.699803424877246 0 -21.699803424877246 13.54692984923895 0 0 0 0 -23.219474447720131 -25.915504765314836 0 -25.915504765314836 0.1987848051758192 0 0 0 0 -25.339124099824403 -18.59993507101899 0 -18.59993507101899 0.67947316062054597 0 0 0 0 -23.962976637291447 -15.804047816726438 0 -15.804047816726438 -10.089457182113414 0 0 0 0 -27.50932273314902 -28.906189652971079 0 -28.906189652971079 31.59089903549102 0 0 0 0 -21.073458843147819 -27.818523096369972 0 -27.818523096369972 6.8977387161321531 0 0 0 0 -22.369788233529107 -33.439877460525167 0 -33.439877460525167 -8.4147276413896179 0 0 0 0 -13.991995543103258 -18.233074968542496 0 -18.233074968542496 2.8609169744813698 0 0 0 0 -11.282314538867894 -9.6845534655663528 0 -9.6845534655663528 15.05968446200685 0 0 0 0 -23.569535928298137 -28.628723764690221 0 -28.628723764690221 2.2252839926804882 0 0 0 0 -12.446916669467043 -15.31593324058727 0 -15.31593324058727 12.051860855146238 0 0 0 0 -8.9688812420380444 -13.317398793420686 0 -13.317398793420686 10.003432859858933 0 0 0 0 -23.265088111682417 -27.701428887296061 0 -27.701428887296061 29.138729376481933 0 0 0 0 -19.034172463583673 -24.468732911696861 0 -24.468732911696861 5.0509166514530079 0 0 0 0 -28.2973082462413 -16.312236100475275 0 -16.312236100475275 3.8811141126207076 0 0 0 0 -48.036133542340394 -17.690887212473172 0 -17.690887212473172 50.93844242888008 0 0 0 0 32.300169131609437 -65.39157281664302 0 -65.39157281664302 28.576210399143747 0 0 0 0 -1.1461481767540942 -7.7407318692565994 0 -7.7407318692565994 1.9962833989226851 0 0 0 0 -1.2810307448089588 -24.303235363680869 0 -24.303235363680869 33.121089364627551 0 0 0 0 -10.718146645795056 -24.980799326259401 0 -24.980799326259401 20.12974155984449 0 0 0 0 -12.043597428237263 -21.706060909313237 0 -21.706060909313237 12.558924676952302 0 0 0 0 -17.660818185381927 -25.085287031003297 0 -25.085287031003297 20.989636125247799 0 0 0 0 -7.7004897923488898 -21.278276913962145 0 -21.278276913962145 14.176320517028216 0 0 0 0 -13.373725321876918 -22.601419239326191 0 -22.601419239326191 9.174829383925541 0 0 0 0 -20.838118003177556 -14.377325428734061 0 -14.377325428734061 -1.1252750672613203 0 0 0 0 -26.605387185612926 -31.751880219046143 0 -31.751880219046143 51.763217238883954 0 0 0 0 -19.755962001635453 -30.346589510929789 0 -30.346589510929789 20.626703719848592 0 0 0 0 -26.793865354462469 -31.138915784315031 0 -31.138915784315031 51.687253960274575 0 0 0 0 -33.905838396582112 -33.05959109234027 0 -33.05959109234027 67.65400582109578 0 0 0 0 -13.206539810133108 -23.846156171413895 0 -23.846156171413895 56.807409855603744 0 0 0 0 5.7535009857892874 -55.981272350883955 0 -55.981272350883955 30.567458984518453 0 0 0 0 10.737172090946842 -76.688673919041321 0 -76.688673919041321 82.325266720537911 0 0 0 0 -31.979048441512617 -26.756601848937429 0 -26.756601848937429 4.9037439669372702 0 0 0 0 10.74505256050179 -71.943770742342167 0 -71.943770742342167 96.032749252277426 0 0 0 0 -23.235056606124246 -12.633179894281881 0 -12.633179894281881 17.152184092115846 0 0 0 0 -13.307833987161757 -54.171416602210229 0 -54.171416602210229 -7.3262506178725744 0 0 0 0 -21.723453415268523 -38.32022258276811 0 -38.32022258276811 22.24744122663833 0 0 0 0 -5.5693258157876357 -35.905198840549033 0 -35.905198840549033 16.734300433797173 0 0 0 0 -20.925751450467942 -35.550995122273889 0 -35.550995122273889 30.597921289998339 0 0 0 0 -25.515279843159306 -57.28767944993433 0 -57.28767944993433 -0.91327162207016954 0 0 0 0 -9.1329082927548626 -27.017531382336415 0 -27.017531382336415 19.892293158705087 0 0 0 0 -13.993174863579043 -47.839128926894773 0 -47.839128926894773 5.0786942949598597 0 0 0 0 -23.533718233986292 -45.286819009841565 0 -45.286819009841565 52.140334848045313 0 0 0 0 -14.129601601931427 -23.723296764190309 0 -23.723296764190309 27.717318127084582 0 0 0 0 -9.654923379786851 -38.550509189090008 0 -38.550509189090008 30.823428547031654 0 0 0 0 -778.58747681581087 -768.7219664948758 0 -768.7219664948758 690.68086976151244 0 0 0 0 -990.57896010942204 -1140.6097807887818 0 -1140.6097807887818 383.46592663019328 0 0 0 0 -765.95991665306792 -1049.0254176575145 0 -1049.0254176575145 649.47936722512532 0 0 0 0 -411.49877218599431 -1019.9609855466697 0 -1019.9609855466697 244.90713529248751 0 0 0 0 -613.33783273159497 -879.35421749838861 0 -879.35421749838861 755.91429037358103 0 0 0 0 -654.91278347156185 -910.90296953051438 0 -910.90296953051438 806.49811347246577 0 0 0 0 -911.01634112174361 -507.40357019487055 0 -507.40357019487055 1893.680846259178 0 0 0 0 -521.77542559544599 -785.10433966254368 0 -785.10433966254368 758.81985545256612 0 0 0 0 -977.66488574406685 -787.87239716550903 0 -787.87239716550903 758.82543708585126 0 0 0 0 -694.62161106027088 -591.0802027169193 0 -591.0802027169193 -91.881196464964887 0 0 0 0 -908.69693125627236 -1063.3254689887399 0 -1063.3254689887399 -102.29021330964895 0 0 0 0 -763.19138135715548 -490.88011634243139 0 -490.88011634243139 422.41192239495285 0 0 0 0 -864.05774368847051 -1533.6375544535877 0 -1533.6375544535877 -850.61120355501953 0 0 0 0 -780.53415665624925 -1087.2993640610075 0 -1087.2993640610075 -725.32875699480064 0 0 0 0 -740.94499687854841 -904.32978962570814 0 -904.32978962570814 -1542.8261962122633 0 0 0 0 -1724.326972565068 -1646.175524434715 0 -1646.175524434715 -1073.2385277775902 0 0 0 0 421.95128992712125 156.46093314229074 0 156.46093314229074 -612.57968252964929 0 0 0 0 -1255.9372245417762 -709.00302405739785 0 -709.00302405739785 19.174991742358543 0 0 0 0 -438.89576681795006 -895.10840392272439 0 -895.10840392272439 239.43882638107607 0 0 0 0 -901.37699221136972 -1382.5729036828479 0 -1382.5729036828479 -274.15779159717204 0 0 0 0 -77.333690460789512 -529.44240378700124 0 -529.44240378700124 -150.78073172557924 0 0 0 0 95.511838431018987 -711.92006660819607 0 -711.92006660819607 -1362.0932146309897 0 0 0 0 6.9156630268553272 -329.88600618147757 0 -329.88600618147757 -422.39372828569685 0 0 0 0 11.547409853274985 -279.58756074113762 0 -279.58756074113762 90.362036662685568 0 0 0 0 -68.551466994715156 -502.67308970804152 0 -502.67308970804152 6.8348674817170831 0 0 0 0 78.00787763651897 -142.88639316219633 0 -142.88639316219633 -198.4492485822484 0 0 0 0 -20.961918545064691 -143.45726134369761 0 -143.45726134369761 264.73770507145673 0 0 0 0 13.223631686654414 -8.1632098291791522 0 -8.1632098291791522 5.1957829906330062 0 0 0 0 -11.536324181965028 -436.4670400421528 0 -436.4670400421528 1830.2965973685041 0 0 0 0 -119.06023184099467 -508.62705823390206 0 -508.62705823390206 738.10122797372605 0 0 0 0 242.21403010249924 -1034.1990777244864 0 -1034.1990777244864 430.89422656585521 0 0 0 0 469.7822844306138 -1264.1878682433344 0 -1264.1878682433344 961.08838631972321 0 0 0 0 364.16454791040451 -979.93074915180478 0 -979.93074915180478 220.02902553181048 0 0 0 0 -67.173817395181686 -820.11749155693542 0 -820.11749155693542 305.22386811465549 0 0 0 0 -123.99954039718432 -963.9651598947712 0 -963.9651598947712 -25.609347087717197 0 0 0 0 -73.799058008946304 -479.05397231810639 0 -479.05397231810639 -49.028121019560785 0 0 0 0 1314.7190020418129 -1409.6336128785661 0 -1409.6336128785661 915.71799233361526 0 0 0 0 1483.2192167154353 -1010.8348883119361 0 -1010.8348883119361 312.71104356319665 0 0 0 0 570.30022882556659 -1679.6534142156452 0 -1679.6534142156452 1176.3085154286528 0 0 0 0 1226.6554244057716 -1602.172395610135 0 -1602.172395610135 43.827358967042528 0 0 0 0 757.020204746339 -1258.7133549072751 0 -1258.7133549072751 68.245084693713579 0 0 0 0 858.09036930560251 -1277.2669116840843 0 -1277.2669116840843 23.579879306867952 0 0 0 0 724.41481012589065 -917.63337952496659 0 -917.63337952496659 -187.46141910347797 0 0 0 0 854.27999552653637 -859.64989150369365 0 -859.64989150369365 -375.47615376643807 0 0 0 0 994.02408314954664 -1139.707242225013 0 -1139.707242225013 -482.31056008388987 0 0 0 0 990.62992497305095 -1225.1522831190159 0 -1225.1522831190159 -63.85239396156976 0 0 0 0 1000.7855074014515 -749.63742447271943 0 -749.63742447271943 -779.70360207636259 0 0 0 0 1625.314317960816 -1427.6889115764352 0 -1427.6889115764352 -1126.5425968536756 0 0 0 0 772.61822852148907 -481.49112069614057 0 -481.49112069614057 -1093.5951841576298 0 0 0 0 854.32296789390966 60.713346597927739 0 60.713346597927739 -1918.5839878626866 0 0 0 0 1435.7197434490918 -681.20604082604405 0 -681.20604082604405 -2421.5560630713007 0 0 0 0 0.62939680812019105 -0.84964328137131417 0 -0.84964328137131417 1.8255877593234402 0 0 0 0 1230.6762126996327 -1562.955512808112 0 -1562.955512808112 244.86323215896846 0 0 0 0 942.16570229138597 -1700.6572317850296 0 -1700.6572317850296 900.61039216135396 0 0 0 0 1111.6818074119728 26.680917977013451 0 26.680917977013451 -103.18522477100851 0 0 0 0 -3.2568527889525285 -18.791906551909051 0 -18.791906551909051 9.3592789391113911 0 0 0 0 0.27702026365750498 -11.658799838066443 0 -11.658799838066443 11.183294712449424 0 0 0 0 -10.938863800275215 -6.3305438089000603 0 -6.3305438089000603 5.2448277519385442 0 0 0 0 6.2466899889294893 -9.2881691736905765 0 -9.2881691736905765 4.2022171465316731 0 0 0 0 570.74650880972331 -176.39008896324958 0 -176.39008896324958 1298.4123370647931 0 0 0 0 153.52351290383376 -601.60150477856223 0 -601.60150477856223 -1073.9655356520052 0 0 0 0 -1.3627001291461056 -170.99563847380341 0 -170.99563847380341 -666.85095468833242 0 0 0 0 156.57418394531123 -544.43767975988158 0 -544.43767975988158 -485.29520225615852 0 0 0 0 -249.7708096873248 -441.6009463658047 0 -441.6009463658047 -473.25601008938975 0 0 0 0 230.79664999470697 -278.94705643667112 0 -278.94705643667112 -293.73496585024259 0 0 0 0 -29.371173578962043 -403.37793909885295 0 -403.37793909885295 188.04063274202053 0 0 0 0 434.51703445104067 -495.1957817919938 0 -495.1957817919938 -196.69736437802203 0 0 0 0 239.44604261097629 -288.35013973713285 0 -288.35013973713285 -405.55373128820793 0 0 0 0 497.94039993351907 -405.93021071887051 0 -405.93021071887051 -621.06461180506449 0 0 0 0 -96.503990071141743 2.9912324520919356 0 2.9912324520919356 -875.22250384395011 0 0 0 0 537.77424602856627 -366.18255207230686 0 -366.18255207230686 -654.48805585093942 0 0 0 0 683.83078911642951 -637.22043129973099 0 -637.22043129973099 -287.05148789859959 0 0 0 0 859.01830083517416 -800.15630509456969 0 -800.15630509456969 -525.05624783095845 0 0 0 0 550.97562691221538 -621.69735871158446 0 -621.69735871158446 36.146112898743013 0 0 0 0 501.6291778327286 -467.12850058823096 0 -467.12850058823096 -383.23446200629769 0 0 0 0 405.28456840555009 -510.9570939425721 0 -510.9570939425721 -35.699814383740886 0 0 0 0 226.31216201744974 -181.61240054899827 0 -181.61240054899827 619.43422996077061 0 0 0 0 344.23548249716259 -551.55756947867667 0 -551.55756947867667 243.19112676507211 0 0 0 0 189.82044788716303 -284.79474281464354 0 -284.79474281464354 36.58582879746973 0 0 0 0 189.80640721082455 -416.64352151898856 0 -416.64352151898856 168.1811251643594 0 0 0 0 -69.929912707014864 -43.059474327105214 0 -43.059474327105214 -21.157661733228153 0 0 0 0 -185.27243714866563 -456.54844496113947 0 -456.54844496113947 678.6449694474577 0 0 0 0 -137.70971884152095 -685.32033145277637 0 -685.32033145277637 550.63417421858321 0 0 0 0 33.680491535174951 -817.30000144466612 0 -817.30000144466612 184.93141377296342 0 0 0 0 312.05536535438296 -886.65002886301227 0 -886.65002886301227 194.20769295089849 0 0 0 0 419.47892034472898 -1001.8622025052537 0 -1001.8622025052537 216.83503479001411 0 0 0 0 639.46211586738355 -826.8457083577814 0 -826.8457083577814 -220.97216705177561 0 0 0 0 329.84746371801157 -617.6859250914822 0 -617.6859250914822 487.30825563191502 0 0 0 0 330.46737018185377 -528.53592082136856 0 -528.53592082136856 434.60598193880287 0 0 0 0 -639.89315791357512 -741.08622666498195 0 -741.08622666498195 647.07413838988214 0 0 0 0 -28.781199431119603 -344.05880752295889 0 -344.05880752295889 873.96390058769612 0 0 0 0 -952.94362284625822 -905.32786124742779 0 -905.32786124742779 1288.036665337153 0 0 0 0 135.6127635226585 -373.83496370624744 0 -373.83496370624744 -850.2698639495502 0 0 0 0 409.20728069813049 220.03270786947178 0 220.03270786947178 -2359.2761142000163 0 0 0 0 7.5630549356011159 -4.5341292608577817 0 -4.5341292608577817 1.7730666330007949 0 0 0 0 -2326.1115829084447 -715.89211811821588 0 -715.89211811821588 570.40651328390231 0 0 0 0 -14.442159217055973 -12.197984069361567 0 -12.197984069361567 -7.4775513216168008 0 0 0 0 443.24628782255604 189.83464435451242 0 189.83464435451242 -892.35479926344487 0 0 0 0 -1214.1758125124179 -1016.8371719455899 0 -1016.8371719455899 543.85826599397842 0 0 0 0 432.36242491759185 -254.08011419853574 0 -254.08011419853574 -965.14196675092171 0 0 0 0 -44.66329549408573 -32.506934339751005 0 -32.506934339751005 -17.317775953305436 0 0 0 0 135.13271258961322 -647.20715593008572 0 -647.20715593008572 1054.6519877898536 0 0 0 0 92.082714928739733 -346.92028246902919 0 -346.92028246902919 -824.65213602680888 0 0 0 0 -1.5494493423648237 -349.37160077364388 0 -349.37160077364388 -816.05001600425749 0 0 0 0 13.389251773471187 -75.281495315022767 0 -75.281495315022767 -733.72360178224335 0 0 0 0 340.46622902840318 284.77865594770992 0 284.77865594770992 -708.94782517621934 0 0 0 0 -247.2095894083177 9.8247436671808828 0 9.8247436671808828 -369.91974742367893 0 0 0 0 -376.08021196089794 -319.93253027773835 0 -319.93253027773835 -646.5433489720017 0 0 0 0 -78.939064231934026 -349.63146172615598 0 -349.63146172615598 -1239.2139565542602 0 0 0 0 -25.762516657914276 -10.9226301903673 0 -10.9226301903673 8.1493553887268959 0 0 0 0 71.50525750171073 -381.48156592692612 0 -381.48156592692612 -833.53086286978214 0 0 0 0 29.64466877787288 -16.418681440162487 0 -16.418681440162487 0.72109183570290014 0 0 0 0 -45.002011200340348 -109.14104397750634 0 -109.14104397750634 -77.9287397080152 0 0 0 0 -2.2819572093067109 -86.828052505374217 0 -86.828052505374217 -1.4116587726020953 0 0 0 0 0.059142518050066428 -99.088386212530168 0 -99.088386212530168 -81.041025982718566 0 0 0 0 -58.055397113625077 -105.3293880206802 0 -105.3293880206802 37.010336748498958 0 0 0 0 -74.309088469792187 -45.967249052428087 0 -45.967249052428087 58.166721885399966 0 0 0 0 13.81231773413082 -36.543886389385719 0 -36.543886389385719 10.32484997127014 0 0 0 0 -71.504466733339541 -74.687885172550978 0 -74.687885172550978 18.121973551700648 0 0 0 0 -21.993070727470695 -21.057645941800729 0 -21.057645941800729 39.67200087699166 0 0 0 0 -245.94341393481591 -426.57668070498039 0 -426.57668070498039 -473.51061172848495 0 0 0 0 -127.07864176421572 -188.17237119296624 0 -188.17237119296624 -271.68404310740152 0 0 0 0 -81.407470920912601 -73.303417626626469 0 -73.303417626626469 -89.469674734325963 0 0 0 0 -325.5775462656311 -187.17126739099331 0 -187.17126739099331 142.77086098652217 0 0 0 0 -66.253583182158764 -140.32815245776146 0 -140.32815245776146 -112.38594914268469 0 0 0 0 -332.57395417459338 -343.50305966147062 0 -343.50305966147062 -142.06085751457431 0 0 0 0 -285.75368834869005 -261.4232942713279 0 -261.4232942713279 -56.135568085519481 0 0 0 0 -1797.5112155899478 -1899.0407151134423 0 -1899.0407151134423 -1406.4376438879699 0 0 0 0 -1391.8414773232798 -1412.1283670647899 0 -1412.1283670647899 -1574.1777169744601 0 0 0 0 -15.212136294752895 -14.224493296618306 0 -14.224493296618306 41.096356392861679 0 0 0 0 -284.36921385327059 -80.858790875343118 0 -80.858790875343118 -22.250708794817911 0 0 0 0 -1101.2815683234294 -1115.4471989507438 0 -1115.4471989507438 -1268.1912146963477 0 0 0 0 -1866.5224227977815 -1430.2355186897039 0 -1430.2355186897039 -1081.8295006668486 0 0 0 0 -1189.381979732927 -1516.6540034754144 0 -1516.6540034754144 -1279.4560798398743 0 0 0 0 -1580.9549890372909 -1672.3886346355503 0 -1672.3886346355503 -1488.0522876319665 0 0 0 0 -1558.8317990156138 -1184.9766642949762 0 -1184.9766642949762 -1137.7182370928931 0 0 0 0 -619.99074289586861 -293.75934026283358 0 -293.75934026283358 50.556085133632223 0 0 0 0 318.16712026573077 260.70587691805849 0 260.70587691805849 112.91860469791573 0 0 0 0 49.585939248234354 -195.37127433040951 0 -195.37127433040951 -504.76905391033506 0 0 0 0 604.50111190872849 -333.44836507713626 0 -333.44836507713626 -1629.7468366283283 0 0 0 0 25.294863167156109 -77.520345462723071 0 -77.520345462723071 213.62722793687135 0 0 0 0 -7.6530255679794408 -11.602909814510696 0 -11.602909814510696 27.587713802894825 0 0 0 0 -562.51180192334868 -513.18375376977565 0 -513.18375376977565 1134.1914913920882 0 0 0 0 -100.81640716738184 -106.47281315193686 0 -106.47281315193686 211.27358658641606 0 0 0 0 -281.36703009821213 -830.12452832770578 0 -830.12452832770578 488.17203134487863 0 0 0 0 -702.13152470741625 -1649.8560766208284 0 -1649.8560766208284 -1107.9496614162872 0 0 0 0 -580.89737399449064 -774.88932058721252 0 -774.88932058721252 578.88138668594911 0 0 0 0 -1318.1832521516126 -1513.1435954376075 0 -1513.1435954376075 -79.93366358991625 0 0 0 0 -1382.4006652540629 -1821.6347552288025 0 -1821.6347552288025 -1368.1122933918959 0 0 0 0 -56.124781086218718 587.76469823213847 0 587.76469823213847 1754.1467260697209 0 0 0 0 -1.4933871289998422 -5.0962867063072395 0 -5.0962867063072395 9.3497553717268147 0 0 0 0 -1363.1453419442551 -929.12260668222007 0 -929.12260668222007 -936.74061993617215 0 0 0 0 -973.77719994553763 -970.53620699198586 0 -970.53620699198586 -1170.739999773301 0 0 0 0 -1553.8247491317925 -1061.1531964218448 0 -1061.1531964218448 -956.92213842081401 0 0 0 0 -1221.1104863950313 -1126.0161823291783 0 -1126.0161823291783 -1216.8387510853208 0 0 0 0 -1155.0898669040471 -1226.4633426882974 0 -1226.4633426882974 -647.67178271230659 0 0 0 0 -822.51768950532278 -861.25145939834329 0 -861.25145939834329 -1202.7257723640266 0 0 0 0 -632.1926909226604 -1197.5583853829594 0 -1197.5583853829594 -751.37330935431237 0 0 0 0 -754.63173655273749 -951.03807887981202 0 -951.03807887981202 273.17731655342504 0 0 0 0 -621.68776112054911 -385.21404667106617 0 -385.21404667106617 55.493535422989225 0 0 0 0 -582.22458255357196 -346.39760605157062 0 -346.39760605157062 -135.88044988064576 0 0 0 0 -222.93766620055248 -32.093608103426959 0 -32.093608103426959 227.21967914646666 0 0 0 0 -231.83096138845121 -78.002489012540536 0 -78.002489012540536 -63.675086737319361 0 0 0 0 -361.38725721870287 46.037552428613708 0 46.037552428613708 125.90613945352379 0 0 0 0 -281.51431039509043 -364.52356559900363 0 -364.52356559900363 -466.87309420517704 0 0 0 0 -491.38205729528272 -93.922961197506083 0 -93.922961197506083 130.26462665911822 0 0 0 0 -803.63305678911274 -481.95373215708605 0 -481.95373215708605 -313.50433979756053 0 0 0 0 -772.00028723989089 -862.31957827144288 0 -862.31957827144288 -860.54808377724839 0 0 0 0 -1541.1864433529117 -1511.3000364830004 0 -1511.3000364830004 -940.4499659222347 0 0 0 0 -1309.9549607467998 -1048.2649128648627 0 -1048.2649128648627 -1004.1480497030652 0 0 0 0 -1224.3594323665493 -1606.966474385622 0 -1606.966474385622 -1141.0894373248302 0 0 0 0 -322.45531785962521 -641.30455494023772 0 -641.30455494023772 -686.02682182595163 0 0 0 0 -1376.9974900481538 -1568.9311050922224 0 -1568.9311050922224 -722.21632361819502 0 0 0 0 -854.6177198711739 -1264.7489864314339 0 -1264.7489864314339 -979.01891255316878 0 0 0 0 372.84080337142223 177.73230204346328 0 177.73230204346328 -1.646470752901223 0 0 0 0 -402.78933980799411 -670.49162811154747 0 -670.49162811154747 -590.74428065940447 0 0 0 0 -45.470046007182646 -1088.7759455962132 0 -1088.7759455962132 -848.39642824814655 0 0 0 0 -11.723555150926586 -6.185716713409704 0 -6.185716713409704 -3.319088850626585 0 0 0 0 115.28634628158761 288.53374287956831 0 288.53374287956831 -269.91234720757711 0 0 0 0 -978.46495506697102 297.81667223262775 0 297.81667223262775 -178.22461077418848 0 0 0 0 -30.689621299188033 -14.493342300135524 0 -14.493342300135524 -4.5299521556219844 0 0 0 0 -79.57746925776155 -505.84814283940796 0 -505.84814283940796 883.53356920284477 0 0 0 0 -330.72638025123888 -56.155686987971421 0 -56.155686987971421 934.34014047037635 0 0 0 0 -94.761420977352827 9.7856295290257549 0 9.7856295290257549 273.73951875706553 0 0 0 0 -188.94227905702428 -140.43737978160789 0 -140.43737978160789 568.43415333156008 0 0 0 0 -237.46216741962417 19.996993724809727 0 19.996993724809727 325.89965601825679 0 0 0 0 -77.18362116591743 105.92783916529879 0 105.92783916529879 346.5656028878584 0 0 0 0 219.53096428090066 73.941059055658116 0 73.941059055658116 222.6723333079135 0 0 0 0 332.64031397974759 -269.46942969162046 0 -269.46942969162046 341.15367030918424 0 0 0 0 -171.2019105576037 13.464271857083077 0 13.464271857083077 410.83600340489647 0 0 0 0 -362.83159386354964 96.180582301225513 0 96.180582301225513 368.87509977625814 0 0 0 0 -359.97947601800843 90.876339426155027 0 90.876339426155027 398.6764286334801 0 0 0 0 -209.83618048339849 136.44418251099705 0 136.44418251099705 352.43970587644435 0 0 0 0 -446.73106051265495 40.828432578986394 0 40.828432578986394 312.91790397660225 0 0 0 0 -475.62635364968446 70.277054124191636 0 70.277054124191636 377.77647225572582 0 0 0 0 -359.20294960869069 95.869977192793158 0 95.869977192793158 357.42946147541807 0 0 0 0 -338.94333253266086 84.829802092452155 0 84.829802092452155 363.204857434117 0 0 0 0 -414.86177435116406 67.771376495598815 0 67.771376495598815 373.43272984307259 0 0 0 0 -334.75125638546888 86.119064745238575 0 86.119064745238575 319.03168767520401 0 0 0 0 -267.88010803614452 140.82824427142623 0 140.82824427142623 359.57122465053544 0 0 0 0 -319.76183405394841 100.74359135009581 0 100.74359135009581 315.44186877556604 0 0 0 0 -298.80376570602675 80.644494689440762 0 80.644494689440762 227.97919500137505 0 0 0 0 -293.19091714289971 -28.645326089164882 0 -28.645326089164882 207.63148967480811 0 0 0 0 -262.92466357948797 40.532309929167241 0 40.532309929167241 134.13670668962004 0 0 0 0 -128.79877057066187 12.387577906771185 0 12.387577906771185 -51.171387024383876 0 0 0 0 -284.19118990613788 -161.33880580138793 0 -161.33880580138793 153.78327943764452 0 0 0 0 -253.52007934292487 120.59726799701457 0 120.59726799701457 282.0343160186967 0 0 0 0 18.450321744207031 -120.60830636111496 0 -120.60830636111496 -174.39476942477268 0 0 0 0 -128.90103768216795 -91.911405751299753 0 -91.911405751299753 -73.202113533232477 0 0 0 0 19.192596783319445 -63.474092291161007 0 -63.474092291161007 -77.233458093473388 0 0 0 0 -48.742939750281948 -75.337958751442784 0 -75.337958751442784 13.616872787533794 0 0 0 0 1.0889282568053353 -49.408517450940373 0 -49.408517450940373 8.4681791337798131 0 0 0 0 -38.499302003983757 -115.45583235852973 0 -115.45583235852973 45.183869336266071 0 0 0 0 -12.168382955619478 -21.920235877671089 0 -21.920235877671089 -8.6953214755480133 0 0 0 0 -85.279628640717419 -74.030241067404859 0 -74.030241067404859 10.051885611075704 0 0 0 0 13.992170406898367 -43.69816510968667 0 -43.69816510968667 29.305698045912322 0 0 0 0 -223.71405626313208 -300.89892086646432 0 -300.89892086646432 -188.70528957259012 0 0 0 0 -64.228904085932299 -167.85332459947858 0 -167.85332459947858 -280.41922652929497 0 0 0 0 -151.30292579559318 -137.77982773173426 0 -137.77982773173426 -87.223105240838777 0 0 0 0 -32.807859625326984 -10.225398601933747 0 -10.225398601933747 55.977615702196744 0 0 0 0 -1634.668205948785 -1592.5201048345746 0 -1592.5201048345746 -1534.3533342390438 0 0 0 0 -1613.0777690705145 -1297.7677771243179 0 -1297.7677771243179 -1340.8610775542256 0 0 0 0 -274.6149273455303 -414.91187602212449 0 -414.91187602212449 -523.37663624291599 0 0 0 0 -169.96719238669175 4.4643820232558937 0 4.4643820232558937 328.76943369270157 0 0 0 0 0.0019422702680742532 2.0732320746460573 0 2.0732320746460573 -0.61204231851193924 0 0 0 0 -1879.6455017375629 -1749.2102235685888 0 -1749.2102235685888 -1158.3471501275781 0 0 0 0 -515.80870729291928 -303.50883624528069 0 -303.50883624528069 -113.94818564126035 0 0 0 0 -1952.0894362861145 -1359.1862956553159 0 -1359.1862956553159 -1150.0687287461624 0 0 0 0 -24.421714789281666 -13.838765238953755 0 -13.838765238953755 50.491462791277797 0 0 0 0 -1864.6950190068746 -1148.8066254971418 0 -1148.8066254971418 -1022.5651940402313 0 0 0 0 -1788.7953081225351 -1577.6231643140418 0 -1577.6231643140418 -823.69374420251552 0 0 0 0 -1836.5891863045108 -1383.3485097994198 0 -1383.3485097994198 -1360.781338520268 0 0 0 0 -1756.3030371325094 -1069.2710282048956 0 -1069.2710282048956 -1661.0202231038274 0 0 0 0 -1261.1414447178067 -1414.754435106508 0 -1414.754435106508 -1748.0037806552427 0 0 0 0 -1494.9921480030243 -770.50888469591882 0 -770.50888469591882 -74.169502960394311 0 0 0 0 -201.46775762777543 -515.19797343290702 0 -515.19797343290702 -164.76743519629599 0 0 0 0 -1996.4601786483618 -1389.1056252523194 0 -1389.1056252523194 -664.73930140548327 0 0 0 0 -1259.5270174398029 -1140.5598255287259 0 -1140.5598255287259 -340.20627114487434 0 0 0 0 -1134.4506560144218 -1529.1116049304583 0 -1529.1116049304583 -1103.3117615286319 0 0 0 0 -1234.404752084396 -1538.631032305093 0 -1538.631032305093 -1562.9325889686879 0 0 0 0 -1487.7722564652577 -1484.4081202753514 0 -1484.4081202753514 -1108.4998706500719 0 0 0 0 -224.06091982389103 -65.504402344178615 0 -65.504402344178615 -82.301975603157189 0 0 0 0 -1901.4283110782817 -1493.1970436304182 0 -1493.1970436304182 -966.87962948523636 0 0 0 0 -1178.1695910384005 -1763.5421657151091 0 -1763.5421657151091 -904.16951527149649 0 0 0 0 -59.014369480228197 -114.68690801274715 0 -114.68690801274715 -74.639267469465267 0 0 0 0 -1842.9826720148112 -1701.0737793195394 0 -1701.0737793195394 -877.45765903637221 0 0 0 0 -2212.3893456228252 -1426.7341836392879 0 -1426.7341836392879 -950.68238772271434 0 0 0 0 -53.089695917162729 -9.1395555769312438 0 -9.1395555769312438 56.584865880207957 0 0 0 0 25.899309886736926 -60.572758400487281 0 -60.572758400487281 -74.633141862785124 0 0 0 0 -0.3332869426664935 -9.3993658015390054 0 -9.3993658015390054 -2.5295776822471794 0 0 0 0 -910.45765988763014 460.07017607987655 0 460.07017607987655 851.34109938249458 0 0 0 0 -1883.5991319611639 -658.1667457150179 0 -658.1667457150179 -433.33382106071804 0 0 0 0 -157.63161982613383 -192.90583086312108 0 -192.90583086312108 -114.28000538626657 0 0 0 0 -2829.7699003403104 -1349.4263746961587 0 -1349.4263746961587 -398.25517276008031 0 0 0 0 -2790.2906541839329 -1499.1194958644037 0 -1499.1194958644037 -550.72411893217941 0 0 0 0 -2419.8617440707239 -1088.5376017449598 0 -1088.5376017449598 -490.45424020147038 0 0 0 0 -2644.4612974902557 -1699.509690793755 0 -1699.509690793755 -148.64858138885756 0 0 0 0 -2538.2091377309844 -1289.7730566534738 0 -1289.7730566534738 346.84177496055781 0 0 0 0 -2526.4042994516767 -1319.6168827564943 0 -1319.6168827564943 -783.05324673836003 0 0 0 0 -2302.6132345309925 -1797.3830777192816 0 -1797.3830777192816 -1075.940308899284 0 0 0 0 -1880.9740065538645 -1531.5310490339252 0 -1531.5310490339252 -918.20606111722736 0 0 0 0 -508.2857404053284 -1241.4505626066311 0 -1241.4505626066311 -1121.4054006641745 0 0 0 0 -1849.5412165532944 -1725.1909853773136 0 -1725.1909853773136 -629.23432242064155 0 0 0 0 -18.880828029511136 -5.1977366543593178 0 -5.1977366543593178 1.7151118727386887 0 0 0 0 -989.76922179769463 132.39789369024948 0 132.39789369024948 1470.9031257418192 0 0 0 0 -1751.2151008889377 -1951.1981929337962 0 -1951.1981929337962 -1470.7046023196744 0 0 0 0 -165.35783332983738 80.558597700408427 0 80.558597700408427 344.91842737945262 0 0 0 0 -1177.1709920305366 -1139.7700690704005 0 -1139.7700690704005 -357.31507328604494 0 0 0 0 -773.54388655327784 -183.30577653616638 0 -183.30577653616638 1115.1320181069095 0 0 0 0 -559.64361321771139 -263.67133681975247 0 -263.67133681975247 306.16688437052653 0 0 0 0 -481.64852836669888 -501.51065398295759 0 -501.51065398295759 810.66868591826642 0 0 0 0 -489.53970646676316 -605.27588339443173 0 -605.27588339443173 352.70058356394293 0 0 0 0 24.379213613749016 -203.84920021479775 0 -203.84920021479775 528.6731721132237 0 0 0 0 446.7708852305077 653.81489485438215 0 653.81489485438215 1664.5864832154475 0 0 0 0 14.296264865115518 -538.46755753079196 0 -538.46755753079196 812.03864857019289 0 0 0 0 467.96151964034652 -376.54196306533413 0 -376.54196306533413 557.41732556065836 0 0 0 0 -7.9760803354342897 -2.6391407788191223 0 -2.6391407788191223 4.7551203446552108 0 0 0 0 17.132356003843597 -283.50383341644556 0 -283.50383341644556 553.94420354387694 0 0 0 0 150.01501519368867 -275.04109335741668 0 -275.04109335741668 199.85433765418566 0 0 0 0 -38.364309305925033 -4.9643934794301003 0 -4.9643934794301003 4.9949973399499541 0 0 0 0 286.52980745533841 -306.15111795972552 0 -306.15111795972552 198.57289442078036 0 0 0 0 133.73176416911974 -538.75353816060124 0 -538.75353816060124 -0.023418363205564674 0 0 0 0 -329.14389525288971 -254.16326607995325 0 -254.16326607995325 288.66930931333627 0 0 0 0 99.04874458273116 -325.24461226125823 0 -325.24461226125823 299.06183409728692 0 0 0 0 -789.58752843259936 -717.68215399857945 0 -717.68215399857945 0.031473119335714728 0 0 0 0 -1258.0717054082361 -425.28110637992722 0 -425.28110637992722 501.96112592053009 0 0 0 0 -2350.0584078187021 -1085.4747514055925 0 -1085.4747514055925 463.42865861710743 0 0 0 0 -960.80361376340443 -888.08875152523979 0 -888.08875152523979 -228.9756056983606 0 0 0 0 -757.74124253766058 -485.9732498612866 0 -485.9732498612866 160.23620707896771 0 0 0 0 -533.65465823035629 -467.13363070595369 0 -467.13363070595369 109.96395475634927 0 0 0 0 -620.69438488797459 -468.84997166398534 0 -468.84997166398534 117.48993008240359 0 0 0 0 -305.18321518025186 -192.30247068250901 0 -192.30247068250901 330.28773127053864 0 0 0 0 -609.16751910744642 -313.25252329630894 0 -313.25252329630894 331.33597855021071 0 0 0 0 571.71781274301611 -183.78122982237983 0 -183.78122982237983 136.62649616303679 0 0 0 0 -159.91161509836093 125.89505432173064 0 125.89505432173064 488.60971683447133 0 0 0 0 -403.43842193231831 -88.555131609515229 0 -88.555131609515229 560.45816209442273 0 0 0 0 -849.83320535477833 -504.28660985028546 0 -504.28660985028546 305.07771603966467 0 0 0 0 -497.00742181701935 106.0985412930022 0 106.0985412930022 212.09628582624282 0 0 0 0 1528.7188210591703 -1276.1368702891341 0 -1276.1368702891341 -116.2207702070591 0 0 0 0 -806.43164937556503 -575.83477839637271 0 -575.83477839637271 304.38131930594682 0 0 0 0 -840.91736064733414 -1877.0650336689432 0 -1877.0650336689432 -107.79772713687271 0 0 0 0 -15.550835833144731 -10.163675450410409 0 -10.163675450410409 -5.0639304553095883 0 0 0 0 -7.3651577623142259 -8.6580508172949209 0 -8.6580508172949209 -6.6335956658970474 0 0 0 0 -281.07129335738136 171.37183882227691 0 171.37183882227691 231.82414109093952 0 0 0 0 -621.11024728178745 41.949337090249173 0 41.949337090249173 249.90325605600083 0 0 0 0 -490.18175583603443 40.642593438333279 0 40.642593438333279 263.03962153824978 0 0 0 0 -513.99439723555406 21.399343060184037 0 21.399343060184037 253.79422171114129 0 0 0 0 -550.11246747488622 74.009191741057293 0 74.009191741057293 307.94776786043076 0 0 0 0 -357.87851842494274 89.161867758317385 0 89.161867758317385 307.32725912853493 0 0 0 0 -513.31032792665792 97.548368836702139 0 97.548368836702139 317.7773306152958 0 0 0 0 -74.135911293298705 175.70392359173275 0 175.70392359173275 231.79729174326349 0 0 0 0 -147.6189333331713 566.42810125382675 0 566.42810125382675 1527.0920471191785 0 0 0 0 3117.1694145166039 -1489.4893120153865 0 -1489.4893120153865 -2509.8761928022868 0 0 0 0 -783.23540496906571 -1612.0854592793985 0 -1612.0854592793985 -1946.7103040627844 0 0 0 0 -1167.1738047653344 -1123.6017078332297 0 -1123.6017078332297 -325.24046497643576 0 0 0 0 -200.45853558131785 -636.8071997838415 0 -636.8071997838415 -542.85111158326617 0 0 0 0 22.13453758752803 317.86887948678122 0 317.86887948678122 897.58603530310938 0 0 0 0 -7.7195349409508509 0.18489140063820741 0 0.18489140063820741 0.69480468377407334 0 0 0 0 -275.22067359182802 -495.31197444547979 0 -495.31197444547979 -397.21001965789765 0 0 0 0 -198.68967927726044 550.68904918988119 0 550.68904918988119 1458.8577863595492 0 0 0 0 -21.776007831293043 -3.2771300742184337 0 -3.2771300742184337 1.4918200395050079 0 0 0 0 -32.872661042153595 8.3402820637174955 0 8.3402820637174955 793.55367135908455 0 0 0 0 -518.71091805083211 135.27761427486121 0 135.27761427486121 687.18934563797666 0 0 0 0 561.79373643919462 475.8530465765125 0 475.8530465765125 711.35364045159076 0 0 0 0 -88.92130443385031 195.35548403971552 0 195.35548403971552 2414.9434838062152 0 0 0 0 -8.1147803363316768 -3.8916627769138827 0 -3.8916627769138827 -1.2497974926051825 0 0 0 0 -214.36148091609357 -43.852721781069704 0 -43.852721781069704 3.2655222763441998 0 0 0 0 -214.67894386994521 -87.411000129934109 0 -87.411000129934109 -51.415735770009633 0 0 0 0 -409.55110871848046 -481.99429607104867 0 -481.99429607104867 -377.64580989940441 0 0 0 0 -166.30541064812132 -201.1737445564504 0 -201.1737445564504 -53.930520108464407 0 0 0 0 -594.73730873735622 -324.17648152835318 0 -324.17648152835318 -59.930679330236217 0 0 0 0 -310.61596977657973 -40.258179016276699 0 -40.258179016276699 64.592759656487033 0 0 0 0 -0.42641707371950588 -1.1927180109498856 0 -1.1927180109498856 -1.4474309170817889 0 0 0 0 529.67707669725132 -437.56996030662049 0 -437.56996030662049 0.2761870014728629 0 0 0 0 -667.16742644492115 -411.26033811953312 0 -411.26033811953312 -0.20749195553071331 0 0 0 0 -1127.1281478503915 46.313244946461054 0 46.313244946461054 72.311448456207927 0 0 0 0 -921.07546384273701 -385.26026702625495 0 -385.26026702625495 141.66636234131875 0 0 0 0 -438.90748162432283 -329.43786571146484 0 -329.43786571146484 -26.699210131053405 0 0 0 0 -386.28670805909042 -168.53916369462331 0 -168.53916369462331 168.58358403012971 0 0 0 0 -734.52846677237903 -201.0042017290798 0 -201.0042017290798 146.77440450301219 0 0 0 0 -596.3265935664931 -368.42177281028125 0 -368.42177281028125 102.23325916024623 0 0 0 0 -574.86133809742023 -311.24959938317261 0 -311.24959938317261 245.48151560412953 0 0 0 0 -440.03918419833644 -352.46158345950244 0 -352.46158345950244 138.72055339878716 0 0 0 0 -85.605294254609362 -253.22180238709279 0 -253.22180238709279 208.3586783882929 0 0 0 0 -65.233624576052534 -122.04850211490702 0 -122.04850211490702 241.8677140942491 0 0 0 0 -46.41587666751002 -350.95783798420598 0 -350.95783798420598 0.12902354527614079 0 0 0 0 77.756784294935642 -205.82339966298605 0 -205.82339966298605 102.2340572700341 0 0 0 0 435.60642848332645 -180.25102006567613 0 -180.25102006567613 58.031869943508354 0 0 0 0 295.99481747016398 -276.17137948414893 0 -276.17137948414893 -0.1043616127050964 0 0 0 0 -19.513836366873875 -7.4462273614553851 0 -7.4462273614553851 71.609111965492048 0 0 0 0 253.97647402755047 -224.22980336128785 0 -224.22980336128785 53.302961100409448 0 0 0 0 -13.726690640939466 -10.783307989540006 0 -10.783307989540006 -7.0174927204009236 0 0 0 0 381.9599303695868 -490.65100064023864 0 -490.65100064023864 275.38876522479768 0 0 0 0 319.35270256027434 -242.69748428100866 0 -242.69748428100866 45.146791066348669 0 0 0 0 233.72833327796798 -207.0352902456234 0 -207.0352902456234 294.90874664316652 0 0 0 0 -106.73642435210786 -260.11677282443998 0 -260.11677282443998 429.9692009024875 0 0 0 0 -1403.9176513921666 1329.337124749738 0 1329.337124749738 328.17533162230393 0 0 0 0 -17.407223633659186 -14.468857089634184 0 -14.468857089634184 -9.8186667106575669 0 0 0 0 -212.57186957416707 -373.501839813689 0 -373.501839813689 -734.38080270857608 0 0 0 0 -41.024538867672163 107.71824561901758 0 107.71824561901758 55.421392319985898 0 0 0 0 32.524396179403993 74.864646088037262 0 74.864646088037262 -48.145936166525644 0 0 0 0 28.274864220820746 -26.36544467728163 0 -26.36544467728163 -240.71106833640079 0 0 0 0 -11.703153963146178 21.121656239089134 0 21.121656239089134 -10.783704924688209 0 0 0 0 22.340648698664154 -22.532250025298708 0 -22.532250025298708 -57.831805778150738 0 0 0 0 -100.6630178368323 -124.46125717770701 0 -124.46125717770701 -2.4616253653948661 0 0 0 0 -91.801265077490825 -61.318095901282504 0 -61.318095901282504 134.88785274550901 0 0 0 0 -306.73994608303474 -200.66530853195582 0 -200.66530853195582 117.49053325304703 0 0 0 0 -355.11033442094413 -84.380631640950014 0 -84.380631640950014 232.00470595769002 0 0 0 0 -525.00615584477782 -195.26790251251077 0 -195.26790251251077 156.67569938177076 0 0 0 0 -441.1900578722416 -166.62645502493251 0 -166.62645502493251 153.694905118924 0 0 0 0 -438.31108394975308 -49.927689225442009 0 -49.927689225442009 266.52682182972785 0 0 0 0 -598.09513095751754 15.292790854218765 0 15.292790854218765 318.2432788297665 0 0 0 0 -568.84646921834064 -152.07356347420136 0 -152.07356347420136 191.06143552169669 0 0 0 0 -490.61857383319875 -132.87685833210708 0 -132.87685833210708 167.17256470430584 0 0 0 0 -841.65650265369914 -102.43654349849385 0 -102.43654349849385 174.12780455069151 0 0 0 0 -732.74761729285456 -287.99555532082013 0 -287.99555532082013 70.040291321696714 0 0 0 0 -923.1881521262967 -386.78909999098687 0 -386.78909999098687 65.181297597970115 0 0 0 0 -279.44497304003744 -303.503549160494 0 -303.503549160494 -169.1571768282738 0 0 0 0 73.504374649943202 120.45391081680282 0 120.45391081680282 86.139859369970509 0 0 0 0 27.84430021503249 -44.943838045016491 0 -44.943838045016491 517.04586327170546 0 0 0 0 42.131558166613104 33.246138453352614 0 33.246138453352614 194.5471352225577 0 0 0 0 24.653524749286589 21.656963074565283 0 21.656963074565283 130.9844955694598 0 0 0 0 64.528502927889349 -28.617441043090366 0 -28.617441043090366 77.375949441222474 0 0 0 0 30.254322076783865 32.526794406625413 0 32.526794406625413 -20.850279863967444 0 0 0 0 41.76011606901011 52.39016134375197 0 52.39016134375197 7.7254596319035045 0 0 0 0 24.51123958087237 -87.674692939508986 0 -87.674692939508986 -37.985383653911413 0 0 0 0 -2.4335182990899114 -2.816832067426958 0 -2.816832067426958 9.6046561163981892 0 0 0 0 -618.16874766115143 -326.97703184075635 0 -326.97703184075635 49.101239034658647 0 0 0 0 -7.299600442251915 -0.92149061823974421 0 -0.92149061823974421 7.413018855852755 0 0 0 0 -643.37204237751575 -77.359519393117807 0 -77.359519393117807 11.883315153681906 0 0 0 0 -21.052336052605824 -18.61406443107262 0 -18.61406443107262 -1.6800197000229673 0 0 0 0 -8.7528624511505768 -6.189727390439657 0 -6.189727390439657 0.0021963597464491613 0 0 0 0 -930.65562886382395 1.871708278391452 0 1.871708278391452 -9.5400674758566311 0 0 0 0 -1.2942699072545594 -0.9194768215996092 0 -0.9194768215996092 -1.7083001017611537 0 0 0 0 -5.1907777626943528 -1.7874683423155773 0 -1.7874683423155773 1.404104772124839 0 0 0 0 -898.61590973011289 -278.24152683343027 0 -278.24152683343027 46.409958559102961 0 0 0 0 -490.63787643108299 -463.83297954672162 0 -463.83297954672162 0.30538593913661316 0 0 0 0 -122.67590089546502 -378.08930928553673 0 -378.08930928553673 -156.75881637405109 0 0 0 0 -110.67815669818651 -230.41553022332505 0 -230.41553022332505 75.559377706173109 0 0 0 0 -402.59251473719632 -244.73385794012574 0 -244.73385794012574 -77.184722158133809 0 0 0 0 859.98246834171368 -588.64081684051052 0 -588.64081684051052 -140.98482108088501 0 0 0 0 426.46436898696265 -512.14802543295446 0 -512.14802543295446 -0.61117133371678312 0 0 0 0 822.22899371458334 -499.63347212753433 0 -499.63347212753433 -72.20756427858214 0 0 0 0 636.89476788489992 -323.29923088255237 0 -323.29923088255237 -135.79688926386734 0 0 0 0 1448.9461222531972 -516.70547075305512 0 -516.70547075305512 206.20400187758059 0 0 0 0 1341.965137820207 -661.97716692143149 0 -661.97716692143149 520.22795950676664 0 0 0 0 1065.0048989532725 -664.07767725654867 0 -664.07767725654867 152.21035761080566 0 0 0 0 1102.3427328434536 -336.10875544814689 0 -336.10875544814689 22.053035163742607 0 0 0 0 1513.365406855024 -341.19954374157533 0 -341.19954374157533 233.85274459629727 0 0 0 0 886.744108097977 -443.55920529400464 0 -443.55920529400464 228.19152104762907 0 0 0 0 447.89968743425561 -364.35683953381886 0 -364.35683953381886 230.25998979690485 0 0 0 0 745.47855891767904 -199.5241783708625 0 -199.5241783708625 252.55977888405323 0 0 0 0 385.7545469263514 -565.99886103162862 0 -565.99886103162862 482.05275718365738 0 0 0 0 530.85941962459765 -710.63950902642682 0 -710.63950902642682 299.6289257036442 0 0 0 0 753.37013774841034 -501.32461148896255 0 -501.32461148896255 197.55387153163792 0 0 0 0 1095.3884228227253 -489.97479722750722 0 -489.97479722750722 543.22597203445912 0 0 0 0 819.82976247708939 -278.68506616748346 0 -278.68506616748346 729.34393390579498 0 0 0 0 594.64754715082381 -488.34496754966131 0 -488.34496754966131 693.531511246023 0 0 0 0 1181.5221900886681 -997.99090928837541 0 -997.99090928837541 -190.81640960439108 0 0 0 0 1442.7953644579029 178.12781370046287 0 178.12781370046287 1369.5640731083695 0 0 0 0 687.16017255220504 -1737.3404388583003 0 -1737.3404388583003 2265.3542371248768 0 0 0 0 2746.9041450220611 -673.37745226035622 0 -673.37745226035622 454.83970561272872 0 0 0 0 -86.148241587181474 -211.43812095329486 0 -211.43812095329486 -458.07326416877913 0 0 0 0 -724.95613218034123 -525.66018240911944 0 -525.66018240911944 -44.96500696624571 0 0 0 0 14.993574365893437 -503.72498523212562 0 -503.72498523212562 228.79810715280473 0 0 0 0 446.76508103078231 -386.15446025980054 0 -386.15446025980054 -173.53551622720261 0 0 0 0 374.09392789572757 -644.30780194649651 0 -644.30780194649651 -18.461636360458215 0 0 0 0 5.6569162305822829 -904.98985093737429 0 -904.98985093737429 418.79531918543216 0 0 0 0 -67.956940476156888 2.5039686124473519 0 2.5039686124473519 838.38407216026098 0 0 0 0 3.9367538683582097 -963.64571766313748 0 -963.64571766313748 -122.47057259085341 0 0 0 0 -0.60542274065842605 -2.0964419672194765 0 -2.0964419672194765 4.9119034363249057 0 0 0 0 169.36411651970411 -499.17557620861771 0 -499.17557620861771 940.33846654893568 0 0 0 0 400.98422567534726 -562.1226587164856 0 -562.1226587164856 719.42031282160315 0 0 0 0 423.9893818129176 -496.31639205293141 0 -496.31639205293141 646.03835564095061 0 0 0 0 157.61361928146653 -534.06382272793417 0 -534.06382272793417 757.8359145792856 0 0 0 0 1.2605796848773991 -8.5286591386793305 0 -8.5286591386793305 -8.2401637118038025 0 0 0 0 381.90496252420962 -467.46134828557297 0 -467.46134828557297 655.86417624019668 0 0 0 0 731.12176336717675 -801.14068175804277 0 -801.14068175804277 589.37599992248943 0 0 0 0 293.07550163182896 -764.04062418753165 0 -764.04062418753165 600.74922723176132 0 0 0 0 265.32164648500475 -506.66342421488662 0 -506.66342421488662 789.23625879950123 0 0 0 0 247.0682385890359 -443.28299028159017 0 -443.28299028159017 704.29259500888293 0 0 0 0 359.63454698551504 -499.87948871621484 0 -499.87948871621484 714.12668763431429 0 0 0 0 284.03152249821505 -523.01939258011043 0 -523.01939258011043 711.45176259691652 0 0 0 0 1423.3390944870262 -1874.5595459900651 0 -1874.5595459900651 1289.9723688673112 0 0 0 0 1928.6106562314053 -1330.7626229473826 0 -1330.7626229473826 239.17047599630314 0 0 0 0 2070.4784155444431 -1508.3550358121283 0 -1508.3550358121283 384.61480785864114 0 0 0 0 1097.5147426921321 -731.36658699485997 0 -731.36658699485997 299.82863643345627 0 0 0 0 0.79837720924496125 -4.3161838231319507 0 -4.3161838231319507 -2.260535719234781 0 0 0 0 1202.8419763609127 -1438.6143128938274 0 -1438.6143128938274 1495.6622388833348 0 0 0 0 636.4799468821584 -348.75505645426892 0 -348.75505645426892 -233.71771590040953 0 0 0 0 164.70946874067158 -541.58498772452731 0 -541.58498772452731 254.56330032464575 0 0 0 0 719.09296655001526 -771.99058055807109 0 -771.99058055807109 1283.3638823651272 0 0 0 0 883.2739371161806 -566.61245118532679 0 -566.61245118532679 606.05142884496308 0 0 0 0 779.75067674084858 -756.38266070962709 0 -756.38266070962709 598.64485231658909 0 0 0 0 838.08542935716832 -570.4484679669913 0 -570.4484679669913 598.81299947369553 0 0 0 0 1136.2255472218239 -713.87209340410118 0 -713.87209340410118 420.09922903314873 0 0 0 0 -1.8606613071169704 -171.13287687223055 0 -171.13287687223055 268.16791486414331 0 0 0 0 688.59455013839761 -288.6590141155757 0 -288.6590141155757 170.98649207410926 0 0 0 0 532.60706834532175 -355.26527509084553 0 -355.26527509084553 353.61557570304285 0 0 0 0 848.64974054260529 -725.9585718132148 0 -725.9585718132148 345.29251130930788 0 0 0 0 835.33795342587837 -788.95615880381229 0 -788.95615880381229 428.38339851351338 0 0 0 0 766.7786407207459 -739.84578552329185 0 -739.84578552329185 444.80058822338469 0 0 0 0 825.68500342180778 -688.58223802104476 0 -688.58223802104476 453.09379673562944 0 0 0 0 179.24900451060967 -420.37282788442462 0 -420.37282788442462 502.16512920397508 0 0 0 0 490.83611562030273 -236.69569533763934 0 -236.69569533763934 -14.731668216903927 0 0 0 0 18.238612227290901 -3.3036874238578235 0 -3.3036874238578235 -3.037194538446208 0 0 0 0 0.096837883760031218 -3.0094865364814467 0 -3.0094865364814467 -2.4158014507755325 0 0 0 0 -15.356942265600082 116.57484035340167 0 116.57484035340167 -304.10668088802777 0 0 0 0 0.48423591890673379 -7.1511648353097499 0 -7.1511648353097499 -8.0330355939797187 0 0 0 0 332.63605341274524 194.01181020044169 0 194.01181020044169 -602.56488412984982 0 0 0 0 828.50144672784518 -757.65681210725597 0 -757.65681210725597 773.51977193070343 0 0 0 0 797.79726929866592 -849.46158058213769 0 -849.46158058213769 508.23879754846712 0 0 0 0 769.92789804526547 -790.32032449870894 0 -790.32032449870894 406.15227717735252 0 0 0 0 821.9086321079667 -747.37905855197459 0 -747.37905855197459 390.89507691448671 0 0 0 0 684.55137391568132 -1016.6472531105283 0 -1016.6472531105283 1137.1846782015127 0 0 0 0 1220.3436582397117 -851.12443981803517 0 -851.12443981803517 484.6445195511551 0 0 0 0 1174.3607026432292 -551.01065240765456 0 -551.01065240765456 313.68768434402591 0 0 0 0 438.82700690639467 -527.46169220678712 0 -527.46169220678712 666.79016503235471 0 0 0 0 281.96263414323039 -374.66077302409394 0 -374.66077302409394 431.09209317338536 0 0 0 0 -2.7500782142698768 -7.6485561860181974 0 -7.6485561860181974 -6.5701818716116236 0 0 0 0 271.62904274652828 -406.88317344626557 0 -406.88317344626557 580.65353323494833 0 0 0 0 -258.69142525921779 22.358372126233007 0 22.358372126233007 -253.55643392390994 0 0 0 0 177.8996738815913 -274.92855016432441 0 -274.92855016432441 456.87005539415986 0 0 0 0 216.55141634166648 -260.32934183329053 0 -260.32934183329053 575.67322575434559 0 0 0 0 232.42118676751852 -233.73829760630906 0 -233.73829760630906 480.0307724055674 0 0 0 0 352.10404803763959 -606.04386504001741 0 -606.04386504001741 770.91643207098241 0 0 0 0 456.74214154850051 -348.10254036973492 0 -348.10254036973492 691.68205094445148 0 0 0 0 278.88148551208724 -414.88995117520972 0 -414.88995117520972 669.91124517700518 0 0 0 0 497.24122110985445 -509.39818032189214 0 -509.39818032189214 644.82237640133826 0 0 0 0 183.59460145480989 -474.58667407618486 0 -474.58667407618486 905.37027587284683 0 0 0 0 172.14122624720039 -403.37602586303547 0 -403.37602586303547 584.09900772271794 0 0 0 0 176.84325058553077 -364.33708144749107 0 -364.33708144749107 655.79292499506846 0 0 0 0 253.7175173528085 -311.43253536950215 0 -311.43253536950215 631.37239902019792 0 0 0 0 233.07479829480872 -438.57140891470772 0 -438.57140891470772 689.69964183885168 0 0 0 0 289.78934692227631 -334.48675388762786 0 -334.48675388762786 835.57700913673034 0 0 0 0 174.53987644196604 -458.2724042788177 0 -458.2724042788177 543.79166898303083 0 0 0 0 231.26203039902612 -550.47989421657985 0 -550.47989421657985 671.54890737085771 0 0 0 0 -0.085575627507893159 -2.7435532572566643 0 -2.7435532572566643 -2.3988626207514585 0 0 0 0 318.0873515978019 566.56912772517535 0 566.56912772517535 259.25817945910967 0 0 0 0 359.57859926244419 -714.49498573554592 0 -714.49498573554592 413.49569149850868 0 0 0 0 245.00525430504058 -721.96363930871303 0 -721.96363930871303 801.39597673840399 0 0 0 0 141.82133295705717 -272.20891653333092 0 -272.20891653333092 456.81293273479787 0 0 0 0 -6.6333229756367871 -9.9207072861173202 0 -9.9207072861173202 -7.5684359060251012 0 0 0 0 -160.52861217781901 -1147.8018399806024 0 -1147.8018399806024 -269.48171274938795 0 0 0 0 478.97124310351501 -618.94895102866576 0 -618.94895102866576 165.54763013016054 0 0 0 0 271.78661019180436 -336.38798525523453 0 -336.38798525523453 226.03503951535095 0 0 0 0 345.60111022580531 -663.56459421836189 0 -663.56459421836189 240.5269622040214 0 0 0 0 245.84321579101379 -543.05941355727555 0 -543.05941355727555 323.40146265883232 0 0 0 0 266.16782366775442 -614.91276261085295 0 -614.91276261085295 563.29875623912085 0 0 0 0 278.26692917147011 -499.21409204092924 0 -499.21409204092924 380.51515488303266 0 0 0 0 676.99320034595439 -246.75977359649551 0 -246.75977359649551 126.48607940232978 0 0 0 0 72.555186745274113 -243.26998542720685 0 -243.26998542720685 200.88075716394815 0 0 0 0 83.772377906723705 -247.02184696585027 0 -247.02184696585027 111.01271518414433 0 0 0 0 -110.58029963944864 -44.802886044431943 0 -44.802886044431943 171.1002741958273 0 0 0 0 -38.382196648348327 -191.76523479910247 0 -191.76523479910247 314.04722415929427 0 0 0 0 7.90283486089902 -169.49066769306955 0 -169.49066769306955 262.18970725883264 0 0 0 0 -112.64570304565132 -57.161742729469552 0 -57.161742729469552 282.10564801174041 0 0 0 0 -225.42803648416339 -120.39432779095841 0 -120.39432779095841 212.56761998450384 0 0 0 0 -259.23491589007608 27.532474541381816 0 27.532474541381816 253.51617663925208 0 0 0 0 197.65476169143221 -465.50685444236296 0 -465.50685444236296 505.41188755635812 0 0 0 0 138.34591903866385 -370.58740699698683 0 -370.58740699698683 356.69894931987437 0 0 0 0 48.525476407638052 -182.46178360153863 0 -182.46178360153863 231.32511421216577 0 0 0 0 193.76265498046996 -314.909227986318 0 -314.909227986318 334.18900583658251 0 0 0 0 -3.3806502647021262 -200.73553496497698 0 -200.73553496497698 358.49433488032082 0 0 0 0 74.05855454034463 -223.67833830573363 0 -223.67833830573363 332.90002463283599 0 0 0 0 108.93531738527236 -297.00995042828436 0 -297.00995042828436 460.57084830355961 0 0 0 0 74.890759100569994 -302.72109354881104 0 -302.72109354881104 479.33973059948767 0 0 0 0 33.127351491923037 -185.72373923787382 0 -185.72373923787382 410.49825286364648 0 0 0 0 16.293998314766213 -203.52023435641604 0 -203.52023435641604 393.63424467411824 0 0 0 0 -41.446983623514825 -104.83854055754273 0 -104.83854055754273 297.73856201881426 0 0 0 0 -63.064233987097396 -146.92788014315011 0 -146.92788014315011 403.55773723216407 0 0 0 0 -81.886566883069463 -123.77995285006909 0 -123.77995285006909 331.37401380183292 0 0 0 0 -67.960125600497122 -100.34214903519023 0 -100.34214903519023 370.09651530399424 0 0 0 0 12.197286185182747 -203.70121567716342 0 -203.70121567716342 388.42898215053719 0 0 0 0 -174.00539589505206 -22.95836353370396 0 -22.95836353370396 263.00740561400016 0 0 0 0 -187.62834831782675 -62.743272388426703 0 -62.743272388426703 338.22153111048101 0 0 0 0 -129.43670843918517 -105.60406313696876 0 -105.60406313696876 348.10169822230819 0 0 0 0 -184.96348889944056 -37.541007346277183 0 -37.541007346277183 334.35481079298188 0 0 0 0 -220.41645806381712 -50.261458518885775 0 -50.261458518885775 348.50677074581108 0 0 0 0 -292.4447628413327 30.638217110186815 0 30.638217110186815 319.04111830648617 0 0 0 0 -243.02322308253497 16.459622998263512 0 16.459622998263512 318.13624214276206 0 0 0 0 -325.25334358231339 10.438160874822643 0 10.438160874822643 344.57314260497515 0 0 0 0 -343.58960479930101 64.352704729506513 0 64.352704729506513 323.21307987555701 0 0 0 0 -285.74384041756275 40.653570047543326 0 40.653570047543326 326.14743604516843 0 0 0 0 -279.80375664384337 2.9425776301941369 0 2.9425776301941369 336.08788747018843 0 0 0 0 -395.30271421629004 -20.951142696096213 0 -20.951142696096213 333.53599000148824 0 0 0 0 -295.13629685356864 -15.564609079039656 0 -15.564609079039656 342.69169835138746 0 0 0 0 -301.91741582265968 -103.73826513885433 0 -103.73826513885433 237.64930847860523 0 0 0 0 -298.59653974308458 -87.183018753465149 0 -87.183018753465149 291.14920607203385 0 0 0 0 -403.26154510429478 -20.318703610522789 0 -20.318703610522789 334.37759066229046 0 0 0 0 -431.91381383167754 -62.204133875158732 0 -62.204133875158732 275.55767618486425 0 0 0 0 -490.69704775032005 14.300411164134857 0 14.300411164134857 356.85790623456705 0 0 0 0 -364.80138751510822 27.842908911727136 0 27.842908911727136 338.30847937060753 0 0 0 0 -28.818672799032356 -88.066573901502124 0 -88.066573901502124 350.9395767973183 0 0 0 0 -67.711652675665391 -148.87058231152332 0 -148.87058231152332 259.86934830859536 0 0 0 0 -173.17886544622888 -58.877477241840097 0 -58.877477241840097 336.38089969426164 0 0 0 0 -193.08111821550119 -91.033140800951514 0 -91.033140800951514 285.473380554904 0 0 0 0 -125.0082784051483 -138.38741551394924 0 -138.38741551394924 124.10994560186191 0 0 0 0 -133.1112780237163 -90.0287589928339 0 -90.0287589928339 187.77755466075905 0 0 0 0 -59.440411814757681 -47.355660232089576 0 -47.355660232089576 246.77544727369968 0 0 0 0 25.948756454417889 -45.645269821347028 0 -45.645269821347028 288.97793087030004 0 0 0 0 0.20887479194789194 -122.34388633495837 0 -122.34388633495837 155.18339242208458 0 0 0 0 32.963386476360029 -194.29455206129933 0 -194.29455206129933 378.90775664334797 0 0 0 0 126.4068638185272 -273.41250681065139 0 -273.41250681065139 521.43054488310008 0 0 0 0 53.419718392087816 -143.27411782597483 0 -143.27411782597483 424.23245227857842 0 0 0 0 139.33980812461232 -220.85933863678656 0 -220.85933863678656 450.9223182818132 0 0 0 0 5.3453136622993043 -255.62241865617762 0 -255.62241865617762 656.49727712936874 0 0 0 0 69.117206494287529 -132.8959987867056 0 -132.8959987867056 430.64634494781785 0 0 0 0 175.14926500311776 -268.8662604712722 0 -268.8662604712722 507.97818331068265 0 0 0 0 249.59605548904801 -456.94861614135152 0 -456.94861614135152 671.74634006524775 0 0 0 0 163.84696204485954 -416.81393992121593 0 -416.81393992121593 681.36703940053121 0 0 0 0 304.87787409644807 -530.78902487347659 0 -530.78902487347659 710.38030022624935 0 0 0 0 299.72619098170026 -455.68080766711137 0 -455.68080766711137 630.16521293894039 0 0 0 0 321.57780471420119 -358.46612718782762 0 -358.46612718782762 586.50352970339009 0 0 0 0 210.2955931507604 -372.00927821567893 0 -372.00927821567893 611.9450223177264 0 0 0 0 296.39654432298266 -502.28745287536003 0 -502.28745287536003 686.36685873755778 0 0 0 0 168.87288031411299 -238.9505924898549 0 -238.9505924898549 506.96385591790749 0 0 0 0 188.32747513416689 -361.50501405910472 0 -361.50501405910472 593.35712914371106 0 0 0 0 129.9627144117112 -250.03838984903996 0 -250.03838984903996 512.43976702537475 0 0 0 0 90.754275012594007 -285.45270172115124 0 -285.45270172115124 480.91938947176095 0 0 0 0 51.595076361481915 -161.78391727297276 0 -161.78391727297276 432.89925789384142 0 0 0 0 109.91997709003772 -275.10629286957919 0 -275.10629286957919 488.51104104419937 0 0 0 0 74.770435666621779 -152.22750658007135 0 -152.22750658007135 421.1387137859856 0 0 0 0 -0.16386261864681728 -1200.3822175903842 0 -1200.3822175903842 267.05353380057841 0 0 0 0 -3.1166508419582328 -4.1925576094582055 0 -4.1925576094582055 -2.3706010500919934 0 0 0 0 437.85830491043725 -463.75959179533447 0 -463.75959179533447 -1074.1901825815221 0 0 0 0 384.80068977527117 -204.72511184916948 0 -204.72511184916948 -977.386264338209 0 0 0 0 -54.317955039445224 -1328.6711901264707 0 -1328.6711901264707 -318.09076015587198 0 0 0 0 -49.483530039942707 -1079.6097148587905 0 -1079.6097148587905 -2960.1133842408235 0 0 0 0 -978.03203435815522 -1833.6799782236867 0 -1833.6799782236867 -1.5558906629303237 0 0 0 0 0.73342547414426285 -1939.4834384465723 0 -1939.4834384465723 -1501.9456613412767 0 0 0 0 -154.3310123692645 -659.29547811661905 0 -659.29547811661905 146.00577186292503 0 0 0 0 -4.6581723402942146 -2.6132652550755608 0 -2.6132652550755608 0.87531378871116772 0 0 0 0 -641.74839859730128 -1277.775656895501 0 -1277.775656895501 -1955.8693450913706 0 0 0 0 -180.06124229663692 -488.11369676575487 0 -488.11369676575487 -669.25238485231239 0 0 0 0 -9.0382431669416405 -4.1366912413062948 0 -4.1366912413062948 2.2072689757426645 0 0 0 0 -708.38753009170978 -1196.6241831671432 0 -1196.6241831671432 -943.27245060353016 0 0 0 0 -954.68234533909708 -603.42569538144744 0 -603.42569538144744 -1003.0325582914193 0 0 0 0 -574.81847212894354 -970.0138861052983 0 -970.0138861052983 -1202.8780163693446 0 0 0 0 -1370.867150627455 -882.68640314321237 0 -882.68640314321237 -534.15824959607562 0 0 0 0 -1786.4648701469268 -547.345023744012 0 -547.345023744012 1759.4493265069977 0 0 0 0 -1960.6784167225996 -653.49548158937978 0 -653.49548158937978 457.91233625719906 0 0 0 0 -2551.2692413286131 -1384.3112239454204 0 -1384.3112239454204 972.70299726663507 0 0 0 0 -880.72580526470847 -1063.3078285347874 0 -1063.3078285347874 -642.32748058464495 0 0 0 0 -888.20573356358364 -1034.7475432964329 0 -1034.7475432964329 -155.89644974441035 0 0 0 0 164.92110427735315 -1049.8953687245958 0 -1049.8953687245958 -972.0142045278044 0 0 0 0 367.39892644356587 -365.20260421358398 0 -365.20260421358398 201.07508127245819 0 0 0 0 -266.72384332516231 -306.28272101318726 0 -306.28272101318726 -586.47938283827034 0 0 0 0 -8.5697089062292378 -7.561864398100326 0 -7.561864398100326 -0.93295966580427958 0 0 0 0 -168.1797849132563 -358.06637931702426 0 -358.06637931702426 -962.29918218560488 0 0 0 0 -5.4802624551174119 -3.6372056704260842 0 -3.6372056704260842 -0.039906743256212351 0 0 0 0 -1003.8917410162903 -1242.619137423233 0 -1242.619137423233 -1866.3334865854849 0 0 0 0 7.4619836461879743 -16.073531337067521 0 -16.073531337067521 -43.387434946478635 0 0 0 0 72.608294600751833 -165.75148017428364 0 -165.75148017428364 196.55629139211669 0 0 0 0 -1355.5346663044911 -1136.6813338759894 0 -1136.6813338759894 -679.60945700896264 0 0 0 0 -624.83359998530796 29.164611510033865 0 29.164611510033865 -815.38391945340845 0 0 0 0 122.84562165145144 -150.44492497228384 0 -150.44492497228384 180.26066118231392 0 0 0 0 61.800692965429334 -19.596523314146907 0 -19.596523314146907 158.43370843742741 0 0 0 0 143.47139245334256 -288.05200576366769 0 -288.05200576366769 431.93337231523765 0 0 0 0 74.965591142288758 -442.03759990704566 0 -442.03759990704566 262.91574087434128 0 0 0 0 289.3280956568633 -433.52346889267346 0 -433.52346889267346 182.34441753482679 0 0 0 0 -2.9194591450332052 -5.0512046430807658 0 -5.0512046430807658 -15.698870914122011 0 0 0 0 1152.3455381267049 -478.94966362472769 0 -478.94966362472769 -486.61706473730737 0 0 0 0 -4188.4447286938666 -1213.0779761197336 0 -1213.0779761197336 634.2651098783972 0 0 0 0 313.62908083138882 -238.6431500049589 0 -238.6431500049589 205.37762432338786 0 0 0 0 -2496.9933407974604 -564.88059681020968 0 -564.88059681020968 -189.60811449016182 0 0 0 0 -599.3629415188625 -405.26307197341885 0 -405.26307197341885 -1.0438321339606773 0 0 0 0 -1724.7888888827219 -1937.8751268452925 0 -1937.8751268452925 -1770.6029953157995 0 0 0 0 -3321.4376768840157 -1986.2834671633937 0 -1986.2834671633937 -386.58068232076766 0 0 0 0 -492.32560869761801 -919.68795755881729 0 -919.68795755881729 -1879.7150589410439 0 0 0 0 -1264.3015121991521 -1634.7918562586819 0 -1634.7918562586819 -1907.4690755766205 0 0 0 0 -7.0871505790000242 -4.1498674700412721 0 -4.1498674700412721 1.5701725484751989 0 0 0 0 -517.8232105144707 -1145.5328992626337 0 -1145.5328992626337 -73.634470410645008 0 0 0 0 -837.6075047969789 -2245.1381629185198 0 -2245.1381629185198 -1079.0262505151186 0 0 0 0 623.81655501241039 -1026.5816542712564 0 -1026.5816542712564 -1054.0417022374604 0 0 0 0 51.135879782097618 -730.79192248958498 0 -730.79192248958498 85.524610606138594 0 0 0 0 446.24777933352016 -682.61932028410956 0 -682.61932028410956 -511.0024905869941 0 0 0 0 428.50987206379068 -747.9566738051617 0 -747.9566738051617 95.868699402381026 0 0 0 0 224.2529548665334 -786.44355141570122 0 -786.44355141570122 -5.2925893754872959 0 0 0 0 470.793187035546 -918.73586823261576 0 -918.73586823261576 -217.12226543799261 0 0 0 0 723.03120747714274 -649.97756295902582 0 -649.97756295902582 1.0602683946199249 0 0 0 0 1194.0924058955134 -657.63815629165765 0 -657.63815629165765 -103.00312940980439 0 0 0 0 892.98571897567308 -711.10774819284416 0 -711.10774819284416 -285.28745590562175 0 0 0 0 764.46259941661992 -637.19066951407513 0 -637.19066951407513 -103.45154322424787 0 0 0 0 1379.6685284335108 -1062.2548675533399 0 -1062.2548675533399 492.31079524836969 0 0 0 0 810.90825175170903 -685.5494008362075 0 -685.5494008362075 243.20022304431768 0 0 0 0 785.60607109045623 -901.99416934628289 0 -901.99416934628289 162.31440508716332 0 0 0 0 290.94223806724767 -543.86073576092895 0 -543.86073576092895 520.07688360537577 0 0 0 0 151.78736141891568 -635.5213860907279 0 -635.5213860907279 746.19045704777818 0 0 0 0 -102.20313971712312 -21.324863630143227 0 -21.324863630143227 583.45717936005894 0 0 0 0 -49.05999560620694 -256.9515242351772 0 -256.9515242351772 1454.3875314153847 0 0 0 0 1524.9771681570637 -1518.213954336301 0 -1518.213954336301 1440.4943734012923 0 0 0 0 305.39553424032783 -773.53923698959989 0 -773.53923698959989 2071.5723434749707 0 0 0 0 23.524140099821807 -6.6959775171439446 0 -6.6959775171439446 4.3499643538020081 0 0 0 0 755.27312182057358 -852.87920818852581 0 -852.87920818852581 991.96067394960846 0 0 0 0 769.27640739781782 -880.58193611742172 0 -880.58193611742172 729.04571341976407 0 0 0 0 1093.7776010604503 -415.03409414507405 0 -415.03409414507405 -745.38224843923672 0 0 0 0 493.71758639453765 -137.87207498576026 0 -137.87207498576026 247.56115656285328 0 0 0 0 1567.6163952612224 -727.99846443251954 0 -727.99846443251954 -299.24185636869515 0 0 0 0 -269.02348569330843 -240.71046111051146 0 -240.71046111051146 33.46344349469291 0 0 0 0 -140.26114106942987 239.75465971224185 0 239.75465971224185 -141.42918200570421 0 0 0 0 473.70482663928124 -234.24541802562453 0 -234.24541802562453 124.06268581203767 0 0 0 0 272.59392489783932 78.551571927338955 0 78.551571927338955 47.072283307330508 0 0 0 0 892.46410165978887 -338.30202746767372 0 -338.30202746767372 110.90621856373036 0 0 0 0 314.16601847764105 -274.62514510430628 0 -274.62514510430628 374.033324093587 0 0 0 0 163.10685338209169 149.749273146821 0 149.749273146821 -116.26186125070672 0 0 0 0 16.205462237597459 -0.93328792105690184 0 -0.93328792105690184 -1.9604477409031986 0 0 0 0 6.2541604096222727 -37.820609649172184 0 -37.820609649172184 -94.435730461482308 0 0 0 0 29.22623590574949 -58.573351463408471 0 -58.573351463408471 -287.11046894050742 0 0 0 0 -61.74749352714025 6.7560197462735232 0 6.7560197462735232 69.540953564122901 0 0 0 0 -59.70893699271619 -6.8417899398773443 0 -6.8417899398773443 144.01291383094213 0 0 0 0 -76.018997169681825 -30.242268232432252 0 -30.242268232432252 -12.692066570463794 0 0 0 0 18.567356027642916 -16.138486378634269 0 -16.138486378634269 -7.9780590809505654 0 0 0 0 22.693502622118103 -68.194661884721427 0 -68.194661884721427 -53.899359915259993 0 0 0 0 91.805543558511999 -60.942855882665754 0 -60.942855882665754 -73.158991839598457 0 0 0 0 -4.2605458762682566 -70.641903539681152 0 -70.641903539681152 -18.035143033906763 0 0 0 0 297.80035693136961 -161.48065578479873 0 -161.48065578479873 -136.787069180049 0 0 0 0 321.89526232691424 -172.08857155240185 0 -172.08857155240185 -352.55177487288165 0 0 0 0 128.80016748876369 -41.206312642956618 0 -41.206312642956618 -80.529181884958234 0 0 0 0 -85.583751571353332 -204.30864029209846 0 -204.30864029209846 -134.72559446810919 0 0 0 0 8.3893080241458939 -66.648928974404555 0 -66.648928974404555 -29.564731107330289 0 0 0 0 20.579682787795434 -39.22321907557378 0 -39.22321907557378 -16.568041928192088 0 0 0 0 -125.9346486661816 -147.68914455316553 0 -147.68914455316553 534.852256173559 0 0 0 0 -32.586872009046317 -70.958194944209822 0 -70.958194944209822 24.469655430890271 0 0 0 0 5.3941292787647299 -66.660381606561856 0 -66.660381606561856 -25.226366567067032 0 0 0 0 -149.27120137551987 -86.517875140245692 0 -86.517875140245692 3.0793558448785916 0 0 0 0 -409.51591154868947 46.275959387035982 0 46.275959387035982 -29.520261138537535 0 0 0 0 42.209919864333642 -90.819256910785043 0 -90.819256910785043 -84.366600128923892 0 0 0 0 -143.00525525468402 -64.193377204559511 0 -64.193377204559511 144.63161208254314 0 0 0 0 -137.50644108300185 -129.82887964456313 0 -129.82887964456313 -6.8941120571907959 0 0 0 0 -57.147962237395404 -242.79875863362395 0 -242.79875863362395 -247.87636592445779 0 0 0 0 157.58318843165034 -159.81591020203632 0 -159.81591020203632 13.859116419713246 0 0 0 0 57.87615108279914 -28.734820603484337 0 -28.734820603484337 -3.4876399645075509 0 0 0 0 -14.018778866435753 -11.100332518380327 0 -11.100332518380327 -7.8605293325014216 0 0 0 0 -1349.3792247886158 -892.96265089912777 0 -892.96265089912777 -389.36427985491173 0 0 0 0 -637.34014458151069 296.39704211444041 0 296.39704211444041 -123.92684960416409 0 0 0 0 -1434.2587033330274 -655.27657757820998 0 -655.27657757820998 -869.7721060617987 0 0 0 0 -20.615534482203657 -155.84537162475317 0 -155.84537162475317 -995.65939539247483 0 0 0 0 -826.78387676204511 -811.41652827660801 0 -811.41652827660801 -230.44577174659935 0 0 0 0 -1258.3350461142145 -198.44542190601169 0 -198.44542190601169 346.27367670017702 0 0 0 0 -725.63599146992783 -260.03750181648138 0 -260.03750181648138 397.16990993406216 0 0 0 0 -759.28962551274162 -207.0150597312313 0 -207.0150597312313 316.16776237484737 0 0 0 0 -1033.058250034228 -272.68795482997666 0 -272.68795482997666 396.90255532679794 0 0 0 0 -366.16395611246844 -758.04764559033902 0 -758.04764559033902 -414.65769486912177 0 0 0 0 356.04019951991722 -302.19984267957443 0 -302.19984267957443 -512.82489734048431 0 0 0 0 -1087.785594734145 -709.66969808825161 0 -709.66969808825161 91.905780661656536 0 0 0 0 -5.1362013585503234 -5.5199032626019005 0 -5.5199032626019005 -2.7381086014084417 0 0 0 0 -765.79586423333603 -39.356651962269098 0 -39.356651962269098 341.61438756433927 0 0 0 0 -525.78414588631495 -34.601353876352732 0 -34.601353876352732 310.53741376496328 0 0 0 0 121.95861989974946 -273.30566871368501 0 -273.30566871368501 -30.725381782111072 0 0 0 0 278.39819415054808 -362.9865647384031 0 -362.9865647384031 153.67121694777597 0 0 0 0 -7.1453058606658146 -9.6560021606370796 0 -9.6560021606370796 -8.0308030860045392 0 0 0 0 108.7412751026859 -124.45604756503235 0 -124.45604756503235 22.630368402960812 0 0 0 0 136.87828399306454 -349.75968340298277 0 -349.75968340298277 182.02411995661532 0 0 0 0 -0.24396513994724955 -272.24603903129537 0 -272.24603903129537 233.67614650848554 0 0 0 0 223.72847667135647 -189.59476919839653 0 -189.59476919839653 189.57990019729186 0 0 0 0 0.42303770191938384 -126.16254563491384 0 -126.16254563491384 172.91466331775518 0 0 0 0 516.25033859160612 114.12790674513963 0 114.12790674513963 -314.42659532284597 0 0 0 0 195.64376657371758 -781.92463686027622 0 -781.92463686027622 359.47553100842197 0 0 0 0 107.26129511512772 -359.73840780307 0 -359.73840780307 -863.32539986075426 0 0 0 0 -3.1392301508160756 -4.6660203900089101 0 -4.6660203900089101 -4.1778453701702745 0 0 0 0 806.9590056774905 -295.87508136002089 0 -295.87508136002089 -1024.8467634838235 0 0 0 0 -96.702040380172548 -347.9510153884039 0 -347.9510153884039 37.322852576391597 0 0 0 0 -96.702040380143444 -347.95101538839663 0 -347.95101538839663 37.322852576389778 0 0 0 0 -96.702040380128892 -347.95101538841118 0 -347.95101538841118 37.322852576398873 0 0 0 0 -8.5419068773615834 -1.6151534606140672 0 -1.6151534606140672 0.8521478136563303 0 0 0 0 -1.2445043030311354 -22.008054231126152 0 -22.008054231126152 -2.3472402800261989 0 0 0 0 2.4478523160069017 -10.596227606331922 0 -10.596227606331922 -5.2335935003939085 0 0 0 0 -9.639455892947808 -8.4119986387113386 0 -8.4119986387113386 -5.2948503524530679 0 0 0 0 -5.1708428161946358 -20.277348547198926 0 -20.277348547198926 -2.5554327031868525 0 0 0 0 8.0626399754999625 -0.63198836570674644 0 -0.63198836570674644 -3.1969357688529385 0 0 0 0 75.841400194447488 -410.64153624313622 0 -410.64153624313622 -648.87664533541829 0 0 0 0 57.300081917994248 -393.92053861386921 0 -393.92053861386921 -653.95192078783293 0 0 0 0 19.772240117177716 -364.0055648260095 0 -364.0055648260095 -472.88292287102377 0 0 0 0 0.54952794896050716 -414.02549598610534 0 -414.02549598610534 -428.36162900599447 0 0 0 0 417.08947743407043 -588.17021289869444 0 -588.17021289869444 -602.99066756448883 0 0 0 0 4.4623936498246621 -302.06476913493316 0 -302.06476913493316 -655.93029009776001 0 0 0 0 -139.4980145806876 -580.42063060008604 0 -580.42063060008604 -384.92475623002974 0 0 0 0 4.0457222052026509 0.058317337140124437 0 0.058317337140124437 -2.1516897444550978 0 0 0 0 -73.358467693877174 -42.498912286340783 0 -42.498912286340783 -39.264302750481875 0 0 0 0 -450.94271247192228 -382.69021166756647 0 -382.69021166756647 -136.28575954940607 0 0 0 0 -467.01778906901018 -710.93520730189266 0 -710.93520730189266 -436.73617958678369 0 0 0 0 -869.46773268814286 -494.51617212818746 0 -494.51617212818746 -155.54003198035934 0 0 0 0 -855.07261796973035 -594.75057874657068 0 -594.75057874657068 -556.67551570240903 0 0 0 0 -0.31658303140473665 -3.6489904931795252 0 -3.6489904931795252 -5.559916760336165 0 0 0 0 442.79423884485004 -109.25004698608609 0 -109.25004698608609 -187.74613234415301 0 0 0 0 -275.93015886798094 104.90162212931318 0 104.90162212931318 -38.133661606101668 0 0 0 0 306.82286915641293 -39.250092236869705 0 -39.250092236869705 -24.017838943036622 0 0 0 0 -0.021390694749744199 -5.6797523156023715 0 -5.6797523156023715 -14.122186922356548 0 0 0 0 -125.61725047197979 -23.391841320491949 0 -23.391841320491949 52.57599584977288 0 0 0 0 -102.05182625211455 -14.795853957328291 0 -14.795853957328291 -30.428931754693622 0 0 0 0 -48.052510908630211 -44.808409440785908 0 -44.808409440785908 -39.217550280186515 0 0 0 0 -60.445617824647343 -13.961731322662672 0 -13.961731322662672 -30.577281907862016 0 0 0 0 -73.214131745044142 -3.1837827763847599 0 -3.1837827763847599 26.477265038389305 0 0 0 0 -0.23542854114203315 -6.0343141848954076 0 -6.0343141848954076 -20.165682692377771 0 0 0 0 -127.38692454945704 0.20745993660966633 0 0.20745993660966633 83.563954924377867 0 0 0 0 -45.074196209723596 -54.481555255919375 0 -54.481555255919375 20.451418208580435 0 0 0 0 206.25717688386339 -43.439816244836152 0 -43.439816244836152 -19.113012540270574 0 0 0 0 -104.8637300617338 -30.785460092351059 0 -30.785460092351059 81.897512801457196 0 0 0 0 206.1008268482401 -42.119559322112764 0 -42.119559322112764 -23.662797895744006 0 0 0 0 105.06959942491085 -37.848408156212827 0 -37.848408156212827 -22.897807053192082 0 0 0 0 -80.216979801087291 -117.05498561735294 0 -117.05498561735294 83.114710369081877 0 0 0 0 -46.641301827388816 -125.38071978520748 0 -125.38071978520748 -13.090575969754354 0 0 0 0 -90.681486432360543 -80.750312942545861 0 -80.750312942545861 -22.41089203368756 0 0 0 0 -60.808670929953223 -136.80426784635711 0 -136.80426784635711 -6.8296866347518517 0 0 0 0 -41.21976349178658 -118.42247346524346 0 -118.42247346524346 -17.099215184149216 0 0 0 0 -16.852198891640001 -145.99620073517872 0 -145.99620073517872 -7.8568129256891552 0 0 0 0 202.05331782885048 -41.640884343087521 0 -41.640884343087521 -16.237871386416373 0 0 0 0 -54.678978275114787 -122.53829893764123 0 -122.53829893764123 -7.1877773818341666 0 0 0 0 0.27988527408970965 -67.828390587565252 0 -67.828390587565252 -21.176332759200079 0 0 0 0 202.6821348478843 -43.769781747316301 0 -43.769781747316301 -10.383286730462714 0 0 0 0 91.208632325712145 -113.41744412126879 0 -113.41744412126879 -52.131271334343182 0 0 0 0 0.36781562600224305 -68.528548660566216 0 -68.528548660566216 -20.370207736853359 0 0 0 0 319.04788136616844 -4.4470804694574326 0 -4.4470804694574326 42.914593552421138 0 0 0 0 318.06230139274703 -38.259698996156658 0 -38.259698996156658 76.818963442230597 0 0 0 0 84.794960403571167 -28.57038751618893 0 -28.57038751618893 -43.780898732387868 0 0 0 0 39.034667154955969 -111.36136699996132 0 -111.36136699996132 -21.678473135325476 0 0 0 0 11.276283028028502 -147.89536172449016 0 -147.89536172449016 -48.64230692772253 0 0 0 0 1.9683123946597334 -103.72966357925179 0 -103.72966357925179 -15.046057875692895 0 0 0 0 -2.0748072234819119 -159.98312547492606 0 -159.98312547492606 -58.043659809060046 0 0 0 0 42.105677362773349 -113.8118435180404 0 -113.8118435180404 -133.40300952238613 0 0 0 0 12.531927087951772 -121.96455439517013 0 -121.96455439517013 -157.02946117580359 0 0 0 0 -35.35672620805417 -265.75387071933073 0 -265.75387071933073 -71.671035484996537 0 0 0 0 -1.7994624667922494 -150.32808605972355 0 -150.32808605972355 -180.93960286906076 0 0 0 0 -63.409546560869785 -184.10438955404607 0 -184.10438955404607 11.147679334786517 0 0 0 0 -35.705867429729551 -169.95191766737116 0 -169.95191766737116 -37.478305249631376 0 0 0 0 -56.013520930104278 -172.87910520471269 0 -172.87910520471269 9.9260431683651404 0 0 0 0 -50.533175882970681 -154.32363856168013 0 -154.32363856168013 18.099479525884817 0 0 0 0 -55.914994499969907 -155.26887429213457 0 -155.26887429213457 35.973468162330391 0 0 0 0 -88.622257360639196 -134.39929364864474 0 -134.39929364864474 79.666072770443861 0 0 0 0 -95.894380498019018 -181.80686942664397 0 -181.80686942664397 48.731495248204737 0 0 0 0 -113.22532386861712 -171.07161742303833 0 -171.07161742303833 60.856960979028372 0 0 0 0 -158.05822669369945 -41.623056664042224 0 -41.623056664042224 226.24343350898562 0 0 0 0 -145.37216053943848 -148.59873476134089 0 -148.59873476134089 77.854158435419777 0 0 0 0 -7.8084475815875862 -9.6672475924500532 0 -9.6672475924500532 -10.088145129230014 0 0 0 0 -108.85395370123479 -139.59649106074176 0 -139.59649106074176 50.826897403465409 0 0 0 0 -110.91953850479149 -115.58342037805232 0 -115.58342037805232 -80.10244632611284 0 0 0 0 -107.39652352289392 -54.404393315856652 0 -54.404393315856652 21.722285365709123 0 0 0 0 -147.1051739166578 0.61077892841603898 0 0.61077892841603898 241.11839278431944 0 0 0 0 -128.18309436857817 -16.35943477525143 0 -16.35943477525143 248.75278863519225 0 0 0 0 -2.4682401666668738 24.911693149859421 0 24.911693149859421 19.131043379544757 0 0 0 0 -111.36473926927192 11.722005580512018 0 11.722005580512018 120.61093663531938 0 0 0 0 -89.436896371895273 -11.079671245309328 0 -11.079671245309328 131.24770298272779 0 0 0 0 -105.7369520252978 -43.64618357006475 0 -43.64618357006475 178.74167929861824 0 0 0 0 -110.49590907045058 -4.0764121872998658 0 -4.0764121872998658 159.97511825914262 0 0 0 0 -123.35489299544133 -15.434864321222449 0 -15.434864321222449 155.42746468384576 0 0 0 0 -131.55756428763561 18.448147992048689 0 18.448147992048689 179.40129915757643 0 0 0 0 -122.23734026753209 -62.667435717935405 0 -62.667435717935405 171.06574396126234 0 0 0 0 -124.69203446645406 -7.5127925778997451 0 -7.5127925778997451 133.44469479611871 0 0 0 0 -179.87190422547428 15.092466246497679 0 15.092466246497679 124.21423783395585 0 0 0 0 -162.59128673914893 -5.395512899228379 0 -5.395512899228379 102.15016126790943 0 0 0 0 -258.95398779936659 0.47691463388400734 0 0.47691463388400734 101.82339667202268 0 0 0 0 -191.95892467889644 68.899601533106761 0 68.899601533106761 35.692080444365274 0 0 0 0 -83.658800689823693 43.587306093397274 0 43.587306093397274 14.607820025812543 0 0 0 0 -128.43576421086254 69.633035385958465 0 69.633035385958465 48.326365248962247 0 0 0 0 -154.3098991914303 29.624808804826898 0 29.624808804826898 74.399141371060978 0 0 0 0 -131.93868034353363 38.214057417411823 0 38.214057417411823 75.93403729282727 0 0 0 0 -83.069492914168222 51.135701360870371 0 51.135701360870371 55.797447851524339 0 0 0 0 -102.66062556079123 22.254221273477015 0 22.254221273477015 99.195610943098472 0 0 0 0 -130.55996298267564 29.989547192184546 0 29.989547192184546 98.440662332752254 0 0 0 0 -133.95228991300246 23.468547867951202 0 23.468547867951202 134.44249375704385 0 0 0 0 -97.237297724277596 12.317777136451696 0 12.317777136451696 117.19413807057572 0 0 0 0 -82.057548912169295 25.324830678662693 0 25.324830678662693 74.638060820324426 0 0 0 0 -67.59107635258988 8.2250754730066546 0 8.2250754730066546 86.915703328551899 0 0 0 0 -58.877843723559636 33.32527898855551 0 33.32527898855551 48.362891213022522 0 0 0 0 -41.233887152829993 16.102227519552798 0 16.102227519552798 64.864606124538113 0 0 0 0 -62.861743050001678 27.343162966823002 0 27.343162966823002 74.84098741784419 0 0 0 0 2.6632100608258042 20.598683979082125 0 20.598683979082125 24.789519424937225 0 0 0 0 -27.246401781463646 32.299234110430916 0 32.299234110430916 22.876905187604279 0 0 0 0 -58.931331585394219 -1.5110889725656307 0 -1.5110889725656307 107.12423818650859 0 0 0 0 -20.666264668194344 -53.522751441672881 0 -53.522751441672881 -8.9420841363316868 0 0 0 0 -7.0601462804514385 -5.3798915476543812 0 -5.3798915476543812 17.523286013090285 0 0 0 0 -34.662582519405987 -4.4302642604561697 0 -4.4302642604561697 33.852102418975846 0 0 0 0 -1.370176111922774 -27.016290612935336 0 -27.016290612935336 -17.455784402176505 0 0 0 0 -9.5793084414544865 15.919566581311301 0 15.919566581311301 35.582152029604913 0 0 0 0 -21.210615228395909 -47.968279985063418 0 -47.968279985063418 -39.566608459077543 0 0 0 0 -4.7507154235051985 1.2748334988153154 0 1.2748334988153154 8.8747411329704775 0 0 0 0 -38.301812117853842 3.8416561728058696 0 3.8416561728058696 65.378378974070074 0 0 0 0 -31.57132773383637 -38.851593517429137 0 -38.851593517429137 41.551354407391045 0 0 0 0 -18.855118695351536 -8.835920436927978 0 -8.835920436927978 31.706309130096173 0 0 0 0 -22.026241149229463 -13.462206748416065 0 -13.462206748416065 43.760058088496407 0 0 0 0 -1.8524260604380913 -4.2132807579076683 0 -4.2132807579076683 -0.49335102516406337 0 0 0 0 -36.766929059042013 -21.865613031339308 0 -21.865613031339308 75.663652325209114 0 0 0 0 1.6227207974006888 -76.607516331809165 0 -76.607516331809165 -97.395894726876577 0 0 0 0 -7.1844934000982903 -30.032617623764963 0 -30.032617623764963 -55.450950609891152 0 0 0 0 -36.349430116053554 -65.425311029590375 0 -65.425311029590375 -3.9423645642382326 0 0 0 0 26.297048240649985 -29.51505347131809 0 -29.51505347131809 -18.915642950835863 0 0 0 0 105.49580445405445 -45.859153566372697 0 -45.859153566372697 -26.863014930408099 0 0 0 0 -66.297884732197417 -40.604580009125328 0 -40.604580009125328 5.420753623948908 0 0 0 0 -103.07552721779211 -79.716165133562754 0 -79.716165133562754 -52.274087552249512 0 0 0 0 -31.871851327501133 -38.634707781426471 0 -38.634707781426471 -9.2559408362722024 0 0 0 0 -26.266730106623811 -23.066167798547085 0 -23.066167798547085 21.092913647751569 0 0 0 0 -24.129870004296436 -45.183704387935563 0 -45.183704387935563 -3.1205801613832591 0 0 0 0 -34.372590711053192 -23.534236866243873 0 -23.534236866243873 23.445288033189996 0 0 0 0 -54.081172029749723 -7.1268997394217877 0 -7.1268997394217877 65.947424518374874 0 0 0 0 -23.975295278912842 -38.508625139335066 0 -38.508625139335066 -16.174505427803268 0 0 0 0 -22.654451930635652 -29.997226968194539 0 -29.997226968194539 13.675512619310894 0 0 0 0 -92.207844520569779 -5.3288190943203517 0 -5.3288190943203517 121.83942806873711 0 0 0 0 -53.366836646773663 -15.45110699039833 0 -15.45110699039833 103.50245959611493 0 0 0 0 -56.733701714896597 -27.300886404556124 0 -27.300886404556124 15.893750071477138 0 0 0 0 -39.460488514276221 -0.50549123086966574 0 -0.50549123086966574 66.504501744195295 0 0 0 0 -62.185368337160213 -18.043287695489546 0 -18.043287695489546 29.368875811599843 0 0 0 0 -41.015468200930627 -41.44089270826953 0 -41.44089270826953 5.4906083329842659 0 0 0 0 -62.270711956613923 -59.562562413978824 0 -59.562562413978824 -24.201267149525208 0 0 0 0 -80.393221679776431 -51.410449547093663 0 -51.410449547093663 -19.321697288600262 0 0 0 0 -80.378492742194794 -37.945770464350062 0 -37.945770464350062 67.893028679536656 0 0 0 0 -5.8575843295290166 -69.362483541792272 0 -69.362483541792272 -22.472841898268399 0 0 0 0 -145.53255834066175 -70.00654504495887 0 -70.00654504495887 12.410366562457057 0 0 0 0 110.46517134982867 -41.658658745201649 0 -41.658658745201649 -27.282883974112337 0 0 0 0 -135.89180607377057 -55.54506368861621 0 -55.54506368861621 29.822226212010719 0 0 0 0 126.27839419901284 -22.873803821157708 0 -22.873803821157708 -303.86495153458236 0 0 0 0 99.501073048246326 -42.037293724562915 0 -42.037293724562915 -22.68884734716994 0 0 0 0 -180.93906079246517 -59.136974727765846 0 -59.136974727765846 201.81984724094946 0 0 0 0 3.137877730410537 -8.6372533587764906 0 -8.6372533587764906 -25.244363120178463 0 0 0 0 -101.99421553246793 30.494900272278755 0 30.494900272278755 23.22305043384722 0 0 0 0 -4.2131800957307917 0.08177184627409062 0 0.08177184627409062 0.76690449376309289 0 0 0 0 68.422154781626887 -103.79701548245066 0 -103.79701548245066 -181.20498841077642 0 0 0 0 1.6471541395346776 -7.9461033080046377 0 -7.9461033080046377 7.179385360206652 0 0 0 0 -0.39830921535423158 -1.7855943154065557 0 -1.7855943154065557 -0.57253451902444752 0 0 0 0 -5.9289090481867959 -0.71006768239786311 0 -0.71006768239786311 1.5481309505759242 0 0 0 0 1.6510112315802417 -7.8777637255021773 0 -7.8777637255021773 -5.3737457573079155 0 0 0 0 -14.859021976299118 -45.309718915345002 0 -45.309718915345002 -35.430688438704237 0 0 0 0 -0.044159477633520794 -20.272739197121638 0 -20.272739197121638 1.0114158419962109 0 0 0 0 0.40215954190352932 -17.429335310702299 0 -17.429335310702299 4.6476230060434318 0 0 0 0 4.8865198023853509 -3.9887408322590261 0 -3.9887408322590261 -5.0194631696419441 0 0 0 0 -22.919937505284906 -94.114326148177497 0 -94.114326148177497 -46.489670130395098 0 0 0 0 -16.905583054962335 -36.623637939264881 0 -36.623637939264881 47.953940837673144 0 0 0 0 -8.4524286673511426 -9.2248186641889376 0 -9.2248186641889376 0.69828152667969334 0 0 0 0 -33.379622222533726 -20.604172168672449 0 -20.604172168672449 36.278655313450145 0 0 0 0 -39.155058785499932 -22.410924265342203 0 -22.410924265342203 31.951562383059354 0 0 0 0 -4.8049190541807993 -20.007300880463092 0 -20.007300880463092 13.2075477348032 0 0 0 0 -9.6448002444085432 -15.201926686018851 0 -15.201926686018851 11.060183059322299 0 0 0 0 -22.182530902511644 -52.688837290947959 0 -52.688837290947959 -37.233438542345539 0 0 0 0 -17.794413308473054 -21.442810280889628 0 -21.442810280889628 13.151945521621514 0 0 0 0 -4.751830469734756 -13.39355109369103 0 -13.39355109369103 14.105418674002962 0 0 0 0 1.5314641332642043 -4.8301353527866127 0 -4.8301353527866127 12.264945404681214 0 0 0 0 -59.210521520144539 5.7741726360873145 0 5.7741726360873145 5.960970788346458 0 0 0 0 10.466909199537781 -11.872466597405435 0 -11.872466597405435 12.506833768551431 0 0 0 0 -43.024376482135267 -69.381743410493073 0 -69.381743410493073 6.6051435604758808 0 0 0 0 -65.053669217042625 -4.8361418034583039 0 -4.8361418034583039 115.49597434467432 0 0 0 0 -23.128203144104191 -0.82240435504104425 0 -0.82240435504104425 37.391100468179502 0 0 0 0 -23.492623961952631 -4.1186573587219755 0 -4.1186573587219755 14.648831013266317 0 0 0 0 101.10209020147886 8.4194771524234966 0 8.4194771524234966 30.616007082704527 0 0 0 0 0.56493935541220708 -150.84256945066591 0 -150.84256945066591 148.24562435154803 0 0 0 0 158.03270354737288 -137.64057370679529 0 -137.64057370679529 69.369331144640455 0 0 0 0 17.102825566005777 -69.090653101458884 0 -69.090653101458884 46.78373210627251 0 0 0 0 -9.3607692690511612e-05 2.0360770323368627 0 2.0360770323368627 -0.0052304145724839657 0 0 0 0 18.323972469959699 -56.032849610330231 0 -56.032849610330231 50.144172569238435 0 0 0 0 -0.081965654047962744 -62.318036118675082 0 -62.318036118675082 55.836935370971332 0 0 0 0 41.21100894434494 -61.603131801497511 0 -61.603131801497511 42.932922998952563 0 0 0 0 35.254060449820827 19.844867190306104 0 19.844867190306104 -7.0883240510593168 0 0 0 0 55.234003007422757 101.68878597889091 0 101.68878597889091 -206.82711671857396 0 0 0 0 59.868868689169176 -84.925146026642324 0 -84.925146026642324 -115.67310816871031 0 0 0 0 0.031589239093591459 -11.3582444610729 0 -11.3582444610729 -2.8266660551589666 0 0 0 0 -3.3936933748739477 -0.30773498406371402 0 -0.30773498406371402 1.0765623311816057 0 0 0 0 194.1672113255554 -700.00316445843418 0 -700.00316445843418 -138.03479078532291 0 0 0 0 -118.46235222935138 -68.473034406597435 0 -68.473034406597435 -125.61620437128295 0 0 0 0 -570.57229479915986 -892.64927352936502 0 -892.64927352936502 -180.24184387566038 0 0 0 0 -162.87084697428145 -1214.1431962287315 0 -1214.1431962287315 65.519327253670781 0 0 0 0 92.514854915643809 -1198.7129723761791 0 -1198.7129723761791 -491.3760269207487 0 0 0 0 -748.41153487284464 -867.18117818298197 0 -867.18117818298197 610.7450805092667 0 0 0 0 -129.77855787679437 -1007.1195459134215 0 -1007.1195459134215 -985.39530823928362 0 0 0 0 -207.28798071204801 -1042.4389323256401 0 -1042.4389323256401 -455.38742503548383 0 0 0 0 33.514935882332793 -1001.1162249606605 0 -1001.1162249606605 -692.70633583463496 0 0 0 0 79.282639217541146 -605.5796523342442 0 -605.5796523342442 -533.30629664110165 0 0 0 0 -103.08244528939395 -1037.9276889276589 0 -1037.9276889276589 -1499.7933975136621 0 0 0 0 -979.20586488732874 -1039.9975588125133 0 -1039.9975588125133 -925.27136205407442 0 0 0 0 -456.19475104919184 -429.90882864006926 0 -429.90882864006926 1169.3210104604077 0 0 0 0 156.1347895336512 -74.293190237272938 0 -74.293190237272938 -1701.1758898043645 0 0 0 0 -4.6158447000489673 -4.5046681956708738 0 -4.5046681956708738 -3.3346881339014516 0 0 0 0 64.227455942225788 -79.608627661062201 0 -79.608627661062201 -192.66391963424394 0 0 0 0 64.232433464800124 -319.73708212676138 0 -319.73708212676138 18.512440490181689 0 0 0 0 93.223213814577321 -256.20537609777239 0 -256.20537609777239 26.447900767307146 0 0 0 0 56.732217654323904 -267.81149453244871 0 -267.81149453244871 114.31066523531626 0 0 0 0 145.48131405872846 -184.76108970381756 0 -184.76108970381756 104.52143473018077 0 0 0 0 269.63823713328748 -377.77043707609846 0 -377.77043707609846 -187.00094707211247 0 0 0 0 284.5150974843491 -520.88838568740903 0 -520.88838568740903 -651.63174663933023 0 0 0 0 211.21227481556343 -532.39292452350855 0 -532.39292452350855 -136.31698281926219 0 0 0 0 316.72256417549352 -240.80411791645747 0 -240.80411791645747 -203.48583940941899 0 0 0 0 273.74478514867951 -644.58822072017938 0 -644.58822072017938 -302.51888062001672 0 0 0 0 291.75075726944488 -435.42450462037232 0 -435.42450462037232 -100.91761167431105 0 0 0 0 416.87905722869618 -491.87757137244625 0 -491.87757137244625 -75.454150819488859 0 0 0 0 214.01218852678721 -255.77968932424119 0 -255.77968932424119 253.706110601619 0 0 0 0 273.53625713103247 -427.80891949898978 0 -427.80891949898978 219.64043330098502 0 0 0 0 410.26513269361158 -402.46490880320198 0 -402.46490880320198 319.42468821357033 0 0 0 0 965.25924515970109 -594.7565584280128 0 -594.7565584280128 -226.99034305634996 0 0 0 0 707.18473143191659 -301.80585518979933 0 -301.80585518979933 294.08727884762629 0 0 0 0 778.89631265405842 -208.14520638480371 0 -208.14520638480371 -617.43122645832773 0 0 0 0 232.44150875248306 326.35520593036563 0 326.35520593036563 -1048.0647797971815 0 0 0 0 7.9261815936026778 -0.83082857549271694 0 -0.83082857549271694 -0.60568044815885003 0 0 0 0 399.984934365566 40.886030495996238 0 40.886030495996238 -474.62747917946399 0 0 0 0 493.98256017915264 -304.64943585976289 0 -304.64943585976289 -293.44888881293264 0 0 0 0 85.393479736245354 -68.359781033854233 0 -68.359781033854233 -627.38644769752136 0 0 0 0 32.376939176595442 -198.68809114574651 0 -198.68809114574651 -281.75097187521897 0 0 0 0 153.26137739195474 -259.41427536769334 0 -259.41427536769334 -105.02229181965231 0 0 0 0 181.38022711696249 -243.67427305984165 0 -243.67427305984165 -279.43451704593599 0 0 0 0 -17.489661412213536 -316.23664560302495 0 -316.23664560302495 70.193917479096854 0 0 0 0 -124.56858343519707 -218.55902452797091 0 -218.55902452797091 82.66098729946907 0 0 0 0 463.52749780476006 -359.69392007422721 0 -359.69392007422721 -73.209925338527682 0 0 0 0 302.19614440094301 -285.41272028103413 0 -285.41272028103413 71.827528795227408 0 0 0 0 298.86509725423821 -577.63566361633275 0 -577.63566361633275 452.22946316756315 0 0 0 0 528.28641731865355 -524.5818982431374 0 -524.5818982431374 297.38764167147019 0 0 0 0 547.10122095157567 -378.41760768817767 0 -378.41760768817767 407.5252982809543 0 0 0 0 57.086838582283235 -474.30511133535038 0 -474.30511133535038 425.11488416024804 0 0 0 0 686.00256813442684 -253.0776013108225 0 -253.0776013108225 -319.55373511259677 0 0 0 0 486.44362285275565 -192.02189213552629 0 -192.02189213552629 -236.03166824307846 0 0 0 0 539.05512928176904 -342.22067905808217 0 -342.22067905808217 -220.78538003088579 0 0 0 0 697.29555555009938 -202.7599944752219 0 -202.7599944752219 -278.61619216170948 0 0 0 0 473.33400081040668 -163.79438667643717 0 -163.79438667643717 -137.87621893968026 0 0 0 0 661.0524887098727 -366.51717513496988 0 -366.51717513496988 -35.353139381972142 0 0 0 0 545.31668297613942 -233.32693218523855 0 -233.32693218523855 88.745349915116094 0 0 0 0 671.33106098696589 -250.62723242624634 0 -250.62723242624634 79.430230951031263 0 0 0 0 707.71059762417281 -497.14985868523945 0 -497.14985868523945 361.493703816981 0 0 0 0 612.41538216849585 -575.9776174706858 0 -575.9776174706858 930.43918254773598 0 0 0 0 692.15547078325471 -245.48258851385617 0 -245.48258851385617 692.57963217049837 0 0 0 0 674.94306307739771 -301.08606849394755 0 -301.08606849394755 43.453232036612462 0 0 0 0 639.28084749385744 -857.71003089686565 0 -857.71003089686565 599.13064633539761 0 0 0 0 651.07149051841338 -439.72948096513255 0 -439.72948096513255 -476.94994214178587 0 0 0 0 1151.6945465613862 13.165881460015044 0 13.165881460015044 1335.5864687897483 0 0 0 0 310.2979297461934 -1711.8610741018711 0 -1711.8610741018711 1225.7654892855817 0 0 0 0 479.82381609836011 -508.74236448299052 0 -508.74236448299052 1004.8421105811722 0 0 0 0 -19.513612649568131 -21.61049807539694 0 -21.61049807539694 -16.722488258117494 0 0 0 0 893.74385942454683 -509.40596361551434 0 -509.40596361551434 1004.7861113517811 0 0 0 0 937.96517294569639 -553.37400619972323 0 -553.37400619972323 799.73741903909104 0 0 0 0 1347.3722000810812 -1111.5519396737727 0 -1111.5519396737727 1233.2666193476471 0 0 0 0 -46.948216900936217 -22.34766096326306 0 -22.34766096326306 32.876520301752663 0 0 0 0 -39.227313009498175 -41.510327490745112 0 -41.510327490745112 70.68878228176618 0 0 0 0 -82.151192684781478 -12.721267467839173 0 -12.721267467839173 91.042363049845619 0 0 0 0 -17.444596734151219 -62.1519254827449 0 -62.1519254827449 -65.922386218457461 0 0 0 0 87.275796971080126 -0.55219702999966103 0 -0.55219702999966103 -49.934856403309823 0 0 0 0 -31.506380858383267 -50.214099043455704 0 -50.214099043455704 -62.048859253235079 0 0 0 0 30.648379993479466 -61.597054922282041 0 -61.597054922282041 -15.552671101426313 0 0 0 0 28.404017315391684 -261.67456730476897 0 -261.67456730476897 166.57473089070845 0 0 0 0 -331.77939877495373 -139.35096915395843 0 -139.35096915395843 171.33710753483319 0 0 0 0 -95.573859004892853 -52.882537320274672 0 -52.882537320274672 27.146083410948201 0 0 0 0 -73.82755199258645 -24.619292462662997 0 -24.619292462662997 143.81984398468194 0 0 0 0 78.836726204724982 -284.62757524781046 0 -284.62757524781046 703.3417789885716 0 0 0 0 -42.464256853359984 -112.26209944149741 0 -112.26209944149741 11.710834577679634 0 0 0 0 -101.29154296350316 117.79633657310842 0 117.79633657310842 50.706314694667526 0 0 0 0 -6.6310845199758148 0.68022561309727791 0 0.68022561309727791 9.9869465789342655 0 0 0 0 -84.396992218828359 -57.89744807099148 0 -57.89744807099148 20.244179913146748 0 0 0 0 -13.11959037914221 -7.693384146036788 0 -7.693384146036788 11.517648778519771 0 0 0 0 -115.36152409444185 -143.87440988334765 0 -143.87440988334765 197.77107358564899 0 0 0 0 -37.777531497486052 -140.50574762505494 0 -140.50574762505494 59.44317500228135 0 0 0 0 -152.66712116752751 -64.400949234675863 0 -64.400949234675863 187.50927419442178 0 0 0 0 -137.73785184811277 -96.115918256091391 0 -96.115918256091391 128.89908729799572 0 0 0 0 -233.34180159181415 -32.806182010795965 0 -32.806182010795965 164.27555409150591 0 0 0 0 -184.38689868860456 -88.693760595969252 0 -88.693760595969252 155.2042118106765 0 0 0 0 -137.57574600019871 -168.93134999960239 0 -168.93134999960239 170.76105376393753 0 0 0 0 -201.36740239034407 -99.551163489728424 0 -99.551163489728424 190.02916024967249 0 0 0 0 -224.0753685591917 -164.05060407668134 0 -164.05060407668134 87.590037320313058 0 0 0 0 -117.55216712235415 -103.7657456996003 0 -103.7657456996003 117.3300332134404 0 0 0 0 -348.33057156862924 -34.334408542023084 0 -34.334408542023084 148.32942077212033 0 0 0 0 -242.23094319558732 8.3484353342064423 0 8.3484353342064423 -2.4009053956833668 0 0 0 0 -655.35230469673115 -415.5118802899633 0 -415.5118802899633 -206.75488532947929 0 0 0 0 -23.74176596667894 79.143945239637105 0 79.143945239637105 -64.168336659633496 0 0 0 0 -122.46888223820133 -111.91289434782448 0 -111.91289434782448 188.77583580328246 0 0 0 0 -145.07156644061615 -167.9616454870943 0 -167.9616454870943 255.31200202823311 0 0 0 0 340.88050186887267 -613.393073419958 0 -613.393073419958 180.6306178425657 0 0 0 0 -19.088012057724214 -31.842416211080604 0 -31.842416211080604 -50.412106669254001 0 0 0 0 -850.10989530642109 -581.1352970456719 0 -581.1352970456719 317.90998253688667 0 0 0 0 -600.99890976668394 -554.78145649648832 0 -554.78145649648832 -30.02057860558125 0 0 0 0 -510.25960531987948 195.03803110967601 0 195.03803110967601 852.7578582611759 0 0 0 0 -816.28771810542639 -696.44455457115146 0 -696.44455457115146 1335.3208067328669 0 0 0 0 622.35448510401147 -1556.2785253044538 0 -1556.2785253044538 -218.64115157297056 0 0 0 0 337.15902769420063 228.6260554892433 0 228.6260554892433 -2710.5274522558757 0 0 0 0 -801.29323038365692 -593.0101477656026 0 -593.0101477656026 170.10161124175647 0 0 0 0 -974.4371984956415 -1386.1514629267604 0 -1386.1514629267604 574.3335403295423 0 0 0 0 -679.99633407752845 -1188.9390837880201 0 -1188.9390837880201 -597.8695717466253 0 0 0 0 -14.988307262242699 -6.4533696821653521 0 -6.4533696821653521 -1.0163642102107104 0 0 0 0 -211.67629912077973 -370.93406250514818 0 -370.93406250514818 -1120.3134073390538 0 0 0 0 -1848.6614177620504 -888.09355938175577 0 -888.09355938175577 1843.7913529812795 0 0 0 0 -414.76704496056482 27.151286440424883 0 27.151286440424883 969.53664745506831 0 0 0 0 -11.53668709606778 -13.493600520343417 0 -13.493600520343417 -6.1815716646513295 0 0 0 0 -2239.0562056614217 139.2533793823859 0 139.2533793823859 1803.4070189099584 0 0 0 0 1648.5170193853446 -931.01818925277803 0 -931.01818925277803 110.95977639233024 0 0 0 0 392.92474880735244 -1344.9359687851575 0 -1344.9359687851575 63.956077734732048 0 0 0 0 -2076.6594141431196 -1598.4435997835535 0 -1598.4435997835535 532.16791627993007 0 0 0 0 -608.27207940151493 -631.31642761304192 0 -631.31642761304192 646.67280195985222 0 0 0 0 -313.43856832982419 -509.06189726401135 0 -509.06189726401135 650.96484154034988 0 0 0 0 -280.52399411218721 -423.87342881293807 0 -423.87342881293807 856.63744835500984 0 0 0 0 63.556598250321258 -544.59298112483702 0 -544.59298112483702 546.63301296244026 0 0 0 0 15.739953392527241 -629.02389382811816 0 -629.02389382811816 743.42471404032403 0 0 0 0 -673.64435582477745 -654.91821058067217 0 -654.91821058067217 708.28630352106666 0 0 0 0 -406.13650837044406 -324.20641701449131 0 -324.20641701449131 550.02326343567984 0 0 0 0 -1313.5816771972968 -1103.1546110329618 0 -1103.1546110329618 373.07331700437453 0 0 0 0 -18.469275652769738 -25.834591318602332 0 -25.834591318602332 -19.659065807432569 0 0 0 0 413.18960314115247 -478.05035566589504 0 -478.05035566589504 206.11525410004833 0 0 0 0 514.34511645407474 -931.98256629349999 0 -931.98256629349999 463.56499666608033 0 0 0 0 -9.8663396858220835 -13.534438165810961 0 -13.534438165810961 -11.398808235950924 0 0 0 0 -2513.013568362112 -1024.2193226012132 0 -1024.2193226012132 52.239020906798942 0 0 0 0 -750.70275601115281 -118.21322173918088 0 -118.21322173918088 394.17840540210091 0 0 0 0 -336.55293293033901 -1056.4353003807155 0 -1056.4353003807155 -2369.6240193045141 0 0 0 0 -1309.7953600728033 -2190.491610764353 0 -2190.491610764353 -1789.3666419100482 0 0 0 0 1431.3855247957836 -1554.1117053107009 0 -1554.1117053107009 -1866.8630166467956 0 0 0 0 -221.87166904316473 -1690.5817181501616 0 -1690.5817181501616 -1876.0865541412168 0 0 0 0 -1474.3120580637005 -931.08066835351019 0 -931.08066835351019 -1100.5931000967321 0 0 0 0 -495.30975023868086 -1039.8209765727224 0 -1039.8209765727224 -1174.2683828757636 0 0 0 0 -145.48945376978372 -393.38773067770853 0 -393.38773067770853 -866.77944128348918 0 0 0 0 -450.21213998383791 -591.13056515613516 0 -591.13056515613516 -597.08492344307888 0 0 0 0 -158.86869313757052 150.23363993248313 0 150.23363993248313 -332.70751668982666 0 0 0 0 -491.67581559516111 -326.84626110255704 0 -326.84626110255704 -134.60283254636306 0 0 0 0 -30.581505190522876 43.920935489426483 0 43.920935489426483 -140.42188370717486 0 0 0 0 -192.83764844172401 -236.29777464857034 0 -236.29777464857034 -263.85921951283126 0 0 0 0 -6.7915090224778396 -739.65689221462162 0 -739.65689221462162 -1746.0264627502311 0 0 0 0 73.324629853785154 -170.93695376576943 0 -170.93695376576943 -1113.4445866524884 0 0 0 0 -803.87337200436014 -392.2157595710396 0 -392.2157595710396 -1874.4809537279998 0 0 0 0 -251.91775085564586 -930.55132291841164 0 -930.55132291841164 -1367.7436794848763 0 0 0 0 -1578.0810795013604 -1626.3023617778877 0 -1626.3023617778877 -1496.0666370643376 0 0 0 0 -568.5528711237057 -55.092538797918678 0 -55.092538797918678 -36.584380874188355 0 0 0 0 -3080.297727396417 -1196.6865779893797 0 -1196.6865779893797 -538.60099317847926 0 0 0 0 221.2615048775624 -1313.2904536821788 0 -1313.2904536821788 -2444.4782161866551 0 0 0 0 -8.6753750667441807 -12.656573798847589 0 -12.656573798847589 -18.9669786029243 0 0 0 0 -365.18095592434111 -1335.3229081912268 0 -1335.3229081912268 -1760.6689039519815 0 0 0 0 879.56864037072955 -192.60997987355495 0 -192.60997987355495 -1262.6757507166076 0 0 0 0 -447.85450711293379 -315.85485019008229 0 -315.85485019008229 204.62094709866881 0 0 0 0 -227.5082575691813 -44.191109189252984 0 -44.191109189252984 -412.73756718917866 0 0 0 0 -159.0403461725291 -278.88840159679239 0 -278.88840159679239 -932.63067003611286 0 0 0 0 -293.92971527741611 -112.31643977117074 0 -112.31643977117074 -291.43080150483729 0 0 0 0 -389.44564593966061 -41.898103789490051 0 -41.898103789490051 3.8316730435180943 0 0 0 0 -434.19245638631401 -66.656382015595227 0 -66.656382015595227 59.841287605884645 0 0 0 0 -464.77321479985403 -400.73536352275187 0 -400.73536352275187 -463.08909661893699 0 0 0 0 -478.43642560505396 -122.74368871017396 0 -122.74368871017396 -255.14851248828927 0 0 0 0 -493.68194777355529 -425.47408864654062 0 -425.47408864654062 -621.78611093893414 0 0 0 0 -755.33962251910452 -954.19455041294395 0 -954.19455041294395 -1071.4862947606707 0 0 0 0 -566.32646733983711 -427.57793220037865 0 -427.57793220037865 -567.01739409207221 0 0 0 0 -900.23968418707227 -900.28490807108028 0 -900.28490807108028 -737.85727017090221 0 0 0 0 -1563.26942884046 -1697.5679966375938 0 -1697.5679966375938 -1320.6082029626941 0 0 0 0 -613.44340609508072 -955.25322163580677 0 -955.25322163580677 -1181.1967399502682 0 0 0 0 -2732.2476026516815 -2103.8046164769657 0 -2103.8046164769657 -1243.4630940701754 0 0 0 0 -1450.6069116916551 69.823024279505262 0 69.823024279505262 3918.260691729196 0 0 0 0 -19.939874593798521 -12.432098588653069 0 -12.432098588653069 -1.3219868598220268 0 0 0 0 -534.68239361572341 -1901.3254669662438 0 -1901.3254669662438 -3985.0065642553527 0 0 0 0 -1726.0786921999897 -1809.1375821254073 0 -1809.1375821254073 -773.50928845876479 0 0 0 0 -856.67565726437897 182.92563796607465 0 182.92563796607465 1023.9417872351414 0 0 0 0 -2066.2179404014823 -1235.2105878560892 0 -1235.2105878560892 1445.6568924864514 0 0 0 0 -535.91309132798779 -65.674370492394701 0 -65.674370492394701 1024.6281701239277 0 0 0 0 345.75087915477343 345.45519607141068 0 345.45519607141068 1213.4365393932494 0 0 0 0 -579.11459072626894 -1206.6670492230078 0 -1206.6670492230078 -1784.6522802740947 0 0 0 0 1.1507424237465784 -3.9242227778651255 0 -3.9242227778651255 1.6123340699921016 0 0 0 0 -564.93746004650166 -804.36748444697514 0 -804.36748444697514 -701.26239980784885 0 0 0 0 -1284.8380593143229 -999.29042501990807 0 -999.29042501990807 522.56757036519775 0 0 0 0 -1134.0359040219628 -1028.6523559398847 0 -1028.6523559398847 -764.36884743473684 0 0 0 0 -1121.9269084341649 -956.20827215853433 0 -956.20827215853433 -461.44504904335918 0 0 0 0 4.0057102031656768 -8.2460078395064613 0 -8.2460078395064613 5.7286773009960967 0 0 0 0 -1094.3551746660305 -560.49052530301742 0 -560.49052530301742 -180.70012998815582 0 0 0 0 -968.27782618537458 -558.67494762690239 0 -558.67494762690239 -309.05856449769817 0 0 0 0 -1204.5758220686985 -569.04112621677086 0 -569.04112621677086 -36.812529846345569 0 0 0 0 -1049.6316161333816 -365.35680410408713 0 -365.35680410408713 64.269904722394131 0 0 0 0 -1112.5050336757995 -471.25896918297258 0 -471.25896918297258 -110.29730441487482 0 0 0 0 -942.97055815454951 -382.7968411017996 0 -382.7968411017996 -167.84138250572141 0 0 0 0 -1009.1940542878147 -390.77610386084962 0 -390.77610386084962 -95.483371624985921 0 0 0 0 -1001.5977826533926 -487.19544292425417 0 -487.19544292425417 -181.77246507042827 0 0 0 0 -441.37638620095822 -146.55450394680156 0 -146.55450394680156 99.45358907339687 0 0 0 0 -615.61583500911365 -134.67272201401829 0 -134.67272201401829 103.06491023589115 0 0 0 0 -1278.9298184054787 -384.53609986075935 0 -384.53609986075935 261.82595752575435 0 0 0 0 -831.38478647857846 -79.194133339264226 0 -79.194133339264226 184.45673287922318 0 0 0 0 -669.38181323803292 -281.57108524208252 0 -281.57108524208252 -243.68130946557358 0 0 0 0 -1050.9328759395976 -344.47216484912042 0 -344.47216484912042 -122.70625257876236 0 0 0 0 -891.07089198908943 -309.17496591284362 0 -309.17496591284362 -131.35262188561319 0 0 0 0 -748.5864345895825 -322.01883654863013 0 -322.01883654863013 -239.1723203126312 0 0 0 0 -784.69054539905483 -384.00397929754399 0 -384.00397929754399 -338.73393412767473 0 0 0 0 -589.88264086394338 -424.87369359691183 0 -424.87369359691183 -470.62252675383206 0 0 0 0 -315.58689021575992 -317.43890643093164 0 -317.43890643093164 -494.96705370501149 0 0 0 0 -698.65260003256844 -547.91384712506442 0 -547.91384712506442 -494.65126567579301 0 0 0 0 -551.30949374371994 -670.64707930718396 0 -670.64707930718396 -620.82499570267464 0 0 0 0 -998.40628908257349 -624.69505124307125 0 -624.69505124307125 -452.24389659501685 0 0 0 0 -715.27862690301845 -846.58435547191948 0 -846.58435547191948 -782.27200765269663 0 0 0 0 -294.61753577702621 -485.18427484252243 0 -485.18427484252243 -744.99070743804987 0 0 0 0 -308.14552912054933 68.380609856511001 0 68.380609856511001 -830.02468123526023 0 0 0 0 -459.73550319096103 -449.99253453599158 0 -449.99253453599158 -473.17955143105064 0 0 0 0 -644.54084430265357 -1103.1042971579445 0 -1103.1042971579445 -1215.024196813647 0 0 0 0 -521.40198126707401 -121.58141360958962 0 -121.58141360958962 1014.8274264203719 0 0 0 0 -136.25931028765626 18.097284899913575 0 18.097284899913575 -317.21260112588971 0 0 0 0 -1047.7484453724937 -850.25222687216592 0 -850.25222687216592 917.24071845276922 0 0 0 0 -283.92976938711945 -1195.6556628053768 0 -1195.6556628053768 -504.82098960313306 0 0 0 0 127.5296912646445 -121.36985907102644 0 -121.36985907102644 -1369.2461800649089 0 0 0 0 93.959483121579979 -573.04926202700153 0 -573.04926202700153 -1368.7742308191691 0 0 0 0 -35.174383240380848 -292.63270373231535 0 -292.63270373231535 -956.03291029105458 0 0 0 0 -130.33732425412745 -186.58880772795237 0 -186.58880772795237 -791.23411246258183 0 0 0 0 3.9833360117729697 -1.8463353886333351 0 -1.8463353886333351 -12.86383971294768 0 0 0 0 1.2881542094674501 1.2359224046358719 0 1.2359224046358719 -4.4129054601284423 0 0 0 0 95.160697877043276 8.3448975035844342 0 8.3448975035844342 -486.92096992352162 0 0 0 0 -1579.6323572089314 -1046.5648151853075 0 -1046.5648151853075 -518.15140523999798 0 0 0 0 -117.07407464820426 5.7502672711343621 0 5.7502672711343621 532.57460398867261 0 0 0 0 -21.049375084170606 -36.106695387075888 0 -36.106695387075888 -24.707366385817295 0 0 0 0 0.12861600722942512 -21.240002129406236 0 -21.240002129406236 6.0776915169081605 0 0 0 0 110.71983092085065 -7.7878319652922983 0 -7.7878319652922983 21.553544410300674 0 0 0 0 28.021976838892499 -28.19777162114319 0 -28.19777162114319 -2.9470131607362617 0 0 0 0 104.65453171599074 -25.83289609984422 0 -25.83289609984422 66.827576651561685 0 0 0 0 114.01225273114687 71.190246942849626 0 71.190246942849626 128.88249865578655 0 0 0 0 109.53042860201094 -42.918102199488203 0 -42.918102199488203 0.3514340350366183 0 0 0 0 171.80230933843995 105.24356592667391 0 105.24356592667391 -355.01850394444773 0 0 0 0 371.18018638750073 138.41808902466073 0 138.41808902466073 54.522838953904284 0 0 0 0 27.685918502365496 -25.199930271853745 0 -25.199930271853745 15.157682442684795 0 0 0 0 239.92205018649111 81.063221803418855 0 81.063221803418855 -18.534544961892607 0 0 0 0 273.44903740022164 -182.03815788999214 0 -182.03815788999214 -69.809577800508123 0 0 0 0 -97.875077702236013 -114.61122036145207 0 -114.61122036145207 -21.701897129289137 0 0 0 0 231.83045812908676 -121.18269161608259 0 -121.18269161608259 -50.259099245377001 0 0 0 0 633.47755045018857 -241.07769919675411 0 -241.07769919675411 -36.109047869780625 0 0 0 0 -139.05424843286164 -279.46037865295875 0 -279.46037865295875 -41.404969914645903 0 0 0 0 -429.79971824669337 -11.997302943549585 0 -11.997302943549585 -53.499047095150672 0 0 0 0 -142.44586970203818 -359.40484528035267 0 -359.40484528035267 231.90896028713905 0 0 0 0 8.6675037167885876 -7.0576686146992103 0 -7.0576686146992103 6.8480924613182594 0 0 0 0 -2.6094617761621812 1.1755449785066929 0 1.1755449785066929 0.3764685014065634 0 0 0 0 -156.04155976462062 -440.7814183429 0 -440.7814183429 586.53180654289827 0 0 0 0 -91.030747669705306 841.35612204302561 0 841.35612204302561 199.82967210668721 0 0 0 0 -14.389518486097586 39.666119745601463 0 39.666119745601463 75.693937270960305 0 0 0 0 521.84002283678274 1075.0455461225429 0 1075.0455461225429 -3258.5975327485212 0 0 0 0 1.9585489260153892 -5.8023056986335035 0 -5.8023056986335035 1.9639666934714057 0 0 0 0 -1029.3377856615552 -193.29909742767632 0 -193.29909742767632 133.96153532826793 0 0 0 0 -319.19421128017711 -700.16903572463707 0 -700.16903572463707 796.04086940434354 0 0 0 0 -233.19765893016302 -824.21865188418269 0 -824.21865188418269 675.46175384791422 0 0 0 0 -1642.3635190493515 -118.20835232910758 0 -118.20835232910758 4576.98793839875 0 0 0 0 2756.0914057350819 -865.55956919575237 0 -865.55956919575237 169.45213684537157 0 0 0 0 83.25711629606667 -708.73131497445138 0 -708.73131497445138 -732.98754631789416 0 0 0 0 96.773220273142215 -403.37886083987178 0 -403.37886083987178 208.24952219623083 0 0 0 0 -64.797841513587628 -277.00746702625474 0 -277.00746702625474 40.984691335688694 0 0 0 0 -88.941801689768909 -151.94075640425581 0 -151.94075640425581 -580.54808186901209 0 0 0 0 -89.273308678151807 -980.25503986448166 0 -980.25503986448166 617.87659132495901 0 0 0 0 -180.77864338547806 -686.89733060442813 0 -686.89733060442813 -134.63079036091221 0 0 0 0 -204.34300493224873 -693.38805799860711 0 -693.38805799860711 448.19722568469297 0 0 0 0 -117.67756787355756 -810.7464785230477 0 -810.7464785230477 369.45277564431308 0 0 0 0 -43.91256758797681 -657.59225508912641 0 -657.59225508912641 248.51545032163176 0 0 0 0 -487.6002106066444 -461.75483964782143 0 -461.75483964782143 199.85918369767023 0 0 0 0 -343.08667047162453 -1154.1482616028788 0 -1154.1482616028788 2208.5621031126666 0 0 0 0 297.91034082783881 -1112.1505045448466 0 -1112.1505045448466 1126.5538018667721 0 0 0 0 -497.88022924156394 -724.83310865925705 0 -724.83310865925705 1003.6561394092787 0 0 0 0 -242.6702974022046 -967.76046972819677 0 -967.76046972819677 844.1531433547425 0 0 0 0 -79.95515285685542 -742.18726995777979 0 -742.18726995777979 926.05714232949322 0 0 0 0 -1455.1930578736501 -735.59435388819475 0 -735.59435388819475 1140.5874584836783 0 0 0 0 0.48765141327819883 -0.032423677598643508 0 -0.032423677598643508 3.8491135185806655 0 0 0 0 2367.891478084246 -1467.9065668999137 0 -1467.9065668999137 584.56181634422683 0 0 0 0 -527.9376050023784 -1160.328556801549 0 -1160.328556801549 1305.4699796008972 0 0 0 0 250.79469191549288 -632.8976474888841 0 -632.8976474888841 1512.0358353112606 0 0 0 0 -33.585356535073515 198.08070659555597 0 198.08070659555597 143.6777888887591 0 0 0 0 -646.23445236586122 -745.43935050013351 0 -745.43935050013351 2759.6711130993608 0 0 0 0 -213.97286505853299 -257.34346567395733 0 -257.34346567395733 278.60425100851717 0 0 0 0 -27.297067119457239 -38.909680373777121 0 -38.909680373777121 -3.2964990129906546 0 0 0 0 -589.69942242196703 -579.72217832687056 0 -579.72217832687056 3701.8944943945562 0 0 0 0 -680.75360389289926 -745.47033969594304 0 -745.47033969594304 -469.36034636961631 0 0 0 0 -41.138942670524187 -31.551012870435251 0 -31.551012870435251 -1.6429705356341699 0 0 0 0 379.60529600119639 -654.48330714276744 0 -654.48330714276744 1138.8512728495953 0 0 0 0 190.61732870419655 -49.278476129833507 0 -49.278476129833507 1199.1732253081791 0 0 0 0 418.10318244836526 -583.8425684756603 0 -583.8425684756603 99.931474841792806 0 0 0 0 486.11445269996693 -700.43431982731545 0 -700.43431982731545 -9.6184633031480189 0 0 0 0 429.43829549575185 -863.08938854838289 0 -863.08938854838289 743.83928691886467 0 0 0 0 515.73350045953703 -336.57111876019189 0 -336.57111876019189 795.96776690541446 0 0 0 0 0.35962646017287625 -754.56503224352127 0 -754.56503224352127 482.71110395537107 0 0 0 0 -0.20393152471205991 -468.6033041201145 0 -468.6033041201145 1074.2765973484456 0 0 0 0 464.64048140709201 -617.47682717567841 0 -617.47682717567841 523.08972658439598 0 0 0 0 6.6105248203161011 -4.4019087954505096 0 -4.4019087954505096 2.8999840643985522 0 0 0 0 472.54518047486715 -117.46432869402977 0 -117.46432869402977 -81.036501965889329 0 0 0 0 108.49407785819494 -561.93071892918306 0 -561.93071892918306 1033.9247461767663 0 0 0 0 187.5734132258367 -299.48307931419413 0 -299.48307931419413 265.18339515354091 0 0 0 0 21.036797091015615 -104.95183459403052 0 -104.95183459403052 837.27794409706439 0 0 0 0 50.523312864503623 190.38263982276067 0 190.38263982276067 115.44374762228108 0 0 0 0 -130.30683514968996 -57.126670657717625 0 -57.126670657717625 64.581213269135333 0 0 0 0 -4.291924879362341 21.283053141331038 0 21.283053141331038 -62.522088642639574 0 0 0 0 458.55672683136072 -558.84638326220011 0 -558.84638326220011 513.03600352562535 0 0 0 0 -0.11027102566800462 -0.82476996066826302 0 -0.82476996066826302 5.9385057097354945 0 0 0 0 -183.76287126894977 58.807347905685162 0 58.807347905685162 333.30118487305299 0 0 0 0 305.51602970548265 -590.71466457169663 0 -590.71466457169663 407.34539893804322 0 0 0 0 305.63116398645798 -575.01053299566956 0 -575.01053299566956 585.99756569824604 0 0 0 0 452.98042163334321 -572.73164238330537 0 -572.73164238330537 1.637359301916149 0 0 0 0 424.187097232003 -644.04967568040411 0 -644.04967568040411 388.94589166684227 0 0 0 0 490.35116397295496 -299.8270680689202 0 -299.8270680689202 476.61064901160807 0 0 0 0 779.44198209403839 -535.88746448999882 0 -535.88746448999882 108.10285548834145 0 0 0 0 362.51954515307443 -407.51666286989712 0 -407.51666286989712 68.750597355909122 0 0 0 0 350.30072673159157 -321.48306035220958 0 -321.48306035220958 -231.58184225897639 0 0 0 0 -36.112384356267285 -368.18281930307421 0 -368.18281930307421 -267.9810622109726 0 0 0 0 -37.545273608302523 -371.51578055064238 0 -371.51578055064238 176.38827435373241 0 0 0 0 -55.228483359926031 10.675277930909942 0 10.675277930909942 356.0258329617136 0 0 0 0 -109.41394638875499 -113.17368441798772 0 -113.17368441798772 81.701836210049805 0 0 0 0 170.29402277125337 -258.70704681374809 0 -258.70704681374809 37.099763437141519 0 0 0 0 -118.55398903149762 -59.153879950608825 0 -59.153879950608825 509.359921037194 0 0 0 0 170.67366645553557 -228.90633822026393 0 -228.90633822026393 608.90035035451365 0 0 0 0 182.04656041795533 -12.928612224060998 0 -12.928612224060998 127.44182796527093 0 0 0 0 0.24532164106561882 0.33510442229713533 0 0.33510442229713533 2.5386679174404918 0 0 0 0 230.72343708918828 104.3069153559002 0 104.3069153559002 43.032471937360242 0 0 0 0 61.246461055743566 164.28355917182125 0 164.28355917182125 -109.17536334291071 0 0 0 0 0.68529403027259872 1.6936131360860429 0 1.6936131360860429 8.9719345858914039 0 0 0 0 14.698925895820139 -166.97794275878914 0 -166.97794275878914 -108.10431672242048 0 0 0 0 73.904696637996608 42.565211015238688 0 42.565211015238688 -16.036763279116713 0 0 0 0 129.82200154498389 -33.68083923051806 0 -33.68083923051806 -47.557612233838881 0 0 0 0 -53.30391903501004 85.156921503380545 0 85.156921503380545 3.6333468579978216 0 0 0 0 17.949548924982082 37.793940157163888 0 37.793940157163888 36.279092326109094 0 0 0 0 19.669952272182854 35.522760679274597 0 35.522760679274597 -27.1180345497487 0 0 0 0 -108.19276892934431 49.713920629332279 0 49.713920629332279 66.12291721316069 0 0 0 0 89.294063365770853 2.2601722139734193 0 2.2601722139734193 14.869197681406149 0 0 0 0 21.242769370772294 121.48290311726123 0 121.48290311726123 71.745055059349397 0 0 0 0 -106.83953343665053 9.8332955072037294 0 9.8332955072037294 -105.44026907307853 0 0 0 0 -293.17833286547102 -25.696525429348185 0 -25.696525429348185 49.834580264525357 0 0 0 0 -183.04490220659136 86.954787822139224 0 86.954787822139224 26.154473033813701 0 0 0 0 -220.37236940106959 -0.82403386422492986 0 -0.82403386422492986 -8.1671257130656159 0 0 0 0 -273.89906610392791 63.580564324824081 0 63.580564324824081 -84.802173017660607 0 0 0 0 -315.80760894592822 -186.04417158757315 0 -186.04417158757315 -246.3979955843588 0 0 0 0 -454.53587050351871 -126.86786064839862 0 -126.86786064839862 -221.95587032290132 0 0 0 0 -131.29275494558169 -47.135006815942688 0 -47.135006815942688 -114.42809625625159 0 0 0 0 -435.20484274471528 -268.65937626818231 0 -268.65937626818231 -123.00936983338033 0 0 0 0 -304.91585616322118 -377.26217499643826 0 -377.26217499643826 -49.913855716565649 0 0 0 0 -448.9860620692416 -509.111574287439 0 -509.111574287439 -499.95501524207521 0 0 0 0 -755.91316777534121 -442.58428346557798 0 -442.58428346557798 -369.32312350253778 0 0 0 0 -803.68481176388741 -849.13123257714142 0 -849.13123257714142 -619.41150197214574 0 0 0 0 -182.49445971257956 -257.33465792097377 0 -257.33465792097377 -340.84144276239022 0 0 0 0 -418.72563987706963 -615.2104659897177 0 -615.2104659897177 -270.05898532422361 0 0 0 0 -600.18009633750989 -409.73247409024771 0 -409.73247409024771 -392.9461858451541 0 0 0 0 -1061.0668192882367 -664.06404869101834 0 -664.06404869101834 -304.85953222311764 0 0 0 0 -780.20560406454752 -547.8633803301409 0 -547.8633803301409 -296.39226913882192 0 0 0 0 -556.49632024894436 -541.7172034657325 0 -541.7172034657325 -293.18061943859357 0 0 0 0 -593.63712626073539 -828.16147937703863 0 -828.16147937703863 -682.79839757572063 0 0 0 0 4.7709879897519158 -8.5807623746931654 0 -8.5807623746931654 6.7520095137515739 0 0 0 0 95.503235249612771 -372.49988620359727 0 -372.49988620359727 -594.79339437434101 0 0 0 0 2.8240563093578999 -4.183620251504351 0 -4.183620251504351 2.181291989668189 0 0 0 0 314.97649880469544 -831.39776532565884 0 -831.39776532565884 -536.84886842584592 0 0 0 0 338.90297689266299 -569.52814988924183 0 -569.52814988924183 -209.25100225776259 0 0 0 0 281.31303473606386 -909.94257256949459 0 -909.94257256949459 -122.25895848186155 0 0 0 0 167.22134406892474 -698.52077372927624 0 -698.52077372927624 -289.30198966548778 0 0 0 0 334.27380375130451 -399.46350625712148 0 -399.46350625712148 -485.70381576757245 0 0 0 0 381.66900541984432 -508.01534027395246 0 -508.01534027395246 -260.67750829590659 0 0 0 0 36.321849312691484 -389.94466488533544 0 -389.94466488533544 -534.99863691335668 0 0 0 0 56.468751429827535 -481.46623642261147 0 -481.46623642261147 -214.82320394656563 0 0 0 0 513.19619691153639 -390.61661720919619 0 -390.61661720919619 -360.82320832672121 0 0 0 0 293.50517384491104 -557.38494126721889 0 -557.38494126721889 -264.62084480044359 0 0 0 0 557.30123092500435 -474.75141421042645 0 -474.75141421042645 -213.10693697907482 0 0 0 0 694.97954539097555 -475.94041437547457 0 -475.94041437547457 -228.76092847613836 0 0 0 0 641.45737408486457 -418.52446312650227 0 -418.52446312650227 -113.95345719537727 0 0 0 0 726.79640354636649 -491.55215990327815 0 -491.55215990327815 -236.57124282970653 0 0 0 0 703.03058575725299 -424.77008676761943 0 -424.77008676761943 -349.33041474856464 0 0 0 0 687.17871122697397 -417.70603444460903 0 -417.70603444460903 -347.66789073020846 0 0 0 0 569.27477575483499 -368.12780747569559 0 -368.12780747569559 -219.05150840932401 0 0 0 0 370.40500416901341 -631.01789045299438 0 -631.01789045299438 -116.32146178165203 0 0 0 0 579.89150500552205 -389.75255074504457 0 -389.75255074504457 151.27893536153351 0 0 0 0 633.76984147505937 -418.66149429717507 0 -418.66149429717507 -13.717633720743834 0 0 0 0 640.17811251111561 -1114.8008591983125 0 -1114.8008591983125 254.12385902980532 0 0 0 0 929.91956484917682 -625.72269999492983 0 -625.72269999492983 -17.976935747905372 0 0 0 0 -3.4695520037798531 -8.6552692524919479 0 -8.6552692524919479 -9.6490692127555278 0 0 0 0 511.09241757560085 -448.4845101981 0 -448.4845101981 470.06766707852967 0 0 0 0 0.9757617623617989 -601.01314170405476 0 -601.01314170405476 748.73927509863825 0 0 0 0 694.69944341076916 -324.87670384309695 0 -324.87670384309695 -1249.7405964599384 0 0 0 0 -2.3075868530480363 -4.2572374464412803 0 -4.2572374464412803 -3.7963410078969986 0 0 0 0 692.26565187291271 -290.23996494127368 0 -290.23996494127368 -326.38352183575989 0 0 0 0 703.57346775186306 -598.5917729550888 0 -598.5917729550888 -626.66111958081092 0 0 0 0 335.57155505617266 -814.09208910941743 0 -814.09208910941743 -58.749772218227008 0 0 0 0 0.52785000732998921 -1061.1068207054377 0 -1061.1068207054377 -375.47804643635027 0 0 0 0 330.93707196436299 -669.68765846672613 0 -669.68765846672613 81.440203549478611 0 0 0 0 61.550323804636719 -48.918271596023715 0 -48.918271596023715 40.166431945137674 0 0 0 0 15.860247942138813 -49.231577560969527 0 -49.231577560969527 41.461794690889292 0 0 0 0 -16.564909336168057 27.765679040213854 0 27.765679040213854 -20.700242219707434 0 0 0 0 4.6532822610570292 -47.666227519023778 0 -47.666227519023778 -10.224394669156027 0 0 0 0 485.45126644423681 -503.50262745776024 0 -503.50262745776024 150.33681070838793 0 0 0 0 -21.799217163315916 -18.031984295746042 0 -18.031984295746042 26.132764554800815 0 0 0 0 491.23072319192306 -434.55860243348332 0 -434.55860243348332 174.44184004326962 0 0 0 0 -9.3962715690000493 -10.02096309210981 0 -10.02096309210981 -11.01331934484239 0 0 0 0 0.040760595315077808 -33.056632030702531 0 -33.056632030702531 36.055818755976361 0 0 0 0 19.585790417582757 -14.137446737529899 0 -14.137446737529899 7.7532521829671168 0 0 0 0 34.026349508261774 -47.433040930320203 0 -47.433040930320203 29.015979774154403 0 0 0 0 -3.6828266711493569 -3.950768884155778 0 -3.950768884155778 1.5035722643149896 0 0 0 0 -0.70529785516953325 0.79942479873346173 0 0.79942479873346173 -0.93445701015218319 0 0 0 0 0.067529223771998659 -12.22766643356772 0 -12.22766643356772 -15.904731302223809 0 0 0 0 250.35110047013586 243.31641893716915 0 243.31641893716915 -972.48684931824027 0 0 0 0 -1.7675480207352763 -4.0443288097104642 0 -4.0443288097104642 -6.5689586041594552 0 0 0 0 805.82888157224806 -514.11817565267302 0 -514.11817565267302 -1649.1278345018682 0 0 0 0 -0.12172217309025664 -978.98063192168752 0 -978.98063192168752 -79.626977138508664 0 0 0 0 798.57021443052145 -547.54224182502071 0 -547.54224182502071 -807.48596454834842 0 0 0 0 800.00062034885923 -139.46033495387564 0 -139.46033495387564 -69.435122780023448 0 0 0 0 383.69333445005759 -127.43199021973123 0 -127.43199021973123 40.509801219524888 0 0 0 0 752.84990392947657 -320.50589460764604 0 -320.50589460764604 -916.18520964337586 0 0 0 0 770.97013869756483 -442.56311688396499 0 -442.56311688396499 -301.68504387361099 0 0 0 0 632.48558744581533 -783.40409195187203 0 -783.40409195187203 -1062.0670231540198 0 0 0 0 822.24577405292075 -240.84828723366593 0 -240.84828723366593 -1008.7104806735188 0 0 0 0 -1.5863569691079533 -4.6350249797116589 0 -4.6350249797116589 -5.1642750099815089 0 0 0 0 388.10967141066794 -1044.1987429687006 0 -1044.1987429687006 408.8279329600764 0 0 0 0 364.73728271923028 -861.28550509780143 0 -861.28550509780143 -331.39427269192311 0 0 0 0 182.96621768651676 -409.97329396504665 0 -409.97329396504665 -148.06911339344515 0 0 0 0 407.55481645691179 -396.56113845660911 0 -396.56113845660911 -652.43576069097981 0 0 0 0 608.8685682144278 -517.0293851405313 0 -517.0293851405313 -121.57186060533422 0 0 0 0 336.2673400973872 -292.23451664523418 0 -292.23451664523418 162.2412940928225 0 0 0 0 696.48009989128332 -524.56814863938416 0 -524.56814863938416 -319.44762052485657 0 0 0 0 381.9345697457029 -589.04148492312197 0 -589.04148492312197 717.47471285246866 0 0 0 0 565.45408869488165 -723.07949380689388 0 -723.07949380689388 127.30180901638232 0 0 0 0 499.24010949139483 -462.72751888153653 0 -462.72751888153653 220.076554317915 0 0 0 0 426.82728600301198 -665.18056342891032 0 -665.18056342891032 726.56404498435563 0 0 0 0 -17.026635574962711 -74.271415687186163 0 -74.271415687186163 9.1507496970498323 0 0 0 0 1067.637700473686 -660.13710424296369 0 -660.13710424296369 285.2826666216888 0 0 0 0 -16.510049411569128 -19.029351242596334 0 -19.029351242596334 -12.210332786462907 0 0 0 0 234.40279062397894 -857.45989126132372 0 -857.45989126132372 1518.2309662427288 0 0 0 0 -0.59330671733683715 -7.560511485745252 0 -7.560511485745252 -1.3085765479352887 0 0 0 0 489.06936318804219 -801.74905775773732 0 -801.74905775773732 1141.7447988079512 0 0 0 0 1563.3110509287508 -934.41100215580082 0 -934.41100215580082 688.9505557339362 0 0 0 0 514.94948798386031 -667.40148032933757 0 -667.40148032933757 319.75822485702793 0 0 0 0 588.52999069819634 -477.64535718060506 0 -477.64535718060506 188.12878008132247 0 0 0 0 254.50150280387606 -317.43477149923092 0 -317.43477149923092 480.89292067032784 0 0 0 0 705.77908039392059 -219.2071690535995 0 -219.2071690535995 658.71103165850218 0 0 0 0 188.08551512590202 -491.21659458865906 0 -491.21659458865906 26.185580445477171 0 0 0 0 -125.58189587309607 -596.85589376947064 0 -596.85589376947064 345.06234376352404 0 0 0 0 160.49718965962529 -479.70771472422439 0 -479.70771472422439 261.78387498067605 0 0 0 0 -92.483929700560111 -636.65653639366519 0 -636.65653639366519 -118.50837934317587 0 0 0 0 -393.77905217319494 -481.67643723072797 0 -481.67643723072797 81.266112293056722 0 0 0 0 9.4456703971191018 -567.00783159776029 0 -567.00783159776029 -144.81549280443323 0 0 0 0 149.32309228685335 -299.75031569697421 0 -299.75031569697421 64.47132125616713 0 0 0 0 348.70218199952797 -339.07087545315244 0 -339.07087545315244 -215.25505519069702 0 0 0 0 326.12644150867709 -412.51818955617455 0 -412.51818955617455 -196.73004948491689 0 0 0 0 219.52501213219875 -511.19329638041927 0 -511.19329638041927 -55.836683928668208 0 0 0 0 223.91657722991658 -908.06623604366087 0 -908.06623604366087 31.042178232699371 0 0 0 0 178.59492902319835 -454.79334963489509 0 -454.79334963489509 -120.65227580360261 0 0 0 0 -243.99281625332151 -848.91099798517916 0 -848.91099798517916 50.791551299365892 0 0 0 0 -846.94972968803268 -473.14210492910661 0 -473.14210492910661 154.55194645419397 0 0 0 0 -854.23954588193374 -630.01476722414895 0 -630.01476722414895 -125.52718554759122 0 0 0 0 -835.94469026865409 -564.06080996485161 0 -564.06080996485161 62.53488166423449 0 0 0 0 -420.02840661659138 -747.3763663648715 0 -747.3763663648715 -119.87903340942103 0 0 0 0 -911.53223311618785 -662.7546885328602 0 -662.7546885328602 -28.64902029924815 0 0 0 0 -441.78169682302541 -794.62346096141573 0 -794.62346096141573 -370.58485302082772 0 0 0 0 -853.08335051205358 -856.41049993279012 0 -856.41049993279012 -277.88943838949672 0 0 0 0 -575.79242356722534 -1073.4191906090773 0 -1073.4191906090773 -471.50656918474306 0 0 0 0 -672.43569470937291 -894.08393234077062 0 -894.08393234077062 -798.04665379765629 0 0 0 0 -929.48317526892788 -718.35075294712442 0 -718.35075294712442 -516.91684800911662 0 0 0 0 22.255056392944027 -39.505792293400603 0 -39.505792293400603 54.891891809957855 0 0 0 0 -1303.1338929839076 -1202.0816784471613 0 -1202.0816784471613 -726.20000247894859 0 0 0 0 -445.49504739536496 -804.19577371874038 0 -804.19577371874038 -22.731180512842911 0 0 0 0 -397.76159863705107 -25.865790802439733 0 -25.865790802439733 1210.3983823872973 0 0 0 0 -155.76775115884084 188.85797925470661 0 188.85797925470661 233.93423198260825 0 0 0 0 -62.855928919831058 -1386.4951406449536 0 -1386.4951406449536 -790.97528799478596 0 0 0 0 -98.542428244400071 -1018.5428282707517 0 -1018.5428282707517 -1082.3153722855513 0 0 0 0 8.1506126773428491 -14.920070282974422 0 -14.920070282974422 21.878269954222844 0 0 0 0 -459.42815590506507 -659.99187168095409 0 -659.99187168095409 -950.9541061309792 0 0 0 0 -245.09943986479266 -1020.3880370448067 0 -1020.3880370448067 -652.67490638618301 0 0 0 0 -42.474069027935911 -1028.1719077470111 0 -1028.1719077470111 -705.68130413010385 0 0 0 0 43.232151556323515 -1133.5728744325208 0 -1133.5728744325208 -691.59316958968111 0 0 0 0 -160.37917164806458 -1194.7723652475574 0 -1194.7723652475574 -401.15310973857356 0 0 0 0 -179.7769540096524 -1088.0108090522967 0 -1088.0108090522967 -444.02735976342831 0 0 0 0 -130.70851697507896 -1212.1009087971916 0 -1212.1009087971916 -130.22372818012104 0 0 0 0 -46.006491141815104 -933.07423464851604 0 -933.07423464851604 -493.71652355306287 0 0 0 0 -427.31804302959063 -1002.7918319181576 0 -1002.7918319181576 -467.18456961882225 0 0 0 0 97.496549368930573 -1012.0956413776989 0 -1012.0956413776989 -450.25740243816972 0 0 0 0 -403.4200531294191 -778.29054723019181 0 -778.29054723019181 -435.1249159314666 0 0 0 0 -502.86258475111572 -700.58819237226317 0 -700.58819237226317 84.457378459484971 0 0 0 0 -33.938254699969548 -951.76866262264502 0 -951.76866262264502 -374.45675209864476 0 0 0 0 617.7872544471029 -1083.6234819270667 0 -1083.6234819270667 133.75181067443191 0 0 0 0 -22.301681948028317 -721.52250518109986 0 -721.52250518109986 -63.234801782915383 0 0 0 0 -82.041523331499775 -231.70031603854113 0 -231.70031603854113 -475.8255519061513 0 0 0 0 5.0633066178890545 -0.77972879207278112 0 -0.77972879207278112 -1.4239669330382618 0 0 0 0 597.59814038994591 -1083.2064769103747 0 -1083.2064769103747 690.60712815929583 0 0 0 0 8.739442733008346 -22.019268965887605 0 -22.019268965887605 -14.889359053719179 0 0 0 0 63.839963320991956 -22.617156642523241 0 -22.617156642523241 -41.876416914100901 0 0 0 0 -6.0306383442366496 -28.921834540979035 0 -28.921834540979035 17.821920250356015 0 0 0 0 45.619020425008785 -62.415811322729269 0 -62.415811322729269 -45.934523603973503 0 0 0 0 -86.986005056074646 -446.97263557460428 0 -446.97263557460428 -251.60760183401771 0 0 0 0 -436.73175340876833 -742.14328031548246 0 -742.14328031548246 -422.67926237223764 0 0 0 0 -1251.9519206984842 -625.13590809352525 0 -625.13590809352525 -299.93118583555247 0 0 0 0 -922.56610048418224 -719.65274236173866 0 -719.65274236173866 -291.89446664510319 0 0 0 0 10.064394994611881 -21.189072828486772 0 -21.189072828486772 -6.312831563536129 0 0 0 0 208.72261136364614 -84.207534972309077 0 -84.207534972309077 3.3438478192047114 0 0 0 0 59.897540335383383 -164.9834201181925 0 -164.9834201181925 58.335538101445081 0 0 0 0 514.92894194835753 -284.5345820127277 0 -284.5345820127277 83.941043105712993 0 0 0 0 6.6336357195310143 -17.793489188251655 0 -17.793489188251655 1.0644775999210545 0 0 0 0 -0.099478674922331756 -125.42652703670134 0 -125.42652703670134 54.909550431681964 0 0 0 0 46.84045986358251 -125.17926279227731 0 -125.17926279227731 50.927837239216842 0 0 0 0 56.581659379484336 -120.56213267595376 0 -120.56213267595376 -7.8788882712378836 0 0 0 0 10.679421426510089 -58.587063840880091 0 -58.587063840880091 1.8761031043115963 0 0 0 0 -1.7292543201652677 -1.8513137743265418 0 -1.8513137743265418 1.0673228321392187 0 0 0 0 -120.50830218940973 15.607184201357086 0 15.607184201357086 16.148922156650769 0 0 0 0 92.268991547767655 -92.543824398384459 0 -92.543824398384459 -0.37687688451660506 0 0 0 0 -122.62477261875756 -49.880083447615107 0 -49.880083447615107 13.130744893288465 0 0 0 0 -52.23983627364214 -99.117280863643828 0 -99.117280863643828 -31.675549948206026 0 0 0 0 0.094920244097477555 -89.027328772154178 0 -89.027328772154178 33.982994680278352 0 0 0 0 21.283955237719056 -88.578732167318776 0 -88.578732167318776 -55.042188824792902 0 0 0 0 -10.601241345765771 -51.942318064375677 0 -51.942318064375677 -34.924133338920271 0 0 0 0 -39.309545860414801 -74.799922176007385 0 -74.799922176007385 -14.895375455402245 0 0 0 0 153.17065465565247 -53.773074117449141 0 -53.773074117449141 -98.269224655407015 0 0 0 0 20.21582934736216 -61.411790318401472 0 -61.411790318401472 6.4262530430460174 0 0 0 0 43.866580132438685 -88.934512416317375 0 -88.934512416317375 28.491409822379865 0 0 0 0 19.252208346003641 -49.330248452815134 0 -49.330248452815134 -11.812417863068985 0 0 0 0 193.69883186271909 -73.731581807045586 0 -73.731581807045586 -173.48386269413822 0 0 0 0 1.44651737430355 -12.306867412781529 0 -12.306867412781529 -7.6715238552837945 0 0 0 0 110.47053758626862 -121.29033978996631 0 -121.29033978996631 -168.46957991524323 0 0 0 0 176.61872722789849 -117.87010744332474 0 -117.87010744332474 -277.00943408838066 0 0 0 0 227.05958010539325 -90.725926231929407 0 -90.725926231929407 -422.52299247126575 0 0 0 0 -152.991155156069 -220.34117459733261 0 -220.34117459733261 -181.59015011701376 0 0 0 0 23.561143223851104 -63.133430261167632 0 -63.133430261167632 -101.06551670085719 0 0 0 0 19.16142277776089 -82.446444849956606 0 -82.446444849956606 -175.35192497139087 0 0 0 0 19.538425420832937 -38.677965919712733 0 -38.677965919712733 -132.59224884408468 0 0 0 0 7.6208940539272589 -50.497136638545498 0 -50.497136638545498 -147.64414862753802 0 0 0 0 10.104764322733804 -21.131860097467623 0 -21.131860097467623 -103.37504233670737 0 0 0 0 8.2197656244674988 -10.901702203550784 0 -10.901702203550784 -17.50415397884948 0 0 0 0 -7.2170417305242154 -51.260582264184904 0 -51.260582264184904 46.905352537232829 0 0 0 0 8.7799717795860488 -37.519934547316552 0 -37.519934547316552 25.598163049078721 0 0 0 0 34.695440750314447 -35.797651941267759 0 -35.797651941267759 -46.335844256107521 0 0 0 0 1.6433008162611742 -27.643994691980879 0 -27.643994691980879 13.845022338234592 0 0 0 0 -4.5727737001702167 -49.320385853898095 0 -49.320385853898095 -39.477280994797631 0 0 0 0 12.075741353517515 -117.41927471395047 0 -117.41927471395047 -91.498698225164844 0 0 0 0 -31.374717555518146 -69.751562356699651 0 -69.751562356699651 37.353183685350814 0 0 0 0 -84.463768362009432 -72.22502819109468 0 -72.22502819109468 52.789460994654291 0 0 0 0 45.067972734352225 -103.1910836954612 0 -103.1910836954612 -85.626955967854883 0 0 0 0 -84.742223300501792 -95.891146837999031 0 -95.891146837999031 -53.797379959920363 0 0 0 0 33.837582503001613 -16.08168262468962 0 -16.08168262468962 -12.003611141408328 0 0 0 0 -135.79410408062358 -137.13461134597355 0 -137.13461134597355 -55.223095502948127 0 0 0 0 6.184757013536121 -12.670014041364894 0 -12.670014041364894 -6.6166338589220786 0 0 0 0 6.3095883601025964 -10.934122513851989 0 -10.934122513851989 -29.573277749091105 0 0 0 0 59.465138153522275 -40.38896417117212 0 -40.38896417117212 -36.438481048757239 0 0 0 0 18.130559565641448 -27.95681857486462 0 -27.95681857486462 -6.4299578807692619 0 0 0 0 -0.92255780391286635 -5.5102112623349271 0 -5.5102112623349271 0.70541811350521755 0 0 0 0 -42.133875171777618 -25.531166149830824 0 -25.531166149830824 50.511243225832004 0 0 0 0 -70.236232613417087 -137.71608364149506 0 -137.71608364149506 -135.17099741258573 0 0 0 0 52.642985584629059 30.900607108652821 0 30.900607108652821 -11.496523113237345 0 0 0 0 20.616673384196474 -42.45577257235891 0 -42.45577257235891 -6.3978643831686668 0 0 0 0 2.5312768473896643 -0.088343788535368617 0 -0.088343788535368617 -7.6140447667342102 0 0 0 0 -477.12247732960714 -182.6802592727322 0 -182.6802592727322 46.738236030003463 0 0 0 0 -0.65046672549095064 -10.163353456408828 0 -10.163353456408828 -7.7465298713931219 0 0 0 0 -118.66612101887586 -112.12804851190231 0 -112.12804851190231 -78.582445016796555 0 0 0 0 12.388497973748599 -78.157104851623444 0 -78.157104851623444 -62.283159623773827 0 0 0 0 83.42188044397335 -151.27598932829642 0 -151.27598932829642 -92.066072654837626 0 0 0 0 -86.055173375956656 -169.50203248121397 0 -169.50203248121397 -41.16415638649778 0 0 0 0 63.230421423664666 -102.56648387254245 0 -102.56648387254245 -71.813894997059833 0 0 0 0 119.11841643244406 -32.139540867500727 0 -32.139540867500727 -34.624395627957711 0 0 0 0 16.593295072556639 -26.214242106932105 0 -26.214242106932105 -9.6337574960343559 0 0 0 0 98.881509835176985 -48.938707882065501 0 -48.938707882065501 -17.482235146899257 0 0 0 0 121.0453046235707 9.3715436044140006 0 9.3715436044140006 12.666257759366999 0 0 0 0 107.99443461096234 -39.068651441284601 0 -39.068651441284601 -42.733082718030346 0 0 0 0 96.690230234569754 -19.162440085492563 0 -19.162440085492563 24.231374434403733 0 0 0 0 39.793856409677893 -31.281383221478535 0 -31.281383221478535 -12.187315110625406 0 0 0 0 99.645017208738864 -36.570725588942878 0 -36.570725588942878 -43.350185574869101 0 0 0 0 27.066282651794609 -84.776818735346751 0 -84.776818735346751 -48.283418527170625 0 0 0 0 78.604160759292427 -26.552215821406207 0 -26.552215821406207 -36.282188334425882 0 0 0 0 36.410867493810656 -91.289792396260964 0 -91.289792396260964 -63.012261330350157 0 0 0 0 8.7524265222216631 -43.271713458948213 0 -43.271713458948213 -26.425167691911376 0 0 0 0 47.114967853802227 -46.076950996558935 0 -46.076950996558935 -8.3460821268781729 0 0 0 0 1.1854356507756165 -59.582593827784308 0 -59.582593827784308 6.9872441124025499 0 0 0 0 13.530635448085377 -30.708715116026724 0 -30.708715116026724 -11.638168770488846 0 0 0 0 -78.49373743744718 161.28560099501675 0 161.28560099501675 28.503588293402572 0 0 0 0 9.7390276056612493 -42.432174666993205 0 -42.432174666993205 -18.488635369969415 0 0 0 0 16.28125334866715 -20.29801124757762 0 -20.29801124757762 8.469947114901764 0 0 0 0 -90.832270484446781 -134.67020870444321 0 -134.67020870444321 47.279354488855461 0 0 0 0 -703.405405595302 -511.67904316316708 0 -511.67904316316708 -423.47432373529136 0 0 0 0 -10.187857871403196 -6.0604305445631041 0 -6.0604305445631041 -0.6146078506108168 0 0 0 0 -51.438467556710748 -37.141392241121594 0 -37.141392241121594 -55.075478795362869 0 0 0 0 -648.19623615674936 -685.04379964195368 0 -685.04379964195368 -601.49786433808185 0 0 0 0 -1006.7278380016651 -644.28139746299894 0 -644.28139746299894 -380.86462400016899 0 0 0 0 -887.77579527495254 -992.30684093421223 0 -992.30684093421223 -910.6307950006576 0 0 0 0 -1.5567664856131103 -0.52243525141652469 0 -0.52243525141652469 -0.37853863964920009 0 0 0 0 -898.3159792385959 -580.65524319536871 0 -580.65524319536871 -352.94335738285008 0 0 0 0 -782.88744116610906 -598.91731718548908 0 -598.91731718548908 -550.64591830765494 0 0 0 0 -816.424085931023 -442.90254006741816 0 -442.90254006741816 -292.53869951961497 0 0 0 0 -899.88936260409537 -522.76274690872197 0 -522.76274690872197 -352.98862596185427 0 0 0 0 -901.25415907541901 -559.9496851628387 0 -559.9496851628387 -299.72285738387291 0 0 0 0 -918.32187316278578 -599.38298511881476 0 -599.38298511881476 -325.09372343304858 0 0 0 0 -923.51658435895661 -610.16535092470031 0 -610.16535092470031 -332.23557125426305 0 0 0 0 -904.11656944265997 -595.28287487498346 0 -595.28287487498346 -353.33837024951572 0 0 0 0 -518.18193826481001 -893.01731671879679 0 -893.01731671879679 -672.5748590889616 0 0 0 0 7.7463486122874485 -17.020395945513343 0 -17.020395945513343 18.576343274841811 0 0 0 0 37.589066514997029 -33.505384689891216 0 -33.505384689891216 8.3397698456958622 0 0 0 0 -465.53155814961065 -292.32299332880575 0 -292.32299332880575 74.739261299284408 0 0 0 0 -912.10346635029418 -601.6945503303441 0 -601.6945503303441 -339.7256159420831 0 0 0 0 -960.93851187070322 -416.75834012044379 0 -416.75834012044379 -79.948987635707454 0 0 0 0 -981.26555635964905 -546.08432898331012 0 -546.08432898331012 9.7866402688659946 0 0 0 0 -988.95122352006001 -508.11934259433019 0 -508.11934259433019 -176.79500699958953 0 0 0 0 -953.52758601725509 -477.06401872040806 0 -477.06401872040806 -160.76361764679973 0 0 0 0 -892.86651958232142 -482.22112511306227 0 -482.22112511306227 -233.25398618899635 0 0 0 0 -973.79872723570224 -568.52369515508599 0 -568.52369515508599 -103.84492590068476 0 0 0 0 -977.35370568027429 -592.18806817877157 0 -592.18806817877157 -249.58436881835246 0 0 0 0 -990.47659815000225 -593.07921884847656 0 -593.07921884847656 -63.72061959270286 0 0 0 0 -935.85261904165236 -718.72061663666182 0 -718.72061663666182 -356.237216762549 0 0 0 0 -1021.7995356754836 -706.4500044483575 0 -706.4500044483575 -215.56325804431344 0 0 0 0 -1150.1642890516669 -969.52002327814625 0 -969.52002327814625 -417.0571158577402 0 0 0 0 34.496816173113473 -58.976100355648882 0 -58.976100355648882 87.617880926962101 0 0 0 0 -875.36606640721584 -833.47858413338338 0 -833.47858413338338 -304.25601943313268 0 0 0 0 35.156675934996287 -67.880081333838802 0 -67.880081333838802 89.468554933504606 0 0 0 0 -1038.1331097190778 -599.83805539682544 0 -599.83805539682544 -170.02355815604096 0 0 0 0 15.508001467009308 -169.99527107715039 0 -169.99527107715039 -95.079261569990194 0 0 0 0 10.758398495912843 -155.36140415205318 0 -155.36140415205318 -82.444130461473833 0 0 0 0 -914.8808771076001 -679.55490089811428 0 -679.55490089811428 -368.10647506236683 0 0 0 0 -914.80344356930436 -682.5230064477073 0 -682.5230064477073 -294.05399370716668 0 0 0 0 4.4461336000822484 -152.99443205982061 0 -152.99443205982061 -93.301669735670657 0 0 0 0 46.133182460594981 -182.66274806313049 0 -182.66274806313049 -139.66899156048748 0 0 0 0 111.25418812538555 -128.28828373655051 0 -128.28828373655051 -107.90128773768538 0 0 0 0 85.296480684592098 -183.49517475604443 0 -183.49517475604443 37.247594385964476 0 0 0 0 35.934724574595748 -84.208643335206943 0 -84.208643335206943 -0.96062418044311926 0 0 0 0 85.85588370791811 -149.79677676341453 0 -149.79677676341453 -154.92158430193376 0 0 0 0 -166.46775382857595 -355.84358914477525 0 -355.84358914477525 -204.30817768671841 0 0 0 0 65.826712077268894 -203.83727962264288 0 -203.83727962264288 -287.36370613943836 0 0 0 0 67.571452701809903 -29.599586989140334 0 -29.599586989140334 -134.58663019836422 0 0 0 0 40.693545366288163 -96.879488654842135 0 -96.879488654842135 54.745194306655321 0 0 0 0 90.946605925128097 47.645606082194718 0 47.645606082194718 132.78371348012661 0 0 0 0 44.875612731559158 -26.902151049752547 0 -26.902151049752547 163.18538594944039 0 0 0 0 28.575164598485571 -90.994146711111171 0 -90.994146711111171 7.5059994829134666 0 0 0 0 -1273.2677885275407 -1148.5448984173145 0 -1148.5448984173145 -567.92318053036456 0 0 0 0 -1016.0569504646919 -707.43121125295693 0 -707.43121125295693 -416.76587894178192 0 0 0 0 -33.700402711343486 -42.01313494903934 0 -42.01313494903934 47.365565357147716 0 0 0 0 31.33871236934587 -52.991625851621521 0 -52.991625851621521 73.896338234746494 0 0 0 0 -112.21234634530992 -565.46180036077021 0 -565.46180036077021 -455.70701844441464 0 0 0 0 136.28921233442816 3.7879028218521853 0 3.7879028218521853 4.7362590736829588 0 0 0 0 -536.82375542950467 -462.48263303188423 0 -462.48263303188423 763.72342516288154 0 0 0 0 752.99571112638478 330.19291115181784 0 330.19291115181784 385.23844986235599 0 0 0 0 617.22363848213718 -575.50458518618223 0 -575.50458518618223 671.77209303189738 0 0 0 0 -118.69157662265934 -416.20533611385054 0 -416.20533611385054 2022.8327066986089 0 0 0 0 -243.26452906434133 77.236433385803139 0 77.236433385803139 696.5186444041974 0 0 0 0 -23.887812976114219 -27.712179193002157 0 -27.712179193002157 255.9649207832972 0 0 0 0 30.855502040903957 134.10832006905457 0 134.10832006905457 492.54959309885453 0 0 0 0 105.62771687620989 -121.98252350631446 0 -121.98252350631446 87.836075446872201 0 0 0 0 199.05001285440812 57.248898647913848 0 57.248898647913848 144.14501037819264 0 0 0 0 -291.14926321035455 192.45898665295135 0 192.45898665295135 2003.4337736684583 0 0 0 0 -262.42445176198589 -217.34549529085319 0 -217.34549529085319 623.92956629907712 0 0 0 0 -224.66981092243805 -240.92890878668004 0 -240.92890878668004 531.40884684749108 0 0 0 0 -247.81672142306343 -266.89483539243884 0 -266.89483539243884 613.14143897739996 0 0 0 0 -223.75808117877114 -451.74134710362796 0 -451.74134710362796 187.01605222704529 0 0 0 0 -66.21467741435481 -325.3831465196763 0 -325.3831465196763 276.07323518844169 0 0 0 0 36.090320837924082 -374.41263630752383 0 -374.41263630752383 30.425988398892855 0 0 0 0 70.284911203714728 -345.8316044848093 0 -345.8316044848093 -44.524185080616007 0 0 0 0 37.173859841954254 -138.18323519145815 0 -138.18323519145815 142.94557443666235 0 0 0 0 84.660389557673625 -175.12033712301263 0 -175.12033712301263 16.54394612599026 0 0 0 0 27.109698823449435 -121.20426395548748 0 -121.20426395548748 203.73027941382907 0 0 0 0 -33.205025189812659 -70.407891049427917 0 -70.407891049427917 176.2001088519246 0 0 0 0 79.854353522299789 -121.36509641872954 0 -121.36509641872954 122.5520331761436 0 0 0 0 98.46914651246334 -51.862645363220508 0 -51.862645363220508 172.80519536742395 0 0 0 0 305.10916625894606 -64.162052046573081 0 -64.162052046573081 134.89518769654205 0 0 0 0 4.2028971521479832 0.19578688217239204 0 0.19578688217239204 0.080334066021618966 0 0 0 0 116.12535300745367 142.7037874115058 0 142.7037874115058 -2.2843913461329066 0 0 0 0 67.945726311809267 -208.28922289288312 0 -208.28922289288312 290.53382161775153 0 0 0 0 57.643428934556141 5.6558656137449361 0 5.6558656137449361 -142.84798194973337 0 0 0 0 399.87414028143394 120.62265760853734 0 120.62265760853734 -362.05368352182631 0 0 0 0 -128.60718262264709 -460.00207098309238 0 -460.00207098309238 235.31781822357152 0 0 0 0 95.128334220527904 -338.41494498366228 0 -338.41494498366228 -313.71211782398268 0 0 0 0 -10.645547158099362 -172.69415674701668 0 -172.69415674701668 43.117409020584091 0 0 0 0 28.497258993302239 -19.53384098279821 0 -19.53384098279821 392.00143057755849 0 0 0 0 -17.640177282563712 -58.518019540850645 0 -58.518019540850645 -7.7162054653185352 0 0 0 0 -72.553902720464976 -95.363711387154581 0 -95.363711387154581 -51.315030686788305 0 0 0 0 11.427397074742998 -7.0455122590403789 0 -7.0455122590403789 -15.466315255781282 0 0 0 0 27.662783080602821 -22.016069256000264 0 -22.016069256000264 -104.72123119903699 0 0 0 0 38.050034883766784 -20.387358587988274 0 -20.387358587988274 -160.05635045246527 0 0 0 0 143.4506453676222 -96.350354372145375 0 -96.350354372145375 7.8764467330801153 0 0 0 0 48.349940744457854 -146.47194646630487 0 -146.47194646630487 119.95255842828919 0 0 0 0 -74.452793300930352 -189.36025178870477 0 -189.36025178870477 -73.819646464899733 0 0 0 0 -169.599060702727 -151.45919456032311 0 -151.45919456032311 -73.235825730222132 0 0 0 0 -3.2425932823944592 -7.3797515933798934 0 -7.3797515933798934 -0.90659235911891756 0 0 0 0 -78.784027391717245 -325.87900422389976 0 -325.87900422389976 -89.888145173941666 0 0 0 0 -39.026558067918813 -203.06181106706481 0 -203.06181106706481 -49.339002583665206 0 0 0 0 -11.79848344885977 -258.84554517770357 0 -258.84554517770357 43.947965712291079 0 0 0 0 5.7065102526139526 -356.6979137857636 0 -356.6979137857636 -366.09250557901032 0 0 0 0 28.236350591207156 -264.38643028198567 0 -264.38643028198567 -180.89853850494546 0 0 0 0 -87.112814423111558 -239.84864012079242 0 -239.84864012079242 -370.91599291585226 0 0 0 0 -53.099373263459711 -377.87354048272755 0 -377.87354048272755 -245.24241177691692 0 0 0 0 -27.211534114241658 -364.5571273745727 0 -364.5571273745727 -360.03679049639959 0 0 0 0 45.443303911728435 -281.59945020265059 0 -281.59945020265059 -269.55667476771487 0 0 0 0 40.395777669749805 -276.61042541801544 0 -276.61042541801544 -258.24203951072678 0 0 0 0 83.941190165583976 -248.61939787634492 0 -248.61939787634492 -266.65364472274632 0 0 0 0 61.378713691228768 -208.45522334694351 0 -208.45522334694351 -184.1383959906816 0 0 0 0 11.677426793932682 -261.25613819715727 0 -261.25613819715727 -249.95805308170839 0 0 0 0 21.982871115440503 -245.06981895856461 0 -245.06981895856461 -234.828213132374 0 0 0 0 -9.792105204112886 -311.66707110020252 0 -311.66707110020252 -266.11185232113712 0 0 0 0 -10.074165828180412 -83.110929929321628 0 -83.110929929321628 -127.21942591834522 0 0 0 0 -148.36209765585954 -203.2765263131223 0 -203.2765263131223 -230.14813832698655 0 0 0 0 86.402341791181243 -239.69828266827017 0 -239.69828266827017 -210.27551364937608 0 0 0 0 25.970809472033579 -170.20344178872074 0 -170.20344178872074 -270.53553360020487 0 0 0 0 58.053807095304364 -237.85293970054499 0 -237.85293970054499 -262.29007521404492 0 0 0 0 29.512109342045733 -240.55235801209528 0 -240.55235801209528 -123.47209467169159 0 0 0 0 6.2345844190786011 -195.95951933855395 0 -195.95951933855395 -290.16576085310589 0 0 0 0 -36.366916728526121 -190.23669130816415 0 -190.23669130816415 -269.95198894886562 0 0 0 0 10.778423717347323 -201.98616870517981 0 -201.98616870517981 -318.89063020345202 0 0 0 0 -121.33846193675708 -111.76672734971635 0 -111.76672734971635 -284.61544571349441 0 0 0 0 -22.414816836317186 -165.99838959151475 0 -165.99838959151475 -369.40843987988774 0 0 0 0 -17.241250867196783 -49.141939879432648 0 -49.141939879432648 -76.588302182016832 0 0 0 0 -112.83886247239752 -135.17878060990233 0 -135.17878060990233 -458.60782946019026 0 0 0 0 -154.69909331954113 -90.97798155136843 0 -90.97798155136843 -328.21975633279817 0 0 0 0 -142.82511351584981 -48.998295067357617 0 -48.998295067357617 -399.0106129851265 0 0 0 0 -112.59956653535482 -117.9451603887228 0 -117.9451603887228 -325.7733720827855 0 0 0 0 -45.912567766325083 -122.40811656591723 0 -122.40811656591723 -371.38617129145314 0 0 0 0 -8.1419778736963053 -123.57516806302374 0 -123.57516806302374 -353.03690499735785 0 0 0 0 -58.182696252955793 -138.14018347260935 0 -138.14018347260935 -297.7635206565501 0 0 0 0 -8.0579409607307753 -91.709281352776088 0 -91.709281352776088 -168.19586197631224 0 0 0 0 -22.925498523472527 -57.738002066907583 0 -57.738002066907583 -4.872912416059501 0 0 0 0 -35.937363282300794 -79.066216051726769 0 -79.066216051726769 -171.15719570602232 0 0 0 0 -73.313554209060385 -142.97461360008401 0 -142.97461360008401 -332.02035040519513 0 0 0 0 2.8447329519238167 -9.9155489950513598 0 -9.9155489950513598 -19.844968175143364 0 0 0 0 -8.9617073725639784 -102.41555390621488 0 -102.41555390621488 -63.832584783474886 0 0 0 0 16.562158424538211 -64.077060636982424 0 -64.077060636982424 -203.64051721877513 0 0 0 0 -11.639026734650756 -3.6110969703233167 0 -3.6110969703233167 14.673418873052476 0 0 0 0 -7.855060115995002 -106.71293564325606 0 -106.71293564325606 -174.21288131543486 0 0 0 0 -35.367937886912841 -187.14827764388974 0 -187.14827764388974 -170.95545161440532 0 0 0 0 -7.6134124378586421 -138.59099605837673 0 -138.59099605837673 -222.65173604517804 0 0 0 0 -14.349640053213079 -185.23645651468132 0 -185.23645651468132 -273.81517817247732 0 0 0 0 8.0083478129745345 -72.478042278993598 0 -72.478042278993598 -199.52747966771653 0 0 0 0 -20.157127875094716 -57.624977189379621 0 -57.624977189379621 6.7212721706468752 0 0 0 0 -23.078657805344847 -132.78755751971221 0 -132.78755751971221 -218.75180107909182 0 0 0 0 4.7712043915453251 -39.881414641614356 0 -39.881414641614356 -169.08337924525927 0 0 0 0 30.306377143257123 -73.458414388457641 0 -73.458414388457641 -123.23365883551196 0 0 0 0 -24.619676135258487 -73.481747350445403 0 -73.481747350445403 -122.59416230279567 0 0 0 0 0.30226397189107956 -52.924343323884386 0 -52.924343323884386 -66.406223195755956 0 0 0 0 14.752305902125954 -105.06624621596256 0 -105.06624621596256 -47.817857605381505 0 0 0 0 -21.857635052627302 -44.042613806941517 0 -44.042613806941517 42.209285407850075 0 0 0 0 -12.959838229100569 -89.140488225818444 0 -89.140488225818444 13.131348536351652 0 0 0 0 19.108664855986717 -28.012127729084568 0 -28.012127729084568 39.832160148015646 0 0 0 0 3.4362840231034131 -15.430236844380218 0 -15.430236844380218 2.0234913310454132 0 0 0 0 20.179431879136246 -36.522036699107048 0 -36.522036699107048 -33.260787548862027 0 0 0 0 -20.418091055613331 -92.023356557259604 0 -92.023356557259604 -66.508000589516087 0 0 0 0 -5.3260692820986151 -58.153179848448417 0 -58.153179848448417 -109.4624157324206 0 0 0 0 -42.124807210668223 -73.35029178961031 0 -73.35029178961031 -114.66328879247885 0 0 0 0 -25.780731660037418 -59.020512312905339 0 -59.020512312905339 -127.59830195553332 0 0 0 0 -23.626934282992806 -98.604902018886605 0 -98.604902018886605 -93.947897131007267 0 0 0 0 -39.93108653647505 -106.44246009510243 0 -106.44246009510243 -92.729419285524273 0 0 0 0 7.0285845813850756 -96.927833481509879 0 -96.927833481509879 -99.237302338040536 0 0 0 0 20.398851791564084 -95.251489461177698 0 -95.251489461177698 -92.928142209411817 0 0 0 0 15.768135613598133 -58.543255377121568 0 -58.543255377121568 -99.762309245816141 0 0 0 0 -4.2795012529531959 -101.73128545531199 0 -101.73128545531199 -90.887792928056115 0 0 0 0 -7.0210744349788001 -88.154670478326352 0 -88.154670478326352 -49.09492880660946 0 0 0 0 -6.353033858249546 -66.614191446353288 0 -66.614191446353288 -69.567845597851374 0 0 0 0 -9.5027030768742407 -54.182751158003384 0 -54.182751158003384 -6.4124496984713915 0 0 0 0 110.97078632640114 -95.513967758650324 0 -95.513967758650324 -8.2292606319933839 0 0 0 0 1.5156415412602939 -41.354252222178545 0 -41.354252222178545 3.3396960046623922 0 0 0 0 -72.970289055208468 64.494712101435425 0 64.494712101435425 34.548491284222109 0 0 0 0 -78.950531890798629 93.873322505247188 0 93.873322505247188 554.85264507258034 0 0 0 0 -141.20145405265794 -384.73258878182605 0 -384.73258878182605 1156.6578915340306 0 0 0 0 -89.984902179872734 -279.88693877024161 0 -279.88693877024161 370.68997503303217 0 0 0 0 -55.985754025889037 -189.8891105787352 0 -189.8891105787352 433.67430445220089 0 0 0 0 -23.124606436671456 -27.151271429931512 0 -27.151271429931512 73.893805822266586 0 0 0 0 152.69328078969556 -299.39376098299908 0 -299.39376098299908 337.31039300387783 0 0 0 0 179.59783818665164 -89.976731407301486 0 -89.976731407301486 -16.208675902087634 0 0 0 0 11.287201011736556 -40.847651083816721 0 -40.847651083816721 0.2334005699041497 0 0 0 0 111.24948818830308 -56.947778583245963 0 -56.947778583245963 -87.342450141455629 0 0 0 0 -28.265108649917238 -34.368297888660891 0 -34.368297888660891 33.441567798849064 0 0 0 0 1137.5531353747101 -326.21891730434072 0 -326.21891730434072 68.907153289593111 0 0 0 0 507.91749285718106 -834.3533597155656 0 -834.3533597155656 1189.5964065308399 0 0 0 0 709.68412672789418 -252.09609225182612 0 -252.09609225182612 1031.9249157954155 0 0 0 0 1299.8686294780346 -898.14650281600643 0 -898.14650281600643 1012.69515191756 0 0 0 0 408.49202936432266 -667.30383953214914 0 -667.30383953214914 922.39263444369135 0 0 0 0 403.9636618359109 -714.4217811795429 0 -714.4217811795429 660.1784106862724 0 0 0 0 238.39637083029083 -379.44493384766974 0 -379.44493384766974 770.99627909729679 0 0 0 0 408.90609659937036 -317.43183488014438 0 -317.43183488014438 542.9686406777837 0 0 0 0 429.54693871920199 -453.47763914611141 0 -453.47763914611141 903.99169675015946 0 0 0 0 276.61056363682292 -353.25864493568952 0 -353.25864493568952 609.1002990421257 0 0 0 0 588.01016671764228 -152.7430617512382 0 -152.7430617512382 558.82899575844385 0 0 0 0 484.00728861464813 -496.67685008219996 0 -496.67685008219996 962.18901068532796 0 0 0 0 714.02612355681777 -483.60728935454063 0 -483.60728935454063 695.85692810222099 0 0 0 0 322.97061473549547 -752.48679405720213 0 -752.48679405720213 1322.3315976854392 0 0 0 0 694.13311725061067 -687.6989682253361 0 -687.6989682253361 953.77816827479182 0 0 0 0 755.86403448069177 -1249.347562044557 0 -1249.347562044557 1777.9286384206364 0 0 0 0 5.6577964586560512 2.0239322998657112 0 2.0239322998657112 1.8697914470550856 0 0 0 0 -50.689338861473516 -4.0457267892215896 0 -4.0457267892215896 135.43333126169819 0 0 0 0 -10.264716873442097 -40.591748256358116 0 -40.591748256358116 1.4588929872591674 0 0 0 0 -12.878212938689103 -41.580449695271454 0 -41.580449695271454 -38.244618198444414 0 0 0 0 5.7060126902267712 5.9195911912901469 0 5.9195911912901469 21.03460115451999 0 0 0 0 374.97613857357646 -747.73360763252822 0 -747.73360763252822 1321.9388921943732 0 0 0 0 456.76351972479824 -983.8240874002222 0 -983.8240874002222 2002.9655719578004 0 0 0 0 5.4346597559810732 -4.6169323821693382 0 -4.6169323821693382 -0.58482160013733919 0 0 0 0 -8.1793073669120702 -20.394223981021746 0 -20.394223981021746 -14.807960589699547 0 0 0 0 -13.567162702093128 -57.298024127034438 0 -57.298024127034438 -131.27929863879763 0 0 0 0 53.808074674125237 -110.32624696369749 0 -110.32624696369749 -107.33427620190923 0 0 0 0 64.084799735959677 -89.073727561903979 0 -89.073727561903979 -248.50470169834352 0 0 0 0 -19.696901389234654 8.5783114693885523 0 8.5783114693885523 -118.53139274261048 0 0 0 0 13.898923284445118 -120.49761034757989 0 -120.49761034757989 -101.98960612582232 0 0 0 0 -3.0093374390344252 -121.21865532115044 0 -121.21865532115044 -97.446428513678256 0 0 0 0 20.530604681553086 -242.92306430607459 0 -242.92306430607459 -604.41684648791852 0 0 0 0 -189.81811975320306 -29.48564788305066 0 -29.48564788305066 -134.31640908421105 0 0 0 0 20.386000042504747 -209.03878849475313 0 -209.03878849475313 -55.591413595732774 0 0 0 0 -1.3667552930564852 -48.399878616804926 0 -48.399878616804926 -740.38723821043141 0 0 0 0 -249.67777179840778 -670.13405702860291 0 -670.13405702860291 -1097.2604823266793 0 0 0 0 770.11400545536162 -953.4340122359954 0 -953.4340122359954 899.9565502660098 0 0 0 0 600.27237307757605 -1117.9628969883615 0 -1117.9628969883615 694.22672207312735 0 0 0 0 692.81799139420036 -805.65970304930488 0 -805.65970304930488 619.40170598080658 0 0 0 0 -1.0958275600823697 -5.877911872227056 0 -5.877911872227056 -9.9521607807396535 0 0 0 0 335.18622977372252 324.20201632807493 0 324.20201632807493 -1497.3528965063488 0 0 0 0 606.12722130390307 -1061.5245658570891 0 -1061.5245658570891 -53.320490273908945 0 0 0 0 19.168859526567758 -318.8176872604713 0 -318.8176872604713 -104.49807833855812 0 0 0 0 249.8915591607165 -357.05969239114711 0 -357.05969239114711 -101.71562536848433 0 0 0 0 562.46100243993715 -997.43562351078435 0 -997.43562351078435 -1050.6377567711866 0 0 0 0 -1082.1794933939818 -875.08724570288541 0 -875.08724570288541 -308.46453004553405 0 0 0 0 2.3327378381169162 -3.1430290882935381 0 -3.1430290882935381 1.8143010626645975 0 0 0 0 1521.3192968599542 -53.3889196353839 0 -53.3889196353839 -526.7473246179834 0 0 0 0 595.15635987798305 67.400163188631268 0 67.400163188631268 58.046919758142394 0 0 0 0 -302.00177317673661 -295.25082307240609 0 -295.25082307240609 168.2011350309549 0 0 0 0 1.0920273677325412 -1.987883693230966 0 -1.987883693230966 -0.52031558889255969 0 0 0 0 -44.380956633358437 -297.96648991946131 0 -297.96648991946131 -333.06493960842261 0 0 0 0 -15.642568290909367 -98.497228055349979 0 -98.497228055349979 164.02516701845889 0 0 0 0 -96.824969438494009 -422.3126360175138 0 -422.3126360175138 -800.89940491068501 0 0 0 0 -254.27344987497594 -197.10413995653718 0 -197.10413995653718 -275.08395254410425 0 0 0 0 -83.105345577387197 -575.85746476098939 0 -575.85746476098939 -522.86423733622178 0 0 0 0 -745.31107401346526 -319.37046301418786 0 -319.37046301418786 -281.26945694902315 0 0 0 0 -260.73871797708125 -197.47356239514374 0 -197.47356239514374 -262.52833434249987 0 0 0 0 -312.92287244651288 -356.0410018179839 0 -356.0410018179839 -120.2127701570862 0 0 0 0 -23.292882471323537 -224.39587823250895 0 -224.39587823250895 -530.4629923900884 0 0 0 0 -390.54666189104319 -84.604691103701043 0 -84.604691103701043 -253.82360137239448 0 0 0 0 -355.28503517828722 -4.9039684183881036 0 -4.9039684183881036 -351.45108754989997 0 0 0 0 -250.56187079288065 -218.52473185915551 0 -218.52473185915551 -366.31855702722351 0 0 0 0 -18.653692558867604 -45.857005981244086 0 -45.857005981244086 -81.184687865130314 0 0 0 0 -262.64706398211638 -287.60838578252606 0 -287.60838578252606 -165.68420481724297 0 0 0 0 -217.08739665183748 -177.84889861376359 0 -177.84889861376359 -123.453193378984 0 0 0 0 -127.16940595344204 -436.50871888461734 0 -436.50871888461734 -149.43639530954442 0 0 0 0 41.344941076691612 -31.946050672802812 0 -31.946050672802812 -31.345464578886094 0 0 0 0 -5.7601275290083649 -23.164528892751491 0 -23.164528892751491 -52.386187058551997 0 0 0 0 10.001069263334074 -12.390849470089272 0 -12.390849470089272 -58.698975261150828 0 0 0 0 -18.202665749232942 -48.911258692903751 0 -48.911258692903751 -50.555288741374852 0 0 0 0 39.598704223539244 40.784330435334596 0 40.784330435334596 -22.600250041967229 0 0 0 0 -259.59905354706279 -13.966410387891301 0 -13.966410387891301 -89.327323813493422 0 0 0 0 -393.54374177840145 -85.678871021325904 0 -85.678871021325904 -116.66682961532206 0 0 0 0 -250.98956890306727 -93.200845704615858 0 -93.200845704615858 -333.33206860146629 0 0 0 0 -273.22811528650345 -162.69239564635427 0 -162.69239564635427 -285.48420431422164 0 0 0 0 -287.25045126355417 -129.5404352733151 0 -129.5404352733151 -113.33300758259793 0 0 0 0 -178.73505950344406 -60.190834685937261 0 -60.190834685937261 -174.61813864672695 0 0 0 0 0.36901143704131911 -1.6362427245909004 0 -1.6362427245909004 -2.3484124445693624 0 0 0 0 228.01423138949031 -129.38680028021008 0 -129.38680028021008 -103.10177124041184 0 0 0 0 281.59543222078173 -10.463091811195682 0 -10.463091811195682 -30.096059731031346 0 0 0 0 3.7217740584880445 -14.57824532899032 0 -14.57824532899032 5.0069281475253504 0 0 0 0 97.367734369425307 -122.83547860231738 0 -122.83547860231738 -121.9828931977645 0 0 0 0 10.187995707894039 -2.1011943304821301 0 -2.1011943304821301 -4.8341121480710214 0 0 0 0 105.42648550925514 -153.94921317398621 0 -153.94921317398621 -30.571603911538805 0 0 0 0 0.51310917669028155 -3.6568159305783468 0 -3.6568159305783468 -6.821800043826137 0 0 0 0 -4.6853736955501972 -178.08576433319578 0 -178.08576433319578 -45.973092770731455 0 0 0 0 305.83459220465738 -30.483090064857606 0 -30.483090064857606 -195.83446892638221 0 0 0 0 -627.49089895174257 -329.99363342680726 0 -329.99363342680726 184.68539274543218 0 0 0 0 648.65678315018522 -403.47943040854261 0 -403.47943040854261 184.20027101045753 0 0 0 0 836.8604728069804 -296.11375260731666 0 -296.11375260731666 -36.699245485040592 0 0 0 0 3.3718785652624419 -4.4344017682700354 0 -4.4344017682700354 2.536460628992522 0 0 0 0 1810.7692125285612 150.71321178680228 0 150.71321178680228 32.562377070130566 0 0 0 0 765.87065887946301 -218.83666316062317 0 -218.83666316062317 162.59928883635803 0 0 0 0 1049.7196124538495 -663.73529671236247 0 -663.73529671236247 339.62512748812151 0 0 0 0 418.73881057883955 -462.77371472859795 0 -462.77371472859795 323.42656618511319 0 0 0 0 365.93944515048133 -323.89056726230729 0 -323.89056726230729 143.92446985428796 0 0 0 0 629.25786108933971 -274.01518527273856 0 -274.01518527273856 307.77234164123445 0 0 0 0 657.34300446989073 -270.30970505521964 0 -270.30970505521964 27.632891503676547 0 0 0 0 438.99645621968011 -283.86028377725415 0 -283.86028377725415 58.454359778183061 0 0 0 0 429.29529479546818 -332.4897227748088 0 -332.4897227748088 -184.21395064605349 0 0 0 0 53.708318619221245 -320.93037530121364 0 -320.93037530121364 1.3465179912982421 0 0 0 0 839.70868443702057 -491.02484607868246 0 -491.02484607868246 -85.028166223583185 0 0 0 0 675.22646706666637 -381.16236284476008 0 -381.16236284476008 -96.836515929655434 0 0 0 0 669.82276158669993 -280.49621554650003 0 -280.49621554650003 -185.69219557849851 0 0 0 0 525.57365145695076 -406.39193999346207 0 -406.39193999346207 -167.16361198987533 0 0 0 0 405.68879032135555 -504.93631242901574 0 -504.93631242901574 -25.106657994114357 0 0 0 0 699.40325431761516 -370.3460722156841 0 -370.3460722156841 24.202724075461447 0 0 0 0 696.13254825016338 -344.05807159525466 0 -344.05807159525466 -36.161031505005667 0 0 0 0 42.818339749603183 8.3406666663386204 0 8.3406666663386204 -31.795566041608254 0 0 0 0 31.215451176845818 -80.663747694023186 0 -80.663747694023186 -70.490604849717784 0 0 0 0 -3.2519985379312857 -79.5331773208909 0 -79.5331773208909 -4.6856286552392703 0 0 0 0 -4.1024625143726414 -15.880186455649266 0 -15.880186455649266 -35.064933228607607 0 0 0 0 -52.884672255320766 -11.660827338109812 0 -11.660827338109812 3.0611086723220069 0 0 0 0 -110.56025919841159 -10.110979441035056 0 -10.110979441035056 18.731039992881051 0 0 0 0 -7.0517389999731677 -12.169890614997712 0 -12.169890614997712 6.8866513663888327 0 0 0 0 -5.3481457142516113 -19.995580160270926 0 -19.995580160270926 -3.0408170459592583 0 0 0 0 7.1850997771834955 3.0497294695123855 0 3.0497294695123855 24.959651379002025 0 0 0 0 -9.3260431104474577 -12.157757078744318 0 -12.157757078744318 4.3024618112456317 0 0 0 0 -9.7393116282533541 -30.272108251288973 0 -30.272108251288973 -5.4199723889943812 0 0 0 0 -1.1098116874849353 -5.3473663925418471 0 -5.3473663925418471 -7.6940152687595145 0 0 0 0 223.35735231290892 27.818176378885255 0 27.818176378885255 -22.952894477683913 0 0 0 0 143.09389249441665 -300.42195266113868 0 -300.42195266113868 203.67164771498938 0 0 0 0 131.47277713237418 -287.50589063529878 0 -287.50589063529878 229.66039159138745 0 0 0 0 -22.157765518859378 37.411758225305675 0 37.411758225305675 -30.792215940455208 0 0 0 0 -21.850466939111357 39.515030709031635 0 39.515030709031635 -157.34646430382418 0 0 0 0 -2.7155478911210906 -1.5595026126394451 0 -1.5595026126394451 -0.48888958359486168 0 0 0 0 -74.584771664362052 -413.20267551468987 0 -413.20267551468987 219.41354236387633 0 0 0 0 -175.42941146431986 -119.22516777269357 0 -119.22516777269357 117.23678745965026 0 0 0 0 39.109889360337547 -422.21520819008674 0 -422.21520819008674 425.63496068722088 0 0 0 0 132.95850126291953 -283.39538541907859 0 -283.39538541907859 204.49385162780527 0 0 0 0 145.76423555727888 -295.8977543997853 0 -295.8977543997853 183.97123858610757 0 0 0 0 127.71796302092116 -367.67162232916417 0 -367.67162232916417 356.26561272762956 0 0 0 0 125.71609233859272 -384.27671496043058 0 -384.27671496043058 222.27704800504216 0 0 0 0 110.82718039258179 -366.51516428776176 0 -366.51516428776176 225.71053494975877 0 0 0 0 101.00851400651482 -272.74086557947595 0 -272.74086557947595 -143.48596997911591 0 0 0 0 85.462684805153913 -314.22479396248946 0 -314.22479396248946 -288.24984867833336 0 0 0 0 -60.623506856776658 -241.41309200542855 0 -241.41309200542855 -72.585092930839892 0 0 0 0 -271.62414308088773 -521.30630143424423 0 -521.30630143424423 -12.118022429347548 0 0 0 0 -272.67411795987209 -481.02568591047566 0 -481.02568591047566 -311.56330758172953 0 0 0 0 -363.53825209081333 -276.03434572735296 0 -276.03434572735296 0.31996745880132949 0 0 0 0 -373.96501722734592 -266.80188839233415 0 -266.80188839233415 172.7746575836718 0 0 0 0 344.56284916165168 160.55059713920582 0 160.55059713920582 49.16916842770479 0 0 0 0 -0.21288795163127361 -69.809695136691516 0 -69.809695136691516 -195.1216527653005 0 0 0 0 0.74705111806542845 -81.427461381173998 0 -81.427461381173998 -58.131306759140898 0 0 0 0 -661.17869079548109 -468.38536846413626 0 -468.38536846413626 31.589643648199853 0 0 0 0 -514.49313813631306 -1243.2816221474668 0 -1243.2816221474668 -1245.4604716020076 0 0 0 0 -1752.1569113827791 -1040.6914020436325 0 -1040.6914020436325 990.53301818704563 0 0 0 0 -426.52463089798403 357.82240413345198 0 357.82240413345198 1095.4373600441832 0 0 0 0 285.21671404930385 -41.828173994948884 0 -41.828173994948884 -5.2647033907724108 0 0 0 0 135.37757168360258 -88.328013328911766 0 -88.328013328911766 18.439842090694583 0 0 0 0 189.91996643150242 -96.060386153008039 0 -96.060386153008039 -48.71345282625407 0 0 0 0 135.06039020897879 -49.476407628866582 0 -49.476407628866582 -35.751600730836799 0 0 0 0 -1.4306127332888758 -12.991374556735479 0 -12.991374556735479 -44.292522012772807 0 0 0 0 173.94325293351721 -257.18500367368142 0 -257.18500367368142 -303.08198830271431 0 0 0 0 320.08237631192242 31.19327765505659 0 31.19327765505659 144.32908586535927 0 0 0 0 -2.3202363980240381 -14.596138567374869 0 -14.596138567374869 -37.975572847308499 0 0 0 0 487.47363687823781 -200.67254762417542 0 -200.67254762417542 -30.443315397471451 0 0 0 0 137.43442200826757 -97.576518269874214 0 -97.576518269874214 53.697836280989577 0 0 0 0 139.85584955506783 -193.63661179080009 0 -193.63661179080009 71.233824940936756 0 0 0 0 216.56571981478555 -260.10141838455274 0 -260.10141838455274 166.81923464831925 0 0 0 0 -19.395513837025646 -16.966887477305136 0 -16.966887477305136 -1106.9146839335699 0 0 0 0 -833.10533136782396 237.99737345141511 0 237.99737345141511 276.64121281038388 0 0 0 0 -423.60247607838028 -773.12627518831141 0 -773.12627518831141 -2243.7961126370719 0 0 0 0 -761.09588912460094 241.45278126093399 0 241.45278126093399 -141.57954218648229 0 0 0 0 -13.333981250023839 -11.020061376514597 0 -11.020061376514597 -7.0467473522288557 0 0 0 0 -975.36411228985799 -413.36828489577056 0 -413.36828489577056 585.85395588001847 0 0 0 0 1.3045830736102175 0.40132922761178058 0 0.40132922761178058 -1.6433001960490472 0 0 0 0 -1812.4276677191447 -264.23410384001909 0 -264.23410384001909 631.76918572640352 0 0 0 0 -719.60583808292722 84.933457182158236 0 84.933457182158236 429.18119592770017 0 0 0 0 388.28341932439798 -79.515907555191006 0 -79.515907555191006 8.9455060074124049 0 0 0 0 -40.197276980648894 -10.822335924046456 0 -10.822335924046456 41.050645724568312 0 0 0 0 -3.051444498818455 101.51377471530486 0 101.51377471530486 -315.90430682673104 0 0 0 0 71.889876372930303 -223.41867453445957 0 -223.41867453445957 -664.83760547457314 0 0 0 0 84.055413567867618 -150.40064937926763 0 -150.40064937926763 -228.12453332230871 0 0 0 0 19.115696104898234 -105.16902480188583 0 -105.16902480188583 -258.86715973427636 0 0 0 0 1.6470839651144757 -13.246169998474624 0 -13.246169998474624 -17.788220001718777 0 0 0 0 -29.617917902738554 -20.854735883722242 0 -20.854735883722242 7.0648688954534009 0 0 0 0 -7.605763136598398 -91.986810038391923 0 -91.986810038391923 47.609736367939604 0 0 0 0 -6.7909442011150531 6.8616404631684418 0 6.8616404631684418 -140.01712033863441 0 0 0 0 48.587755955310058 -20.77705109681574 0 -20.77705109681574 -0.26567343919305131 0 0 0 0 -12.539285116023976 -23.98413018702831 0 -23.98413018702831 -6.1565797547191181 0 0 0 0 19.810009928442014 -50.737695679166791 0 -50.737695679166791 -6.8213752504998411 0 0 0 0 6.837586839746109 52.061743992710035 0 52.061743992710035 10.672388757651788 0 0 0 0 10.836440634245605 2.2482210181998283 0 2.2482210181998283 -18.388098707779776 0 0 0 0 101.19081387837483 -144.34864763217368 0 -144.34864763217368 -205.92202663324133 0 0 0 0 307.40662637710193 227.66838583965728 0 227.66838583965728 165.01694694660182 0 0 0 0 71.019996175716273 -44.50496412698093 0 -44.50496412698093 13.88894214617924 0 0 0 0 492.27903715025241 -67.609957861359817 0 -67.609957861359817 -857.58491885485637 0 0 0 0 332.30191400477997 -391.14789344477867 0 -391.14789344477867 -76.100272678333567 0 0 0 0 -808.10701092912859 -924.55653078395517 0 -924.55653078395517 -485.78637387528215 0 0 0 0 -1.8295291353902208 -7.3240889338869692 0 -7.3240889338869692 -14.004290147885669 0 0 0 0 -95.152919558935537 676.06321358083733 0 676.06321358083733 417.75733397208228 0 0 0 0 -677.85384951299784 347.9654147840738 0 347.9654147840738 426.49530431233143 0 0 0 0 435.22497668025244 52.952208829286974 0 52.952208829286974 -2.3090478212746461 0 0 0 0 -834.14094652472431 -386.37282047847066 0 -386.37282047847066 -8.0632826837754692 0 0 0 0 -141.90113733431645 -753.12715586872764 0 -753.12715586872764 -716.7752363740583 0 0 0 0 88.26447375787393 -360.83397365680503 0 -360.83397365680503 -189.35988879661454 0 0 0 0 848.92690304058715 -155.71603690892289 0 -155.71603690892289 -530.59486698723776 0 0 0 0 430.06682791981439 -544.35893377623142 0 -544.35893377623142 -890.79340147187577 0 0 0 0 197.5504546257871 -234.54103914282132 0 -234.54103914282132 -305.90119913953095 0 0 0 0 299.91853401874323 -506.92258497343755 0 -506.92258497343755 294.62943532800881 0 0 0 0 470.27715581033408 -612.47206594718227 0 -612.47206594718227 293.20834689741855 0 0 0 0 300.7139583671451 -580.6192621019236 0 -580.6192621019236 487.63327370654952 0 0 0 0 347.35071609621082 -813.9297435937915 0 -813.9297435937915 549.14762004194654 0 0 0 0 408.09110457451243 -740.03679704243132 0 -740.03679704243132 46.022113746748801 0 0 0 0 610.35733214604988 -722.88514079841548 0 -722.88514079841548 44.572600074112415 0 0 0 0 662.21565944465692 -495.11935198425454 0 -495.11935198425454 -374.25908787208027 0 0 0 0 645.73965316051181 -651.47485681294711 0 -651.47485681294711 -799.41444933967796 0 0 0 0 432.38664809270631 -162.2955142967794 0 -162.2955142967794 -638.12394781887269 0 0 0 0 568.27293565649779 -578.73690430047418 0 -578.73690430047418 -5.3437542398532969 0 0 0 0 673.23535918199195 -419.94080985115033 0 -419.94080985115033 76.727561140703983 0 0 0 0 -0.1621646782883488 -1.5946730848410979 0 -1.5946730848410979 1.2612786707749351 0 0 0 0 1122.4568227523123 -377.86759862332474 0 -377.86759862332474 -66.9048718932263 0 0 0 0 -3.9356595788212871 -78.430567241600329 0 -78.430567241600329 -66.790385092846918 0 0 0 0 -196.29391200823011 -165.29165843221745 0 -165.29165843221745 -83.332525185253871 0 0 0 0 17.149291794066812 -2.0276846234974073 0 -2.0276846234974073 -56.223057817194785 0 0 0 0 -13.338176322715299 -30.450383126870292 0 -30.450383126870292 -13.442326804208278 0 0 0 0 626.76660412794445 -447.35533115209364 0 -447.35533115209364 144.38238459356035 0 0 0 0 -1.5031253425639441 -3.0873276291791001 0 -3.0873276291791001 4.6630445978265982 0 0 0 0 650.4506705208878 -395.4059950690953 0 -395.4059950690953 193.93652159920384 0 0 0 0 -40.382804725304595 -4.9937766787452347 0 -4.9937766787452347 15.732813316062675 0 0 0 0 16.463689077365416 -8.2881840002410172 0 -8.2881840002410172 0.57712573039589188 0 0 0 0 9.4119877983357583 26.201887432929652 0 26.201887432929652 -73.681082149287249 0 0 0 0 10.506331672298984 -46.624286536238287 0 -46.624286536238287 34.374153341035708 0 0 0 0 0.64970330181395752 -8.3964820781123493 0 -8.3964820781123493 -11.507583451604734 0 0 0 0 -0.62255827823537402 -48.827013511237965 0 -48.827013511237965 55.539631608756878 0 0 0 0 19.943351256519236 39.109797123239332 0 39.109797123239332 -64.003330505431222 0 0 0 0 7.1090616298279201 -11.892852912776107 0 -11.892852912776107 1.3284470298385713 0 0 0 0 -0.38625650686299196 -11.158525773911606 0 -11.158525773911606 55.151560601228994 0 0 0 0 -3.5201811189072032 5.7355653195463674 0 5.7355653195463674 -82.800766456884048 0 0 0 0 49.163794635061642 -8.0421672544082003 0 -8.0421672544082003 -57.816571706433919 0 0 0 0 103.50133760647208 57.917546469419563 0 57.917546469419563 -139.98993855825393 0 0 0 0 5.6131130067068682 -6.4104012263641614 0 -6.4104012263641614 -9.8534826889847693 0 0 0 0 -1.8974250918515452 -4.202059338493747 0 -4.202059338493747 8.928841880725777 0 0 0 0 -1.3404321114685445 -19.676644656761709 0 -19.676644656761709 29.503664180542728 0 0 0 0 -12.977898321219982 61.255809179476273 0 61.255809179476273 -94.802219418352252 0 0 0 0 208.20189610797206 -293.64179159113701 0 -293.64179159113701 277.29634183780217 0 0 0 0 86.845902435517928 -162.63220806049458 0 -162.63220806049458 233.72624376760359 0 0 0 0 444.7734899131101 -338.39812149538557 0 -338.39812149538557 155.31291079843868 0 0 0 0 228.11646388877489 -441.30378167843719 0 -441.30378167843719 575.21769250919533 0 0 0 0 310.09363849623696 -572.02726175208227 0 -572.02726175208227 488.2502080570921 0 0 0 0 153.2171306255841 -287.20737721537262 0 -287.20737721537262 362.7520457426599 0 0 0 0 244.59717419806111 -209.34185883285681 0 -209.34185883285681 333.71075524965454 0 0 0 0 75.753143439302221 -261.05877160282853 0 -261.05877160282853 388.40127246537486 0 0 0 0 305.54349357414321 -246.74980484502339 0 -246.74980484502339 129.9892337895435 0 0 0 0 14.675028422088644 50.999696846995562 0 50.999696846995562 -53.591236826472596 0 0 0 0 0.96817509110330491 0.042346484057684819 0 0.042346484057684819 -0.53092501776261258 0 0 0 0 -4.6919695139504256 115.08328119482053 0 115.08328119482053 -60.315696937563189 0 0 0 0 16.353637327776141 61.252484869335262 0 61.252484869335262 -166.43649661741802 0 0 0 0 -8.4639072330392082 128.94543173491184 0 128.94543173491184 -109.2521119112198 0 0 0 0 -144.67049595881326 -12.067138103940124 0 -12.067138103940124 -47.045667534690438 0 0 0 0 52.366741332394376 -2.4646487534583912 0 -2.4646487534583912 -53.50574423809654 0 0 0 0 -69.501924022100866 226.01009479269305 0 226.01009479269305 -172.46487533523759 0 0 0 0 1.2720200753699018 -1.2482264608887661 0 -1.2482264608887661 -1.3614488822017705 0 0 0 0 1.2145586688332202 -1.1681006162123069 0 -1.1681006162123069 0.18627609296868286 0 0 0 0 -12.447877157799667 -30.794111063103628 0 -30.794111063103628 -36.550340197582045 0 0 0 0 28.256337112838082 18.244110953704876 0 18.244110953704876 94.613059649717798 0 0 0 0 -25.0389563019246 171.03176020555406 0 171.03176020555406 -87.390516565559665 0 0 0 0 42.995435191631472 0.0081862437670316979 0 0.0081862437670316979 -57.750237777216761 0 0 0 0 -34.858333063137252 37.681102019058926 0 37.681102019058926 -87.852075119458959 0 0 0 0 140.63120570372121 53.029428154346533 0 53.029428154346533 -8.0001203742576763 0 0 0 0 210.66793271459028 -50.364774619672971 0 -50.364774619672971 -164.41463486017165 0 0 0 0 -16.934344812616473 -53.773730626402539 0 -53.773730626402539 -51.353026377975766 0 0 0 0 198.35423595795874 -54.750517946007676 0 -54.750517946007676 -23.064082469871209 0 0 0 0 118.24252903507295 110.80599619231361 0 110.80599619231361 49.619154541796888 0 0 0 0 -89.183388540819578 -0.66881575142542715 0 -0.66881575142542715 75.196610666323977 0 0 0 0 65.19244869123213 0.39990347797356662 0 0.39990347797356662 -139.5905832740973 0 0 0 0 102.2028217336192 -185.94123426305305 0 -185.94123426305305 148.40500867113224 0 0 0 0 84.923977938668941 -53.62915489014631 0 -53.62915489014631 -106.14240140021138 0 0 0 0 -56.076749751446187 -89.207321025707643 0 -89.207321025707643 99.133404423113291 0 0 0 0 118.73073932640727 -158.73945822780479 0 -158.73945822780479 190.63344678312569 0 0 0 0 161.15114905197697 -273.9826229317996 0 -273.9826229317996 426.08173539427662 0 0 0 0 271.75452785627203 -358.22521938235968 0 -358.22521938235968 193.5494430283361 0 0 0 0 188.4440189889192 -447.97125928205605 0 -447.97125928205605 498.23476654467959 0 0 0 0 184.75418702284514 -368.82822748330727 0 -368.82822748330727 325.65827833789081 0 0 0 0 202.31979371131456 -217.16098657357361 0 -217.16098657357361 103.13295541637854 0 0 0 0 149.30877583442634 -243.49536704046841 0 -243.49536704046841 97.679118950967677 0 0 0 0 77.715110429860943 -57.377019931731411 0 -57.377019931731411 -27.409872481512139 0 0 0 0 28.907813074052683 -75.611632138596178 0 -75.611632138596178 -29.774400436359429 0 0 0 0 92.643127156872652 -178.43976955567996 0 -178.43976955567996 60.239246539476881 0 0 0 0 -20.278232838489203 83.92750973307102 0 83.92750973307102 -124.78413541546615 0 0 0 0 -4.0394461365573875 -27.403347283687559 0 -27.403347283687559 -36.089895945086823 0 0 0 0 155.32307907877293 -46.347502772256121 0 -46.347502772256121 -188.70740178477718 0 0 0 0 76.788545467062633 3.9151821962370192 0 3.9151821962370192 -15.607111239848528 0 0 0 0 69.5431475183359 3.9132118489069398 0 3.9132118489069398 -140.17850817333601 0 0 0 0 -80.72069362529146 48.827991088699491 0 48.827991088699491 -93.535124245972838 0 0 0 0 -2.0947210472812685 5.267306466587911 0 5.267306466587911 -17.849099982751749 0 0 0 0 -54.668444762974104 -117.39487944301072 0 -117.39487944301072 40.953316498555068 0 0 0 0 -159.03870913188439 -333.55084086329953 0 -333.55084086329953 681.29698429516066 0 0 0 0 -10.555875501376391 -9.9658699628710679 0 -9.9658699628710679 5.6821387711850502 0 0 0 0 -91.532328737950593 -513.14905912995164 0 -513.14905912995164 969.62814547351809 0 0 0 0 -20.790673290355699 260.35032959063074 0 260.35032959063074 384.65628391850987 0 0 0 0 32.454482977394264 -23.705313436196576 0 -23.705313436196576 14.259667909421992 0 0 0 0 130.71943253335121 -451.28100607224042 0 -451.28100607224042 -108.29881328828196 0 0 0 0 -47.742953479517496 27.342569860856088 0 27.342569860856088 195.86330597337292 0 0 0 0 -9.5494788168107334 -182.50677039675611 0 -182.50677039675611 -23.681302614277229 0 0 0 0 48.207260705324614 -29.967198395659153 0 -29.967198395659153 21.237038507196331 0 0 0 0 -1.7204672589911922 -6.5400778487580737 0 -6.5400778487580737 0.57098515821500229 0 0 0 0 122.75798399182531 -388.87053216805725 0 -388.87053216805725 -387.03402472871176 0 0 0 0 -2.2011589762621497 -28.083708120645611 0 -28.083708120645611 210.72495082870591 0 0 0 0 228.21271648914262 -48.530168425058946 0 -48.530168425058946 -169.66814818033527 0 0 0 0 18.668744757313107 -179.12660536168369 0 -179.12660536168369 520.85188470522553 0 0 0 0 291.14095022354013 -263.74758889075383 0 -263.74758889075383 141.55002198443617 0 0 0 0 314.67051057760546 4.7167340650848928 0 4.7167340650848928 -165.17411154900765 0 0 0 0 336.73493226490973 138.63995407336915 0 138.63995407336915 239.45329634289374 0 0 0 0 0.90642639677818693 -3.946392788572453 0 -3.946392788572453 0.39712167939178755 0 0 0 0 403.07291925339814 -111.29569893269945 0 -111.29569893269945 -672.78449011283237 0 0 0 0 151.93091541203648 -608.05992381180909 0 -608.05992381180909 1326.970273787214 0 0 0 0 117.308394337153 -330.14763656599825 0 -330.14763656599825 356.89915324469257 0 0 0 0 784.98098385796766 -873.01667299312066 0 -873.01667299312066 402.2326028221978 0 0 0 0 409.31547718123693 481.32629718807584 0 481.32629718807584 434.76077067486403 0 0 0 0 466.59711234502458 -1050.2832562350673 0 -1050.2832562350673 599.09623337817902 0 0 0 0 -429.2746985711492 -616.02905959151212 0 -616.02905959151212 1370.0465016775452 0 0 0 0 -152.30307556632033 -21.228780464782176 0 -21.228780464782176 964.707332208759 0 0 0 0 5.2439697503872225 -8.0809066573211084 0 -8.0809066573211084 16.206783953365004 0 0 0 0 849.62922031905327 -308.37949861667403 0 -308.37949861667403 21.578713123693888 0 0 0 0 -738.92406040164497 -391.26682259595782 0 -391.26682259595782 635.11938406260015 0 0 0 0 -260.84423359335051 -447.96835346821899 0 -447.96835346821899 641.29809670945724 0 0 0 0 -180.90670249007599 -295.91658248267049 0 -295.91658248267049 -252.24205708688532 0 0 0 0 -362.57978429079958 -513.60956846119734 0 -513.60956846119734 1004.4334539031843 0 0 0 0 -493.81858795740845 -453.05514645910625 0 -453.05514645910625 976.98832396685611 0 0 0 0 -394.46203814909677 -422.46502224844517 0 -422.46502224844517 1186.0365088291255 0 0 0 0 10.052405026610231 -27.260782743763372 0 -27.260782743763372 37.804628823614301 0 0 0 0 -129.85451276348613 -135.76582160488761 0 -135.76582160488761 81.597793512926728 0 0 0 0 -58.011336104595102 -3.7220940626284573 0 -3.7220940626284573 -30.657362757468945 0 0 0 0 -87.70520326039923 -76.829847451137994 0 -76.829847451137994 -7.0528491525474237 0 0 0 0 -43.863378497979035 -29.613436912877489 0 -29.613436912877489 18.923944873012289 0 0 0 0 -61.885291286103893 -49.1392413371359 0 -49.1392413371359 1.740499242558144 0 0 0 0 15.177967200923588 -53.934791205408011 0 -53.934791205408011 18.62147012734664 0 0 0 0 -13.647570974269243 -7.7180427479927829 0 -7.7180427479927829 8.0441306629031644 0 0 0 0 33.547984760840791 -103.94844103652144 0 -103.94844103652144 -225.12638814366437 0 0 0 0 -178.16146342968659 105.69384816724755 0 105.69384816724755 259.79016646429955 0 0 0 0 181.69676532472658 22.286039985770913 0 22.286039985770913 -75.069599448484951 0 0 0 0 -0.42756201268113614 0.76411934300536188 0 0.76411934300536188 -0.69502885388990165 0 0 0 0 -59.517021859224769 -211.45843615420381 0 -211.45843615420381 -116.69098650240267 0 0 0 0 -84.886651936903945 -18.987162158078718 0 -18.987162158078718 36.223033698224754 0 0 0 0 67.833870369431679 -71.254694748618931 0 -71.254694748618931 101.34221599761077 0 0 0 0 90.651698978123022 -140.10238873855997 0 -140.10238873855997 273.98872015278903 0 0 0 0 237.8852022119172 -210.55943307732377 0 -210.55943307732377 -24.724053320725943 0 0 0 0 -60.93723718655383 -121.59148223749071 0 -121.59148223749071 197.40132906610233 0 0 0 0 520.0311125620683 -490.59861433995866 0 -490.59861433995866 125.83097663624358 0 0 0 0 372.90299148865597 -536.86497453524862 0 -536.86497453524862 218.04650226112062 0 0 0 0 451.11956975053181 -624.20762012708292 0 -624.20762012708292 273.20788176260976 0 0 0 0 442.71449337543163 -631.81715344675195 0 -631.81715344675195 373.12982764795015 0 0 0 0 298.30886538371851 -464.47556660164264 0 -464.47556660164264 306.55355877713555 0 0 0 0 432.87166500528838 -545.58388400194235 0 -545.58388400194235 494.80070110745146 0 0 0 0 426.85528455176245 -574.3196876616239 0 -574.3196876616239 387.21330679860694 0 0 0 0 291.99038831875987 -449.49297599291094 0 -449.49297599291094 354.5003667253477 0 0 0 0 205.17831773172657 -324.27471281781618 0 -324.27471281781618 259.19737963904481 0 0 0 0 159.17297226009032 -468.00121613863666 0 -468.00121613863666 592.85061531218525 0 0 0 0 5.9031003232521471 -140.57870128694049 0 -140.57870128694049 445.20845638111496 0 0 0 0 -37.594636686888407 0.97364517940150108 0 0.97364517940150108 314.34836718736187 0 0 0 0 -128.63151562130952 -193.34557520529779 0 -193.34557520529779 908.96156798737502 0 0 0 0 289.38278379725671 -669.3743726493467 0 -669.3743726493467 1161.9085766274075 0 0 0 0 187.11103725567227 -385.7150086727197 0 -385.7150086727197 509.5625643826279 0 0 0 0 -19.665702229653107 -9.8095956307729466 0 -9.8095956307729466 1.9201998602438834 0 0 0 0 -0.20144683767773586 -6.1221717083252827 0 -6.1221717083252827 -0.17528878479167531 0 0 0 0 19.211244957641611 -156.83220419063036 0 -156.83220419063036 1377.6124370301186 0 0 0 0 -0.8101490652479697 -0.94810068425067584 0 -0.94810068425067584 318.08157626935281 0 0 0 0 -3.0925978070326892 0.93277687103139684 0 0.93277687103139684 3.7589692832741264 0 0 0 0 86.973886524705449 -39.62789753969264 0 -39.62789753969264 166.28548730193143 0 0 0 0 -21.687023462643992 -15.454513037153447 0 -15.454513037153447 2.9403439873603929 0 0 0 0 -16.388598780813481 -19.006244448180496 0 -19.006244448180496 -3.05075740468601 0 0 0 0 -18.865533216336217 -10.145337276624005 0 -10.145337276624005 6.7069020047998578 0 0 0 0 6.4007238181075081 40.763023206394791 0 40.763023206394791 123.74457300748509 0 0 0 0 22.13016011207219 -17.918170040520636 0 -17.918170040520636 171.87204856489552 0 0 0 0 -48.049865036133269 21.590803850132943 0 21.590803850132943 162.66388986076709 0 0 0 0 -71.529933337576949 -21.471678393483671 0 -21.471678393483671 47.563827415295236 0 0 0 0 -30.636960551448283 -24.278813634948165 0 -24.278813634948165 29.85226606687138 0 0 0 0 -24.806863747759053 -22.715429822030273 0 -22.715429822030273 15.361699770401174 0 0 0 0 -22.527070104450104 -20.514475282321655 0 -20.514475282321655 5.9579441281675827 0 0 0 0 -24.644587823946154 -11.701582431178238 0 -11.701582431178238 10.510602176990545 0 0 0 0 -5.1235396219565086 -26.643129019587164 0 -26.643129019587164 4.5340054021363301 0 0 0 0 -3.0152891660109162 -30.651844593907299 0 -30.651844593907299 -6.9213082124770153 0 0 0 0 -32.3025585870746 -32.466317953678299 0 -32.466317953678299 15.634136157168541 0 0 0 0 -54.935014895332927 -36.378315571624668 0 -36.378315571624668 39.678430895984157 0 0 0 0 409.56299588824913 -589.22606907433874 0 -589.22606907433874 250.18321220349753 0 0 0 0 253.35064663632511 -563.63038103968393 0 -563.63038103968393 478.26479870887852 0 0 0 0 268.20248433064262 -582.85762783897735 0 -582.85762783897735 458.9350952164823 0 0 0 0 298.44513244374684 -385.76151194933482 0 -385.76151194933482 16.147317262675642 0 0 0 0 346.01545189357421 -358.52252151234279 0 -358.52252151234279 31.398549619025289 0 0 0 0 41.949360742684803 -124.69451072696029 0 -124.69451072696029 -84.020752784115757 0 0 0 0 235.46294077804487 -142.13966869420619 0 -142.13966869420619 -153.46372168429298 0 0 0 0 228.79683339205803 -192.58066301272265 0 -192.58066301272265 11.001770264469087 0 0 0 0 249.24125927341902 -351.3131416947316 0 -351.3131416947316 133.53608532623184 0 0 0 0 290.36272912724235 -348.20971573406496 0 -348.20971573406496 126.06798109138617 0 0 0 0 254.63287124758244 -471.83897558928493 0 -471.83897558928493 376.08343762823642 0 0 0 0 182.67832321727656 -351.27383985887718 0 -351.27383985887718 271.43631667226873 0 0 0 0 270.72884499718202 -456.22042824221353 0 -456.22042824221353 421.14986308836524 0 0 0 0 310.82956638712494 -371.51742653420297 0 -371.51742653420297 234.75993012262916 0 0 0 0 399.1615619904187 -618.0091275657287 0 -618.0091275657287 439.11002143404221 0 0 0 0 304.07884891320282 -515.42934245702054 0 -515.42934245702054 391.30874386224605 0 0 0 0 374.4115802096785 -421.23183588884422 0 -421.23183588884422 257.19497030105413 0 0 0 0 506.48603089401149 -619.44906237888063 0 -619.44906237888063 344.68116718294914 0 0 0 0 526.42263417236973 -479.72758706896275 0 -479.72758706896275 374.18429034722431 0 0 0 0 401.8557292119367 -508.46259408595142 0 -508.46259408595142 525.01216870058124 0 0 0 0 324.85991263884353 -450.89414557433338 0 -450.89414557433338 971.28594144983072 0 0 0 0 749.53108114175848 -717.12577848571163 0 -717.12577848571163 584.01148102873412 0 0 0 0 723.7906315366854 -352.86442329226702 0 -352.86442329226702 600.06433383337571 0 0 0 0 266.63038280621549 -494.46980438195897 0 -494.46980438195897 481.39618183540006 0 0 0 0 311.51821864777594 -503.0103540745331 0 -503.0103540745331 358.96096287514592 0 0 0 0 269.64837870479096 -516.57833488384495 0 -516.57833488384495 640.51796600656235 0 0 0 0 416.02539128974695 -434.55787540097072 0 -434.55787540097072 420.28637027306104 0 0 0 0 317.76324831593956 -536.23501956206019 0 -536.23501956206019 614.52435618354502 0 0 0 0 237.02593801325565 -576.27494069992463 0 -576.27494069992463 628.45557398239907 0 0 0 0 160.23054334551853 -641.61686700964492 0 -641.61686700964492 677.90588385007868 0 0 0 0 238.4161223785195 -592.11428939140751 0 -592.11428939140751 618.78492713340529 0 0 0 0 201.47657229170727 -591.8699565922725 0 -591.8699565922725 713.46915997354517 0 0 0 0 242.1846051560351 -571.76351317361969 0 -571.76351317361969 710.21330421190942 0 0 0 0 297.79800323126256 -626.70944045110809 0 -626.70944045110809 701.72898440115387 0 0 0 0 281.6410320798459 -579.18744833815435 0 -579.18744833815435 712.96661293235957 0 0 0 0 -16.774292698324373 -12.884884490415203 0 -12.884884490415203 -3.2237884154980634 0 0 0 0 372.72087840815948 -172.20244541161082 0 -172.20244541161082 215.75645847150008 0 0 0 0 828.08055671896727 -500.3297773358936 0 -500.3297773358936 53.942160161990614 0 0 0 0 322.43389200604724 -755.55885548784863 0 -755.55885548784863 803.97260020667454 0 0 0 0 347.31570630360511 -602.37253815906297 0 -602.37253815906297 620.79658287188795 0 0 0 0 351.14208199488348 -616.47199642359919 0 -616.47199642359919 661.18017830369354 0 0 0 0 -95.15846944207442 -740.56034048807487 0 -740.56034048807487 833.48887633706909 0 0 0 0 334.85448930153507 -580.59068334016047 0 -580.59068334016047 663.41845221534413 0 0 0 0 -4.1819059661743267 -4.5495076550858471 0 -4.5495076550858471 -1.1326170868717327 0 0 0 0 334.19410260673612 -570.46540752787405 0 -570.46540752787405 631.40420480060129 0 0 0 0 -25.312191074888688 -32.951777463884355 0 -32.951777463884355 -15.930646020475251 0 0 0 0 -16.342569388961522 -12.037665300517546 0 -12.037665300517546 9.4333475913332165 0 0 0 0 372.49328002570473 -510.04543113446016 0 -510.04543113446016 575.73785345798751 0 0 0 0 -26.34424187022114 -24.581351825833735 0 -24.581351825833735 -0.34240850099013187 0 0 0 0 -24.558068817611669 -22.953127839390937 0 -22.953127839390937 -16.765981253508755 0 0 0 0 126.05749057317735 -535.22533127306087 0 -535.22533127306087 701.75713544127666 0 0 0 0 65.545604140061187 -626.15651760268247 0 -626.15651760268247 774.57640031690971 0 0 0 0 117.16735449865155 -751.04855721067361 0 -751.04855721067361 1072.2486651918443 0 0 0 0 282.60656307495083 -715.52114171735593 0 -715.52114171735593 523.64121470748978 0 0 0 0 189.0556894185429 -692.51465009958338 0 -692.51465009958338 766.23317417473299 0 0 0 0 787.87399007532076 -721.7169569198777 0 -721.7169569198777 195.00224602111302 0 0 0 0 303.65233313853241 -772.67026138436268 0 -772.67026138436268 678.76286178323789 0 0 0 0 260.39752226910787 -795.92033075113432 0 -795.92033075113432 686.49607142506284 0 0 0 0 -78.117324306729643 -122.40832986596797 0 -122.40832986596797 1858.6672792185855 0 0 0 0 581.46879903443187 -1368.9767441766307 0 -1368.9767441766307 1610.4638391379922 0 0 0 0 661.61025776692986 319.20454976674591 0 319.20454976674591 567.38367690736231 0 0 0 0 866.61129493806948 -1457.7566254644062 0 -1457.7566254644062 1396.6561531195657 0 0 0 0 466.18887174208976 -528.80145364739656 0 -528.80145364739656 -238.42544789814565 0 0 0 0 182.4729936570111 -232.49604338866629 0 -232.49604338866629 -67.401639040424925 0 0 0 0 1783.0846742809154 -779.25380913994377 0 -779.25380913994377 150.82060931330852 0 0 0 0 454.97850576752899 -180.02694725278798 0 -180.02694725278798 -29.042629902032786 0 0 0 0 308.20326505420235 -290.82083496837913 0 -290.82083496837913 -109.74466989620123 0 0 0 0 311.76622113437043 4.6258562675444637 0 4.6258562675444637 -429.92166402654402 0 0 0 0 -145.99322012948141 633.10026928329125 0 633.10026928329125 -407.1629928989496 0 0 0 0 -3.5332867061858906 -7.0701396361404321 0 -7.0701396361404321 -11.96893126156526 0 0 0 0 312.40749039621733 -345.28887947063777 0 -345.28887947063777 74.852443211702848 0 0 0 0 293.37761521113134 -135.66258134949749 0 -135.66258134949749 -137.97369381957105 0 0 0 0 116.59547937243042 -57.473112948204289 0 -57.473112948204289 156.42158418440431 0 0 0 0 -132.07729448948521 295.04376594060159 0 295.04376594060159 -316.06514190372945 0 0 0 0 -7.9961804766697071 -14.429031881729884 0 -14.429031881729884 -24.263282053061204 0 0 0 0 220.4165678796162 -323.72905665419512 0 -323.72905665419512 46.976497138784907 0 0 0 0 19.94363395163964 42.34255611163826 0 42.34255611163826 -292.74698671682563 0 0 0 0 39.539017955597046 -61.922258878189268 0 -61.922258878189268 -245.68507887023588 0 0 0 0 183.01241865538032 -123.31079922793288 0 -123.31079922793288 -216.08894691247406 0 0 0 0 60.034998282942979 52.82394433870104 0 52.82394433870104 -62.340769228063436 0 0 0 0 145.85835557306564 -60.604425147024813 0 -60.604425147024813 163.35992792721299 0 0 0 0 19.413866919778229 -187.91886863717264 0 -187.91886863717264 38.086659512112419 0 0 0 0 38.55378848331884 -80.047361396749466 0 -80.047361396749466 -99.994024227569753 0 0 0 0 137.54588788130059 -366.28179557390831 0 -366.28179557390831 166.28113539527234 0 0 0 0 84.968387782111677 -242.55771849542089 0 -242.55771849542089 -87.988255569107423 0 0 0 0 -3.7226393145064094 -1.8704492998791338 0 -1.8704492998791338 -0.8500851517895569 0 0 0 0 -610.55597073613171 527.55353330113212 0 527.55353330113212 -15.196146329442854 0 0 0 0 -508.58326401657905 813.20454982788488 0 813.20454982788488 -487.09105041468138 0 0 0 0 -478.25127405598323 -41.994713271400542 0 -41.994713271400542 343.06411990842389 0 0 0 0 -2.2724451024332666 -1.9249370043144154 0 -1.9249370043144154 -854.88329520820844 0 0 0 0 39.089752208346752 -23.167477318624748 0 -23.167477318624748 14.5493579082504 0 0 0 0 -375.22913733873429 22.541380446695257 0 22.541380446695257 -192.57065159835474 0 0 0 0 6.7954851595350192 -79.160668984644872 0 -79.160668984644872 -158.4630397710298 0 0 0 0 -1.8893421879984089 -13.949186534006003 0 -13.949186534006003 -339.24263076359512 0 0 0 0 -16.96775602013804 -73.904014801009907 0 -73.904014801009907 -46.021045178968052 0 0 0 0 -1.374554666562382 0.093226696483910132 0 0.093226696483910132 -12.763357257501298 0 0 0 0 16.25595863537697 -2.6548786248812064 0 -2.6548786248812064 -37.860574106040474 0 0 0 0 -26.27765692142566 -49.553667530986786 0 -49.553667530986786 96.430143695397419 0 0 0 0 61.806932869060262 -41.631440062159882 0 -41.631440062159882 17.969777405452831 0 0 0 0 143.12578809178376 -114.25247548740299 0 -114.25247548740299 -83.375597149250098 0 0 0 0 88.155924717379094 -102.73378368108388 0 -102.73378368108388 7.6049100166674179 0 0 0 0 71.703522358213377 -185.23169608126045 0 -185.23169608126045 36.235792120113274 0 0 0 0 -572.25207385532121 -1356.4658314331737 0 -1356.4658314331737 -1444.5426898370897 0 0 0 0 -512.92725723595504 -771.16022573914233 0 -771.16022573914233 -521.93796108351671 0 0 0 0 -153.81471465467621 -552.0958276310439 0 -552.0958276310439 -847.74366735217336 0 0 0 0 232.25205036983243 -19.406848132348387 0 -19.406848132348387 -115.14714643286425 0 0 0 0 -268.02330858459754 -666.86532101205012 0 -666.86532101205012 -363.74194990606338 0 0 0 0 -7.5818013359385077 -706.05505052802619 0 -706.05505052802619 -1095.9349806342798 0 0 0 0 -584.67191029761307 -952.78097185587831 0 -952.78097185587831 -911.73873603177708 0 0 0 0 -719.35850895574185 -204.68663347865049 0 -204.68663347865049 -577.51498361377162 0 0 0 0 -206.18124058630201 -469.44157383027414 0 -469.44157383027414 -452.45072026776324 0 0 0 0 -239.97342816278979 9.6905452327046078 0 9.6905452327046078 -321.07935198145969 0 0 0 0 -234.49051398449046 -27.296449087932388 0 -27.296449087932388 95.536964054568671 0 0 0 0 31.343835860071334 -51.309636465282537 0 -51.309636465282537 18.569226891034788 0 0 0 0 87.605760928483505 -147.62569544057988 0 -147.62569544057988 -244.00459345355921 0 0 0 0 520.52716651497758 57.39033840407501 0 57.39033840407501 -197.92055471868662 0 0 0 0 247.75697149313055 65.914153710546088 0 65.914153710546088 -205.00186766223123 0 0 0 0 146.20712917546916 -96.74276449874742 0 -96.74276449874742 -286.3952042038436 0 0 0 0 -37.369104646451888 89.238576949235721 0 89.238576949235721 45.933102881608647 0 0 0 0 401.10395798181708 216.83839058347803 0 216.83839058347803 -83.249727789749159 0 0 0 0 432.13285638517118 172.6673367927724 0 172.6673367927724 -100.19324273944221 0 0 0 0 437.13687366756494 97.474125555534556 0 97.474125555534556 28.886612786678597 0 0 0 0 682.43991700152401 -206.06603035549051 0 -206.06603035549051 403.07442317373352 0 0 0 0 -11.000276527898762 -9.1598174065511415 0 -9.1598174065511415 5.8438723630877547 0 0 0 0 64.825057071575429 -85.637756059899402 0 -85.637756059899402 -387.93674953782465 0 0 0 0 40.114948314425419 -28.320712021850341 0 -28.320712021850341 -476.0344380071092 0 0 0 0 -31.406054575694725 -35.334222033157857 0 -35.334222033157857 -470.13048344104027 0 0 0 0 -87.382296911790036 -82.583370358450338 0 -82.583370358450338 -498.8314747342738 0 0 0 0 -10.21724052796344 -119.69578952789379 0 -119.69578952789379 -574.95822442375356 0 0 0 0 128.03753669724392 152.29589477987975 0 152.29589477987975 172.5631629958898 0 0 0 0 205.83579702499264 -160.53092057485628 0 -160.53092057485628 113.69770239543141 0 0 0 0 510.62477223311816 -96.242061144622312 0 -96.242061144622312 -114.46061131061288 0 0 0 0 27.556322592587094 -176.05129352106906 0 -176.05129352106906 -193.68204532342497 0 0 0 0 -5.8584310016449308 -32.928224045346724 0 -32.928224045346724 48.278321820369456 0 0 0 0 97.431199729981017 13.0243566331701 0 13.0243566331701 6.2022485902634799 0 0 0 0 -27.205217519047437 111.24339256267558 0 111.24339256267558 -67.690380929532694 0 0 0 0 -41.427695318721817 -110.67963902888368 0 -110.67963902888368 -101.05864268127243 0 0 0 0 -3.0061369113391265 -159.27213323910109 0 -159.27213323910109 39.945696761461022 0 0 0 0 -13.566981890500756 -65.933647477493651 0 -65.933647477493651 0.46870777726871893 0 0 0 0 -7.8931978321488714 -118.67430582636371 0 -118.67430582636371 -101.56813147136563 0 0 0 0 -71.704690111539094 -144.22753048021696 0 -144.22753048021696 101.82672272127184 0 0 0 0 -66.895774810807779 -106.67303299404739 0 -106.67303299404739 70.355653023536433 0 0 0 0 -22.005275726027321 -67.264524236634315 0 -67.264524236634315 -25.706162825656065 0 0 0 0 12.640047103661345 -213.03200218686834 0 -213.03200218686834 20.545894348579168 0 0 0 0 -1.5224838995854952 -162.58735366541077 0 -162.58735366541077 -78.370093918558268 0 0 0 0 71.582758984906832 -182.8273372342228 0 -182.8273372342228 -215.89267736306647 0 0 0 0 -18.557619044135208 -113.10859830278787 0 -113.10859830278787 -120.90691304367647 0 0 0 0 47.77311399532482 -82.702287672858802 0 -82.702287672858802 -330.95356580218504 0 0 0 0 48.698772149975412 -124.33992371103523 0 -124.33992371103523 -364.03349159869686 0 0 0 0 -28.286551975397742 -47.701560639208765 0 -47.701560639208765 -208.84687421031049 0 0 0 0 0.41023661506187636 -158.14958242516514 0 -158.14958242516514 -125.40740186317998 0 0 0 0 53.194453424461244 9.0335143013617198 0 9.0335143013617198 -555.11609411000973 0 0 0 0 119.10874291803339 16.207220888307347 0 16.207220888307347 -780.62824826096403 0 0 0 0 36.647301137578324 -101.35778660676806 0 -101.35778660676806 -365.71237406890441 0 0 0 0 -18.400985594533267 150.99710721086376 0 150.99710721086376 -540.016647880449 0 0 0 0 50.292186476835923 -129.03787498412885 0 -129.03787498412885 -376.01879307594209 0 0 0 0 14.64860893401783 -35.926019096019445 0 -35.926019096019445 -480.78285370198864 0 0 0 0 64.696530045730469 -73.380199254759646 0 -73.380199254759646 -577.51541515774443 0 0 0 0 -118.9512313958403 91.547422569823539 0 91.547422569823539 -379.88637076016585 0 0 0 0 -16.626163881624962 -67.352835894278542 0 -67.352835894278542 -308.86469984514406 0 0 0 0 3.7412942775335978 -25.877759911632893 0 -25.877759911632893 -270.47589329684342 0 0 0 0 -16.549020916587324 -127.54202879789227 0 -127.54202879789227 -137.37317984492984 0 0 0 0 -47.64874470300856 -50.039218404881467 0 -50.039218404881467 -370.28591635910743 0 0 0 0 722.76735297923005 44.350187230529627 0 44.350187230529627 356.05783040272945 0 0 0 0 -536.55104759512324 -357.41094648892977 0 -357.41094648892977 1616.7222723552441 0 0 0 0 5.216300221303996 1.0727539601267431 0 1.0727539601267431 1.0889451728035215 0 0 0 0 -91.745996880059465 -299.64960649399018 0 -299.64960649399018 374.68639191932743 0 0 0 0 -41.585137040223344 -400.51256892814854 0 -400.51256892814854 302.03613933339875 0 0 0 0 27.358637769453708 -142.05263880088864 0 -142.05263880088864 -440.78259728732337 0 0 0 0 -54.306099743123923 -404.20462665751802 0 -404.20462665751802 -34.940886152726307 0 0 0 0 -23.611369903384315 -7.9146787620933594 0 -7.9146787620933594 -1.975526241207159 0 0 0 0 -197.44422184163341 50.996804416957275 0 50.996804416957275 -561.34219917787777 0 0 0 0 -132.44872763629246 28.538441107313702 0 28.538441107313702 395.01758972159223 0 0 0 0 6.7136088195141781 -44.99534750962772 0 -44.99534750962772 -3.0357501922399739 0 0 0 0 82.453497292852262 -21.749133981851628 0 -21.749133981851628 290.32069851648885 0 0 0 0 -108.10772016201372 58.154180494275352 0 58.154180494275352 271.81699464783014 0 0 0 0 72.746989482577192 139.75755342120101 0 139.75755342120101 75.216379379562568 0 0 0 0 226.76805717458046 7.7029994172880834 0 7.7029994172880834 184.40906980086584 0 0 0 0 -162.69728395302081 -147.55843411596061 0 -147.55843411596061 919.99176246427669 0 0 0 0 300.50285587149847 123.6563895479303 0 123.6563895479303 76.897224795611692 0 0 0 0 -53.021194145471966 -20.85475281086303 0 -20.85475281086303 9.3963494099563594 0 0 0 0 15.645067830189312 -57.469764079360573 0 -57.469764079360573 39.08294925603164 0 0 0 0 419.92779092049022 -495.9777150054224 0 -495.9777150054224 10.977843280172237 0 0 0 0 59.005363447198761 -137.21438175082767 0 -137.21438175082767 22.688554125540122 0 0 0 0 -91.901162268375629 -481.71654045423747 0 -481.71654045423747 717.59476918486325 0 0 0 0 74.137271267638425 -582.29900406327943 0 -582.29900406327943 743.82159651895108 0 0 0 0 -3.2366557900815849 -12.020625308692985 0 -12.020625308692985 -5.9472351204456686 0 0 0 0 -198.37923497469455 44.107790664405911 0 44.107790664405911 766.99055988192049 0 0 0 0 714.86033301970747 -258.42385886323427 0 -258.42385886323427 868.17236187617164 0 0 0 0 444.28235506040801 -1037.3963226486776 0 -1037.3963226486776 1592.5872848959953 0 0 0 0 -390.5203776374874 -313.17327865778043 0 -313.17327865778043 1043.6782411736567 0 0 0 0 732.31219885620521 -1253.220955578654 0 -1253.220955578654 1377.1942162687956 0 0 0 0 1712.3046716365207 -1538.7607107195363 0 -1538.7607107195363 1174.7192948333868 0 0 0 0 742.91308513149852 -1044.3075594650072 0 -1044.3075594650072 1018.4562319637771 0 0 0 0 1097.0562050177687 -463.73080411625779 0 -463.73080411625779 137.33830591715014 0 0 0 0 539.34593393937394 -643.07602079772187 0 -643.07602079772187 405.9486680041955 0 0 0 0 821.71272592552123 -599.49630623651683 0 -599.49630623651683 444.6387587247882 0 0 0 0 1975.3759611108835 -899.48475874157702 0 -899.48475874157702 457.69344276378979 0 0 0 0 1088.701018723892 -635.04629984422354 0 -635.04629984422354 400.15051007155125 0 0 0 0 236.29639815015253 -841.07057326699032 0 -841.07057326699032 1081.783056887376 0 0 0 0 1144.5207135105738 -944.61162191700805 0 -944.61162191700805 483.39479022353771 0 0 0 0 870.41652081445136 -854.08798071727051 0 -854.08798071727051 468.88088591095584 0 0 0 0 97.610182094409538 -677.87698367336998 0 -677.87698367336998 834.46095062291351 0 0 0 0 102.86981528403703 -677.75369783555107 0 -677.75369783555107 553.56848236994847 0 0 0 0 183.56788478654016 -570.18247055264328 0 -570.18247055264328 602.16541785986919 0 0 0 0 -3.3073562271674746 -573.34198209785609 0 -573.34198209785609 552.23250129396183 0 0 0 0 118.70274788168535 -384.82660995151082 0 -384.82660995151082 249.8661093133087 0 0 0 0 58.491045062706689 -533.19964254424804 0 -533.19964254424804 686.91649912489447 0 0 0 0 311.44628188144998 -572.05937896216892 0 -572.05937896216892 423.81275004306281 0 0 0 0 156.48783036084296 -147.36734468166867 0 -147.36734468166867 106.96868241336779 0 0 0 0 732.27063272643863 -187.05244788214623 0 -187.05244788214623 -56.25852697197115 0 0 0 0 245.9984745049951 -520.75839069246285 0 -520.75839069246285 318.26757013661245 0 0 0 0 46.755468957293488 -629.71908967113995 0 -629.71908967113995 289.14556617823382 0 0 0 0 142.34574640516621 -300.83403876334228 0 -300.83403876334228 -9.6558681671594968 0 0 0 0 133.42380262760344 -473.29066666323524 0 -473.29066666323524 -48.49362941963409 0 0 0 0 -94.833991826981219 -545.96444458745827 0 -545.96444458745827 478.02572578668332 0 0 0 0 -23.1889128939074 -614.93136348271764 0 -614.93136348271764 466.07273854611958 0 0 0 0 -4.7998372330403072 -620.38759261925952 0 -620.38759261925952 522.38866034392231 0 0 0 0 -21.737147958130663 -670.37004205208905 0 -670.37004205208905 788.55918191589808 0 0 0 0 -26.99734037455346 -643.39957459102698 0 -643.39957459102698 582.81836134694913 0 0 0 0 262.7519400059391 -781.45838913175066 0 -781.45838913175066 831.87229759792899 0 0 0 0 60.475562694082328 -493.96491716047149 0 -493.96491716047149 771.51724918266336 0 0 0 0 555.59201085250788 -333.20666289772225 0 -333.20666289772225 740.19376555984854 0 0 0 0 82.816924948230735 -339.91818113070985 0 -339.91818113070985 1703.9174637168364 0 0 0 0 508.39084553586144 -542.86656500854679 0 -542.86656500854679 665.87064946567625 0 0 0 0 297.09468063703389 -590.00888485029645 0 -590.00888485029645 264.43863607899766 0 0 0 0 98.372510501450961 -157.50004116086347 0 -157.50004116086347 544.821670565354 0 0 0 0 -93.543358231530874 -153.89140493071682 0 -153.89140493071682 -19.978826008169563 0 0 0 0 265.17319255765324 -184.24327485257345 0 -184.24327485257345 402.16466680701205 0 0 0 0 187.24381551948318 -230.95861028265062 0 -230.95861028265062 -114.23928334539869 0 0 0 0 288.31864148304157 -361.50208494061553 0 -361.50208494061553 52.559011731946157 0 0 0 0 313.77162551793936 7.5386119681614332 0 7.5386119681614332 0.42407477163942531 0 0 0 0 545.98108840767964 -262.32552464390938 0 -262.32552464390938 374.15844179186024 0 0 0 0 268.04325259411416 -282.21269859163112 0 -282.21269859163112 964.62229788073046 0 0 0 0 404.71919393708959 -190.96153147770565 0 -190.96153147770565 620.09208318049559 0 0 0 0 537.50137454184005 -103.77037546872089 0 -103.77037546872089 240.12833982827215 0 0 0 0 311.04168245584151 47.46995634841187 0 47.46995634841187 70.474806139942757 0 0 0 0 378.79312538104568 -144.51386469753743 0 -144.51386469753743 229.70268819537978 0 0 0 0 398.70129662076943 -100.94805873697078 0 -100.94805873697078 298.51542601822803 0 0 0 0 381.35759760691144 -212.66367842861109 0 -212.66367842861109 560.81806300325115 0 0 0 0 273.73517830636411 -8.9537744049866888 0 -8.9537744049866888 -14.727253455568643 0 0 0 0 463.12698388699209 9.5496991243053344 0 9.5496991243053344 -13.17366802710967 0 0 0 0 234.43081533316217 -248.76176094035145 0 -248.76176094035145 28.54652280846858 0 0 0 0 374.09219162164663 -109.53955247124577 0 -109.53955247124577 -232.2897952208441 0 0 0 0 88.888944880491181 -124.87217751556636 0 -124.87217751556636 -76.087040752836401 0 0 0 0 251.59183406433658 127.80775819232986 0 127.80775819232986 -248.98887281742645 0 0 0 0 194.00698639531038 -66.635237905486065 0 -66.635237905486065 -216.69235930212744 0 0 0 0 -31.943450076672889 -112.83962132241572 0 -112.83962132241572 112.30366317212247 0 0 0 0 52.751594424969014 -3.4538680389419198 0 -3.4538680389419198 -1.4989449711393661 0 0 0 0 193.31468214600682 75.482174204578769 0 75.482174204578769 -436.30890590803756 0 0 0 0 0.87817345706298511 97.137311347134982 0 97.137311347134982 -126.17574582435918 0 0 0 0 -42.25448117365886 -83.020699582781162 0 -83.020699582781162 -169.62116036717453 0 0 0 0 -240.7059867248081 -551.87680039133329 0 -551.87680039133329 1528.0013468578163 0 0 0 0 -38.983591632983007 147.17364025347888 0 147.17364025347888 -296.55098573803843 0 0 0 0 24.93418221263849 -3.1327609957272848 0 -3.1327609957272848 -1.3204775673347608 0 0 0 0 70.019123872451019 82.888976417349113 0 82.888976417349113 -519.70851135363046 0 0 0 0 -5.2173287063960458 -4.8728915119765901 0 -4.8728915119765901 -0.87147527610057018 0 0 0 0 188.59707338262524 -78.428661277044739 0 -78.428661277044739 1185.600910474026 0 0 0 0 328.30269646017405 -58.894147196419908 0 -58.894147196419908 -1496.3480089136301 0 0 0 0 -33.83142868426512 -426.68270242473955 0 -426.68270242473955 -77.679510681553438 0 0 0 0 167.52339097148069 -572.54526078230265 0 -572.54526078230265 -964.58372589045939 0 0 0 0 166.0532399327858 -120.66760177338892 0 -120.66760177338892 -678.51897268355242 0 0 0 0 27.379311027056247 -93.416542861263224 0 -93.416542861263224 -160.59893599422503 0 0 0 0 -91.886867703178723 -548.63467369920181 0 -548.63467369920181 -472.32012744018539 0 0 0 0 232.67749276613176 -414.57014367037846 0 -414.57014367037846 -217.50516952272301 0 0 0 0 283.43963570430788 -521.52725804403963 0 -521.52725804403963 -870.08247833744099 0 0 0 0 
</DataArray>
<DataArray type="Float64" Name="cross_section_updated" format="ascii">
0.010974014107521282 1 1 1 1 1 1 1 1 0.0097572916202622595 1 1 1 0.01030649137303725 1 1 1 1 1 1 1 1 1 1 1 1 1 1 1 0.0097577777565315132 1 1 0.012386775753512139 1 1 1 0.012533014477774525 1 1 1 0.011119927863603024 1 1 1 1 1 1 1 1 0.010102100147486833 1 1 1 1 1 1 0.0082450941543730887 1 1 1 1 1 1 1 1 1 0.012950026651810354 1 1 0.010071127586471051 1 1 1 0.0068919120401746969 1 0.010509282465738871 1 0.0086744625545978234 0.0055400713660048624 1 1 1 1 1 1 1 1 1 0.0088133545766308566 1 0.010923970045923227 1 1 0.010693460745468005 1 1 1 1 1 1 1 1 1 1 1 1 1 1 1 0.010028774402624578 1 1 1 1 0.006307084139888855 1 1 0.0099998107192902277 0.0077352155151900262 1 1 0.010001231168487671 1 1 1 0.0098484973701606551 0.0075673091368247611 0.010526837256602622 1 0.0072372686003094183 1 1 1 1 1 1 1 1 1 0.010111823013997528 0.0060691257519247827 1 1 1 1 1 1 0.0099975568246742849 1 1 1 1 1 0.0058136000590020588 0.011402479804028962 1 1 0.0070412556601258496 1 1 0.0073501396822548675 0.0093179755021144846 1 0.010287891097273441 0.010812167973077699 1 1 1 1 1 1 1 1 1 1 1 1 0.010752858458333341 1 1 0.0092450476328171383 1 1 1 1 1 1 1 1 1 1 1 1 1 1 1 1 1 1 1 1 0.010306265004354291 1 1 1 1 1 1 1 1 1 1 1 1 1 1 1 0.0058123778936530774 1 1 0.006382279067406741 1 1 1 1 0.0069894680335707629 0.0074054534847558875 1 1 1 1 1 1 1 1 1 1 1 1 1 1 1 0.0098105096493619343 1 1 1 0.0095792336604629772 1 1 1 1 1 1 1 1 0.0055691958436842881 0.010658873440131555 1 1 1 1 1 1 1 1 1 0.0085911896756857946 1 1 1 1 1 0.0094858266878100287 1 0.010031798059757777 1 1 1 1 1 0.010313822349402035 0.010091540429002387 1 1 1 0.007541180507203633 1 0.0097860249548292894 1 1 1 0.010912602993773175 1 0.0098020364508766208 1 1 0.010696932008413252 1 1 1 0.0088784929641052938 1 1 1 1 1 0.013623206984197524 0.012118245800247635 1 1 0.0064954191557116282 1 0.013191476171382343 0.0061684901661023372 1 1 0.0095461424559157067 1 0.0040829391726347197 1 1 1 1 0.010327834425300971 1 0.0063071574636098665 1 1 0.01280942146975063 0.012995944523871528 0.0067651435904833197 1 0.012391588136092641 1 0.0063273852595571653 0.012382571939264415 1 1 1 1 1 1 1 1 1 0.010038943444037059 1 1 1 1 1 1 1 1 1 1 1 1 1 1 1 1 1 1 1 1 1 1 1 1 0.0058936991857110668 1 0.0096478346442409983 1 1 1 1 1 0.0061209554278328915 1 0.011077575466419231 1 1 0.0044685185918431521 1 1 1 1 0.0092758867775381091 1 0.007157837984365303 1 1 1 1 1 1 1 1 1 1 1 1 1 0.0089206227583723471 1 1 0.011321384442602585 1 1 1 1 1 1 1 1 1 1 1 1 1 1 1 1 1 0.010339366647523097 1 1 1 1 1 1 1 1 1 1 0.0098045498253179382 1 1 1 0.010142869942390331 0.010902696216120392 1 1 1 1 1 1 1 1 1 1 1 1 1 1 1 1 1 1 1 1 1 1 1 0.012412717094050984 1 1 0.0095139362653780361 1 1 0.013503621774541626 1 0.0095255863086465501 1 1 1 0.010041411941893928 1 0.014206107284762473 0.010110229294258536 1 1 1 1 1 1 1 1 1 1 0.0098381647421441031 1 1 1 1 1 1 1 1 1 1 1 1 1 1 1 1 1 1 1 1 1 1 1 1 1 1 1 1 1 1 1 1 0.01010624888124324 1 1 1 1 0.0099381840542125503 1 1 1 1 1 1 1 0.0092865000232247169 1 1 1 1 1 1 1 1 1 0.0081804763506612491 1 0.0096108263876851351 0.010582774424255023 1 1 0.0055305439511896363 1 0.012521155310141186 1 1 1 1 1 1 1 1 0.010137710241710163 1 1 1 1 1 0.012439452104702075 1 1 1 1 1 1 0.011215656679383824 1 1 1 1 1 1 1 1 0.010733201766394779 1 0.012947743153479033 1 1 1 1 1 0.013038732224720944 1 0.010241028223840331 1 1 1 1 1 1 0.0099606047171679653 1 1 1 1 1 1 1 1 1 1 0.0097091594089750016 0.011919423424447809 1 1 1 1 0.012207746868444506 1 1 1 1 1 1 1 1 1 1 1 1 0.011127252029758701 1 1 0.01022665164165773 1 1 1 1 1 1 1 1 1 1 0.010230914047570639 0.010694513324781791 1 1 1 1 1 1 1 1 1 1 0.010310788720293959 1 0.010737275460474973 1 1 1 1 1 1 1 1 1 1 1 1 1 1 1 1 1 1 1 1 1 1 1 1 1 1 1 1 1 1 1 1 1 1 1 1 1 1 1 0.0097186661011338937 1 1 1 0.010507121032649325 1 0.0066097377757708461 1 0.0098539201216875927 1 1 0.010184468530199747 1 0.007995687163786222 1 0.0091327932370581198 1 1 0.0074348396978267464 1 1 1 1 1 1 1 1 0.0082896602931912117 1 1 0.012178145288316431 1 1 1 1 0.0076768213222817381 1 1 1 1 1 1 1 1 1 1 0.0079225391100872546 1 0.010531195556165333 1 0.0064594508333493394 1 0.0076115860496309383 1 0.011500315199185766 1 1 1 0.0099986054321727358 1 0.0067686517995597332 1 1 1 1 1 1 1 1 1 1 1 1 0.010452984454080322 1 1 0.010000051947658583 0.0078198999090524583 1 1 1 0.011480669604790147 1 1 0.0068178610843716413 1 1 0.0091259125463363476 1 1 1 0.0099884515145946505 1 1 1 1 1 0.0075818452076971566 1 1 0.0059676036910881261 0.005693060183068567 1 1 1 0.011559357684601469 0.0052342917662969307 0.0067746021887700094 1 1 0.0096182665581686626 1 1 0.0099506343215388839 1 1 1 1 1 1 0.0098921955679305944 1 1 0.010836880282535308 1 1 0.0057423240845896895 1 1 1 1 1 1 1 1 0.010502495118153099 1 1 1 1 1 0.0053121130180835748 0.011546857738591931 0.0075711060016274406 1 1 1 1 1 1 1 1 1 1 1 0.010240360612525161 1 1 1 1 0.010150160899828427 1 1 1 1 1 1 1 0.0063557787766144805 1 1 1 0.010461744200594279 1 0.0058078388837801472 1 0.0053890810302478498 1 0.010420368884756745 1 1 1 1 1 1 1 1 1 1 0.010174995482424077 1 1 1 1 1 1 1 1 0.0099844278942491666 1 1 0.0099543862732037591 1 1 1 1 0.0099778659926234095 1 1 1 1 1 1 0.0079351173468011956 1 0.009930340228282597 1 1 1 1 1 1 0.0069404998539731016 0.010244769389090708 1 1 1 1 0.010014302553369861 1 0.010088527578330238 1 1 1 0.0088859029284193911 1 1 1 1 1 1 1 0.010148367114261123 0.0097016317696857098 1 1 0.0091045186186688252 1 0.010168760570013168 0.010000024888796123 0.0096397253914795571 1 1 1 1 1 1 1 0.0084252020613179678 1 1 1 1 1 1 1 1 1 1 1 1 1 0.0079751795638547084 1 1 1 1 1 1 1 1 1 1 0.0094985728327866593 1 1 0.0088393166538746001 1 1 1 1 1 0.0088555686599313625 1 1 1 1 1 1 1 1 0.0068776390237897059 1 0.0053953981772350904 1 1 0.010199607683302102 1 1 0.0054347414229351408 1 1 1 1 0.0098500634775393597 1 1 1 1 1 0.0080029330331741338 1 1 1 1 1 1 1 1 1 0.005081092838025705 1 1 0.0099742742289978155 0.0072856451288379476 1 1 1 1 0.009742392015094763 1 0.0082407952803123709 1 1 0.010976941909475787 0.010580419115341277 1 0.0046530580577886851 1 0.011176464183001824 1 1 1 1 1 0.010274486818292095 1 1 1 0.018190231763180412 1 1 1 0.01693475666591281 1 1 1 1 1 1 1 1 1 1 0.010292147987855141 1 1 1 1 1 1 1 1 1 1 1 1 1 1 1 1 1 1 0.015389847085535358 1 1 0.013539032109160642 1 1 1 1 0.011276023249544772 1 1 1 1 1 1 1 1 1 1 1 1 1 1 1 1 1 1 1 1 1 1 1 1 1 1 1 1 1 1 1 1 1 1 1 1 1 1 1 1 1 1 1 1 1 1 1 1 1 1 1 1 1 1 1 1 1 1 0.0099574806222375179 1 1 1 1 1 1 1 1 1 1 1 1 1 1 1 1 1 1 1 0.0099522727111576847 1 1 1 1 0.0099947920889201652 1 1 1 1 1 1 1 1 1 1 1 1 1 1 1 1 1 1 0.009690237179786532 1 1 1 1 0.0098958116928101348 1 1 1 1 1 0.0094204965650463036 0.012476467529798417 1 1 1 1 1 1 1 1 1 1 1 1 1 1 1 1 1 1 0.011428264320060949 1 1 1 0.013898620891096794 1 0.0084758787079351333 1 1 1 1 1 1 1 1 1 0.008800034782011355 1 1 1 1 0.010211387731665623 0.010852098163423564 1 1 1 1 1 1 1 1 1 1 1 1 1 1 1 1 1 1 1 0.0099807259034783279 1 1 1 1 1 1 1 1 1 1 1 1 1 0.010536053666060512 1 1 1 1 1 1 1 1 1 1 1 1 1 1 1 1 1 1 1 1 1 1 0.0093674216401770493 1 1 1 1 1 1 1 0.0088672462134560745 1 1 1 0.0091196109039233374 1 1 1 1 1 1 1 1 1 1 1 1 1 1 1 1 1 1 1 1 1 1 1 1 0.010222181509744473 1 0.01035735067593291 1 1 1 1 0.010464767278334522 1 0.011390497157214444 1 1 1 1 1 1 1 0.010143690310300659 1 1 1 1 0.0095958312306664607 1 1 1 1 1 1 1 1 1 1 1 0.010141639232626204 1 1 1 1 1 1 0.010697527204204367 1 0.0041381591899235393 1 1 1 1 1 0.011276133323937218 1 1 0.0049187150881603529 1 1 0.0098983266861335135 1 1 1 1 1 1 1 1 1 1 1 1 1 1 1 1 1 1 1 1 1 1 1 1 1 1 1 0.0069341964555179082 1 1 1 0.0098928785363374024 1 0.0039726237244611549 1 1 0.010003530783312843 0.010257306048393682 1 1 1 0.010037807673653563 1 1 1 1 0.0099554383405301618 1 0.006599474758542688 1 1 0.011194715909995377 1 1 1 1 1 0.0085072979991573979 1 1 1 1 1 0.0098314444719909654 1 1 1 1 1 1 1 1 1 1 1 1 1 1 1 1 1 1 1 1 1 1 1 1 1 1 1 1 1 1 1 1 1 1 1 1 1 1 1 1 1 1 1 0.010663728453729211 0.0099746702487413311 1 1 1 1 1 1 1 1 1 1 1 1 1 1 1 1 1 1 1 1 1 1 1 1 1 1 1 1 0.011502398776904834 1 1 1 1 0.011244576647080597 1 1 1 1 0.0092831694751276846 1 1 1 1 1 1 1 0.0091972202897586015 1 0.00066152010428889227 1 1 1 1 1 0.0097659713804340541 1 1 1 1 1 1 1 1 1 1 0.010064380281241649 1 1 1 1 1 1 1 1 1 1 1 1 1 1 1 1 1 1 1 1 1 1 1 1 1 0.0013645859700329383 1 1 1 1 0.0097187732207712832 1 0.0008713349305676469 1 1 0.0082369426042723272 1 0.011682905030519303 1 1 1 1 1 1 0.011150876360006098 1 1 1 0.010455134956184154 1 1 1 1 1 1 1 1 1 1 1 1 1 1 1 1 1 0.0098333399447165289 1 0.0087729386240906204 1 1 1 1 1 0.0084989667030109239 1 0.0098240706217968057 1 1 1 1 1 1 1 1 0.0097833930683314928 1 1 1 1 1 1 1 1 1 1 1 1 1 1 1 1 1 1 1 1 1 1 1 0.0099260986667108527 1 0.0095057746854838292 1 1 1 1 1 1 1 1 1 1 1 1 0.0096986998137231287 1 1 1 1 1 1 1 1 1 1 1 1 1 1 1 1 1 1 1 1 1 1 1 1 1 1 1 0.0031824546648891536 1 1 1 0.0099879356723733444 1 0.011701335614725358 0.0016308863364527118 1 1 1 1 1 0.01016737309080926 1 1 1 1 1 1 1 1 1 1 1 1 1 1 1 1 1 1 1 1 1 1 1 1 0.0091206121520806867 1 1 0.012740276812721753 1 1 1 1 1 1 1 1 0.012810541035643722 0.014048179885592496 1 1 1 1 1 1 1 1 1 1 0.013990661875808559 1 1 0.0093732531733640451 0.01022635052041462 1 0.011852944194936299 1 1 1 1 1 0.0088912676071487284 1 0.0095636131433549289 0.011815993355600516 0.010006453251457095 1 1 1 1 1 1 0.012065533512319355 1 1 1 1 1 1 1 1 1 0.010245728675001833 1 0.0074504472511051408 1 1 0.010634336286606446 1 1 1 1 1 1 1 1 1 1 1 1 1 1 1 1 1 1 1 1 1 1 1 1 1 1 0.010823977364416424 0.0097840942544291879 1 1 1 1 1 1 1 1 1 1 1 1 1 1 1 1 1 1 1 1 1 1 1 1 1 1 1 1 1 1 1 1 1 1 1 1 1 1 1 1 1 1 1 1 1 1 1 1 1 1 1 1 1 1 1 1 0.01470095669423143 1 1 1 1 1 1 1 1 1 0.015337163998004819 0.010116816461026835 1 1 1 0.0098263034897801173 1 1 1 1 1 1 1 1 1 1 1 1 1 1 1 1 1 1 1 1 1 1 1 1 1 1 1 1 1 1 0.011428877230403766 1 1 1 1 1 1 1 0.015525533735917571 1 1 1 1 1 1 1 0.011357071878757605 1 1 0.011005634911201011 1 1 1 1 1 1 1 1 1 0.010102568019216024 1 1 0.0088218476456380698 2.0160435820759659e-13 1 1 1 0.017145097502645042 1 1 1 1 1 1 1 1 1 1 1 0.0070740570783975384 1 1 1 1 0.010023001751004214 1 0.016706014304712989 1 1 0.011740177909752649 1 1 0.010902716110496476 0.0098058074021592292 1 1 1 1 1 1 1 1 1 1 0.0087057186772557856 0.01183095207044437 1 1 1 1 1 1 0.010036594733592271 1 1 1 1 1 1 0.0083368468424044676 1 0.0065065241393583023 1 1 1 1 1 0.010000529599583131 0.0099914720473379438 1 1 1 1 1 1 1 1 1 1 1 1 1 1 1 1 1 1 1 0.0089001935783441285 0.0146901133363521 1 1 0.011821539177098 1 1 1 1 1 1 1 1 1 1 1 0.010983669168814766 1 1 1 1 1 1 1 1 1 1 1 1 1 1 1 1 1 1 1 1 1 1 1 1 1 1 1 1 0.0097393158447546535 1 1 1 1 0.0098433985174982922 0.013748494067767722 1 1 1 1 1 1 1 0.0092765527742794032 1 0.024789555773106674 1 1 1 1 1 1 1 1 1 1 1 1 1 1 1 1 1 1 1 1 0.011034130335485745 0.012469428282416662 1 0.011040114756747325 1 1 1 1 1 0.011547976994847971 1 1 1 1 1 1 1 1 1 1 1 1 1 1 1 1 1 0.011924062084962434 1 1 1 1 1 1 1 1 1 1 1 0.013443758693363795 1 1 1 1 1 1 1 1 1 1 0.0087862185055970765 1 1 1 1 1 1 1 1 1 0.0073928706010538275 1 1 1 1 0.013009339857831578 1 1 1 0.0067763189590088514 1 1 1 1 0.0055251142192343228 1 1 1 1 1 1 1 1 1 0.0046450990113884941 1 1 1 1 0.010109263014089799 1 1 1 1 1 1 1 1 0.009946484268322564 1 0.0088120726760600853 0.0098549335018514039 1 0.010530187541820467 0.0075555228548418469 1 1 1 0.011873987708568939 1 1 1 0.010095099535947302 1 0.010283438894158212 1 1 1 1 1 0.01059322757876395 1 1 1 0.0048280054759784561 1 1 1 1 1 1 0.015909541338066421 0.019311284131179367 1 1 1 1 1 1 1 1 1 1 1 0.0099786317940699556 1 0.013627465033806085 0.010987672873833211 1 1 1 1 1 0.0057032524570670082 0.0078438754468804633 1 1 0.011205177272840551 1 1 1 1 0.01103786980233116 1 1 1 1 1 0.011172727419631018 1 1 1 1 0.010653923946670916 0.016100920672559263 1 1 0.013342399602997275 1 0.012286182647868337 0.01031866042468303 1 1 1 1 1 1 1 1 1 1 1 1 1 1 1 1 1 1 1 1 1 0.0095745953526744539 1 1 0.015283722089231871 1 0.010413328723501036 1 1 1 0.015366086567570506 1 1 1 1 1 1 0.0094329253915701686 0.010873889391169555 1 1 1 1 1 1 0.010284341745675024 1 1 0.015527319964312161 1 1 1 1 1 1 0.010440716449025184 1 1 1 0.009240321155748429 1 1 1 1 1 1 0.0083260379943975518 1 1 1 1 1 1 1 1 1 1 1 1 1 0.0099070325949393041 1 0.010017259424674539 1 1 1 1 1 1 1 1 1 0.0099346143009386035 1 1 1 0.010961924714047954 1 1 1 1 1 1 1 1 1 1 0.010395086383527735 1 1 1 1 1 1 1 1 1 1 1 1 1 1 1 1 1 1 1 1 1 1 1 1 1 0.011155398628871962 1 1 1 0.015151465039889596 1 1 0.014948086512966346 1 1 1 1 1 0.011461696300187993 1 1 1 0.01071962639481706 1 1 1 1 1 1 1 0.010859654983006426 1 1 1 1 1 1 1 1 1 1 1 1 1 1 1 1 1 0.0099879644161296379 1 0.010437078483616786 1 1 1 1 1 1 1 1 1 0.0096394255400047493 1 0.011529182142341263 1 0.012035104543833065 1 0.013829554135744592 0.014777133820133704 1 1 1 1 0.0097104357460880298 1 1 1 1 0.0099640020146874956 1 1 1 1 1 0.0110783068611673 1 0.011980002735190259 1 1 0.012469872793126287 1 1 1 1 1 1 1 1 1 1 1 1 1 1 1 1 1 0.01068834350566232 1 1 1 1 1 1 0.010264848507611925 1 1 1 1 1 0.013320435001287398 1 1 1 1 1 1 1 0.012086355691818403 1 1 0.010710618796022656 1 1 1 1 1 1 0.015327788371551299 1 1 1 0.013314240648019745 1 1 1 1 1 1 1 1 1 1 1 1 1 1 1 1 1 0.012026913683534176 1 1 1 1 1 0.010938728147386383 0.0099580572868769365 1 1 1 1 1 0.010472737518165538 1 0.0057921070410120404 1 0.011554313417885032 1 0.0071806385237121791 0.007831250606232177 1 1 1 0.010124654232442735 0.0099949691339962579 1 1 1 1 1 1 1 1 1 1 1 1 1 1 1 1 1 1 1 1 1 1 1 1 1 1 1 1 1 1 1 1 1 1 1 1 1 1 0.0094650381143443797 1 1 1 1 1 1 1 0.010066163543274088 1 0.0056251686236261905 1 1 1 1 1 1 0.014079511672693841 1 1 1 0.010051309110665332 1 1 1 0.012022613541821763 0.019609160241664446 1 0.019536303232925663 1 1 1 1 1 1 0.006109716168238636 1 1 0.010341007500682221 1 1 1 1 1 1 1 1 1 1 1 1 0.010424020893358218 0.0099976467019450236 0.014293861001629488 1 1 1 0.010108732983464732 1 1 1 1 1 1 1 1 1 1 1 1 1 1 1 1 1 1 1 1 1 1 0.019205035841316484 1 1 1 1 0.019043839003957716 1 1 1 1 1 1 1 0.017880932836440381 1 1 1 1 1 0.010000573977418846 1 1 1 1 1 0.016648716952567158 1 1 1 1 1 1 1 1 1 0.0098637690166891098 1 1 1 1 0.010006991711158233 1 1 1 1 1 1 1 1 1 1 0.0095710838784091208 1 1 0.0098569139512347578 1 1 1 1 1 1 1 1 1 1 1 1 1 1 1 1 1 1 1 1 0.010206297290342083 1 1 1 1 0.010422340408932034 1 1 1 1 1 1 1 1 0.009788778672132542 1 1 1 1 1 0.0096556015405463175 1 1 0.0098668228684137653 1 1 1 1 1 1 1 1 1 1 1 1 0.0084642617621858533 1 1 1 1 1 1 1 1 1 1 1 1 1 1 1 1 1 1 1 1 1 1 1 1 1 1 1 1 0.010216362826503659 1 1 1 1 1 1 1 1 1 1 1 1 1 1 0.010594326541949481 1 1 1 1 1 1 1 1 1 1 1 1 1 1 1 1 1 1 1 0.01140926269652421 1 1 1 1 1 1 1 0.010815885543134389 1 1 1 1 1 1 1 1 1 1 1 1 1 1 1 1 1 1 1 1 1 1 1 1 0.010112820909602414 1 1 1 1 1 0.010284234047761426 1 1 1 1 1 1 1 1 1 1 0.0099900840358609303 1 1 0.0096360267515045329 1 0.010186956655641847 1 1 1 1 1 1 1 0.012990253506451095 1 0.011646313463364503 1 0.01031356506958649 1 1 1 1 1 1 1 1 1 1 1 1 1 1 1 1 1 1 1 1 1 1 1 1 1 1 1 1 1 1 1 1 1 1 1 1 0.010727767336326841 1 1 1 1 1 1 1 1 1 1 1 1 1 1 1 1 1 1 1 1 1 1 1 1 1 1 1 1 1 1 1 0.0098409234317683378 1 1 1 1 1 1 0.010102277928438839 0.0091851783300286871 1 1 1 1 1 1 1 1 1 1 1 1 1 0.010093487485154054 1 1 1 1 1 1 1 1 1 1 0.010271093364816096 0.012825640773102186 1 0.01166153604950807 1 1 1 0.0089816684713833039 1 0.010269469238892149 0.010976934282946505 1 -6.3787943069965047e-10 1 1 1 1 1 1 1 0.0016390064573825946 0.01185708219291075 1 1 1 1 0.010277521223541357 1 1 1 1 0.0017176243507669598 1 0.011497385376790001 1 0.000774941344402931 0.012997238003356639 1 0.0096960729084328134 1 1 1 1 1 0.010005119716753916 1 0.0023641099538372762 0.01103977026271491 0.013398249778105163 0.0093255851892428392 1 1 1 1 1 0.0098881435399271744 1 1 0.0041351902380167959 0.012766340570232543 1 1 1 0.0082097090896301565 1 1 0.010098133721618469 1 1 1 1 -3.5784279185657741e-12 1 1 0.010115612427247523 1 1 0.014009404324215064 1 1 1 1 1 1 1 1 1 1 1 1 1 1 0.011952967210968835 1 0.010734796761852829 1 1 1 1 1 0.011999253161014902 1 1 0.010495232895164981 1 1 1 1 1 0.0085766562318096741 1 1 1 1 1 1 1 1 1 1 0.0071793478105493646 1 1 1 1 1 1 1 1 1 1 1 0.01165400634399852 1 1 1 1 1 1 0.0025381414298763548 1 1 1 1 1 1 1 1 1 1 1 1 1 1 0.0047609157496393238 1 1 1 0.01051511378740334 1 1 1 1 1 1 1 0.006620907936182246 1 0.0087749858128129913 1 1 1 1 1 1 1 1 1 1 1 1 1 1 1 1 1 1 1 1 1 1 1 1 1 1 1 1 1 1 1 1 1 1 1 1 0.011079439495302159 1 0.010258972371724349 1 1 0.012489857351587049 1 0.0092133593625336602 1 1 1 1 1 1 0.0083419812205022502 1 1 0.010835780286552466 0.0092419798543189654 1 1 1 1 1 1 0.009714832767390106 1 1 1 1 1 1 1 0.01201015116320016 1 1 1 1 1 1 1 1 1 1 1 1 1 1 1 1 1 1 1 0.010603574118643461 1 1 1 0.0089787695084698575 1 0.0100097524605951 1 0.010057321536746648 1 1 1 1 0.0054729197680294592 1 1 1 1 1 1 0.0085681224540336692 1 1 1 1 1 1 0.0096744002351614525 1 1 0.0095638988004983494 1 1 1 1 1 1 0.0098883875574930068 1 1 1 1 1 1 1 1 1 0.009578435057512262 1 0.011217519761402527 1 1 1 1 1 0.0094695719779572876 0.01393120373565194 1 1 1 0.010726083666826723 0.0094569881055725988 1 1 1 1 1 1 0.010236243547379663 1 1 0.0099274403668858056 0.01058391961711341 1 1 0.0091167670873985029 1 1 0.010423119676495965 1 1 1 1 0.011056377249785466 1 1 1 1 1 1 0.010154473026400802 1 1 1 1 1 1 1 1 1 1 0.010480146000512437 1 1 1 0.010244412526398593 0.010007745205114764 1 1 1 1 1 1 1 1 1 0.010714672036742652 1 1 1 1 1 1 1 1 1 1 1 0.010216347804526901 0.012167426162784239 1 1 1 1 0.012869683383221017 1 1 1 1 0.010764427307652639 1 1 1 1 0.0098565998493889487 1 1 1 0.010254366074340888 1 1 1 1 0.010107023603654897 1 1 1 1 1 0.010041828103380276 1 1 1 1 0.010395186501198882 1 1 1 1 1 1 1 1 1 1 1 1 1 1 1 1 1 1 1 1 1 1 1 1 1 1 1 1 1 1 1 1 0.010602078559766095 1 1 1 1 0.011316750596508756 1 1 1 1 1 1 0.010445961861087833 1 1 1 0.010506918682654508 1 0.010759526930674335 1 1 1 1 1 1 1 1 1 1 1 1 1 1 1 1 1 1 1 1 1 1 1 0.0099387259750108852 1 0.0099827247081476674 1 1 1 0.0097969246986315817 1 1 1 1 1 1 1 1 1 1 1 1 1 0.0040080943937401293 1 1 0.0044053462917232403 1 1 0.015064249794538423 0.0055944979148301252 1 0.0050775551140833965 1 1 1 1 1 1 1 1 1 1 1 1 1 1 1 1 1 0.0072750813658238218 1 1 1 1 1 0.0071647239879065357 1 1 1 1 1 1 1 0.0079074449690486638 1 1 1 1 1 1 1 0.009981950697487571 1 1 1 1 1 1 1 1 1 1 1 1 1 1 1 0.010112355525070667 1 1 1 0.010087832840742932 1 1 1 1 1 1 1 1 1 1 1 0.0098623915117265239 1 1 1 1 1 1 0.011028174608459885 1 1 0.010053155388741103 1 0.010044624248370791 1 1 1 0.0096385540800250444 1 1 1 1 1 1 1 1 1 1 1 0.009894417527530279 1 1 1 1 1 0.010192923877673774 1 1 1 0.011348205793353982 1 1 1 0.013786384488540835 1 1 1 1 1 0.0030214278428428287 1 0.0019996198338476084 1 1 1 1 1 1 1 1 0.011594848585735194 1 0.009931164313328562 1 1 0.0063843441616800271 1 0.0013134610241907103 1 0.0099625067198718456 1 1 1 1 1 1 1 1 1 1 0.010110908683890085 1 0.002933441472003185 1 1 1 1 0.010455435732051254 1 1 1 0.0137992525007095 0.0094478821929414297 1 1 1 0.0080521602604495569 1 0.011832120930866448 0.007137794145338305 1 1 0.010463325911743334 0.0044921634737777327 1 0.0062554934445922441 0.0102483307962079 1 1 0.01017281914180381 0.0085345654396197443 1 1 0.0088083104308888591 1 1 0.010013061761341497 1 0.0099531039244791699 1 1 0.0091669788859463589 1 1 0.010602404598423078 1 0.010228878841214482 1 1 1 0.0087390713661205793 1 0.0099115891982033237 1 1 0.010289032063407925 0.0095837968274971388 1 1 1 0.0096342712884366407 0.0088558341114952643 1 0.010094444387918601 1 1 1 1 1 1 1 1 0.0098327744262932462 1 1 0.0071719429574469461 0.0089616807848784952 1 0.010567397701792571 1 0.0097222987301074301 0.0084667959560780701 1 1 1 0.0094931007580386986 1 1 0.010310290363302402 1 1 1 1 1 1 0.0099188713368735283 0.0086396261778149547 1 1 1 1 1 1 1 0.010319258236849316 0.010092532512401095 1 1 1 1 0.012911022634813023 1 1 1 0.0099733016753239395 1 1 0.0099738025562420077 1 1 1 1 1 0.010905638427682768 1 1 0.0091610880906991734 1 1 1 0.011166904858919796 0.010198649816948508 1 1 0.010019852860698949 1 1 1 0.011526402356771452 1 1 1 0.015439695528973335 0.011076838117029975 1 1 0.013791547816337197 1 1 1 1 0.010014143343692994 0.015674199597519541 1 1 0.0087607800779769904 0.0099534114440189558 1 0.0099697819262954557 0.0025335045513796214 1 1 1 1 1 1 0.0055023924767544675 1 1 1 1 1 1 1 1 1 1 0.01107231664672511 0.010067095448828353 1 1 1 1 1 1 1 0.010244133097554108 1 1 1 1 1 1 1 1 1 0.008473657167180796 1 1 0.0091185347326492375 1 1 0.0075672903318701797 1 1 1 1 1 1 1 1 1 1 1 1 1 1 1 1 1 1 0.0043977521237334484 0.006752626369645038 1 1 1 1 0.0082814490747450537 1 1 0.0066935595254972516 1 1 1 1 1 1 1 1 1 0.0054404462180764369 1 1 0.010027488571298853 1 1 1 1 1 1 1 1 1 1 1 0.01026055883422029 1 0.010724634373006907 1 1 1 1 1 1 1 1 1 1 0.01003409025972397 1 1 1 1 1 1 1 1 1 1 1 1 1 1 1 1 1 1 1 1 1 1 1 1 1 1 1 1 1 1 1 1 1 1 1 1 1 1 1 0.0067898213490948343 1 1 1 1 1 1 1 1 1 0.010353589036987205 1 1 0.014445235221387139 1 1 1 1 1 1 1 1 1 1 1 1 1 1 1 1 0.018327026094147381 1 0.0032463318298319287 1 1 0.010576501730575078 1 1 1 0.0098110925485743981 0.01636747173528438 1 0.011122255088686257 0.016933440069469868 1 0.0055855107011264019 1 1 0.0099683120194698372 1 1 0.010877990113986307 1 1 1 1 1 1 1 1 1 1 1 1 1 1 1 1 1 1 1 1 1 0.0097500587635218506 1 1 1 1 1 1 1 1 1 1 1 1 1 1 1 1 1 1 1 0.010354076527547915 1 1 1 1 1 0.0085821606601729807 1 1 1 1 1 1 1 1 1 1 1 1 1 1 1 1 1 1 1 1 1 1 1 1 0.0060354866351318755 1 1 1 1 1 1 0.010487655612066837 1 1 1 1 1 1 1 1 1 1 1 1 1 1 1 0.0088214449355478262 1 1 1 0.012304104984347851 0.0075511844825117413 1 1 1 0.01155967223523628 1 1 1 1 1 1 1 1 0.011349150999551118 1 1 1 1 0.010483278520723747 1 1 1 1 1 1 1 1 1 1 1 1 1 0.0089747662770342657 1 1 1 1 1 1 1 1 1 1 1 1 1 1 1 1 1 1 1 1 1 1 1 1 1 1 1 0.010346406806397467 1 1 1 1 1 1 1 1 1 1 1 1 1 1 1 0.0093121113106052009 0.010012507385421877 1 1 1 0.0098661843336415988 1 1 1 1 1 1 1 1 1 1 1 1 1 1 1 1 1 1 1 1 1 1 1 1 1 1 1 1 1 1 0.0096767493689627164 1 1 1 1 1 1 1 1 1 1 1 1 1 1 1 1 1 1 1 1 1 1 1 1 1 0.010240774248867162 1 1 1 1 1 1 1 0.010636386784495347 1 1 1 0.010984595184981469 1 1 0.0099509219162411556 1 1 1 1 1 1 1 1 0.010054007758797081 0.010785346627498887 1 1 1 1 1 0.011072814821076086 1 1 1 1 1 1 1 1 1 1 1 1 1 1 1 1 1 1 1 0.010762238931203223 1 0.011174595225823623 1 0.010673693816672412 1 1 1 0.0026701061222603219 1 0.0080181632268244828 1 1 1 1 1 1 1 1 1 1 1 1 -6.1100343534681301e-13 1 1 1 1 0.009991143121990155 1 1 0.0043961867445771715 1 0.0054572961691207655 1 1 0.012232320726076957 1 1 1 0.010712333981628384 1 1 1 1 1 1 1 1 1 0.0083634440594720048 1 1 1 1 0.0081918894444388338 1 1 1 1 0.0076610406841182473 1 1 1 1 1 1 0.010254014586320831 1 0.014533052534246652 1 0.0066898972850977963 1 1 1 0.0076927747453431772 1 1 1 1 1 1 0.026226446607614255 0.025310935312078141 1 1 1 1 1 0.0090402645845332162 1 1 1 1 1 1 1 1 1 1 1 1 1 1 1 1 1 1 1 0.013194504797191607 1 1 1 1 1 1 1 1 1 0.0016462193486048125 1 0.010031623537190443 1 0.010722435363357267 1 1 1 1 1 1 1 1 1 1 1 1 0.012649076968234198 1 1 -5.5351426567207263e-13 1 1 1 1 1 1 1 1 1 0.014586148032656563 1 0.0020197363522558298 1 1 1 1 1 1 0.011563923982641701 1 1 1 1 1 1 1 1 1 1 1 1 1 1 1 1 1 1 1 1 1 1 1 1 1 1 1 1 1 1 1 1 1 1 1 1 1 1 1 1 1 0.012820909637726547 1 1 0.0099890443583665282 1 0.010358355503973437 1 1 1 0.0055299570599157341 0.009996007593930361 1 1 0.0069412111129586226 1 1 1 1 1 1 1 1 1 1 1 1 0.0070315072076344862 1 1 1 1 1 1 1 1 1 1 1 1 0.0088764515054077266 1 1 1 1 1 1 1 1 1 1 1 1 1 1 1 0.0096334120368927537 1 1 1 1 1 0.009827840686188534 1 1 1 1 1 1 1 1 1 0.010526035277469991 1 1 1 1 0.010880111805017899 1 1 1 1 1 1 1 1 1 1 1 0.0059435411612104166 1 0.010076234052621869 1 0.0099542950458058627 1 1 1 0.013166398166095923 1 1 1 1 1 1 1 1 1 1 1 1 1 1 1 1 1 1 1 1 0.0099444874128176326 1 1 1 1 1 1 1 1 1 1 1 1 1 1 1 1 1 1 0.0099263802310363431 1 1 1 1 1 0.014421957649216423 1 1 1 1 1 1 1 1 0.011015977777658961 1 1 0.012877705953455986 1 1 1 1 1 1 1 0.010857301027488064 1 1 1 1 1 1 1 1 1 0.012217812874695594 1 1 1 1 1 1 1 1 1 1 1 1 1 1 1 1 1 1 1 1 1 1 1 1 0.010975844732216952 1 0.012619723565348569 1 1 0.0035767175321051812 1 1 1 1 1 1 1 1 0.01003774237972619 1 1 1 1 1 1 0.0084336356203386607 1 1 1 1 1 1 1 1 1 1 1 1 0.011777114822049607 1 1 1 1 1 1 1 1 1 1 1 1 1 1 0.010919813794561539 1 1 1 0.0077795683453913862 1 1 1 1 0.009226750391112341 1 1 1 1 1 1 1 1 1 1 1 1 1 1 1 1 1 1 1 1 1 1 1 1 1 1 0.012051428146982537 1 1 0.010421280053157154 1 1 1 1 1 1 1 1 1 0.010599407024981853 1 1 0.010174396823043242 1 1 0.01164417388934221 1 1 1 1 1 1 1 1 1 1 1 1 1 1 1 1 1 1 1 1 1 1 1 1 1 1 1 1 1 1 1 1 1 1 1 1 1 1 1 1 1 1 1 1 1 1 1 1 1 1 1 1 1 1 1 1 1 1 1 1 1 1 1 0.010682657651585324 1 1 1 1 1 1 0.014448900483411331 1 1 1 1 1 1 1 1 1 1 1 0.011862880515013691 0.011915347961052137 1 1 0.010365105697822997 1 0.015218721399343955 1 1 0.018976687659638749 1 1 0.016612300460665457 1 1 1 1 1 1 1 1 0.010951729785250589 1 1 1 1 1 1 1 1 1 0.0099778317511198134 1 1 1 1 0.010901822732183679 1 1 1 1 1 1 1 1 1 1 1 1 1 1 1 0.0093735760922615975 1 1 1 1 0.017859320835408095 1 0.0099668806147926725 1 1 1 0.0099476618520328384 1 1 0.0097175666579142859 1 1 1 1 1 1 1 1 1 1 1 0.01515938225589936 1 1 0.0066353753616298031 1 1 1 0.0035767189627680298 1 1 0.0096253855184022311 0.020425457804094341 1 1 0.015749865269548989 1 1 1 1 1 1 1 1 0.015043835407195831 1 1 1 1 0.012158567103318583 1 0.01983480080739879 1 0.012059202762919406 1 1 1 1 0.013766177018108384 1 1 1 0.0088194422415146731 1 1 1 1 1 1 1 1 1 1 1 1 1 1 1 1 1 1 0.011719763731952602 1 1 1 1 1 1 1 1 1 1 1 1 1 1 1 1 1 1 1 1 1 1 1 1 1 1 1 1 1 1 1 1 1 1 1 1 1 1 1 1 0.013229414832535561 1 1 1 1 1 0.014892187743284293 1 1 1 1 1 1 1 1 1 1 1 1 1 0.0094654034555745545 1 1 0.0088075633274762623 1 1 1 0.013483767447218529 1 0.014494787754633564 1 1 1 1 0.009591792562236124 1 1 1 1 1 1 1 1 1 0.015741701304243357 1 1 0.0098819661509721348 0.0075148136143006888 1 0.013257721765833326 1 1 1 1 1 1 1 1 1 1 1 1 1 1 1 1 1 1 1 1 1 1 1 0.0057589425314219771 1 1 1 0.0072064812451405691 1 1 1 1 1 1 1 0.0089757627785939584 1 1 1 1 1 1 1 1 1 1 1 1 1 1 1 1 1 1 1 1 1 1 1 0.010549986585400455 1 1 1 1 1 0.011399176305438569 1 0.013997070288836858 0.0061699312212836702 1 1 1 0.013576354018431857 1 1 0.011171251081610489 1 1 1 1 1 1 1 1 1 1 1 0.010005242452902406 1 1 1 0.0055403516674702473 1 0.0085657409483651543 1 1 1 1 1 0.013004477181206581 1 0.009770667084738097 1 0.0079868516832239493 1 1 1 1 1 1 1 1 0.02315101292796444 0.0095985143495566846 0.024466905124520776 1 1 0.010192068082362041 1 1 1 1 1 1 1 1 1 1 1 1 1 1 1 1 1 1 1 1 1 1 1 1 1 1 1 1 1 1 1 1 1 1 1 1 1 0.02467770662965758 1 1 1 1 1 1 1 0.022828667372105722 1 1 0.010009953710901525 1 1 1 1 1 1 1 1 1 1 1 1 1 1 1 1 1 1 1 1 1 1 1 0.023762150735637221 1 1 1 1 1 1 1 1 1 1 0.0048452523598278494 1 1 1 1 0.0014397100055295008 1 1 1 1 0.018531776152068843 1 0.01004224565567376 0.0079887875108448411 1 1 1 1 0.0073289568028449773 1 1 0.012095244175432939 1 1 0.0094638404243144285 0.024606395203127081 1 1 1 1 1 1 1 0.0089326223458255881 1 1 1 1 1 1 1 1 1 1 1 1 1 0.0097515142380689129 1 1 1 1 1 1 1 0.0084744077381084248 0.0092657933587431875 1 0.0039840693522641447 1 0.017623725457958969 1 1 1 0.011764046508623994 1 1 1 1 1 0.011150327707206267 1 1 0.01041444198598619 1 1 1 1 1 1 1 0.0083852180677803957 1 1 1 1 1 1 1 1 0.010185601142351688 1 1 1 0.0090360814059756763 1 1 1 1 1 0.0098034627808808433 0.007301533137649285 1 1 0.0094068170127768122 1 1 1 1 1 1 1 1 1 1 1 1 1 1 0.010293299377095919 1 1 0.0093118242566221591 1 0.010757658085624884 1 1 1 1 0.0094924286485925241 1 1 1 1 1 0.0067742576314880655 1 1 0.010090995752090905 0.006594264271252365 1 1 1 1 0.010716722012964575 1 1 1 1 1 1 1 1 0.0062353722673144044 1 0.0097070421921203499 1 1 1 1 1 1 1 1 0.0061998548174688386 1 1 1 1 0.010226007256705031 1 1 1 1 1 1 1 1 1 1 1 1 1 1 1 1 1 1 1 1 1 1 1 1 1 1 1 1 1 1 1 1 1 0.010391601507100523 1 1 1 1 1 1 1 0.011155304204924905 1 1 1 1 1 1 1 1 1 1 1 1 0.010332806133966803 1 1 1 1 0.011447030622985523 1 1 1 1 1 1 1 1 1 1 1 1 1 0.0099935894969779074 1 1 0.010590340956527569 1 1 1 1 0.010237173393950031 1 1 1 1 1 1 1 1 1 1 1 0.010205429045574043 1 0.010145517280724162 1 1 0.010070684007721896 1 1 1 1 0.012067439435588235 1 1 1 1 1 1 1 1 1 1 1 1 1 1 1 1 1 1 1 1 1 1 1 1 1 1 1 1 0.010561411260367217 1 1 1 1 0.0084489996217659031 1 1 1 1 1 1 1 1 1 0.010643533362403815 1 1 1 0.012041366537025242 1 1 1 1 1 1 0.0072679250639897091 1 0.012971306655679945 1 0.0091820342393438351 1 1 1 1 1 1 1 1 1 1 1 1 1 1 1 1 1 1 1 1 1 1 1 1 1 1 1 1 1 1 1 1 1 1 1 0.010155063057242847 1 0.011285881210042566 1 1 1 1 1 1 1 1 0.01031012720270794 1 1 1 1 1 1 1 1 1 1 1 1 0.0096512137707805094 1 1 1 1 1 1 1 1 1 1 1 1 1 0.0098836531676239296 1 1 0.0093777207334541559 1 1 1 1 0.01009891075787904 1 1 1 1 0.0091230139522193738 1 1 1 1 1 0.0077497242395018658 0.0099909306383256114 1 0.010488620510059556 1 1 0.0081454995146843564 1 1 1 1 0.010076507620453109 1 0.0099220247459457372 1 1 1 1 1 1 1 1 0.009857725685528871 1 1 1 1 0.0088901922285737518 1 1 1 1 1 1 1 1 1 1 1 1 1 1 1 1 1 1 1 1 1 1 0.0089588059604289727 1 1 1 1 1 1 1 1 1 1 1 1 1 1 1 1 1 1 1 1 1 0.0078489981890027209 1 1 1 1 1 1 1 0.0084264644685581626 1 0.0094887152832467958 1 1 1 1 1 1 1 1 1 1 1 1 1 1 1 1 1 1 1 1 1 1 1 1 1 1 0.012190469699783003 1 1 1 1 1 0.007248089159594703 1 0.0097448973514959285 1 1 1 1 0.0088676758798612986 0.011813934954011859 0.009479763185702695 1 0.013356741310409915 1 1 1 0.0085759242805425011 1 1 1 1 0.0099398020102059864 1 0.012436405960732928 1 1 1 1 0.0099766286754812052 1 1 1 0.0089592891437780924 0.0084901487854088763 0.010180442545040174 1 0.013385949421793369 1 0.012477332983228635 1 1 0.010034416483621505 1 1 1 1 1 1 1 1 1 1 0.010392315670126318 1 0.010654681615213742 1 0.010584223318815892 1 1 1 1 0.011774560877580696 1 1 1 1 0.0094351337544356928 1 1 1 1 1 1 1 1 1 1 0.019028013272086329 1 0.0099290373890875624 1 1 0.005452118343898596 1 1 0.022638580717603038 1 1 1 1 1 0.0071581301589262857 1 1 1 1 1 1 1 1 1 1 1 1 0.010780814178435245 1 1 1 0.0083848601236914625 1 1 1 1 1 0.0094104138236792596 1 1 1 1 1 1 1 1 1 1 1 1 1 1 1 1 1 1 1 1 1 0.0099997217660108984 1 1 1 1 0.017298450612536861 1 1 1 0.015228519541586199 1 0.0096739476392842891 1 1 0.0151220765943181 1 0.010109686065841074 1 1 1 1 1 1 0.010181728563231341 1 1 1 1 0.013467098408260582 1 0.017189919176798005 1 1 1 1 1 1 1 0.010079566874107177 1 1 1 1 1 1 1 0.022434805440671418 1 1 1 1 1 1 1 1 1 1 1 1 1 1 1 1 1 0.01030557413081221 1 1 1 0.0098404034549364628 1 1 1 1 1 1 1 1 1 1 1 1 1 1 0.0095050606956240472 1 1 1 1 1 1 1 1 1 1 1 1 1 1 1 1 1 1 1 1 1 1 1 1 1 1 1 0.0081702645583547062 1 0.0059579344791419863 1 1 1 0.010963016994208773 1 1 1 0.0074171241720874907 1 1 0.0099472677115102701 0.0032560168659428353 1 1 1 1 1 1 1 1 0.0046081939537088584 1 1 0.0038565902011688143 1 1 1 1 0.0096163939271194723 1 0.0098441070333027611 1 1 1 0.009758387416447115 1 1 1 1 1 1 1 1 1 1 0.0094791370193347026 1 1 0.010442176147454111 1 1 0.0099996035070916475 1 1 1 1 1 1 1 0.0133921999219065 1 1 0.010233130135747419 0.0096602272835707367 1 1 1 0.010012232388448561 1 1 1 1 1 1 0.0091824668295825765 1 1 1 1 0.016442013600237806 1 1 1 0.010635731735687212 1 1 1 1 0.010241809980985835 1 1 0.014293434558672274 1 1 1 1 1 1 1 1 1 1 1 0.0063903838422317248 1 1 1 1 0.0080816836496998279 1 0.0097989688147305035 1 0.0072321141305381666 1 0.0099747514497459458 1 1 1 1 1 1 1 1 1 1 1 0.0099858711473732355 0.0089016532906897542 1 1 1 1 1 1 0.009973425662520366 1 1 0.01513265042006069 1 1 1 1 1 1 0.0078686330496865534 1 1 1 0.0084723457964654622 1 0.015243611916673335 1 1 1 0.0090289745846385116 1 1 1 1 1 1 0.0093471582645863471 1 1 1 1 1 1 0.0095827614498174632 1 0.0099821119381682151 1 1 1 0.012862433033878892 1 1 1 1 0.0067968894796042179 1 1 1 1 1 1 1 0.010009035681052086 1 0.010462129246870788 1 0.0093402519567415878 1 1 1 0.01124234584647275 0.013034516200169034 1 1 0.010747260968336496 1 1 1 1 1 0.0091248888598718277 1 0.010810748326522311 0.012599703077780664 0.009645831490151616 0.010945497512957179 1 1 1 1 1 0.016688888281226208 0.014578217477704346 1 1 0.010042055787881383 1 1 1 0.0098008253421952209 1 1 1 1 1 1 1 1 1 0.011323632868034436 1 1 1 0.0099890703049867677 1 1 1 1 1 1 1 0.010112150870551267 1 0.01007082849287924 1 1 1 1 0.010791589753534161 1 0.0094580216167091582 1 1 1 1 0.0096554618122873491 1 1 1 1 1 1 1 1 1 0.0098802225322777958 1 1 1 1 1 1 1 1 1 1 1 1 1 1 1 1 1 1 1 1 1 0.01005107614692809 1 1 1 1 0.01001893842436396 1 1 1 1 1 0.0079387373993200054 1 0.0099980169675563495 1 1 1 1 1 1 1 1 1 1 1 0.0099935957691305102 1 0.0099707701392960143 1 0.0093136194780405277 0.010754960290743003 1 0.0099746566509831894 1 0.010634083895175285 1 1 1 0.0099386947689368826 1 1 1 0.01025642105877971 1 1 1 1 0.0096763962247260228 1 0.0097215291374058797 1 1 1 1 1 1 1 1 0.0099360545540527617 1 1 1 1 1 1 1 1 0.0099061694782615027 1 1 1 1 1 1 1 1 1 0.0099792695098177391 1 1 0.0097101467090974815 1 1 1 0.0098689702590833046 1 1 1 1 1 1 1 1 1 1 1 1 0.0099238395250456132 1 1 1 1 0.00772374641558146 1 1 1 1 1 1 0.0092108558819802931 1 1 1 1 0.0099936441730585322 1 0.010280195311207259 1 1 1 1 1 1 1 0.011032772077286652 1 1 1 0.0099593922860349501 0.009986255813651583 1 1 1 1 0.011731758785392919 1 0.0099974108417639467 1 1 0.0067810998325492713 1 1 1 1 1 1 1 1 1 1 1 1 1 1 1 1 1 1 1 1 1 1 1 1 1 1 1 1 1 1 1 1 1 1 1 0.0088771269504118819 1 1 1 0.005811281582860435 1 1 1 1 1 1 1 1 1 1 1 1 1 0.010053821935086792 1 0.011503722535182557 1 1 1 1 1 1 1 1 1 1 1 1 1 0.019319543719554445 1 1 0.019356784288259633 1 1 1 1 1 0.017189334200185688 1 1 1 1 1 1 1 1 1 1 1 1 1 1 1 1 1 1 1 0.015310415310632867 0.0047424009460661568 1 1 0.010288287814993555 1 1 0.010177913554927441 1 1 1 1 1 1 1 0.011675219539901513 1 1 1 1 0.01441120388596851 1 1 1 1 1 1 1 1 1 1 1 1 1 1 0.0085718878111470387 1 1 0.0087260578145073788 1 1 1 1 1 1 1 0.0090603375310894831 0.0090690769186342352 1 1 1 1 1 1 1 1 1 1 1 1 1 1 1 1 0.0096390131731589473 1 1 1 1 0.0096762447220127244 1 1 0.0076671618456327952 1 1 0.020213748313456202 1 1 1 1 1 1 1 1 1 1 1 1 0.019374446167856448 1 1 1 1 0.018961632438281667 1 1 1 1 1 1 1 1 1 0.011811934188715636 0.0059318014627066946 0.0098651284191123619 1 1 1 0.0067435876921862602 1 1 0.014205009441005299 0.011710711845651294 1 0.014076340141983258 1 1 1 0.0099824420603712403 1 1 1 1 1 1 1 1 1 1 1 1 1 1 1 1 1 1 1 1 1 1 1 1 1 1 1 1 1 1 1 1 1 1 1 1 1 1 1 1 1 1 1 1 1 1 1 1 0.010287905925480428 1 0.010622350807972102 1 1 1 1 1 1 1 1 1 0.010269599426496162 1 1 1 1 1 1 0.01079465613594471 1 1 1 1 1 0.010383871338299185 1 1 1 1 1 1 1 1 1 1 1 1 1 1 1 0.0082879709501391674 1 1 1 1 1 1 1 0.010031678704642484 1 1 1 1 1 0.010144858858691552 0.0096984790002129662 1 1 1 1 0.009431285946867294 1 1 1 1 1 1 1 1 1 1 1 1 1 1 1 1 1 1 1 1 1 0.010427591998925664 1 1 1 1 1 1 0.009049800618545871 1 1 1 0.011214580378174313 1 1 1 1 1 1 1 1 1 1 1 1 1 1 1 1 1 1 0.011849192624674144 1 0.0096310435255982027 1 1 1 1 1 0.0094866375192836916 0.010061380925634585 1 1 1 0.0096129468575074026 1 1 1 1 1 1 0.010237137061454519 1 1 1 1 1 0.0099538531878278005 1 0.007700979158621668 1 1 0.0082703829296094343 1 1 1 1 0.0085381948487395845 1 1 1 1 0.0076574075207035616 1 1 1 1 0.0099981212535927497 1 1 1 1 1 1 1 1 1 1 1 1 1 0.010813544485984646 1 1 1 1 1 1 1 1 1 1 1 1 1 1 1 1 0.0084743121044844882 1 1 1 1 0.0077555268842445582 1 1 1 1 0.0097429571175231058 1 1 1 1 1 1 1 1 1 1 0.009254106931668768 1 1 1 1 0.009680899167808385 1 1 1 1 1 1 1 1 1 1 1 1 1 1 1 0.0095616828824874808 1 1 1 0.0094133059267652169 1 1 1 1 1 1 1 1 1 1 1 1 1 1 0.01148323540603351 1 1 1 1 1 1 1 1 1 1 1 0.0099586546792317689 1 1 0.010009933472775338 1 1 1 1 1 1 0.013664961168313757 0.0096097845954488722 1 1 1 1 0.0097521399117594214 1 0.010200776089489431 1 1 1 0.013871061746503715 1 1 0.011481575489114177 1 1 1 1 1 1 1 1 1 1 1 1 1 1 1 1 0.012139138414977962 1 1 1 1 1 1 1 1 0.015343069496025076 0.010782194191959566 1 1 1 0.016404743796723464 0.01111314181229834 1 0.010704770774946292 1 0.010996303544496683 1 1 1 1 0.010448129654370905 1 1 1 1 1 1 1 1 1 1 1 1 1 0.010053382855654155 1 3.9261996431783075e-14 1 1 1 1 1 1 1 1 0.0092882216972582365 0.010002726488750384 1 1 0.0086774345757357086 0.013048647693240958 0.00039774595207230957 1 1 1 1 1 1 0.010002052454675059 1 1 0.0041239417216079096 1 1 0.010232789133479608 0.0081454071937957697 0.0094306415766894983 0.0091921303341419049 1 1 1 1 1 1 1 1 1 1 1 1 1 0.010432951590300922 1 1 0.011958339358269397 1 0.010044359317773406 1 1 1 1 1 1 1 0.010023029704084287 0.017039653595921828 1 1 0.016076370228114485 1 1 0.010000208933637837 1 1 1 1 0.0098668211329134507 0.0088972921712620803 0.010615584558356837 0.0084734982085339413 1 1 1 1 1 1 1 1 1 1 1 1 1 1 0.0072100041725965298 1 1 0.015704861048954268 1 1 1 1 0.010064551990059994 1 1 1 0.0082881850241175534 1 1 0.015098734763877027 1 1 0.0099951660996944695 1 1 0.0087115355646884794 0.013807346707688196 1 0.013492802381139314 1 1 1 1 1 1 0.010448607429131476 1 1 1 1 0.0088106754720724233 1 1 1 1 1 0.013581874066155915 1 1 0.010002259802479293 1 0.0084924120120635077 0.013639925281702247 1 1 1 0.0083345540574749008 1 1 1 1 1 0.0099318552987984754 1 1 1 0.0095600718155324366 1 1 1 0.0099512756045665608 1 1 1 1 1 1 1 0.0099506982787757221 1 1 1 1 1 0.010943080843069792 1 1 1 1 1 1 1 0.0095717737949872969 1 0.011758429813975244 0.008610521554423 1 1 0.010690592788755577 1 1 1 1 1 1 0.010566013740355571 1 1 1 1 1 1 0.014246072142095665 1 1 1 1 1 1 0.0093478634413965925 1 0.0035886457223953047 1 0.012846225018990173 1 1 0.0080885230582931206 1 1 1 1 0.016003346400191396 0.0098085861915234406 0.012857868739323167 0.0064118803977918689 1 1 1 1 1 1 1 1 0.015756546097396257 1 1 1 0.010003727202353522 1 0.011471644770164904 1 1 1 1 1 1 1 1 1 1 1 1 1 1 1 1 0.0080745711810000023 1 0.0026099260075884423 1 1 1 1 1 1 1 1 0.0099983100627275539 1 1 1 1 1 0.0081327031125864278 1 1 0.0044846023376139427 1 1 1 1 1 1 0.0090804195514533996 0.0035017714070234001 1 1 0.0015725988197184838 1 1 1 1 1 1 1 1 1 1 1 0.010479359480087803 0.012100362697200572 1 1 1 1 0.0099771390831328976 1 1 1 1 1 1 1 1 0.0018396234067074857 1 1 1 1 0.0088707004649672874 1 1 1 1 1 1 0.007233238327287313 1 0.003748827155369212 1 0.0097705314168384863 1 1 1 1 1 1 1 1 1 1 1 1 1 1 1 1 1 1 0.010332030462717212 1 1 1 1 1 1 1 1 1 1 1 1 1 1 1 1 1 0.0099870870335962564 0.010245554000220862 1 1 1 1 1 1 1 1 1 1 1 1 1 1 1 1 1 1 1 1 1 1 1 1 1 1 1 1 1 1 1 1 1 1 1 1 1 1 1 1 1 1 1 1 1 0.0098905854042474137 1 0.0096233923509017223 1 1 1 1 1 1 1 0.010005154229418587 1 1 1 0.010558090196802733 1 0.0054125714882476521 0.0099842689336888894 0.0092361516207926861 1 0.0052192904712710219 0.010571816799622734 1 1 0.010022991470522259 0.0075960852662861553 0.0040322220791625518 1 1 1 1 1 0.0093940803055996697 1 0.0084134413424800034 0.0081982671852392774 1 1 1 1 1 1 1 0.009316503103966112 1 1 0.0056556523774063099 1 1 0.0088748955115424411 0.011753676163064705 1 1 1 1 1 1 0.011998598277617038 1 1 0.0087335268604604305 0.01241925328182065 1 1 0.010012895889605968 1 1 1 0.010171556721873826 1 1 1 1 0.012249717213225351 1 1 1 0.0085661344703057349 1 1 0.011538942340092484 1 1 1 1 1 1 1 1 1 1 1 1 1 1 1 1 1 1 1 0.0093249667828316368 0.010172351166377689 1 1 1 0.0153847513300164 1 1 1 1 0.014257092621512313 1 1 1 1 1 0.010559608222930499 0.0097058365868623528 1 1 1 1 1 1 1 1 1 0.010515497266599633 1 1 1 1 1 1 1 1 1 1 1 1 1 1 1 1 1 1 1 1 1 1 1 1 1 1 1 0.0099996557739479575 1 0.010521780166623057 0.010345366065525274 1 1 1 1 1 1 1 1 1 1 1 1 1 1 1 1 1 1 1 1 1 1 1 1 1 1 1 0.0096722130645620907 1 1 0.010011445992619395 1 1 0.010952581551816134 1 1 0.011964864049884808 1 0.0099444555497313313 1 1 1 1 1 1 1 0.010650229370068933 1 1 1 1 1 1 1 1 1 1 1 1 0.0092488202601835046 1 0.010170324349928601 1 0.010000696904823324 1 1 1 1 1 0.010926776439147945 1 1 1 1 0.010003818113552684 1 1 0.010058957807901035 1 1 1 1 1 1 1 1 0.0099876837623508394 1 1 1 1 1 1 0.0095803881311297204 1 1 1 1 0.0098728555542458574 1 1 1 0.0099737186223559093 1 1 1 1 1 1 1 1 1 1 1 1 1 1 1 1 1 1 0.0099534646542971776 1 0.0099635148994929208 1 1 1 0.0099837626520676154 1 1 1 1 1 1 1 1 1 1 1 1 1 1 1 1 1 1 1 0.0054641912777484425 1 1 1 0.0099903032267846144 1 1 1 0.010003199116390579 1 1 1 1 1 1 1 1 1 1 1 1 1 1 1 0.011314537999574275 1 1 1 1 0.010122209429543665 1 1 0.0069461913470203959 1 1 1 1 1 1 0.0098369972571229255 1 0.0095303359105934349 1 0.0075479555485409647 0.011264888645905606 0.010012590926934824 1 1 1 0.010031513680492328 0.0088357525794133772 1 1 1 1 1 1 1 0.0095112409924494393 1 1 1 0.0065259470259405716 1 0.01089474518133508 1 1 1 1 1 1 1 1 1 0.008694399888405438 1 1 1 1 1 1 1 1 0.010338407346814432 1 1 1 1 0.010058328814221888 1 1 1 1 1 1 1 1 1 1 1 1 1 1 1 1 1 1 1 1 1 0.0099171642967502503 0.010490701067457009 1 1 1 1 1 1 1 1 0.0090810308153660459 1 1 1 1 1 1 1 1 1 1 0.0077032695363937146 1 1 1 1 1 1 0.013564261230320973 1 1 1 1 1 0.013755098937948703 1 0.010268834796063475 1 1 0.0093487130228989395 0.014298184777116356 1 1 1 1 1 1 1 1 1 1 1 1 1 1 1 1 1 1 1 1 1 1 1 1 1 1 1 1 1 1 1 1 1 1 1 1 1 1 1 1 1 1 1 1 1 1 1 1 0.0045471901812635983 0.010252552686102874 1 1 0.0048216611246869306 1 1 1 1 1 0.0019801842542605591 0.0099896457429275234 1 1 0.0099832717334554406 0.0070589508997297434 1 1 1 1 1 1 1 1 1 1 0.0069022446186678341 1 1 1 1 1 1 1 1 1 1 1 1 1 1 1 0.0079574228298476476 1 1 1 1 1 1 1 1 1 1 1 1 1 0.0042090026597218196 1 0.0077693116879828886 0.013645869236683615 0.012202282785098084 1 1 1 1 1 1 1 1 0.003765299011728486 0.0099928505749565487 1 1 1 1 0.010010580343763287 1 1 1 1 1 1 1 1 0.0075093555622490708 1 1 1 1 1 1 1 1 1 1 1 1 1 1 1 1 1 0.0051536830760237698 1 1 1 1 1 1 0.0094628755097695243 1 1 0.008035984525748557 1 1 1 1 1 1 1 1 1 1 1 1 1 1 1 1 1 1 0.010235064947940742 1 1 1 0.010086060306950397 1 1 0.010786773581988153 1 0.0043418893945482116 0.0096698286327487355 1 1 0.0062969345274865108 1 1 1 1.6165020710889877e-14 1 1 0.011992660618978693 1 0.012066447103215326 0.011504232658186472 1 1 1 1 0.012139252373623968 1 1 1 1 1 1 0.0062172673474266849 1 0.01183581176428971 1 1 1 0.0067318838383071348 1 1 1 1 0.010272643199814066 1 0.010584932158155575 0.010690196239196427 1 1 1 1 1 0.010028668208766984 1 0.011436798375860945 1 0.0070578977985429935 1 0.011056704117802338 0.0072116879245131965 1 1 1 1 1 1 1 0.0059273041773370873 1 0.0077955361946736336 1 1 0.01174298413347891 1 1 0.010931865514164998 1 1 1 1 1 1 1 1 1 1 1 1 1 1 1 1 1 1 1 1 1 1 1 1 1 1 1 1 1 1 1 0.011824631345297237 1 1 1 1 1 1 1 1 1 1 1 1 1 1 1 1 1 1 1 1 1 1 1 0.010123617502774641 1 1 1 1 1 0.0088122994646061513 0.011146515432853965 1 1 1 1 1 1 1 1 1 1 1 1 1 1 1 1 1 1 1 1 1 0.00076877235169530919 1 1 1 1 1 1 1 1 1 1 1 1 1 0.010929446364210097 1 0.0078361169862863015 1 1 1 0.0037255732001402041 1 1 1 1 1 1 1 1 0.0081201221134140234 1 0.013542435164045645 1 1 1 1 1 0.012269271108938044 1 1 1 1 1 1 1 1 1 1 1 0.012959459050052143 1 1 1 1 1 1 1 1 1 1 1 0.012307928633443814 1 1 1 1 1 1 1 1 0.010948283247584858 1 1 1 1 1 1 1 1 1 1 1 1 1 1 1 1 1 1 1 1 1 1 1 1 1 1 0.0085019355134055528 1 1 0.0063289498947617555 1 1 1 1 1 1 1 1 1 1 1 1 1 1 1 1 1 1 1 1 1 1 1 1 1 1 1 1 0.0046870233337059121 1 0.012483906632051211 1 0.0098076701146581052 1 1 1 1 1 0.012568621887571211 1 1 1 1 0.0099017061370512451 1 1 1 0.013012367212401472 1 1 1 1 1 1 1 1 1 1 1 1 1 1 1 1 1 1 0.011568860891479481 0.0048615785964899877 0.010068922293592755 1 1 1 1 1 1 1 1 1 1 1 1 1 0.0083314082586628153 1 1 1 1 1 1 1 1 1 1 1 1 0.010110409206920993 1 1 0.0064350311008589418 1 1 1 1 1 1 1 1 1 1 1 1 1 1 1 1 1 1 1 1 1 0.0078270143813562072 0.0084411617253907258 1 1 1 1 1 1 1 1 1 1 1 1 1 1 0.0092441120732936078 1 1 0.0079876227749445094 1 1 1 1 0.0095057938927105099 1 1 1 1 1 1 0.0097864852419316129 1 1 1 1 1 1 1 1 1 1 1 1 1 1 1 1 1 1 0.0078424626486706707 1 1 1 1 1 0.0071478052884516551 1 1 1 1 1 1 1 1 1 1 1 1 1 1 1 1 1 1 1 1 1 1 1 1 1 1 1 1 0.010793412057120283 1 0.010294536538654121 1 1 1 1 0.0097629480637627195 0.010072403376265048 1 1 1 1 1 1 1 1 1 1 1 1 1 1 1 1 1 1 1 1 1 1 1 1 1 1 1 1 1 1 1 1 1 1 1 0.010492129987047273 1 1 1 1 0.0090623670901279069 1 1 1 1 1 1 1 1 1 1 1 0.0095936931854119188 1 1 1 1 1 1 1 1 1 1 1 1 1 1 1 1 1 0.011551924421726435 0.0097098535503681582 1 0.00914009962084587 1 1 1 1 1 1 1 1 1 1 0.0090175822907220191 1 1 1 1 1 1 1 1 1 1 1 1 1 1 1 1 1 0.0096714257161298819 1 1 1 1 0.0085046573083354428 1 1 1 1 1 1 1 1 1 1 1 1 1 1 1 1 1 1 1 1 1 1 1 1 1 1 1 1 1 1 1 1 1 1 1 1 1 1 1 1 1 1 1 1 1 1 1 1 1 1 1 1 1 1 1 1 1 1 1 1 1 1 1 1 1 1 1 1 1 1 1 1 1 1 1 1 1 1 1 1 1 0.0097279547944974787 1 1 1 1 1 1 1 0.0098561898266077488 1 1 0.0096562244002998399 1 1 1 1 1 1 1 1 1 1 1 1 0.0092158850423855569 1 0.009487409073172224 1 0.0056511782930225574 1 1 1 1 1 1 1 1 0.0084269425922400241 1 1 1 1 1 1 1 1 1 0.0098000039315146968 1 1 1 1 1 1 1 1 1 1 1 1 1 1 1 1 1 1 1 1 1 0.012533243685793401 1 1 1 1 1 1 1 1 1 1 1 1 0.011475341042060225 1 1 1 1 1 0.010963681326212104 1 1 0.0081519845689083381 1 1 1 1 0.0070015659270595415 0.01004144369740867 1 1 0.0074353878840593135 1 1 1 1 1 1 1 0.016639489538901035 0.0090355105180473204 1 1 1 1 1 1 1 1 1 1 1 1 0.0091565065185876728 1 1 1 1 0.0083471599153501375 1 1 1 1 1 1 1 1 0.0091892358341925124 1 1 1 1 0.0091747651290328882 1 1 1 1 0.010575904952806765 1 1 1 1 1 1 1 0.010242445353371085 1 1 1 1 1 0.0094346750201978677 1 1 1 0.0085733527545616261 1 1 1 1 1 0.0079681849503299429 1 1 1 1 1 1 1 1 1 1 1 1 1 1 0.0078396461495883821 1 1 0.0079198167361617753 1 1 1 1 1 1 1 1 1 1 1 1 1 1 1 1 1 1 1 1 1 0.01007455319226344 1 1 0.0019704221542702453 1 1 0.0099994605211957688 1 1 1 1 1 1 1 1 1 1 1 1 1 1 1 1 1 1 1 1 1 1 1 1 1 1 1 1 1 1 0.011748914072824492 1 1 1 1 0.0099950830553489113 1 1 0.011459511421674137 1 0.0099886845361251801 1 1 1 1 0.012333300163045758 1 0.0029939025005703661 1 1 0.0084916118412035179 1 0.011730391950426609 1 0.0083582756085100324 0.011348612525880417 1 1 0.0057191784737654766 1 0.0036282663227619576 1 0.011580659829428607 1 1 0.0077090237254706772 1 1 1 1 1 1 0.0074537376959673968 1 0.0096619987308216616 1 1 0.0099428389393653085 0.0095410319213303334 1 1 0.010048785357826552 1 0.010447703317751928 1 1 0.0085831761348322232 1 1 0.011268801231650003 1 1 0.0071461214078043164 0.011781832897598658 0.011213845575527405 1 0.012332848661026623 1 1 1 1 1 1 1 1 0.010019703965703368 1 1 1 1 1 1 1 0.0097509781719850863 1 1 1 1 1 1 1 1 1 1 1 1 1 1 0.0091969285679815542 1 1 1 1 1 1 1 1 1 1 1 1 1 1 1 1 1 1 1 0.010706332959095564 1 1 1 1 1 1 1 1 1 1 1 1 1 1 1 1 1 1 1 1 1 1 1 1 1 1 1 1 1 1 1 0.0063717758552883658 1 1 1 0.0051199078485374382 1 0.014670460334792676 0.011830816558149264 1 0.00040008141045253659 1 1 1 0.0030652832416191884 1 1 1 1 0.0097259678869918119 0.0043080351882335277 0.010052555289791338 1 1 1 1 1 1 1 1 1 1 1 1 1 1 1 1 1 0.0030420390162278106 1 1 1 1 1 1 1 1 1 0.0082649020228976935 1 1 1 0.0081506705703532616 1 1 1 1 1 1 1 1 1 1 1 1 0.0059264414333081925 1 1 0.0077757708629549267 1 1 1 1 1 1 1 1 1 1 1 1 1 1 1 1 1 1 1 1 1 1 0.0072987985699760989 1 1 1 1 1 1 1 1 1 1 1 1 1 1 1 1 1 1 0.0078204044000001454 1 1 1 1 1 1 1 0.010525693079572261 1 1 1 1 0.011309538543472093 1 1 1 1 1 1 1 1 1 1 1 1 1 1 1 1 1 1 1 1 1 1 1 1 1 1 1 1 1 1 1 1 1 1 1 0.0087576218196446336 0.0096768248429831769 1 1 1 1 0.012221842057368114 1 0.013794510624868236 1 1 1 1 1 0.014728840278784995 1 1 1 1 1 1 1 1 0.011472725386956692 0.010002655024236128 1 1 1 1 0.010131624596009966 1 1 1 1 1 1 1 1 1 1 1 1 1 1 1 1 1 1 1 1 1 0.010383498951335928 1 1 1 1 1 1 0.0066676392375440204 1 1 0.0054101375718348613 1 1 1 1 1 1 1 1 1 0.010920432935772106 1 1 1 1 1 1 1 1 0.010591620432762176 1 1 1 1 1 1 1 1 1 1 1 1 1 1 1 1 1 0.010254075680218728 1 1 0.010898252457923941 1 1 1 1 1 1 1 1 1 1 1 1 1 1 1 1 1 1 1 1 1 1 1 1 1 1 1 1 1 0.011434490307833453 1 0.010650644843933608 1 1 1 1 1 1 1 1 1 1 1 1 1 1 1 1 1 1 1 1 1 1 0.0084394304649964766 1 1 1 0.0092626329160007299 1 1 1 1 1 1 1 1 1 1 1 1 0.0080119051561267605 1 1 1 0.0097856692988724479 0.0099986625536877139 1 1 0.0091251766117235369 1 1 1 1 1 1 1 1 1 0.0091758048610600575 1 1 1 1 1 1 1 1 1 1 1 1 1 0.0066553516026004907 1 0.010227547302598533 1 1 1 1 1 1 1 1 1 1 1 1 1 1 1 1 1 1 1 1 1 1 1 1 1 1 1 1 1 0.018015604530860773 1 1 1 1 1 1 0.013082921292232852 1 1 1 1 1 1 1 1 1 1 1 1 1 1 1 1 0.010168106076310204 1 0.0096804471640372022 1 1 1 1 1 1 1 0.010456941885990166 1 1 1 0.010972590974397416 1 1 1 1 0.0099302118804001742 1 1 1 1 1 1 0.0058116703401661467 1 1 1 1 0.0088855375681874404 1 0.0094501144385564211 1 1 1 1 1 1 1 1 0.0003907711685715862 0.0099873500535255875 1 1 1 0.012070579503745599 0.0064704303624974844 1 1 1 1 1 1 1 0.0096833124199267751 0.0069318294649355298 1 0.012002770716848032 0.0099459051894481201 1 1 1 1 0.0092407797732213005 1 0.009496806556939472 1 1 1 1 1 1 0.0095044298008066814 1 1 1 1 0.0093547469542811235 1 1 1 1 0.0081237053349283491 1 1 1 1 1 0.013180534496153059 1 1 0.00987712220735628 1 1 1 1 0.0099334587601662017 1 1 1 1 1 1 1 1 1 0.0099119550105223435 0.015374883672046728 1 1 1 1 1 1 1 1 1 1 1 1 1 0.022348013829496596 1 0.023362205673485612 1 1 1 1 1 1 1 1 1 1 1 1 1 1 1 1 1 1 1 1 1 0.020829879143392668 1 1 1 1 1 1 1 1 1 1 1 1 1 1 1 1 1 1 1 1 1 1 1 1 1 1 0.010417433517157113 1 1 1 1 1 1 1 1 0.0088037201575397826 1 0.011204523606507928 1 1 1 1 1 1 0.010094022835692006 1 1 1 1 1 1 1 1 1 1 1 1 1 1 1 1 1 1 1 1 1 1 1 1 1 1 -3.3908639784918648e-14 1 1 1 1 1 1 1 1 0.0082695529550119301 1 1 0.010374971739465071 1 1 0.0099950230530273139 1 1 1 1 1 0.0085473627027913696 1 1 1 1 1 1 1 1 1 0.0100305449143004 1 1 1 1 1 1 1 1 1 1 1 1 1 1 1 0.010436727877881405 1 1 1 1 1 1 1 1 0.011408862806032661 1 1 1 1 1 1 1 1 1 1 1 1 1 1 1 1 1 1 0.010600600988719601 1 0.0092546144990476864 1 0.011829871401717876 1 1 0.010574563119710771 0.0068677118933378372 1 1 1 1 1 1 1 1 1 1 1 1 1 1 0.0089189556981102546 1 1 1 1 1 1 0.010365034908539029 1 1 1 0.010128032982225725 1 1 1 1 1 1 1 1 1 1 1 1 -2.6344811748790775e-14 1 1 1 1 0.0038334628161947101 0.0058177228662414015 0.0080178289112401852 1 1 1 1 1 1 1 0.0097745807304187356 1 1 0.011319464120605522 1 0.0099457210182998471 1 0.0093389769847751335 1 1 1 1 1 0.010521749590332346 1 1 1 1 1 1 1 1 1 1 1 1 1 1 1 1 1 1 1 1 0.0062227966090701286 1 1 1 0.0093183087494180389 1 0.010968554529928712 0.0062199338457961375 0.0090183836773650577 1 1 1 1 1 0.0096861616447990965 1 1 1 1 1 1 1 1 1 1 1 1 1 1 1 1 1 1 1 1 1 1 1 1 1 1 0.0053648837220043356 1 1 0.0059600254237095083 1 1 1 1 1 1 1 1 0.0079162624432484278 1 0.010077488970509254 1 1 1 1 1 1 1 1 0.0083520413668816944 1 1 1 1 0.0067111843447124489 1 1 0.010003262929764296 1 1 0.019468419916160704 1 1 1 0.0084728435462293923 1 1 1 1 1 1 1 1 1 1 1 1 1 1 1 1 1 1 1 1 0.010026702277103743 1 1 1 1 1 1 0.010245713839287466 1 1 1 1 1 0.0089209099264939938 1 1 1 1 1 0.0082280036652045696 1 0.0094991895840485369 0.01057259273081273 1 1 1 1 1 1 1 1 1 1 1 1 0.010054986490587749 1 1 1 1 0.0091641871384507377 1 0.0098169095180865029 0.0099825220636230293 1 1 1 0.008755262753804862 1 1 1 1 1 1 1 1 1 1 1 1 1 1 1 1 1 1 1 1 1 1 0.0051056071828111888 1 0.017499109680955419 1 1 0.0099290323948588322 1 1 0.0090879199082117904 1 1 0.014872035283778829 1 1 1 0.016758216601058293 0.0099182215894957747 1 1 1 1 1 1 1 0.010144228086108561 1 1 1 1 1 1 1 1 0.012012849391560032 1 1 1 1 1 1 1 0.015418441734695741 1 1 1 0.012557883136792687 1 0.010692747151905118 0.00968713363585204 1 1 1 0.0098907388609278789 1 1 1 1 1 1 1 1 1 1 1 1 1 1 1 1 1 1 1 1 1 1 0.010351125915667786 1 1 0.0099824089178311825 1 1 1 0.0089897757930915423 1 1 1 1 1 1 1 0.0086041789565116013 0.0098663343928136974 1 1 0.0093117826687278797 1 1 1 1 1 1 1 1 1 1 1 1 1 1 1 1 1 1 1 1 1 1 1 1 1 1 1 1 1 1 1 1 1 1 1 0.0075483587128065497 1 1 1 1 1 1 1 0.010030229178535651 1 1 0.0099503629698489641 1 1 0.0056732623986350556 1 1 1 1 1 1 1 1 1 1 1 1 1 1 1 1 1 1 1 0.0084789568067214285 1 1 1 1 0.0068694795491868778 1 1 1 1 1 1 1 1 1 1 0.0095997509167228372 1 1 1 1 0.015294131396951809 1 1 1 1 0.0087861378662237033 0.0066564430635523367 1 0.018675782936696375 1 1 1 1 1 1 1 1 1 1 1 1 1 1 0.014344179431876379 1 1 1 1 1 1 1 1 1 0.010056478471863931 1 1 1 1 1 1 1 1 1 1 1 1 1 1 1 1 1 1 1 1 1 1 1 1 1 1 1 1 1 1 1 1 1 1 1 1 1 1 1 1 1 0.010546619140521117 1 1 1 1 0.007526905726750785 1 1 0.0099506544197282901 1 1 1 1 1 1 0.0044063104490850505 0.016472582264138114 1 1 1 1 0.0099863248189002198 1 1 1 1 1 1 1 1 1 1 1 1 1 1 1 1 1 1 1 1 1 1 1 1 1 1 1 1 1 1 1 1 1 1 1 1 1 1 1 1 1 1 1 1 1 1 1 1 1 1 1 1 1 1 1 1 1 1 1 1 1 0.014958069207157873 1 1 1 1 1 0.012286224831164663 1 0.0094036434070369577 1 1 1 1 1 1 1 1 1 
</DataArray>
</CellData>
</Piece>
</UnstructuredGrid>
</VTKFile>
